# sigma_xx, sigma_yy, sigma_xy, epsilon_xx, epsilon_yy, epsilon_xy, vonMises, epsPlastic, hardening, epsilonP__xx, epsilonP__yy, epsilonP__xy, yieldValue, iteration
   0.00000,   0.00000,   0.00000,   0.00000,   0.00000,   0.00000,1181185.37500,   0.00000,274640576.00000,   0.00000,   0.00000,   0.00000,-473459392.00000,   0.00000
   0.00000,   0.00000,   0.00000,   0.00000,   0.00000,   0.00000,1181185.37500,   0.00000,274640576.00000,   0.00000,   0.00000,   0.00000,-473459392.00000,   0.00000
-633847.45405,1771522.37156,-595924.95680,  -0.00001,   0.00001,  -0.00001,3206254.75000,   0.00000,274640576.00000,   0.00000,   0.00000,   0.00000,-471434336.00000,   0.00000
-1256859.90888,3532209.74391,-1191849.91359,  -0.00001,   0.00002,  -0.00002,5761289.50000,   0.00000,274640576.00000,   0.00000,   0.00000,   0.00000,-468879296.00000,   0.00000
-1850076.11587,5290188.36646,-1787774.87039,  -0.00002,   0.00003,  -0.00002,8178584.00000,   0.00000,274640576.00000,   0.00000,   0.00000,   0.00000,-466461984.00000,   0.00000
-2443292.32286,7048166.98901,-2378282.32757,  -0.00002,   0.00004,  -0.00003,10516413.00000,   0.00000,274640576.00000,   0.00000,   0.00000,   0.00000,-464124160.00000,   0.00000
-3006712.28201,8803436.86175,-2974207.28437,  -0.00003,   0.00005,  -0.00004,12831722.00000,   0.00000,274640576.00000,   0.00000,   0.00000,   0.00000,-461808848.00000,   0.00000
-3578258.49058,10539745.48587,-3559297.24195,  -0.00004,   0.00005,  -0.00005,15140243.00000,   0.00000,274640576.00000,   0.00000,   0.00000,   0.00000,-459500336.00000,   0.00000
-4120008.45130,12273345.36018,-4149804.69914,  -0.00004,   0.00006,  -0.00005,17440948.00000,   0.00000,274640576.00000,   0.00000,   0.00000,   0.00000,-457199632.00000,   0.00000
-4642797.16340,14015071.48391,-4734894.65672,  -0.00005,   0.00007,  -0.00006,19732476.00000,   0.00000,274640576.00000,   0.00000,   0.00000,   0.00000,-454908096.00000,   0.00000
-5154750.87628,15745962.60842,-5314567.11469,  -0.00005,   0.00008,  -0.00007,21997088.00000,   0.00000,274640576.00000,   0.00000,   0.00000,   0.00000,-452643488.00000,   0.00000
-5655869.58995,17466018.73371,-5899657.07227,  -0.00006,   0.00009,  -0.00008,24241344.00000,   0.00000,274640576.00000,   0.00000,   0.00000,   0.00000,-450399232.00000,   0.00000
-6127192.05578,19183366.10921,-6479329.53025,  -0.00007,   0.00010,  -0.00008,26453166.00000,   0.00000,274640576.00000,   0.00000,   0.00000,   0.00000,-448187408.00000,   0.00000
-6598514.52161,20900713.48470,-7059001.98822,  -0.00007,   0.00011,  -0.00009,28660346.00000,   0.00000,274640576.00000,   0.00000,   0.00000,   0.00000,-445980224.00000,   0.00000
-7040040.73960,22615352.11039,-7633256.94659,  -0.00008,   0.00012,  -0.00010,30841838.00000,   0.00000,274640576.00000,   0.00000,   0.00000,   0.00000,-443798736.00000,   0.00000
-7489693.20700,24311029.48745,-8207511.90496,  -0.00008,   0.00013,  -0.00011,33014404.00000,   0.00000,274640576.00000,   0.00000,   0.00000,   0.00000,-441626176.00000,   0.00000
-7909549.42656,26003998.11471,-8781766.86332,  -0.00009,   0.00013,  -0.00011,35171196.00000,   0.00000,274640576.00000,   0.00000,   0.00000,   0.00000,-439469376.00000,   0.00000
-8310444.39749,27705092.99138,-9350604.32208,  -0.00009,   0.00014,  -0.00012,37325400.00000,   0.00000,274640576.00000,   0.00000,   0.00000,   0.00000,-437315168.00000,   0.00000
-8700504.36921,29395352.86884,-9919441.78084,  -0.00010,   0.00015,  -0.00013,39469516.00000,   0.00000,274640576.00000,   0.00000,   0.00000,   0.00000,-435171056.00000,   0.00000
-9071603.09231,31093738.99570,-10488279.23960,  -0.00010,   0.00016,  -0.00014,41614644.00000,   0.00000,274640576.00000,   0.00000,   0.00000,   0.00000,-433025936.00000,   0.00000
-9439993.06560,32762328.87473,-11057116.69836,  -0.00011,   0.00017,  -0.00014,43735748.00000,   0.00000,274640576.00000,   0.00000,   0.00000,   0.00000,-430904832.00000,   0.00000
-9789421.79027,34439045.00317,-11620536.65751,  -0.00011,   0.00018,  -0.00015,45850776.00000,   0.00000,274640576.00000,   0.00000,   0.00000,   0.00000,-428789792.00000,   0.00000
-10109054.26709,36113052.38180,-12183956.61666,  -0.00012,   0.00018,  -0.00016,47945976.00000,   0.00000,274640576.00000,   0.00000,   0.00000,   0.00000,-426694592.00000,   0.00000
-10428686.74392,37787059.76044,-12741959.07621,  -0.00012,   0.00019,  -0.00017,50036552.00000,   0.00000,274640576.00000,   0.00000,   0.00000,   0.00000,-424604032.00000,   0.00000
-10726649.22232,39439397.14064,-13299961.53575,  -0.00013,   0.00020,  -0.00017,52093164.00000,   0.00000,274640576.00000,   0.00000,   0.00000,   0.00000,-422547408.00000,   0.00000
-11024611.70072,41091734.52085,-13857963.99530,  -0.00013,   0.00021,  -0.00018,54147220.00000,   0.00000,274640576.00000,   0.00000,   0.00000,   0.00000,-420493360.00000,   0.00000
-11292777.93127,42741363.15125,-14415966.45484,  -0.00013,   0.00022,  -0.00019,56178212.00000,   0.00000,274640576.00000,   0.00000,   0.00000,   0.00000,-418462368.00000,   0.00000
-11541982.91321,44399118.03106,-14968551.41478,  -0.00014,   0.00022,  -0.00019,58197948.00000,   0.00000,274640576.00000,   0.00000,   0.00000,   0.00000,-416442624.00000,   0.00000
-11799314.14455,46037911.66225,-15521136.37472,  -0.00014,   0.00023,  -0.00020,60203368.00000,   0.00000,274640576.00000,   0.00000,   0.00000,   0.00000,-414437216.00000,   0.00000
-12026849.12805,47673996.54364,-16068303.83505,  -0.00015,   0.00024,  -0.00021,62182548.00000,   0.00000,274640576.00000,   0.00000,   0.00000,   0.00000,-412458032.00000,   0.00000
-12243549.11234,49299246.42580,-16620888.79499,  -0.00015,   0.00025,  -0.00022,64148548.00000,   0.00000,274640576.00000,   0.00000,   0.00000,   0.00000,-410492032.00000,   0.00000
-12441287.84801,50932622.55738,-17168056.25532,  -0.00016,   0.00026,  -0.00022,66105748.00000,   0.00000,274640576.00000,   0.00000,   0.00000,   0.00000,-408534832.00000,   0.00000
-12628191.58446,52555163.68975,-17709806.21604,  -0.00016,   0.00026,  -0.00023,68043032.00000,   0.00000,274640576.00000,   0.00000,   0.00000,   0.00000,-406597536.00000,   0.00000
-12804260.32169,54166869.82290,-18256973.67637,  -0.00016,   0.00027,  -0.00024,69969416.00000,   0.00000,274640576.00000,   0.00000,   0.00000,   0.00000,-404671168.00000,   0.00000
-12950532.81109,55775867.20625,-18793306.13749,  -0.00017,   0.00028,  -0.00024,71869224.00000,   0.00000,274640576.00000,   0.00000,   0.00000,   0.00000,-402771360.00000,   0.00000
-13096805.30048,57384864.58960,-19335056.09821,  -0.00017,   0.00029,  -0.00025,73774912.00000,   0.00000,274640576.00000,   0.00000,   0.00000,   0.00000,-400865664.00000,   0.00000
-13232242.79066,58983026.97373,-19876806.05893,  -0.00018,   0.00029,  -0.00026,75667024.00000,   0.00000,274640576.00000,   0.00000,   0.00000,   0.00000,-398973552.00000,   0.00000
-13348719.03222,60589315.60727,-20413138.52005,  -0.00018,   0.00030,  -0.00027,77553528.00000,   0.00000,274640576.00000,   0.00000,   0.00000,   0.00000,-397087040.00000,   0.00000
-13443525.27534,62173934.24239,-20944053.48156,  -0.00018,   0.00031,  -0.00027,79406968.00000,   0.00000,274640576.00000,   0.00000,   0.00000,   0.00000,-395233600.00000,   0.00000
-13538331.51847,63758552.87750,-21480385.94267,  -0.00019,   0.00032,  -0.00028,81266888.00000,   0.00000,274640576.00000,   0.00000,   0.00000,   0.00000,-393373696.00000,   0.00000
-13622302.76238,65332336.51341,-22011300.90418,  -0.00019,   0.00032,  -0.00029,83109376.00000,   0.00000,274640576.00000,   0.00000,   0.00000,   0.00000,-391531200.00000,   0.00000
-13668351.50904,66922372.64813,-22542215.86569,  -0.00019,   0.00033,  -0.00029,84946912.00000,   0.00000,274640576.00000,   0.00000,   0.00000,   0.00000,-389693664.00000,   0.00000
-13722526.50512,68493447.53423,-23067713.32759,  -0.00020,   0.00034,  -0.00030,86769984.00000,   0.00000,274640576.00000,   0.00000,   0.00000,   0.00000,-387870592.00000,   0.00000
-13746905.25335,70061813.67052,-23593210.78949,  -0.00020,   0.00035,  -0.00031,88575832.00000,   0.00000,274640576.00000,   0.00000,   0.00000,   0.00000,-386064736.00000,   0.00000
-13779410.25099,71611218.55819,-24118708.25139,  -0.00020,   0.00035,  -0.00031,90371152.00000,   0.00000,274640576.00000,   0.00000,   0.00000,   0.00000,-384269424.00000,   0.00000
-13773992.75139,73176875.94468,-24644205.71330,  -0.00021,   0.00036,  -0.00032,92161088.00000,   0.00000,274640576.00000,   0.00000,   0.00000,   0.00000,-382479488.00000,   0.00000
-13776701.50119,74723572.08254,-25164285.67559,  -0.00021,   0.00037,  -0.00033,93935680.00000,   0.00000,274640576.00000,   0.00000,   0.00000,   0.00000,-380704896.00000,   0.00000
-13749614.00315,76267559.47060,-25684365.63788,  -0.00021,   0.00037,  -0.00033,95692688.00000,   0.00000,274640576.00000,   0.00000,   0.00000,   0.00000,-378947888.00000,   0.00000
-13722526.50512,77811546.85866,-26204445.60018,  -0.00021,   0.00038,  -0.00034,97450536.00000,   0.00000,274640576.00000,   0.00000,   0.00000,   0.00000,-377190048.00000,   0.00000
-13665642.75924,79352825.49692,-26719108.06286,  -0.00022,   0.00039,  -0.00035,99186272.00000,   0.00000,274640576.00000,   0.00000,   0.00000,   0.00000,-375454304.00000,   0.00000
-13616885.26278,80875142.88655,-27233770.52555,  -0.00022,   0.00039,  -0.00035,100910792.00000,   0.00000,274640576.00000,   0.00000,   0.00000,   0.00000,-373729792.00000,   0.00000
-13549166.51769,82405586.52559,-27748432.98824,  -0.00022,   0.00040,  -0.00036,102632944.00000,   0.00000,274640576.00000,   0.00000,   0.00000,   0.00000,-372007632.00000,   0.00000
-13451651.52476,83933321.41483,-28257677.95132,  -0.00022,   0.00041,  -0.00037,104333112.00000,   0.00000,274640576.00000,   0.00000,   0.00000,   0.00000,-370307456.00000,   0.00000
-13362262.78124,85442095.05545,-28766922.91440,  -0.00023,   0.00041,  -0.00037,106021984.00000,   0.00000,274640576.00000,   0.00000,   0.00000,   0.00000,-368618592.00000,   0.00000
-13262039.03850,86940033.69685,-29276167.87748,  -0.00023,   0.00042,  -0.00038,107696392.00000,   0.00000,274640576.00000,   0.00000,   0.00000,   0.00000,-366944192.00000,   0.00000
-13123892.79852,88454224.83707,-29779995.34095,  -0.00023,   0.00043,  -0.00039,109361376.00000,   0.00000,274640576.00000,   0.00000,   0.00000,   0.00000,-365279200.00000,   0.00000
-12993872.80794,89949454.72866,-30289240.30403,  -0.00023,   0.00043,  -0.00039,111019520.00000,   0.00000,274640576.00000,   0.00000,   0.00000,   0.00000,-363621056.00000,   0.00000
-12853017.81816,91433849.62105,-30793067.76750,  -0.00024,   0.00044,  -0.00040,112658912.00000,   0.00000,274640576.00000,   0.00000,   0.00000,   0.00000,-361981664.00000,   0.00000
-12693201.57974,92926370.76284,-31291477.73137,  -0.00024,   0.00045,  -0.00041,114291960.00000,   0.00000,274640576.00000,   0.00000,   0.00000,   0.00000,-360348608.00000,   0.00000
-12522550.34212,94408056.90542,-31789887.69523,  -0.00024,   0.00045,  -0.00041,115910728.00000,   0.00000,274640576.00000,   0.00000,   0.00000,   0.00000,-358729856.00000,   0.00000
-12313976.60724,95905995.54682,-32288297.65910,  -0.00024,   0.00046,  -0.00042,117525000.00000,   0.00000,274640576.00000,   0.00000,   0.00000,   0.00000,-357115584.00000,   0.00000
-12140616.61981,97357885.44155,-32786707.62296,  -0.00025,   0.00047,  -0.00043,119118152.00000,   0.00000,274640576.00000,   0.00000,   0.00000,   0.00000,-355522432.00000,   0.00000
-11929334.13512,98826027.83511,-33285117.58683,  -0.00025,   0.00047,  -0.00043,120706672.00000,   0.00000,274640576.00000,   0.00000,   0.00000,   0.00000,-353933904.00000,   0.00000
-11699090.40182,100302296.47808,-33778110.05109,  -0.00025,   0.00048,  -0.00044,122288792.00000,   0.00000,274640576.00000,   0.00000,   0.00000,   0.00000,-352351776.00000,   0.00000
-11466137.91871,101748768.87321,-34271102.51535,  -0.00025,   0.00049,  -0.00045,123844264.00000,   0.00000,274640576.00000,   0.00000,   0.00000,   0.00000,-350796320.00000,   0.00000
-11214224.18697,103203367.51776,-34758677.48000,  -0.00025,   0.00049,  -0.00045,125393256.00000,   0.00000,274640576.00000,   0.00000,   0.00000,   0.00000,-349247328.00000,   0.00000
-10962310.45523,104657966.16230,-35246252.44465,  -0.00025,   0.00050,  -0.00046,126942768.00000,   0.00000,274640576.00000,   0.00000,   0.00000,   0.00000,-347697808.00000,   0.00000
-10688726.72507,106090894.80841,-35733827.40930,  -0.00026,   0.00050,  -0.00046,128462832.00000,   0.00000,274640576.00000,   0.00000,   0.00000,   0.00000,-346177744.00000,   0.00000
-10415142.99490,107523823.45452,-36221402.37395,  -0.00026,   0.00051,  -0.00047,129983416.00000,   0.00000,274640576.00000,   0.00000,   0.00000,   0.00000,-344657152.00000,   0.00000
-10122598.01611,108964878.35005,-36703559.83899,  -0.00026,   0.00052,  -0.00048,131497288.00000,   0.00000,274640576.00000,   0.00000,   0.00000,   0.00000,-343143296.00000,   0.00000
-9827344.28752,110376136.99773,-37191134.80364,  -0.00026,   0.00052,  -0.00048,132988656.00000,   0.00000,274640576.00000,   0.00000,   0.00000,   0.00000,-341651920.00000,   0.00000
-9513129.31030,111795521.89482,-37667874.76908,  -0.00026,   0.00053,  -0.00049,134468992.00000,   0.00000,274640576.00000,   0.00000,   0.00000,   0.00000,-340171584.00000,   0.00000
-9179953.08445,113223033.04133,-38150032.23412,  -0.00026,   0.00053,  -0.00050,135951920.00000,   0.00000,274640576.00000,   0.00000,   0.00000,   0.00000,-338688656.00000,   0.00000
-8844068.10881,114620747.94000,-38626772.19956,  -0.00026,   0.00054,  -0.00050,137403472.00000,   0.00000,274640576.00000,   0.00000,   0.00000,   0.00000,-337237104.00000,   0.00000
-8489221.88453,116026589.08807,-39103512.16500,  -0.00026,   0.00054,  -0.00051,138853040.00000,   0.00000,274640576.00000,   0.00000,   0.00000,   0.00000,-335787536.00000,   0.00000
-8134375.66026,117432430.23615,-39580252.13043,  -0.00027,   0.00055,  -0.00051,140303168.00000,   0.00000,274640576.00000,   0.00000,   0.00000,   0.00000,-334337408.00000,   0.00000
-7776820.68618,118808475.13639,-40051574.59626,  -0.00027,   0.00056,  -0.00052,141721936.00000,   0.00000,274640576.00000,   0.00000,   0.00000,   0.00000,-332918640.00000,   0.00000
-7381343.21485,120200772.53544,-40522897.06209,  -0.00027,   0.00056,  -0.00053,143137328.00000,   0.00000,274640576.00000,   0.00000,   0.00000,   0.00000,-331503248.00000,   0.00000
-6985865.74352,121593069.93450,-40994219.52792,  -0.00027,   0.00057,  -0.00053,144553472.00000,   0.00000,274640576.00000,   0.00000,   0.00000,   0.00000,-330087104.00000,   0.00000
-6598514.52161,122966406.08494,-41465541.99375,  -0.00027,   0.00057,  -0.00054,145957840.00000,   0.00000,274640576.00000,   0.00000,   0.00000,   0.00000,-328682736.00000,   0.00000
-6181367.05185,124337033.48557,-41931446.95997,  -0.00027,   0.00058,  -0.00055,147342288.00000,   0.00000,274640576.00000,   0.00000,   0.00000,   0.00000,-327298288.00000,   0.00000
-5753384.58288,125696825.88698,-42397351.92619,  -0.00027,   0.00058,  -0.00055,148713424.00000,   0.00000,274640576.00000,   0.00000,   0.00000,   0.00000,-325927152.00000,   0.00000
-5325402.11391,127056618.28840,-42863256.89241,  -0.00027,   0.00059,  -0.00056,150085904.00000,   0.00000,274640576.00000,   0.00000,   0.00000,   0.00000,-324554672.00000,   0.00000
-4886584.64572,128405575.69060,-43323744.35903,  -0.00027,   0.00059,  -0.00056,151440928.00000,   0.00000,274640576.00000,   0.00000,   0.00000,   0.00000,-323199648.00000,   0.00000
-4428805.92891,129762659.34221,-43784231.82564,  -0.00027,   0.00060,  -0.00057,152795792.00000,   0.00000,274640576.00000,   0.00000,   0.00000,   0.00000,-321844784.00000,   0.00000
-3960192.21289,131108907.99460,-44244719.29226,  -0.00027,   0.00060,  -0.00058,154138352.00000,   0.00000,274640576.00000,   0.00000,   0.00000,   0.00000,-320502224.00000,   0.00000
-3499704.74627,132436195.39838,-44705206.75887,  -0.00027,   0.00061,  -0.00058,155470176.00000,   0.00000,274640576.00000,   0.00000,   0.00000,   0.00000,-319170400.00000,   0.00000
-3001294.78241,133779735.30097,-45160276.72588,  -0.00027,   0.00061,  -0.00059,156796432.00000,   0.00000,274640576.00000,   0.00000,   0.00000,   0.00000,-317844144.00000,   0.00000
-2511011.06795,135104313.95494,-45615346.69289,  -0.00027,   0.00062,  -0.00059,158112448.00000,   0.00000,274640576.00000,   0.00000,   0.00000,   0.00000,-316528128.00000,   0.00000
-2009892.35428,136418057.60969,-46070416.65989,  -0.00028,   0.00062,  -0.00060,159416736.00000,   0.00000,274640576.00000,   0.00000,   0.00000,   0.00000,-315223840.00000,   0.00000
-1508773.64061,137731801.26444,-46525486.62690,  -0.00028,   0.00063,  -0.00060,160723600.00000,   0.00000,274640576.00000,   0.00000,   0.00000,   0.00000,-313916976.00000,   0.00000
-977858.67911,139042836.16939,-46975139.09430,  -0.00028,   0.00063,  -0.00061,162013088.00000,   0.00000,274640576.00000,   0.00000,   0.00000,   0.00000,-312627488.00000,   0.00000
-455069.96701,140334909.82572,-47424791.56170,  -0.00028,   0.00064,  -0.00062,163292672.00000,   0.00000,274640576.00000,   0.00000,   0.00000,   0.00000,-311347904.00000,   0.00000
86679.99372,141635109.73145,-47874444.02910,  -0.00028,   0.00064,  -0.00062,164574000.00000,   0.00000,274640576.00000,   0.00000,   0.00000,   0.00000,-310066576.00000,   0.00000
639264.95365,142924474.63798,-48318678.99690,  -0.00028,   0.00065,  -0.00063,165839632.00000,   0.00000,274640576.00000,   0.00000,   0.00000,   0.00000,-308800944.00000,   0.00000
1191849.91359,144213839.54450,-48768331.46430,  -0.00028,   0.00065,  -0.00063,167113040.00000,   0.00000,274640576.00000,   0.00000,   0.00000,   0.00000,-307527536.00000,   0.00000
1755269.87274,145492369.45180,-49212566.43209,  -0.00028,   0.00066,  -0.00064,168370800.00000,   0.00000,274640576.00000,   0.00000,   0.00000,   0.00000,-306269776.00000,   0.00000
2329524.83111,146760064.35990,-49651383.90027,  -0.00028,   0.00066,  -0.00065,169612976.00000,   0.00000,274640576.00000,   0.00000,   0.00000,   0.00000,-305027600.00000,   0.00000
2922741.03810,148035885.51740,-50095618.86807,  -0.00028,   0.00067,  -0.00065,170862032.00000,   0.00000,274640576.00000,   0.00000,   0.00000,   0.00000,-303778544.00000,   0.00000
3507830.99568,149292745.42628,-50534436.33625,  -0.00028,   0.00067,  -0.00066,172096016.00000,   0.00000,274640576.00000,   0.00000,   0.00000,   0.00000,-302544560.00000,   0.00000
4111882.20189,150557731.58456,-50973253.80444,  -0.00027,   0.00068,  -0.00066,173332064.00000,   0.00000,274640576.00000,   0.00000,   0.00000,   0.00000,-301308512.00000,   0.00000
4726768.40731,151811882.74364,-51412071.27262,  -0.00027,   0.00068,  -0.00067,174556720.00000,   0.00000,274640576.00000,   0.00000,   0.00000,   0.00000,-300083856.00000,   0.00000
5333528.36332,153047072.65409,-51845471.24120,  -0.00027,   0.00069,  -0.00067,175765648.00000,   0.00000,274640576.00000,   0.00000,   0.00000,   0.00000,-298874928.00000,   0.00000
5959249.56795,154290388.81395,-52278871.20978,  -0.00027,   0.00069,  -0.00068,176975824.00000,   0.00000,274640576.00000,   0.00000,   0.00000,   0.00000,-297664752.00000,   0.00000
6595805.77180,155522869.97459,-52712271.17836,  -0.00027,   0.00069,  -0.00069,178173920.00000,   0.00000,274640576.00000,   0.00000,   0.00000,   0.00000,-296466656.00000,   0.00000
7251323.22428,156763477.38465,-53145671.14694,  -0.00027,   0.00070,  -0.00069,179372784.00000,   0.00000,274640576.00000,   0.00000,   0.00000,   0.00000,-295267792.00000,   0.00000
7898714.42734,157985123.54608,-53579071.11552,  -0.00027,   0.00070,  -0.00070,180559360.00000,   0.00000,274640576.00000,   0.00000,   0.00000,   0.00000,-294081216.00000,   0.00000
8556940.62962,159195934.70829,-54007053.58449,  -0.00027,   0.00071,  -0.00070,181728240.00000,   0.00000,274640576.00000,   0.00000,   0.00000,   0.00000,-292912336.00000,   0.00000
9215166.83190,160406745.87051,-54435036.05346,  -0.00027,   0.00071,  -0.00071,182897456.00000,   0.00000,274640576.00000,   0.00000,   0.00000,   0.00000,-291743120.00000,   0.00000
9884228.03339,161606722.03351,-54863018.52243,  -0.00027,   0.00072,  -0.00071,184053680.00000,   0.00000,274640576.00000,   0.00000,   0.00000,   0.00000,-290586896.00000,   0.00000
10564124.23410,162795863.19730,-55285583.49180,  -0.00027,   0.00072,  -0.00072,185191632.00000,   0.00000,274640576.00000,   0.00000,   0.00000,   0.00000,-289448944.00000,   0.00000
11262981.68343,163993130.61050,-55708148.46116,  -0.00027,   0.00072,  -0.00072,186329728.00000,   0.00000,274640576.00000,   0.00000,   0.00000,   0.00000,-288310848.00000,   0.00000
11961839.13277,165190398.02370,-56130713.43052,  -0.00027,   0.00073,  -0.00073,187468144.00000,   0.00000,274640576.00000,   0.00000,   0.00000,   0.00000,-287172432.00000,   0.00000
12644444.08328,166349742.93964,-56553278.39989,  -0.00027,   0.00073,  -0.00074,188580912.00000,   0.00000,274640576.00000,   0.00000,   0.00000,   0.00000,-286059664.00000,   0.00000
13373097.78045,167544301.60304,-56975843.36925,  -0.00027,   0.00074,  -0.00074,189707040.00000,   0.00000,274640576.00000,   0.00000,   0.00000,   0.00000,-284933536.00000,   0.00000
14085498.97880,168700937.76918,-57392990.83901,  -0.00026,   0.00074,  -0.00075,190803024.00000,   0.00000,274640576.00000,   0.00000,   0.00000,   0.00000,-283837552.00000,   0.00000
14797900.17715,169857573.93533,-57810138.30876,  -0.00026,   0.00074,  -0.00075,191899968.00000,   0.00000,274640576.00000,   0.00000,   0.00000,   0.00000,-282740608.00000,   0.00000
15529262.62413,171022336.35088,-58227285.77852,  -0.00026,   0.00075,  -0.00076,192997968.00000,   0.00000,274640576.00000,   0.00000,   0.00000,   0.00000,-281642608.00000,   0.00000
16271460.07032,172176263.76722,-58644433.24828,  -0.00026,   0.00075,  -0.00076,194084272.00000,   0.00000,274640576.00000,   0.00000,   0.00000,   0.00000,-280556304.00000,   0.00000
17005531.26710,173311229.93494,-59056163.21843,  -0.00026,   0.00076,  -0.00077,195154080.00000,   0.00000,274640576.00000,   0.00000,   0.00000,   0.00000,-279486496.00000,   0.00000
17758563.71250,174454322.35206,-59473310.68818,  -0.00026,   0.00076,  -0.00077,196230448.00000,   0.00000,274640576.00000,   0.00000,   0.00000,   0.00000,-278410128.00000,   0.00000
18522431.15712,175586579.76997,-59885040.65833,  -0.00026,   0.00076,  -0.00078,197290624.00000,   0.00000,274640576.00000,   0.00000,   0.00000,   0.00000,-277349952.00000,   0.00000
19286298.60174,176718837.18788,-60291353.12888,  -0.00026,   0.00077,  -0.00078,198347792.00000,   0.00000,274640576.00000,   0.00000,   0.00000,   0.00000,-276292784.00000,   0.00000
20061001.04558,177840259.60658,-60703083.09903,  -0.00026,   0.00077,  -0.00079,199398880.00000,   0.00000,274640576.00000,   0.00000,   0.00000,   0.00000,-275241696.00000,   0.00000
20827577.24000,178942720.77665,-61109395.56957,  -0.00025,   0.00077,  -0.00079,200433952.00000,   0.00000,274640576.00000,   0.00000,   0.00000,   0.00000,-274206624.00000,   0.00000
21594153.43442,180045181.94672,-61515708.04011,  -0.00025,   0.00078,  -0.00080,201471296.00000,   0.00000,274640576.00000,   0.00000,   0.00000,   0.00000,-273169280.00000,   0.00000
22390525.87669,181144934.36699,-61922020.51065,  -0.00025,   0.00078,  -0.00080,202498288.00000,   0.00000,274640576.00000,   0.00000,   0.00000,   0.00000,-272142288.00000,   0.00000
23186898.31895,182244686.78726,-62328332.98120,  -0.00025,   0.00078,  -0.00081,203527824.00000,   0.00000,274640576.00000,   0.00000,   0.00000,   0.00000,-271112752.00000,   0.00000
23975144.51180,183325477.95890,-62729227.95213,  -0.00025,   0.00079,  -0.00082,204541696.00000,   0.00000,274640576.00000,   0.00000,   0.00000,   0.00000,-270098880.00000,   0.00000
24782351.95328,184414395.37996,-63135540.42267,  -0.00025,   0.00079,  -0.00082,205563520.00000,   0.00000,274640576.00000,   0.00000,   0.00000,   0.00000,-269077056.00000,   0.00000
25581433.14535,185484351.55238,-63536435.39361,  -0.00025,   0.00079,  -0.00083,206569728.00000,   0.00000,274640576.00000,   0.00000,   0.00000,   0.00000,-268070848.00000,   0.00000
26399475.58604,186562433.97422,-63937330.36454,  -0.00024,   0.00080,  -0.00083,207579456.00000,   0.00000,274640576.00000,   0.00000,   0.00000,   0.00000,-267061120.00000,   0.00000
27209391.77732,187621555.14744,-64332807.83587,  -0.00024,   0.00080,  -0.00084,208573728.00000,   0.00000,274640576.00000,   0.00000,   0.00000,   0.00000,-266066848.00000,   0.00000
28030142.96781,188669841.32144,-64733702.80681,  -0.00024,   0.00080,  -0.00084,209563360.00000,   0.00000,274640576.00000,   0.00000,   0.00000,   0.00000,-265077216.00000,   0.00000
28869855.40694,189726253.74485,-65129180.27813,  -0.00024,   0.00081,  -0.00085,210552000.00000,   0.00000,274640576.00000,   0.00000,   0.00000,   0.00000,-264088576.00000,   0.00000
29709567.84606,190782666.16826,-65524657.74946,  -0.00024,   0.00081,  -0.00085,211543440.00000,   0.00000,274640576.00000,   0.00000,   0.00000,   0.00000,-263097136.00000,   0.00000
30541154.03577,191820117.34304,-65920135.22079,  -0.00024,   0.00081,  -0.00086,212524752.00000,   0.00000,274640576.00000,   0.00000,   0.00000,   0.00000,-262115824.00000,   0.00000
31383575.22469,192846733.51861,-66315612.69212,  -0.00023,   0.00082,  -0.00086,213496720.00000,   0.00000,274640576.00000,   0.00000,   0.00000,   0.00000,-261143856.00000,   0.00000
32225996.41362,193873349.69418,-66705672.66384,  -0.00023,   0.00082,  -0.00087,214466592.00000,   0.00000,274640576.00000,   0.00000,   0.00000,   0.00000,-260173984.00000,   0.00000
33079252.60175,194889130.87054,-67095732.63556,  -0.00023,   0.00082,  -0.00087,215426992.00000,   0.00000,274640576.00000,   0.00000,   0.00000,   0.00000,-259213584.00000,   0.00000
33932508.78989,195904912.04689,-67491210.10689,  -0.00023,   0.00083,  -0.00088,216395136.00000,   0.00000,274640576.00000,   0.00000,   0.00000,   0.00000,-258245440.00000,   0.00000
34796599.97725,196909858.22404,-67875852.57900,  -0.00023,   0.00083,  -0.00088,217343440.00000,   0.00000,274640576.00000,   0.00000,   0.00000,   0.00000,-257297136.00000,   0.00000
35660691.16460,197914804.40118,-68265912.55072,  -0.00022,   0.00083,  -0.00089,218299056.00000,   0.00000,274640576.00000,   0.00000,   0.00000,   0.00000,-256341520.00000,   0.00000
36516656.10254,198900789.32969,-68655972.52244,  -0.00022,   0.00083,  -0.00089,219243104.00000,   0.00000,274640576.00000,   0.00000,   0.00000,   0.00000,-255397472.00000,   0.00000
37391582.28911,199894900.50762,-69040614.99456,  -0.00022,   0.00084,  -0.00090,220184944.00000,   0.00000,274640576.00000,   0.00000,   0.00000,   0.00000,-254455632.00000,   0.00000
38277343.47489,200878176.68633,-69425257.46667,  -0.00022,   0.00084,  -0.00090,221116048.00000,   0.00000,274640576.00000,   0.00000,   0.00000,   0.00000,-253524528.00000,   0.00000
39136017.16264,201834365.36701,-69809899.93878,  -0.00022,   0.00084,  -0.00091,222033200.00000,   0.00000,274640576.00000,   0.00000,   0.00000,   0.00000,-252607376.00000,   0.00000
40032613.34764,202806806.54651,-70194542.41090,  -0.00021,   0.00084,  -0.00091,222953728.00000,   0.00000,274640576.00000,   0.00000,   0.00000,   0.00000,-251686848.00000,   0.00000
40910248.28401,203771121.47659,-70579184.88301,  -0.00021,   0.00085,  -0.00092,223872768.00000,   0.00000,274640576.00000,   0.00000,   0.00000,   0.00000,-250767808.00000,   0.00000
41798718.21959,204724601.40747,-70958409.85552,  -0.00021,   0.00085,  -0.00092,224774528.00000,   0.00000,274640576.00000,   0.00000,   0.00000,   0.00000,-249866048.00000,   0.00000
42706149.40380,205686207.58775,-71343052.32763,  -0.00021,   0.00085,  -0.00093,225682032.00000,   0.00000,274640576.00000,   0.00000,   0.00000,   0.00000,-248958544.00000,   0.00000
43586493.08998,206620726.27000,-71722277.30013,  -0.00020,   0.00086,  -0.00093,226568240.00000,   0.00000,274640576.00000,   0.00000,   0.00000,   0.00000,-248072336.00000,   0.00000
44496633.02399,207552536.20244,-72101502.27264,  -0.00020,   0.00086,  -0.00094,227441584.00000,   0.00000,274640576.00000,   0.00000,   0.00000,   0.00000,-247198992.00000,   0.00000
45387811.70938,208476219.88547,-72480727.24515,  -0.00020,   0.00086,  -0.00094,228309520.00000,   0.00000,274640576.00000,   0.00000,   0.00000,   0.00000,-246331056.00000,   0.00000
46297951.64340,209408029.81792,-72854534.71805,  -0.00020,   0.00086,  -0.00095,229167248.00000,   0.00000,274640576.00000,   0.00000,   0.00000,   0.00000,-245473328.00000,   0.00000
47199965.32800,210320878.50174,-73233759.69055,  -0.00020,   0.00086,  -0.00095,230006576.00000,   0.00000,274640576.00000,   0.00000,   0.00000,   0.00000,-244634000.00000,   0.00000
48112814.01182,211222892.18634,-73607567.16345,  -0.00019,   0.00087,  -0.00096,230816880.00000,   0.00000,274640576.00000,   0.00000,   0.00000,   0.00000,-243823696.00000,   0.00000
49033788.94505,212143867.11957,-73981374.63635,  -0.00019,   0.00087,  -0.00096,231629376.00000,   0.00000,274640576.00000,   0.00000,   0.00000,   0.00000,-243011200.00000,   0.00000
49938511.37946,213026919.55555,-74355182.10925,  -0.00019,   0.00087,  -0.00097,232414768.00000,   0.00000,274640576.00000,   0.00000,   0.00000,   0.00000,-242225808.00000,   0.00000
50843233.81387,213909971.99153,-74728989.58215,  -0.00019,   0.00087,  -0.00097,233206992.00000,   0.00000,274640576.00000,   0.00000,   0.00000,   0.00000,-241433584.00000,   0.00000
51766917.49690,214801150.67692,-75102797.05505,  -0.00018,   0.00088,  -0.00098,234009440.00000,   0.00000,274640576.00000,   0.00000,   0.00000,   0.00000,-240631136.00000,   0.00000
52701436.17915,215681494.36309,-75476604.52795,  -0.00018,   0.00088,  -0.00098,234807056.00000,   0.00000,274640576.00000,   0.00000,   0.00000,   0.00000,-239833520.00000,   0.00000
53608867.36336,216534750.55123,-75844994.50124,  -0.00018,   0.00088,  -0.00099,235588032.00000,   0.00000,274640576.00000,   0.00000,   0.00000,   0.00000,-239052544.00000,   0.00000
54543386.04560,217415094.23741,-76213384.47453,  -0.00018,   0.00088,  -0.00099,236384752.00000,   0.00000,274640576.00000,   0.00000,   0.00000,   0.00000,-238255824.00000,   0.00000
55461652.22903,218257515.42633,-76581774.44782,  -0.00017,   0.00088,  -0.00100,237158032.00000,   0.00000,274640576.00000,   0.00000,   0.00000,   0.00000,-237482544.00000,   0.00000
56379918.41246,219099936.61525,-76950164.42111,  -0.00017,   0.00089,  -0.00100,237936256.00000,   0.00000,274640576.00000,   0.00000,   0.00000,   0.00000,-236704320.00000,   0.00000
57317145.84451,219950484.05359,-77318554.39440,  -0.00017,   0.00089,  -0.00101,238725584.00000,   0.00000,274640576.00000,   0.00000,   0.00000,   0.00000,-235914992.00000,   0.00000
58246247.02715,220782070.24330,-77686944.36770,  -0.00017,   0.00089,  -0.00101,239515520.00000,   0.00000,274640576.00000,   0.00000,   0.00000,   0.00000,-235125056.00000,   0.00000
59175348.20979,221613656.43301,-78055334.34099,  -0.00016,   0.00089,  -0.00101,240320000.00000,   0.00000,274640576.00000,   0.00000,   0.00000,   0.00000,-234320576.00000,   0.00000
60123410.64105,222453368.87213,-78418306.81467,  -0.00016,   0.00089,  -0.00102,241134128.00000,   0.00000,274640576.00000,   0.00000,   0.00000,   0.00000,-233506448.00000,   0.00000
61055220.57350,223255158.81400,-78786696.78796,  -0.00016,   0.00090,  -0.00102,241934544.00000,   0.00000,274640576.00000,   0.00000,   0.00000,   0.00000,-232706032.00000,   0.00000
61995156.75535,224075910.00450,-79149669.26165,  -0.00015,   0.00090,  -0.00103,242746816.00000,   0.00000,274640576.00000,   0.00000,   0.00000,   0.00000,-231893760.00000,   0.00000
62926966.68779,224877699.94637,-79512641.73533,  -0.00015,   0.00090,  -0.00103,243547232.00000,   0.00000,274640576.00000,   0.00000,   0.00000,   0.00000,-231093344.00000,   0.00000
63869611.61945,225668654.88902,-79875614.20902,  -0.00015,   0.00090,  -0.00104,244337904.00000,   0.00000,274640576.00000,   0.00000,   0.00000,   0.00000,-230302672.00000,   0.00000
64812256.55111,226459609.83168,-80238586.68270,  -0.00015,   0.00090,  -0.00104,245130224.00000,   0.00000,274640576.00000,   0.00000,   0.00000,   0.00000,-229510352.00000,   0.00000
65754901.48277,227250564.77433,-80601559.15639,  -0.00014,   0.00091,  -0.00105,245925296.00000,   0.00000,274640576.00000,   0.00000,   0.00000,   0.00000,-228715280.00000,   0.00000
66689420.16502,228022558.46836,-80959114.13046,  -0.00014,   0.00091,  -0.00105,246704592.00000,   0.00000,274640576.00000,   0.00000,   0.00000,   0.00000,-227935984.00000,   0.00000
67615812.59785,228775590.91377,-81322086.60415,  -0.00014,   0.00091,  -0.00106,247479104.00000,   0.00000,274640576.00000,   0.00000,   0.00000,   0.00000,-227161472.00000,   0.00000
68569292.52873,229555710.85721,-81679641.57823,  -0.00014,   0.00091,  -0.00106,248267712.00000,   0.00000,274640576.00000,   0.00000,   0.00000,   0.00000,-226372864.00000,   0.00000
69506519.96078,230297908.30340,-82037196.55230,  -0.00013,   0.00091,  -0.00107,249032096.00000,   0.00000,274640576.00000,   0.00000,   0.00000,   0.00000,-225608480.00000,   0.00000
70451873.64224,231059066.99822,-82400169.02599,  -0.00013,   0.00091,  -0.00107,249817616.00000,   0.00000,274640576.00000,   0.00000,   0.00000,   0.00000,-224822960.00000,   0.00000
71380974.82488,231782303.19578,-82757724.00007,  -0.00013,   0.00092,  -0.00108,250572976.00000,   0.00000,274640576.00000,   0.00000,   0.00000,   0.00000,-224067600.00000,   0.00000
72337163.50556,232532626.89138,-83115278.97414,  -0.00012,   0.00092,  -0.00108,251346208.00000,   0.00000,274640576.00000,   0.00000,   0.00000,   0.00000,-223294368.00000,   0.00000
73266264.68820,233255863.08895,-83472833.94822,  -0.00012,   0.00092,  -0.00109,252104704.00000,   0.00000,274640576.00000,   0.00000,   0.00000,   0.00000,-222535872.00000,   0.00000
74206200.87005,233968264.28730,-83824971.42269,  -0.00012,   0.00092,  -0.00109,252848896.00000,   0.00000,274640576.00000,   0.00000,   0.00000,   0.00000,-221791680.00000,   0.00000
75154263.30132,234699626.73428,-84182526.39677,  -0.00012,   0.00092,  -0.00109,253613680.00000,   0.00000,274640576.00000,   0.00000,   0.00000,   0.00000,-221026896.00000,   0.00000
76086073.23376,235393066.68400,-84540081.37084,  -0.00011,   0.00092,  -0.00110,254353904.00000,   0.00000,274640576.00000,   0.00000,   0.00000,   0.00000,-220286672.00000,   0.00000
77036844.41483,236094632.88314,-84892218.84531,  -0.00011,   0.00092,  -0.00110,255094672.00000,   0.00000,274640576.00000,   0.00000,   0.00000,   0.00000,-219545904.00000,   0.00000
77968654.34727,236788072.83286,-85249773.81939,  -0.00011,   0.00093,  -0.00111,255840752.00000,   0.00000,274640576.00000,   0.00000,   0.00000,   0.00000,-218799824.00000,   0.00000
78919425.52834,237489639.03200,-85601911.29386,  -0.00010,   0.00093,  -0.00111,256587792.00000,   0.00000,274640576.00000,   0.00000,   0.00000,   0.00000,-218052784.00000,   0.00000
79862070.46000,238172243.98251,-85954048.76833,  -0.00010,   0.00093,  -0.00112,257324560.00000,   0.00000,274640576.00000,   0.00000,   0.00000,   0.00000,-217316016.00000,   0.00000
80796589.14225,238835887.68440,-86311603.74241,  -0.00010,   0.00093,  -0.00112,258056320.00000,   0.00000,274640576.00000,   0.00000,   0.00000,   0.00000,-216584256.00000,   0.00000
81731107.82449,239499531.38628,-86663741.21688,  -0.00010,   0.00093,  -0.00113,258784768.00000,   0.00000,274640576.00000,   0.00000,   0.00000,   0.00000,-215855808.00000,   0.00000
82665626.50674,240163175.08817,-87015878.69135,  -0.00009,   0.00093,  -0.00113,259515104.00000,   0.00000,274640576.00000,   0.00000,   0.00000,   0.00000,-215125472.00000,   0.00000
83592018.93958,240807857.54143,-87368016.16582,  -0.00009,   0.00093,  -0.00114,260233344.00000,   0.00000,274640576.00000,   0.00000,   0.00000,   0.00000,-214407232.00000,   0.00000
84537372.62104,241460666.24410,-87720153.64029,  -0.00009,   0.00093,  -0.00114,260956304.00000,   0.00000,274640576.00000,   0.00000,   0.00000,   0.00000,-213684272.00000,   0.00000
85463765.05388,242105348.69736,-88066873.61515,  -0.00008,   0.00093,  -0.00114,261671520.00000,   0.00000,274640576.00000,   0.00000,   0.00000,   0.00000,-212969056.00000,   0.00000
86400992.48593,242739196.15141,-88419011.08962,  -0.00008,   0.00094,  -0.00115,262383744.00000,   0.00000,274640576.00000,   0.00000,   0.00000,   0.00000,-212256832.00000,   0.00000
87338219.91798,243373043.60545,-88771148.56409,  -0.00008,   0.00094,  -0.00115,263097440.00000,   0.00000,274640576.00000,   0.00000,   0.00000,   0.00000,-211543136.00000,   0.00000
88267321.10062,243987929.81088,-89123286.03856,  -0.00007,   0.00094,  -0.00116,263799568.00000,   0.00000,274640576.00000,   0.00000,   0.00000,   0.00000,-210841008.00000,   0.00000
89196422.28326,244602816.01630,-89470006.01342,  -0.00007,   0.00094,  -0.00116,264497968.00000,   0.00000,274640576.00000,   0.00000,   0.00000,   0.00000,-210142608.00000,   0.00000
90117397.21649,245198740.97309,-89822143.48789,  -0.00007,   0.00094,  -0.00117,265190528.00000,   0.00000,274640576.00000,   0.00000,   0.00000,   0.00000,-209450048.00000,   0.00000
91038372.14972,245794665.92989,-90168863.46276,  -0.00007,   0.00094,  -0.00117,265879760.00000,   0.00000,274640576.00000,   0.00000,   0.00000,   0.00000,-208760816.00000,   0.00000
91959347.08295,246390590.88668,-90521000.93723,  -0.00006,   0.00094,  -0.00118,266576560.00000,   0.00000,274640576.00000,   0.00000,   0.00000,   0.00000,-208064016.00000,   0.00000
92872195.76677,246967554.59485,-90867720.91209,  -0.00006,   0.00094,  -0.00118,267256656.00000,   0.00000,274640576.00000,   0.00000,   0.00000,   0.00000,-207383920.00000,   0.00000
93804005.69921,247552644.55243,-91214440.88695,  -0.00006,   0.00094,  -0.00119,267942784.00000,   0.00000,274640576.00000,   0.00000,   0.00000,   0.00000,-206697792.00000,   0.00000
94716854.38303,248129608.26060,-91566578.36142,  -0.00005,   0.00094,  -0.00119,268632736.00000,   0.00000,274640576.00000,   0.00000,   0.00000,   0.00000,-206007840.00000,   0.00000
95621576.81744,248687610.72015,-91913298.33629,  -0.00005,   0.00095,  -0.00119,269305760.00000,   0.00000,274640576.00000,   0.00000,   0.00000,   0.00000,-205334816.00000,   0.00000
96545260.50047,249253739.42910,-92260018.31115,  -0.00005,   0.00095,  -0.00120,269985024.00000,   0.00000,274640576.00000,   0.00000,   0.00000,   0.00000,-204655552.00000,   0.00000
97441856.68547,249792780.64002,-92606738.28601,  -0.00004,   0.00095,  -0.00120,270648768.00000,   0.00000,274640576.00000,   0.00000,   0.00000,   0.00000,-203991808.00000,   0.00000
98357414.11909,250339948.10035,-92953458.26087,  -0.00004,   0.00095,  -0.00121,271318752.00000,   0.00000,274640576.00000,   0.00000,   0.00000,   0.00000,-203321824.00000,   0.00000
99272971.55271,250887115.56068,-93300178.23574,  -0.00004,   0.00095,  -0.00121,271990592.00000,   0.00000,274640576.00000,   0.00000,   0.00000,   0.00000,-202649984.00000,   0.00000
100161441.48830,251407195.52298,-93652315.71021,  -0.00003,   0.00095,  -0.00122,272652480.00000,   0.00000,274640576.00000,   0.00000,   0.00000,   0.00000,-201988096.00000,   0.00000
101068872.67251,251935401.73468,-93999035.68507,  -0.00003,   0.00095,  -0.00122,273315136.00000,   0.00000,274640576.00000,   0.00000,   0.00000,   0.00000,-201325440.00000,   0.00000
101976303.85672,252463607.94639,-94345755.65993,  -0.00003,   0.00095,  -0.00123,273979776.00000,   0.00000,274640576.00000,   0.00000,   0.00000,   0.00000,-200660800.00000,   0.00000
102856647.54289,252964726.66006,-94692475.63480,  -0.00003,   0.00095,  -0.00123,274628672.00000,   0.00000,274640576.00000,   0.00000,   0.00000,   0.00000,-200011904.00000,   0.00000
103755952.47769,253473971.62314,-95039195.60966,  -0.00002,   0.00095,  -0.00124,275283968.00000,   0.00000,274640576.00000,   0.00000,   0.00000,   0.00000,-199356608.00000,   0.00000
104647131.16308,253964255.33759,-95385915.58452,  -0.00002,   0.00095,  -0.00124,275928064.00000,   0.00000,274640576.00000,   0.00000,   0.00000,   0.00000,-198712512.00000,   0.00000
105519348.59985,254446412.80264,-95732635.55938,  -0.00002,   0.00095,  -0.00124,276569696.00000,   0.00000,274640576.00000,   0.00000,   0.00000,   0.00000,-198070880.00000,   0.00000
106410527.28524,254936696.51709,-96079355.53425,  -0.00001,   0.00095,  -0.00125,277217824.00000,   0.00000,274640576.00000,   0.00000,   0.00000,   0.00000,-197422752.00000,   0.00000
107293579.72122,255408018.98292,-96420658.00950,  -0.00001,   0.00095,  -0.00125,277849184.00000,   0.00000,274640576.00000,   0.00000,   0.00000,   0.00000,-196791392.00000,   0.00000
108176632.15719,255879341.44875,-96767377.98437,  -0.00001,   0.00095,  -0.00126,278488160.00000,   0.00000,274640576.00000,   0.00000,   0.00000,   0.00000,-196152416.00000,   0.00000
109040723.34455,256342537.66517,-97114097.95923,  -0.00000,   0.00095,  -0.00126,279124864.00000,   0.00000,274640576.00000,   0.00000,   0.00000,   0.00000,-195515712.00000,   0.00000
109915649.53112,256794898.88237,-97460817.93409,  -0.00000,   0.00095,  -0.00127,279754848.00000,   0.00000,274640576.00000,   0.00000,   0.00000,   0.00000,-194885728.00000,   0.00000
110771614.46906,257239133.85016,-97807537.90895,   0.00000,   0.00095,  -0.00127,280382240.00000,   0.00000,274640576.00000,   0.00000,   0.00000,   0.00000,-194258336.00000,   0.00000
111646540.65563,257691495.06737,-98154257.88382,   0.00001,   0.00095,  -0.00128,281016608.00000,   0.00000,274640576.00000,   0.00000,   0.00000,   0.00000,-193623968.00000,   0.00000
112513340.59278,258124895.03595,-98500977.85868,   0.00001,   0.00096,  -0.00128,281639776.00000,   0.00000,274640576.00000,   0.00000,   0.00000,   0.00000,-193000800.00000,   0.00000
113361179.28131,258550168.75511,-98847697.83354,   0.00001,   0.00096,  -0.00129,282260384.00000,   0.00000,274640576.00000,   0.00000,   0.00000,   0.00000,-192380192.00000,   0.00000
114227979.21847,258983568.72369,-99194417.80840,   0.00001,   0.00096,  -0.00129,282887872.00000,   0.00000,274640576.00000,   0.00000,   0.00000,   0.00000,-191752704.00000,   0.00000
115067691.65759,259389881.19423,-99541137.78327,   0.00002,   0.00096,  -0.00129,283499360.00000,   0.00000,274640576.00000,   0.00000,   0.00000,   0.00000,-191141216.00000,   0.00000
115907404.09671,259796193.66478,-99887857.75813,   0.00002,   0.00096,  -0.00130,284112864.00000,   0.00000,274640576.00000,   0.00000,   0.00000,   0.00000,-190527712.00000,   0.00000
116766077.78446,260210632.38473,-100234577.73299,   0.00002,   0.00096,  -0.00130,284733280.00000,   0.00000,274640576.00000,   0.00000,   0.00000,   0.00000,-189907296.00000,   0.00000
117597663.97417,260597983.60665,-100581297.70786,   0.00003,   0.00096,  -0.00131,285337728.00000,   0.00000,274640576.00000,   0.00000,   0.00000,   0.00000,-189302848.00000,   0.00000
118429250.16388,260985334.82856,-100928017.68272,   0.00003,   0.00096,  -0.00131,285944064.00000,   0.00000,274640576.00000,   0.00000,   0.00000,   0.00000,-188696512.00000,   0.00000
119260836.35359,261372686.05048,-101274737.65758,   0.00003,   0.00096,  -0.00132,286552416.00000,   0.00000,274640576.00000,   0.00000,   0.00000,   0.00000,-188088160.00000,   0.00000
120084296.29389,261741076.02377,-101621457.63244,   0.00004,   0.00096,  -0.00132,287149408.00000,   0.00000,274640576.00000,   0.00000,   0.00000,   0.00000,-187491168.00000,   0.00000
120907756.23419,262109465.99706,-101968177.60731,   0.00004,   0.00096,  -0.00133,287748544.00000,   0.00000,274640576.00000,   0.00000,   0.00000,   0.00000,-186892032.00000,   0.00000
121731216.17449,262477855.97036,-102320315.08178,   0.00004,   0.00096,  -0.00133,288355008.00000,   0.00000,274640576.00000,   0.00000,   0.00000,   0.00000,-186285568.00000,   0.00000
122546549.86538,262827284.69502,-102667035.05664,   0.00005,   0.00096,  -0.00133,288944608.00000,   0.00000,274640576.00000,   0.00000,   0.00000,   0.00000,-185695968.00000,   0.00000
123361883.55626,263176713.41969,-103013755.03150,   0.00005,   0.00096,  -0.00134,289535936.00000,   0.00000,274640576.00000,   0.00000,   0.00000,   0.00000,-185104640.00000,   0.00000
124177217.24715,263526142.14435,-103360475.00637,   0.00005,   0.00096,  -0.00134,290129184.00000,   0.00000,274640576.00000,   0.00000,   0.00000,   0.00000,-184511392.00000,   0.00000
124973589.68941,263867444.61961,-103712612.48084,   0.00005,   0.00096,  -0.00135,290724576.00000,   0.00000,274640576.00000,   0.00000,   0.00000,   0.00000,-183916000.00000,   0.00000
125780797.13089,264197912.09565,-104059332.45570,   0.00006,   0.00096,  -0.00135,291308032.00000,   0.00000,274640576.00000,   0.00000,   0.00000,   0.00000,-183332544.00000,   0.00000
126569043.32374,264520253.32228,-104411469.93017,   0.00006,   0.00096,  -0.00136,291893824.00000,   0.00000,274640576.00000,   0.00000,   0.00000,   0.00000,-182746752.00000,   0.00000
127349163.26719,264823633.30029,-104758189.90503,   0.00006,   0.00096,  -0.00136,292462368.00000,   0.00000,274640576.00000,   0.00000,   0.00000,   0.00000,-182178208.00000,   0.00000
128137409.46004,265145974.52692,-105110327.37950,   0.00007,   0.00096,  -0.00137,293051200.00000,   0.00000,274640576.00000,   0.00000,   0.00000,   0.00000,-181589376.00000,   0.00000
128917529.40348,265449354.50492,-105457047.35436,   0.00007,   0.00096,  -0.00137,293622944.00000,   0.00000,274640576.00000,   0.00000,   0.00000,   0.00000,-181017632.00000,   0.00000
129689523.09751,265733773.23430,-105809184.82883,   0.00007,   0.00096,  -0.00138,294189056.00000,   0.00000,274640576.00000,   0.00000,   0.00000,   0.00000,-180451520.00000,   0.00000
130469643.04095,266037153.21231,-106161322.30330,   0.00007,   0.00096,  -0.00138,294769600.00000,   0.00000,274640576.00000,   0.00000,   0.00000,   0.00000,-179870976.00000,   0.00000
131241636.73498,266321571.94169,-106508042.27817,   0.00008,   0.00096,  -0.00138,295333024.00000,   0.00000,274640576.00000,   0.00000,   0.00000,   0.00000,-179307552.00000,   0.00000
131994669.18039,266597864.42165,-106860179.75264,   0.00008,   0.00096,  -0.00139,295898176.00000,   0.00000,274640576.00000,   0.00000,   0.00000,   0.00000,-178742400.00000,   0.00000
132758536.62501,266863321.90241,-107212317.22711,   0.00008,   0.00096,  -0.00139,296457472.00000,   0.00000,274640576.00000,   0.00000,   0.00000,   0.00000,-178183104.00000,   0.00000
133503442.82100,267120653.13375,-107564454.70158,   0.00009,   0.00096,  -0.00140,297012896.00000,   0.00000,274640576.00000,   0.00000,   0.00000,   0.00000,-177627680.00000,   0.00000
134248349.01699,267377984.36510,-107916592.17605,   0.00009,   0.00095,  -0.00140,297569696.00000,   0.00000,274640576.00000,   0.00000,   0.00000,   0.00000,-177070880.00000,   0.00000
134993255.21299,267635315.59644,-108268729.65052,   0.00009,   0.00095,  -0.00141,298127904.00000,   0.00000,274640576.00000,   0.00000,   0.00000,   0.00000,-176512672.00000,   0.00000
135738161.40898,267892646.82778,-108626284.62459,   0.00010,   0.00095,  -0.00141,298693600.00000,   0.00000,274640576.00000,   0.00000,   0.00000,   0.00000,-175946976.00000,   0.00000
136474941.35557,268131016.81050,-108978422.09906,   0.00010,   0.00095,  -0.00142,299241952.00000,   0.00000,274640576.00000,   0.00000,   0.00000,   0.00000,-175398624.00000,   0.00000
137192760.05352,268361260.54381,-109330559.57353,   0.00010,   0.00095,  -0.00142,299786432.00000,   0.00000,274640576.00000,   0.00000,   0.00000,   0.00000,-174854144.00000,   0.00000
137921413.75070,268580669.27790,-109688114.54761,   0.00010,   0.00095,  -0.00143,300331392.00000,   0.00000,274640576.00000,   0.00000,   0.00000,   0.00000,-174309184.00000,   0.00000
138639232.44866,268810913.01121,-110040252.02208,   0.00011,   0.00095,  -0.00143,300878752.00000,   0.00000,274640576.00000,   0.00000,   0.00000,   0.00000,-173761824.00000,   0.00000
139348924.89720,269022195.49589,-110397806.99616,   0.00011,   0.00095,  -0.00144,301421216.00000,   0.00000,274640576.00000,   0.00000,   0.00000,   0.00000,-173219360.00000,   0.00000
140058617.34575,269233477.98057,-110755361.97024,   0.00011,   0.00095,  -0.00144,301965280.00000,   0.00000,274640576.00000,   0.00000,   0.00000,   0.00000,-172675296.00000,   0.00000
140760183.54489,269425799.21663,-111107499.44471,   0.00012,   0.00095,  -0.00144,302492448.00000,   0.00000,274640576.00000,   0.00000,   0.00000,   0.00000,-172148128.00000,   0.00000
141442788.49540,269609994.20328,-111465054.41878,   0.00012,   0.00095,  -0.00145,303021952.00000,   0.00000,274640576.00000,   0.00000,   0.00000,   0.00000,-171618624.00000,   0.00000
142144354.69453,269802315.43933,-111822609.39286,   0.00012,   0.00095,  -0.00145,303558752.00000,   0.00000,274640576.00000,   0.00000,   0.00000,   0.00000,-171081824.00000,   0.00000
142826959.64505,269986510.42598,-112185581.86655,   0.00012,   0.00095,  -0.00146,304097824.00000,   0.00000,274640576.00000,   0.00000,   0.00000,   0.00000,-170542752.00000,   0.00000
143509564.59556,270170705.41262,-112543136.84062,   0.00013,   0.00095,  -0.00146,304632608.00000,   0.00000,274640576.00000,   0.00000,   0.00000,   0.00000,-170007968.00000,   0.00000
144184043.29666,270335939.15064,-112900691.81470,   0.00013,   0.00095,  -0.00147,305156928.00000,   0.00000,274640576.00000,   0.00000,   0.00000,   0.00000,-169483648.00000,   0.00000
144858521.99776,270501172.88866,-113263664.28838,   0.00013,   0.00095,  -0.00147,305689312.00000,   0.00000,274640576.00000,   0.00000,   0.00000,   0.00000,-168951264.00000,   0.00000
145514039.45023,270658280.37727,-113621219.26246,   0.00013,   0.00095,  -0.00148,306211488.00000,   0.00000,274640576.00000,   0.00000,   0.00000,   0.00000,-168429088.00000,   0.00000
146188518.15133,270823514.11530,-113984191.73615,   0.00014,   0.00095,  -0.00148,306747616.00000,   0.00000,274640576.00000,   0.00000,   0.00000,   0.00000,-167892960.00000,   0.00000
146835909.35440,270961660.35528,-114347164.20983,   0.00014,   0.00095,  -0.00149,307267264.00000,   0.00000,274640576.00000,   0.00000,   0.00000,   0.00000,-167373312.00000,   0.00000
147483300.55746,271099806.59526,-114710136.68351,   0.00014,   0.00095,  -0.00149,307788704.00000,   0.00000,274640576.00000,   0.00000,   0.00000,   0.00000,-166851872.00000,   0.00000
148130691.76052,271237952.83525,-115073109.15720,   0.00015,   0.00095,  -0.00150,308311712.00000,   0.00000,274640576.00000,   0.00000,   0.00000,   0.00000,-166328864.00000,   0.00000
148759121.71496,271367972.82582,-115436081.63088,   0.00015,   0.00094,  -0.00150,308830432.00000,   0.00000,274640576.00000,   0.00000,   0.00000,   0.00000,-165810144.00000,   0.00000
149398386.66862,271487157.81718,-115799054.10457,   0.00015,   0.00094,  -0.00151,309344224.00000,   0.00000,274640576.00000,   0.00000,   0.00000,   0.00000,-165296352.00000,   0.00000
150018690.37364,271598216.55913,-116162026.57825,   0.00015,   0.00094,  -0.00151,309853248.00000,   0.00000,274640576.00000,   0.00000,   0.00000,   0.00000,-164787328.00000,   0.00000
150638994.07867,271709275.30108,-116530416.55154,   0.00016,   0.00094,  -0.00151,310369856.00000,   0.00000,274640576.00000,   0.00000,   0.00000,   0.00000,-164270720.00000,   0.00000
151259297.78370,271820334.04303,-116898806.52484,   0.00016,   0.00094,  -0.00152,310887584.00000,   0.00000,274640576.00000,   0.00000,   0.00000,   0.00000,-163752992.00000,   0.00000
151860640.24010,271923266.53556,-117261778.99852,   0.00016,   0.00094,  -0.00152,311394272.00000,   0.00000,274640576.00000,   0.00000,   0.00000,   0.00000,-163246304.00000,   0.00000
152472817.69572,272015364.02889,-117630168.97181,   0.00016,   0.00094,  -0.00153,311901952.00000,   0.00000,274640576.00000,   0.00000,   0.00000,   0.00000,-162738624.00000,   0.00000
153066033.90271,272099335.27280,-117998558.94510,   0.00017,   0.00094,  -0.00153,312404768.00000,   0.00000,274640576.00000,   0.00000,   0.00000,   0.00000,-162235808.00000,   0.00000
153659250.10970,272183306.51671,-118372366.41800,   0.00017,   0.00094,  -0.00154,312914688.00000,   0.00000,274640576.00000,   0.00000,   0.00000,   0.00000,-161725888.00000,   0.00000
154252466.31670,272267277.76062,-118740756.39129,   0.00017,   0.00094,  -0.00154,313419456.00000,   0.00000,274640576.00000,   0.00000,   0.00000,   0.00000,-161221120.00000,   0.00000
154818595.02565,272324161.50650,-119114563.86419,   0.00017,   0.00094,  -0.00155,313913120.00000,   0.00000,274640576.00000,   0.00000,   0.00000,   0.00000,-160727456.00000,   0.00000
155411811.23264,272408132.75041,-119482953.83749,   0.00018,   0.00094,  -0.00155,314420192.00000,   0.00000,274640576.00000,   0.00000,   0.00000,   0.00000,-160220384.00000,   0.00000
155977939.94160,272465016.49629,-119856761.31038,   0.00018,   0.00094,  -0.00156,314916128.00000,   0.00000,274640576.00000,   0.00000,   0.00000,   0.00000,-159724448.00000,   0.00000
156544068.65056,272521900.24216,-120230568.78328,   0.00018,   0.00093,  -0.00156,315413248.00000,   0.00000,274640576.00000,   0.00000,   0.00000,   0.00000,-159227328.00000,   0.00000
157083109.86147,272551696.49000,-120604376.25618,   0.00018,   0.00093,  -0.00157,315893152.00000,   0.00000,274640576.00000,   0.00000,   0.00000,   0.00000,-158747424.00000,   0.00000
157649238.57043,272608580.23588,-120978183.72908,   0.00019,   0.00093,  -0.00157,316392704.00000,   0.00000,274640576.00000,   0.00000,   0.00000,   0.00000,-158247872.00000,   0.00000
158188279.78135,272638376.48372,-121357408.70159,   0.00019,   0.00093,  -0.00158,316881408.00000,   0.00000,274640576.00000,   0.00000,   0.00000,   0.00000,-157759168.00000,   0.00000
158727320.99227,272668172.73156,-121731216.17449,   0.00019,   0.00093,  -0.00158,317365088.00000,   0.00000,274640576.00000,   0.00000,   0.00000,   0.00000,-157275488.00000,   0.00000
159266362.20319,272697968.97940,-122110441.14699,   0.00019,   0.00093,  -0.00159,317856416.00000,   0.00000,274640576.00000,   0.00000,   0.00000,   0.00000,-156784160.00000,   0.00000
159805403.41411,272727765.22724,-122489666.11950,   0.00020,   0.00093,  -0.00159,318349248.00000,   0.00000,274640576.00000,   0.00000,   0.00000,   0.00000,-156291328.00000,   0.00000
160325483.37640,272749435.22567,-122868891.09201,   0.00020,   0.00093,  -0.00160,318837184.00000,   0.00000,274640576.00000,   0.00000,   0.00000,   0.00000,-155803392.00000,   0.00000
160837437.08929,272752143.97547,-123248116.06451,   0.00020,   0.00093,  -0.00160,319314528.00000,   0.00000,274640576.00000,   0.00000,   0.00000,   0.00000,-155326048.00000,   0.00000
161349390.80217,272754852.72527,-123632758.53662,   0.00020,   0.00093,  -0.00161,319799552.00000,   0.00000,274640576.00000,   0.00000,   0.00000,   0.00000,-154841024.00000,   0.00000
161842383.26643,272749435.22567,-124011983.50913,   0.00020,   0.00093,  -0.00161,320273440.00000,   0.00000,274640576.00000,   0.00000,   0.00000,   0.00000,-154367136.00000,   0.00000
162354336.97931,272752143.97547,-124396625.98124,   0.00021,   0.00092,  -0.00162,320761824.00000,   0.00000,274640576.00000,   0.00000,   0.00000,   0.00000,-153878752.00000,   0.00000
162847329.44357,272746726.47586,-124781268.45336,   0.00021,   0.00092,  -0.00162,321245184.00000,   0.00000,274640576.00000,   0.00000,   0.00000,   0.00000,-153395392.00000,   0.00000
163332195.65842,272722347.72763,-125165910.92547,   0.00021,   0.00092,  -0.00163,321718208.00000,   0.00000,274640576.00000,   0.00000,   0.00000,   0.00000,-152922368.00000,   0.00000
163825188.12267,272716930.22802,-125550553.39758,   0.00021,   0.00092,  -0.00163,322204896.00000,   0.00000,274640576.00000,   0.00000,   0.00000,   0.00000,-152435680.00000,   0.00000
164291093.08890,272684425.23038,-125940613.36931,   0.00022,   0.00092,  -0.00164,322681024.00000,   0.00000,274640576.00000,   0.00000,   0.00000,   0.00000,-151959552.00000,   0.00000
164756998.05512,272651920.23274,-126325255.84142,   0.00022,   0.00092,  -0.00164,323152544.00000,   0.00000,274640576.00000,   0.00000,   0.00000,   0.00000,-151488032.00000,   0.00000
165222903.02134,272619415.23509,-126715315.81314,   0.00022,   0.00092,  -0.00165,323631968.00000,   0.00000,274640576.00000,   0.00000,   0.00000,   0.00000,-151008608.00000,   0.00000
165680681.73815,272567948.98882,-127105375.78486,   0.00022,   0.00092,  -0.00165,324101120.00000,   0.00000,274640576.00000,   0.00000,   0.00000,   0.00000,-150539456.00000,   0.00000
166146586.70437,272535443.99118,-127495435.75658,   0.00022,   0.00092,  -0.00166,324583904.00000,   0.00000,274640576.00000,   0.00000,   0.00000,   0.00000,-150056672.00000,   0.00000
166585404.17256,272475851.49550,-127890913.22791,   0.00023,   0.00091,  -0.00166,325056192.00000,   0.00000,274640576.00000,   0.00000,   0.00000,   0.00000,-149584384.00000,   0.00000
167032347.89015,272435220.24845,-128280973.19963,   0.00023,   0.00091,  -0.00167,325535584.00000,   0.00000,274640576.00000,   0.00000,   0.00000,   0.00000,-149104992.00000,   0.00000
167471165.35834,272375627.75277,-128676450.67096,   0.00023,   0.00091,  -0.00167,326011104.00000,   0.00000,274640576.00000,   0.00000,   0.00000,   0.00000,-148629472.00000,   0.00000
167891021.57790,272307909.00768,-129071928.14229,   0.00023,   0.00091,  -0.00168,326481568.00000,   0.00000,274640576.00000,   0.00000,   0.00000,   0.00000,-148159008.00000,   0.00000
168310877.79746,272240190.26259,-129467405.61361,   0.00023,   0.00091,  -0.00168,326953696.00000,   0.00000,274640576.00000,   0.00000,   0.00000,   0.00000,-147686880.00000,   0.00000
168722607.76761,272153510.26887,-129868300.58455,   0.00024,   0.00091,  -0.00169,327421888.00000,   0.00000,274640576.00000,   0.00000,   0.00000,   0.00000,-147218688.00000,   0.00000
169142463.98717,272085791.52378,-130263778.05588,   0.00024,   0.00091,  -0.00169,327896864.00000,   0.00000,274640576.00000,   0.00000,   0.00000,   0.00000,-146743712.00000,   0.00000
169554193.95732,271999111.53006,-130664673.02681,   0.00024,   0.00091,  -0.00170,328368256.00000,   0.00000,274640576.00000,   0.00000,   0.00000,   0.00000,-146272320.00000,   0.00000
169946962.67885,271904305.28694,-131065567.99775,   0.00024,   0.00091,  -0.00170,328834368.00000,   0.00000,274640576.00000,   0.00000,   0.00000,   0.00000,-145806208.00000,   0.00000
170347857.64978,271828460.29244,-131466462.96868,   0.00025,   0.00090,  -0.00171,329313472.00000,   0.00000,274640576.00000,   0.00000,   0.00000,   0.00000,-145327104.00000,   0.00000
170740626.37130,271733654.04931,-131867357.93962,   0.00025,   0.00090,  -0.00171,329782496.00000,   0.00000,274640576.00000,   0.00000,   0.00000,   0.00000,-144858080.00000,   0.00000
171106307.59479,271611760.30815,-132273670.41016,   0.00025,   0.00090,  -0.00172,330240992.00000,   0.00000,274640576.00000,   0.00000,   0.00000,   0.00000,-144399584.00000,   0.00000
171480115.06769,271508827.81561,-132679982.88070,   0.00025,   0.00090,  -0.00172,330712512.00000,   0.00000,274640576.00000,   0.00000,   0.00000,   0.00000,-143928064.00000,   0.00000
171853922.54059,271405895.32307,-133086295.35124,   0.00025,   0.00090,  -0.00173,331185248.00000,   0.00000,274640576.00000,   0.00000,   0.00000,   0.00000,-143455328.00000,   0.00000
172219603.76408,271284001.58191,-133492607.82179,   0.00025,   0.00090,  -0.00174,331647904.00000,   0.00000,274640576.00000,   0.00000,   0.00000,   0.00000,-142992672.00000,   0.00000
172593411.23698,271181069.08937,-133898920.29233,   0.00026,   0.00090,  -0.00174,332123296.00000,   0.00000,274640576.00000,   0.00000,   0.00000,   0.00000,-142517280.00000,   0.00000
172940131.21184,271051049.09880,-134310650.26248,   0.00026,   0.00090,  -0.00175,332588448.00000,   0.00000,274640576.00000,   0.00000,   0.00000,   0.00000,-142052128.00000,   0.00000
173286851.18670,270921029.10823,-134722380.23263,   0.00026,   0.00089,  -0.00175,333054848.00000,   0.00000,274640576.00000,   0.00000,   0.00000,   0.00000,-141585728.00000,   0.00000
173633571.16157,270791009.11765,-135134110.20278,   0.00026,   0.00089,  -0.00176,333522432.00000,   0.00000,274640576.00000,   0.00000,   0.00000,   0.00000,-141118144.00000,   0.00000
173961329.88780,270652862.87767,-135545840.17293,   0.00026,   0.00089,  -0.00176,333984640.00000,   0.00000,274640576.00000,   0.00000,   0.00000,   0.00000,-140655936.00000,   0.00000
174289088.61404,270514716.63768,-135962987.64268,   0.00027,   0.00089,  -0.00177,334455008.00000,   0.00000,274640576.00000,   0.00000,   0.00000,   0.00000,-140185568.00000,   0.00000
174616847.34028,270376570.39770,-136374717.61283,   0.00027,   0.00089,  -0.00177,334919808.00000,   0.00000,274640576.00000,   0.00000,   0.00000,   0.00000,-139720768.00000,   0.00000
174936479.81711,270219462.90909,-136791865.08259,   0.00027,   0.00089,  -0.00178,335381312.00000,   0.00000,274640576.00000,   0.00000,   0.00000,   0.00000,-139259264.00000,   0.00000
175264238.54334,270081316.66910,-137209012.55235,   0.00027,   0.00089,  -0.00178,335855296.00000,   0.00000,274640576.00000,   0.00000,   0.00000,   0.00000,-138785280.00000,   0.00000
175564909.77154,269916082.93108,-137631577.52171,   0.00027,   0.00089,  -0.00179,336319488.00000,   0.00000,274640576.00000,   0.00000,   0.00000,   0.00000,-138321088.00000,   0.00000
175873707.24916,269769810.44169,-138048724.99147,   0.00027,   0.00088,  -0.00179,336789504.00000,   0.00000,274640576.00000,   0.00000,   0.00000,   0.00000,-137851072.00000,   0.00000
176155417.22873,269596450.45426,-138471289.96083,   0.00028,   0.00088,  -0.00180,337249792.00000,   0.00000,274640576.00000,   0.00000,   0.00000,   0.00000,-137390784.00000,   0.00000
176456088.45693,269431216.71624,-138893854.93020,   0.00028,   0.00088,  -0.00181,337718112.00000,   0.00000,274640576.00000,   0.00000,   0.00000,   0.00000,-136922464.00000,   0.00000
176737798.43651,269257856.72881,-139321837.39917,   0.00028,   0.00088,  -0.00181,338187936.00000,   0.00000,274640576.00000,   0.00000,   0.00000,   0.00000,-136452640.00000,   0.00000
177019508.41609,269084496.74137,-139744402.36853,   0.00028,   0.00088,  -0.00182,338652608.00000,   0.00000,274640576.00000,   0.00000,   0.00000,   0.00000,-135987968.00000,   0.00000
177301218.39566,268911136.75394,-140172384.83750,   0.00028,   0.00088,  -0.00182,339125536.00000,   0.00000,274640576.00000,   0.00000,   0.00000,   0.00000,-135515040.00000,   0.00000
177563967.12661,268729650.51710,-140600367.30647,   0.00028,   0.00088,  -0.00183,339593376.00000,   0.00000,274640576.00000,   0.00000,   0.00000,   0.00000,-135047200.00000,   0.00000
177826715.85756,268548164.28026,-141028349.77544,   0.00029,   0.00088,  -0.00183,340062752.00000,   0.00000,274640576.00000,   0.00000,   0.00000,   0.00000,-134577824.00000,   0.00000
178081338.33910,268347716.79479,-141456332.24442,   0.00029,   0.00087,  -0.00184,340522816.00000,   0.00000,274640576.00000,   0.00000,   0.00000,   0.00000,-134117760.00000,   0.00000
178344087.07005,268166230.55795,-141889732.21299,   0.00029,   0.00087,  -0.00184,341002304.00000,   0.00000,274640576.00000,   0.00000,   0.00000,   0.00000,-133638272.00000,   0.00000
178598709.55159,267965783.07248,-142323132.18157,   0.00029,   0.00087,  -0.00185,341472640.00000,   0.00000,274640576.00000,   0.00000,   0.00000,   0.00000,-133167936.00000,   0.00000
178842497.03392,267776170.58623,-142756532.15015,   0.00029,   0.00087,  -0.00186,341949024.00000,   0.00000,274640576.00000,   0.00000,   0.00000,   0.00000,-132691552.00000,   0.00000
179078158.26683,267567596.85135,-143195349.61834,   0.00029,   0.00087,  -0.00186,342422880.00000,   0.00000,274640576.00000,   0.00000,   0.00000,   0.00000,-132217696.00000,   0.00000
179302984.50053,267369858.11569,-143628749.58692,   0.00029,   0.00087,  -0.00187,342896192.00000,   0.00000,274640576.00000,   0.00000,   0.00000,   0.00000,-131744384.00000,   0.00000
179538645.73345,267161284.38081,-144067567.05510,   0.00030,   0.00087,  -0.00187,343373792.00000,   0.00000,274640576.00000,   0.00000,   0.00000,   0.00000,-131266784.00000,   0.00000
179755345.71774,266944584.39652,-144506384.52329,   0.00030,   0.00086,  -0.00188,343846624.00000,   0.00000,274640576.00000,   0.00000,   0.00000,   0.00000,-130793952.00000,   0.00000
179972045.70203,266727884.41223,-144945201.99147,   0.00030,   0.00086,  -0.00188,344321120.00000,   0.00000,274640576.00000,   0.00000,   0.00000,   0.00000,-130319456.00000,   0.00000
180188745.68632,266511184.42794,-145389436.95927,   0.00030,   0.00086,  -0.00189,344804352.00000,   0.00000,274640576.00000,   0.00000,   0.00000,   0.00000,-129836224.00000,   0.00000
180386484.42198,266286358.19424,-145833671.92706,   0.00030,   0.00086,  -0.00190,345282784.00000,   0.00000,274640576.00000,   0.00000,   0.00000,   0.00000,-129357792.00000,   0.00000
180584223.15764,266061531.96054,-146277906.89485,   0.00030,   0.00086,  -0.00190,345762912.00000,   0.00000,274640576.00000,   0.00000,   0.00000,   0.00000,-128877664.00000,   0.00000
180781961.89331,265836705.72684,-146722141.86264,   0.00030,   0.00086,  -0.00191,346244768.00000,   0.00000,274640576.00000,   0.00000,   0.00000,   0.00000,-128395808.00000,   0.00000
180979700.62897,265611879.49314,-147171794.33004,   0.00031,   0.00086,  -0.00191,346735104.00000,   0.00000,274640576.00000,   0.00000,   0.00000,   0.00000,-127905472.00000,   0.00000
181177439.36464,265387053.25944,-147616029.29784,   0.00031,   0.00085,  -0.00192,347220288.00000,   0.00000,274640576.00000,   0.00000,   0.00000,   0.00000,-127420288.00000,   0.00000
181356216.85167,265154100.77633,-148065681.76524,   0.00031,   0.00085,  -0.00192,347707136.00000,   0.00000,274640576.00000,   0.00000,   0.00000,   0.00000,-126933440.00000,   0.00000
181526868.08930,264902187.04459,-148520751.73225,   0.00031,   0.00085,  -0.00193,348191872.00000,   0.00000,274640576.00000,   0.00000,   0.00000,   0.00000,-126448704.00000,   0.00000
181705645.57634,264669234.56148,-148970404.19965,   0.00031,   0.00085,  -0.00194,348681632.00000,   0.00000,274640576.00000,   0.00000,   0.00000,   0.00000,-125958944.00000,   0.00000
181865461.81475,264428155.82896,-149425474.16665,   0.00031,   0.00085,  -0.00194,349173024.00000,   0.00000,274640576.00000,   0.00000,   0.00000,   0.00000,-125467552.00000,   0.00000
182017151.80376,264168115.84781,-149880544.13366,   0.00031,   0.00085,  -0.00195,349655104.00000,   0.00000,274640576.00000,   0.00000,   0.00000,   0.00000,-124985472.00000,   0.00000
182176968.04217,263927037.11529,-150335614.10067,   0.00031,   0.00085,  -0.00195,350149024.00000,   0.00000,274640576.00000,   0.00000,   0.00000,   0.00000,-124491552.00000,   0.00000
182336784.28058,263685958.38277,-150796101.56728,   0.00032,   0.00084,  -0.00196,350651040.00000,   0.00000,274640576.00000,   0.00000,   0.00000,   0.00000,-123989536.00000,   0.00000
182488474.26959,263425918.40162,-151256589.03390,   0.00032,   0.00084,  -0.00197,351143840.00000,   0.00000,274640576.00000,   0.00000,   0.00000,   0.00000,-123496736.00000,   0.00000
182629329.25937,263176713.41969,-151711659.00090,   0.00032,   0.00084,  -0.00197,351634304.00000,   0.00000,274640576.00000,   0.00000,   0.00000,   0.00000,-123006272.00000,   0.00000
182762057.99975,262908547.18913,-152177563.96713,   0.00032,   0.00084,  -0.00198,352129472.00000,   0.00000,274640576.00000,   0.00000,   0.00000,   0.00000,-122511104.00000,   0.00000
182902912.98954,262659342.20720,-152638051.43374,   0.00032,   0.00084,  -0.00198,352629184.00000,   0.00000,274640576.00000,   0.00000,   0.00000,   0.00000,-122011392.00000,   0.00000
183035641.72992,262391175.97664,-153103956.39996,   0.00032,   0.00084,  -0.00199,353126528.00000,   0.00000,274640576.00000,   0.00000,   0.00000,   0.00000,-121514048.00000,   0.00000
183149409.22167,262114883.49667,-153569861.36618,   0.00032,   0.00084,  -0.00200,353618208.00000,   0.00000,274640576.00000,   0.00000,   0.00000,   0.00000,-121022368.00000,   0.00000
183271302.96283,261857552.26533,-154035766.33241,   0.00032,   0.00083,  -0.00200,354121280.00000,   0.00000,274640576.00000,   0.00000,   0.00000,   0.00000,-120519296.00000,   0.00000
183385070.45458,261581259.78536,-154507088.79824,   0.00032,   0.00083,  -0.00201,354622272.00000,   0.00000,274640576.00000,   0.00000,   0.00000,   0.00000,-120018304.00000,   0.00000
183506964.19575,261323928.55402,-154972993.76446,   0.00033,   0.00083,  -0.00201,355127488.00000,   0.00000,274640576.00000,   0.00000,   0.00000,   0.00000,-119513088.00000,   0.00000
183601770.43887,261039509.82464,-155444316.23029,   0.00033,   0.00083,  -0.00202,355624064.00000,   0.00000,274640576.00000,   0.00000,   0.00000,   0.00000,-119016512.00000,   0.00000
183723664.18003,260782178.59329,-155915638.69612,   0.00033,   0.00083,  -0.00203,356138688.00000,   0.00000,274640576.00000,   0.00000,   0.00000,   0.00000,-118501888.00000,   0.00000
183818470.42316,260497759.86391,-156392378.66155,   0.00033,   0.00083,  -0.00203,356644800.00000,   0.00000,274640576.00000,   0.00000,   0.00000,   0.00000,-117995776.00000,   0.00000
183913276.66629,260213341.13453,-156869118.62699,   0.00033,   0.00083,  -0.00204,357152416.00000,   0.00000,274640576.00000,   0.00000,   0.00000,   0.00000,-117488160.00000,   0.00000
183997247.91020,259939757.40437,-157340441.09282,   0.00033,   0.00082,  -0.00205,357657504.00000,   0.00000,274640576.00000,   0.00000,   0.00000,   0.00000,-116983072.00000,   0.00000
184092054.15333,259655338.67499,-157822598.55786,   0.00033,   0.00082,  -0.00205,358175008.00000,   0.00000,274640576.00000,   0.00000,   0.00000,   0.00000,-116465568.00000,   0.00000
184167899.14783,259362793.69620,-158299338.52330,   0.00033,   0.00082,  -0.00206,358680000.00000,   0.00000,274640576.00000,   0.00000,   0.00000,   0.00000,-115960576.00000,   0.00000
184251870.39174,259089209.96603,-158781495.98834,   0.00033,   0.00082,  -0.00206,359203744.00000,   0.00000,274640576.00000,   0.00000,   0.00000,   0.00000,-115436832.00000,   0.00000
184308754.13762,258788538.73783,-159263653.45338,   0.00033,   0.00082,  -0.00207,359712544.00000,   0.00000,274640576.00000,   0.00000,   0.00000,   0.00000,-114928032.00000,   0.00000
184392725.38153,258514955.00767,-159745810.91843,   0.00033,   0.00082,  -0.00208,360239328.00000,   0.00000,274640576.00000,   0.00000,   0.00000,   0.00000,-114401248.00000,   0.00000
184449609.12740,258214283.77946,-160227968.38347,   0.00034,   0.00082,  -0.00208,360751200.00000,   0.00000,274640576.00000,   0.00000,   0.00000,   0.00000,-113889376.00000,   0.00000
184514619.12269,257932573.79989,-160715543.34812,   0.00034,   0.00081,  -0.00209,361281952.00000,   0.00000,274640576.00000,   0.00000,   0.00000,   0.00000,-113358624.00000,   0.00000
184571502.86857,257631902.57169,-161203118.31277,   0.00034,   0.00081,  -0.00210,361804448.00000,   0.00000,274640576.00000,   0.00000,   0.00000,   0.00000,-112836128.00000,   0.00000
184636512.86385,257350192.59211,-161690693.27742,   0.00034,   0.00081,  -0.00210,362338432.00000,   0.00000,274640576.00000,   0.00000,   0.00000,   0.00000,-112302144.00000,   0.00000
184674435.36110,257041395.11450,-162178268.24208,   0.00034,   0.00081,  -0.00211,362857504.00000,   0.00000,274640576.00000,   0.00000,   0.00000,   0.00000,-111783072.00000,   0.00000
184739445.35639,256759685.13492,-162671260.70633,   0.00034,   0.00081,  -0.00211,363402144.00000,   0.00000,274640576.00000,   0.00000,   0.00000,   0.00000,-111238432.00000,   0.00000
184777367.85364,256450887.65731,-163164253.17059,   0.00034,   0.00081,  -0.00212,363932000.00000,   0.00000,274640576.00000,   0.00000,   0.00000,   0.00000,-110708576.00000,   0.00000
184804455.35168,256152925.17891,-163657245.63485,   0.00034,   0.00081,  -0.00213,364466688.00000,   0.00000,274640576.00000,   0.00000,   0.00000,   0.00000,-110173888.00000,   0.00000
184842377.84893,255844127.70130,-164150238.09911,   0.00034,   0.00080,  -0.00213,365000032.00000,   0.00000,274640576.00000,   0.00000,   0.00000,   0.00000,-109640544.00000,   0.00000
184869465.34696,255546165.22290,-164648648.06297,   0.00034,   0.00080,  -0.00214,365545440.00000,   0.00000,274640576.00000,   0.00000,   0.00000,   0.00000,-109095136.00000,   0.00000
184915514.09363,255256328.99392,-165147058.02684,   0.00034,   0.00080,  -0.00215,366099104.00000,   0.00000,274640576.00000,   0.00000,   0.00000,   0.00000,-108541472.00000,   0.00000
184934475.34225,254939405.26689,-165645467.99070,   0.00034,   0.00080,  -0.00215,366638112.00000,   0.00000,274640576.00000,   0.00000,   0.00000,   0.00000,-108002464.00000,   0.00000
184961562.84029,254641442.78850,-166143877.95457,   0.00035,   0.00080,  -0.00216,367188416.00000,   0.00000,274640576.00000,   0.00000,   0.00000,   0.00000,-107452160.00000,   0.00000
184969689.08970,254335354.06069,-166647705.41804,   0.00035,   0.00080,  -0.00217,367741152.00000,   0.00000,274640576.00000,   0.00000,   0.00000,   0.00000,-106899424.00000,   0.00000
184996776.58773,254037391.58229,-167146115.38191,   0.00035,   0.00080,  -0.00217,368294688.00000,   0.00000,274640576.00000,   0.00000,   0.00000,   0.00000,-106345888.00000,   0.00000
185004902.83714,253731302.85448,-167649942.84538,   0.00035,   0.00079,  -0.00218,368850464.00000,   0.00000,274640576.00000,   0.00000,   0.00000,   0.00000,-105790112.00000,   0.00000
185013029.08656,253425214.12667,-168159187.80846,   0.00035,   0.00079,  -0.00219,369415264.00000,   0.00000,274640576.00000,   0.00000,   0.00000,   0.00000,-105225312.00000,   0.00000
185021155.33597,253119125.39886,-168663015.27193,   0.00035,   0.00079,  -0.00219,369974176.00000,   0.00000,274640576.00000,   0.00000,   0.00000,   0.00000,-104666400.00000,   0.00000
185029281.58538,252813036.67105,-169172260.23501,   0.00035,   0.00079,  -0.00220,370542080.00000,   0.00000,274640576.00000,   0.00000,   0.00000,   0.00000,-104098496.00000,   0.00000
185018446.58616,252498821.69384,-169681505.19809,   0.00035,   0.00079,  -0.00221,371104928.00000,   0.00000,274640576.00000,   0.00000,   0.00000,   0.00000,-103535648.00000,   0.00000
185026572.83557,252192732.96603,-170190750.16117,   0.00035,   0.00079,  -0.00221,371675712.00000,   0.00000,274640576.00000,   0.00000,   0.00000,   0.00000,-102964864.00000,   0.00000
185015737.83636,251878517.98881,-170699995.12425,   0.00035,   0.00079,  -0.00222,372241376.00000,   0.00000,274640576.00000,   0.00000,   0.00000,   0.00000,-102399200.00000,   0.00000
185004902.83714,251564303.01159,-171214657.58694,   0.00035,   0.00078,  -0.00223,372815968.00000,   0.00000,274640576.00000,   0.00000,   0.00000,   0.00000,-101824608.00000,   0.00000
184975106.58930,251241961.78496,-171729320.04962,   0.00035,   0.00078,  -0.00223,373385568.00000,   0.00000,274640576.00000,   0.00000,   0.00000,   0.00000,-101255008.00000,   0.00000
184972397.83950,250946708.05636,-172243982.51231,   0.00035,   0.00078,  -0.00224,373972288.00000,   0.00000,274640576.00000,   0.00000,   0.00000,   0.00000,-100668288.00000,   0.00000
184961562.84029,250632493.07914,-172758644.97500,   0.00035,   0.00078,  -0.00225,374551200.00000,   0.00000,274640576.00000,   0.00000,   0.00000,   0.00000,-100089376.00000,   0.00000
184939892.84186,250329113.10114,-173278724.93729,   0.00035,   0.00078,  -0.00225,375141600.00000,   0.00000,274640576.00000,   0.00000,   0.00000,   0.00000,-99498976.00000,   0.00000
184910096.59402,250006771.87451,-173793387.39998,   0.00035,   0.00078,  -0.00226,375716704.00000,   0.00000,274640576.00000,   0.00000,   0.00000,   0.00000,-98923872.00000,   0.00000
184888426.59559,249703391.89650,-174313467.36227,   0.00035,   0.00078,  -0.00227,376309792.00000,   0.00000,274640576.00000,   0.00000,   0.00000,   0.00000,-98330784.00000,   0.00000
184866756.59716,249400011.91850,-174833547.32457,   0.00035,   0.00077,  -0.00227,376904256.00000,   0.00000,274640576.00000,   0.00000,   0.00000,   0.00000,-97736320.00000,   0.00000
184817999.10070,249069544.44246,-175359044.78647,   0.00036,   0.00077,  -0.00228,377491936.00000,   0.00000,274640576.00000,   0.00000,   0.00000,   0.00000,-97148640.00000,   0.00000
184796329.10227,248766164.46445,-175879124.74876,   0.00036,   0.00077,  -0.00229,378088928.00000,   0.00000,274640576.00000,   0.00000,   0.00000,   0.00000,-96551648.00000,   0.00000
184755697.85521,248454658.23704,-176404622.21066,   0.00036,   0.00077,  -0.00229,378688480.00000,   0.00000,274640576.00000,   0.00000,   0.00000,   0.00000,-95952096.00000,   0.00000
184715066.60816,248143152.00962,-176930119.67257,   0.00036,   0.00077,  -0.00230,379289248.00000,   0.00000,274640576.00000,   0.00000,   0.00000,   0.00000,-95351328.00000,   0.00000
184674435.36110,247831645.78221,-177461034.63407,   0.00036,   0.00077,  -0.00231,379898976.00000,   0.00000,274640576.00000,   0.00000,   0.00000,   0.00000,-94741600.00000,   0.00000
184633804.11405,247520139.55479,-177986532.09598,   0.00036,   0.00077,  -0.00231,380502336.00000,   0.00000,274640576.00000,   0.00000,   0.00000,   0.00000,-94138240.00000,   0.00000
184601299.11641,247227594.57600,-178517447.05748,   0.00036,   0.00076,  -0.00232,381123744.00000,   0.00000,274640576.00000,   0.00000,   0.00000,   0.00000,-93516832.00000,   0.00000
184541706.62073,246907962.09917,-179042944.51939,   0.00036,   0.00076,  -0.00233,381723360.00000,   0.00000,274640576.00000,   0.00000,   0.00000,   0.00000,-92917216.00000,   0.00000
184482114.12505,246588329.62235,-179579276.98050,   0.00036,   0.00076,  -0.00233,382339648.00000,   0.00000,274640576.00000,   0.00000,   0.00000,   0.00000,-92300928.00000,   0.00000
184449609.12740,246295784.64356,-180110191.94201,   0.00036,   0.00076,  -0.00234,382964864.00000,   0.00000,274640576.00000,   0.00000,   0.00000,   0.00000,-91675712.00000,   0.00000
184390016.63172,245976152.16673,-180641106.90352,   0.00036,   0.00076,  -0.00235,383575968.00000,   0.00000,274640576.00000,   0.00000,   0.00000,   0.00000,-91064608.00000,   0.00000
184338550.38546,245675480.93853,-181177439.36464,   0.00036,   0.00076,  -0.00236,384205088.00000,   0.00000,274640576.00000,   0.00000,   0.00000,   0.00000,-90435488.00000,   0.00000
184268122.89056,245366683.46092,-181713771.82575,   0.00036,   0.00076,  -0.00236,384829376.00000,   0.00000,274640576.00000,   0.00000,   0.00000,   0.00000,-89811200.00000,   0.00000
184216656.64429,245066012.23271,-182250104.28687,   0.00036,   0.00076,  -0.00237,385461184.00000,   0.00000,274640576.00000,   0.00000,   0.00000,   0.00000,-89179392.00000,   0.00000
184146229.14940,244757214.75510,-182786436.74798,   0.00036,   0.00075,  -0.00238,386088000.00000,   0.00000,274640576.00000,   0.00000,   0.00000,   0.00000,-88552576.00000,   0.00000
184094762.90313,244456543.52690,-183328186.70871,   0.00036,   0.00075,  -0.00238,386730272.00000,   0.00000,274640576.00000,   0.00000,   0.00000,   0.00000,-87910304.00000,   0.00000
184024335.40824,244147746.04929,-183864519.16982,   0.00036,   0.00075,  -0.00239,387359904.00000,   0.00000,274640576.00000,   0.00000,   0.00000,   0.00000,-87280672.00000,   0.00000
183953907.91334,243838948.57168,-184406269.13055,   0.00036,   0.00075,  -0.00240,387998784.00000,   0.00000,274640576.00000,   0.00000,   0.00000,   0.00000,-86641792.00000,   0.00000
183883480.41845,243530151.09406,-184948019.09127,   0.00036,   0.00075,  -0.00240,388638976.00000,   0.00000,274640576.00000,   0.00000,   0.00000,   0.00000,-86001600.00000,   0.00000
183821179.17296,243240314.86508,-185489769.05199,   0.00036,   0.00075,  -0.00241,389289312.00000,   0.00000,274640576.00000,   0.00000,   0.00000,   0.00000,-85351264.00000,   0.00000
183731790.42945,242923391.13805,-186036936.51232,   0.00036,   0.00075,  -0.00242,389934080.00000,   0.00000,274640576.00000,   0.00000,   0.00000,   0.00000,-84706496.00000,   0.00000
183669489.18396,242633554.90907,-186578686.47305,   0.00036,   0.00075,  -0.00243,390587360.00000,   0.00000,274640576.00000,   0.00000,   0.00000,   0.00000,-84053216.00000,   0.00000
183588226.68985,242335592.43067,-187125853.93338,   0.00036,   0.00074,  -0.00243,391243712.00000,   0.00000,274640576.00000,   0.00000,   0.00000,   0.00000,-83396864.00000,   0.00000
183525925.44437,242045756.20168,-187673021.39371,   0.00036,   0.00074,  -0.00244,391907712.00000,   0.00000,274640576.00000,   0.00000,   0.00000,   0.00000,-82732864.00000,   0.00000
183444662.95026,241747793.72328,-188220188.85404,   0.00036,   0.00074,  -0.00245,392567168.00000,   0.00000,274640576.00000,   0.00000,   0.00000,   0.00000,-82073408.00000,   0.00000
183363400.45615,241449831.24489,-188767356.31437,   0.00036,   0.00074,  -0.00245,393228096.00000,   0.00000,274640576.00000,   0.00000,   0.00000,   0.00000,-81412480.00000,   0.00000
183282137.96204,241151868.76649,-189319941.27430,   0.00036,   0.00074,  -0.00246,393898496.00000,   0.00000,274640576.00000,   0.00000,   0.00000,   0.00000,-80742080.00000,   0.00000
183209001.71735,240872867.53672,-189867108.73463,   0.00036,   0.00074,  -0.00247,394571168.00000,   0.00000,274640576.00000,   0.00000,   0.00000,   0.00000,-80069408.00000,   0.00000
183108777.97461,240566778.80891,-190419693.69457,   0.00036,   0.00074,  -0.00248,395238560.00000,   0.00000,274640576.00000,   0.00000,   0.00000,   0.00000,-79402016.00000,   0.00000
183035641.72992,240287777.57914,-190972278.65451,   0.00036,   0.00074,  -0.00248,395922176.00000,   0.00000,274640576.00000,   0.00000,   0.00000,   0.00000,-78718400.00000,   0.00000
182935417.98718,239981688.85133,-191524863.61445,   0.00036,   0.00074,  -0.00249,396592960.00000,   0.00000,274640576.00000,   0.00000,   0.00000,   0.00000,-78047616.00000,   0.00000
182862281.74248,239702687.62156,-192077448.57438,   0.00036,   0.00073,  -0.00250,397279712.00000,   0.00000,274640576.00000,   0.00000,   0.00000,   0.00000,-77360864.00000,   0.00000
182770184.24916,239415560.14237,-192635451.03393,   0.00036,   0.00073,  -0.00250,397969856.00000,   0.00000,274640576.00000,   0.00000,   0.00000,   0.00000,-76670720.00000,   0.00000
182678086.75584,239128432.66319,-193188035.99387,   0.00036,   0.00073,  -0.00251,398653696.00000,   0.00000,274640576.00000,   0.00000,   0.00000,   0.00000,-75986880.00000,   0.00000
182585989.26252,238841305.18401,-193746038.45341,   0.00037,   0.00073,  -0.00252,399346912.00000,   0.00000,274640576.00000,   0.00000,   0.00000,   0.00000,-75293664.00000,   0.00000
182502018.01860,238573138.95345,-194304040.91296,   0.00037,   0.00073,  -0.00253,400049888.00000,   0.00000,274640576.00000,   0.00000,   0.00000,   0.00000,-74590688.00000,   0.00000
182409920.52528,238286011.47426,-194862043.37250,   0.00037,   0.00073,  -0.00253,400745984.00000,   0.00000,274640576.00000,   0.00000,   0.00000,   0.00000,-73894592.00000,   0.00000
182325949.28137,238017845.24371,-195420045.83205,   0.00037,   0.00073,  -0.00254,401451584.00000,   0.00000,274640576.00000,   0.00000,   0.00000,   0.00000,-73188992.00000,   0.00000
182223016.78883,237741552.76374,-195978048.29159,   0.00037,   0.00073,  -0.00255,402152320.00000,   0.00000,274640576.00000,   0.00000,   0.00000,   0.00000,-72488256.00000,   0.00000
182139045.54492,237473386.53318,-196536050.75114,   0.00037,   0.00073,  -0.00255,402860096.00000,   0.00000,274640576.00000,   0.00000,   0.00000,   0.00000,-71780480.00000,   0.00000
182036113.05238,237197094.05321,-197099470.71029,   0.00037,   0.00072,  -0.00256,403570816.00000,   0.00000,274640576.00000,   0.00000,   0.00000,   0.00000,-71069760.00000,   0.00000
181952141.80847,236928927.82265,-197657473.16983,   0.00037,   0.00072,  -0.00257,404280352.00000,   0.00000,274640576.00000,   0.00000,   0.00000,   0.00000,-70360224.00000,   0.00000
181849209.31593,236652635.34268,-198220893.12899,   0.00037,   0.00072,  -0.00258,404992576.00000,   0.00000,274640576.00000,   0.00000,   0.00000,   0.00000,-69648000.00000,   0.00000
181746276.82339,236376342.86272,-198784313.08814,   0.00037,   0.00072,  -0.00258,405705504.00000,   0.00000,274640576.00000,   0.00000,   0.00000,   0.00000,-68935072.00000,   0.00000
181651470.58027,236119011.63137,-199347733.04729,   0.00037,   0.00072,  -0.00259,406426912.00000,   0.00000,274640576.00000,   0.00000,   0.00000,   0.00000,-68213664.00000,   0.00000
181556664.33714,235861680.40003,-199911153.00644,   0.00037,   0.00072,  -0.00260,407148992.00000,   0.00000,274640576.00000,   0.00000,   0.00000,   0.00000,-67491584.00000,   0.00000
181461858.09402,235604349.16868,-200474572.96559,   0.00037,   0.00072,  -0.00261,407871392.00000,   0.00000,274640576.00000,   0.00000,   0.00000,   0.00000,-66769184.00000,   0.00000
181367051.85089,235347017.93734,-201043410.42435,   0.00037,   0.00072,  -0.00261,408602432.00000,   0.00000,274640576.00000,   0.00000,   0.00000,   0.00000,-66038144.00000,   0.00000
181272245.60776,235089686.70600,-201606830.38350,   0.00037,   0.00072,  -0.00262,409326208.00000,   0.00000,274640576.00000,   0.00000,   0.00000,   0.00000,-65314368.00000,   0.00000
181158478.11601,234824229.22524,-202175667.84226,   0.00037,   0.00072,  -0.00263,410052992.00000,   0.00000,274640576.00000,   0.00000,   0.00000,   0.00000,-64587584.00000,   0.00000
181071798.12229,234585859.24253,-202739087.80142,   0.00037,   0.00071,  -0.00264,410786464.00000,   0.00000,274640576.00000,   0.00000,   0.00000,   0.00000,-63854112.00000,   0.00000
180958030.63054,234320401.76177,-203307925.26018,   0.00037,   0.00071,  -0.00264,411515424.00000,   0.00000,274640576.00000,   0.00000,   0.00000,   0.00000,-63125152.00000,   0.00000
180871350.63683,234082031.77905,-203876762.71893,   0.00037,   0.00071,  -0.00265,412259296.00000,   0.00000,274640576.00000,   0.00000,   0.00000,   0.00000,-62381280.00000,   0.00000
180765709.39449,233835535.54692,-204445600.17769,   0.00037,   0.00071,  -0.00266,412998752.00000,   0.00000,274640576.00000,   0.00000,   0.00000,   0.00000,-61641824.00000,   0.00000
180660068.15215,233589039.31479,-205014437.63645,   0.00037,   0.00071,  -0.00267,413739680.00000,   0.00000,274640576.00000,   0.00000,   0.00000,   0.00000,-60900896.00000,   0.00000
180573388.15843,233350669.33208,-205583275.09521,   0.00037,   0.00071,  -0.00267,414487776.00000,   0.00000,274640576.00000,   0.00000,   0.00000,   0.00000,-60152800.00000,   0.00000
180467746.91609,233104173.09995,-206152112.55397,   0.00037,   0.00071,  -0.00268,415231584.00000,   0.00000,274640576.00000,   0.00000,   0.00000,   0.00000,-59408992.00000,   0.00000
180370231.92316,232876638.11644,-206726367.51234,   0.00037,   0.00071,  -0.00269,415992320.00000,   0.00000,274640576.00000,   0.00000,   0.00000,   0.00000,-58648256.00000,   0.00000
180272716.93023,232649103.13294,-207295204.97110,   0.00037,   0.00071,  -0.00269,416746144.00000,   0.00000,274640576.00000,   0.00000,   0.00000,   0.00000,-57894432.00000,   0.00000
180175201.93730,232421568.14944,-207869459.92946,   0.00037,   0.00071,  -0.00270,417509280.00000,   0.00000,274640576.00000,   0.00000,   0.00000,   0.00000,-57131296.00000,   0.00000
180077686.94437,232194033.16593,-208438297.38822,   0.00037,   0.00071,  -0.00271,418265280.00000,   0.00000,274640576.00000,   0.00000,   0.00000,   0.00000,-56375296.00000,   0.00000
179961210.70281,231958371.93302,-209012552.34659,   0.00037,   0.00070,  -0.00272,419024768.00000,   0.00000,274640576.00000,   0.00000,   0.00000,   0.00000,-55615808.00000,   0.00000
179863695.70988,231730836.94951,-209581389.80535,   0.00037,   0.00070,  -0.00272,419782592.00000,   0.00000,274640576.00000,   0.00000,   0.00000,   0.00000,-54857984.00000,   0.00000
179774306.96636,231522263.21464,-210155644.76372,   0.00037,   0.00070,  -0.00273,420557088.00000,   0.00000,274640576.00000,   0.00000,   0.00000,   0.00000,-54083488.00000,   0.00000
179676791.97343,231294728.23113,-210729899.72208,   0.00037,   0.00070,  -0.00274,421324960.00000,   0.00000,274640576.00000,   0.00000,   0.00000,   0.00000,-53315616.00000,   0.00000
179568441.98129,231078028.24684,-211304154.68045,   0.00037,   0.00070,  -0.00275,422095872.00000,   0.00000,274640576.00000,   0.00000,   0.00000,   0.00000,-52544704.00000,   0.00000
179479053.23777,230869454.51196,-211872992.13921,   0.00037,   0.00070,  -0.00275,422865120.00000,   0.00000,274640576.00000,   0.00000,   0.00000,   0.00000,-51775456.00000,   0.00000
179370703.24562,230652754.52768,-212447247.09757,   0.00037,   0.00070,  -0.00276,423638080.00000,   0.00000,274640576.00000,   0.00000,   0.00000,   0.00000,-51002496.00000,   0.00000
179289440.75152,230463142.04142,-213021502.05594,   0.00037,   0.00070,  -0.00277,424425184.00000,   0.00000,274640576.00000,   0.00000,   0.00000,   0.00000,-50215392.00000,   0.00000
179181090.75937,230246442.05713,-213595757.01431,   0.00037,   0.00070,  -0.00278,425200416.00000,   0.00000,274640576.00000,   0.00000,   0.00000,   0.00000,-49440160.00000,   0.00000
179080867.01664,230048703.32147,-214170011.97267,   0.00037,   0.00070,  -0.00278,425984320.00000,   0.00000,274640576.00000,   0.00000,   0.00000,   0.00000,-48656256.00000,   0.00000
178999604.52253,229859090.83522,-214744266.93104,   0.00037,   0.00070,  -0.00279,426774720.00000,   0.00000,274640576.00000,   0.00000,   0.00000,   0.00000,-47865856.00000,   0.00000
178899380.77979,229661352.09955,-215318521.88941,   0.00037,   0.00070,  -0.00280,427560928.00000,   0.00000,274640576.00000,   0.00000,   0.00000,   0.00000,-47079648.00000,   0.00000
178799157.03706,229463613.36389,-215898194.34738,   0.00037,   0.00070,  -0.00281,428356416.00000,   0.00000,274640576.00000,   0.00000,   0.00000,   0.00000,-46284160.00000,   0.00000
178698933.29433,229265874.62822,-216472449.30575,   0.00037,   0.00069,  -0.00281,429144960.00000,   0.00000,274640576.00000,   0.00000,   0.00000,   0.00000,-45495616.00000,   0.00000
178606835.80100,229087097.14119,-217046704.26411,   0.00037,   0.00069,  -0.00282,429942112.00000,   0.00000,274640576.00000,   0.00000,   0.00000,   0.00000,-44698464.00000,   0.00000
178506612.05827,228889358.40552,-217620959.22248,   0.00037,   0.00069,  -0.00283,430732832.00000,   0.00000,274640576.00000,   0.00000,   0.00000,   0.00000,-43907744.00000,   0.00000
178414514.56495,228710580.91848,-218195214.18085,   0.00037,   0.00069,  -0.00284,431532160.00000,   0.00000,274640576.00000,   0.00000,   0.00000,   0.00000,-43108416.00000,   0.00000
178322417.07162,228531803.43144,-218769469.13921,   0.00037,   0.00069,  -0.00284,432332544.00000,   0.00000,274640576.00000,   0.00000,   0.00000,   0.00000,-42308032.00000,   0.00000
178238445.82771,228371987.19303,-219343724.09758,   0.00037,   0.00069,  -0.00285,433141120.00000,   0.00000,274640576.00000,   0.00000,   0.00000,   0.00000,-41499456.00000,   0.00000
178146348.33439,228193209.70599,-219923396.55555,   0.00037,   0.00069,  -0.00286,433951648.00000,   0.00000,274640576.00000,   0.00000,   0.00000,   0.00000,-40688928.00000,   0.00000
178062377.09048,228033393.46758,-220497651.51392,   0.00037,   0.00069,  -0.00287,434762112.00000,   0.00000,274640576.00000,   0.00000,   0.00000,   0.00000,-39878464.00000,   0.00000
177970279.59715,227854615.98054,-221071906.47229,   0.00037,   0.00069,  -0.00287,435566144.00000,   0.00000,274640576.00000,   0.00000,   0.00000,   0.00000,-39074432.00000,   0.00000
177867347.10462,227686673.49272,-221646161.43065,   0.00037,   0.00069,  -0.00288,436372960.00000,   0.00000,274640576.00000,   0.00000,   0.00000,   0.00000,-38267616.00000,   0.00000
177791502.11012,227545818.50293,-222220416.38902,   0.00037,   0.00069,  -0.00289,437193024.00000,   0.00000,274640576.00000,   0.00000,   0.00000,   0.00000,-37447552.00000,   0.00000
177707530.86620,227386002.26451,-222794671.34739,   0.00037,   0.00069,  -0.00290,438006592.00000,   0.00000,274640576.00000,   0.00000,   0.00000,   0.00000,-36633984.00000,   0.00000
177623559.62229,227226186.02610,-223368926.30575,   0.00037,   0.00069,  -0.00290,438820896.00000,   0.00000,274640576.00000,   0.00000,   0.00000,   0.00000,-35819680.00000,   0.00000
177528753.37917,227077204.78690,-223943181.26412,   0.00036,   0.00069,  -0.00291,439637696.00000,   0.00000,274640576.00000,   0.00000,   0.00000,   0.00000,-35002880.00000,   0.00000
177452908.38466,226936349.79711,-224517436.22249,   0.00036,   0.00069,  -0.00292,440460320.00000,   0.00000,274640576.00000,   0.00000,   0.00000,   0.00000,-34180256.00000,   0.00000
177358102.14154,226787368.55792,-225091691.18085,   0.00036,   0.00069,  -0.00293,441278336.00000,   0.00000,274640576.00000,   0.00000,   0.00000,   0.00000,-33362240.00000,   0.00000
177282257.14704,226646513.56813,-225665946.13922,   0.00036,   0.00069,  -0.00293,442102272.00000,   0.00000,274640576.00000,   0.00000,   0.00000,   0.00000,-32538304.00000,   0.00000
177214538.40195,226524619.82696,-226240201.09759,   0.00036,   0.00069,  -0.00294,442933664.00000,   0.00000,274640576.00000,   0.00000,   0.00000,   0.00000,-31706912.00000,   0.00000
177127858.40823,226394599.83639,-226814456.05595,   0.00036,   0.00068,  -0.00295,443760480.00000,   0.00000,274640576.00000,   0.00000,   0.00000,   0.00000,-30880096.00000,   0.00000
177052013.41373,226253744.84660,-227388711.01432,   0.00036,   0.00068,  -0.00296,444586112.00000,   0.00000,274640576.00000,   0.00000,   0.00000,   0.00000,-30054464.00000,   0.00000
176965333.42001,226123724.85603,-227962965.97268,   0.00036,   0.00068,  -0.00296,445414080.00000,   0.00000,274640576.00000,   0.00000,   0.00000,   0.00000,-29226496.00000,   0.00000
176886779.67571,226012666.11408,-228531803.43144,   0.00036,   0.00068,  -0.00297,446241536.00000,   0.00000,274640576.00000,   0.00000,   0.00000,   0.00000,-28399040.00000,   0.00000
176819060.93062,225890772.37292,-229106058.38981,   0.00036,   0.00068,  -0.00298,447076032.00000,   0.00000,274640576.00000,   0.00000,   0.00000,   0.00000,-27564544.00000,   0.00000
176740507.18631,225779713.63097,-229674895.84857,   0.00036,   0.00068,  -0.00299,447904576.00000,   0.00000,274640576.00000,   0.00000,   0.00000,   0.00000,-26736000.00000,   0.00000
176672788.44122,225657819.88981,-230249150.80694,   0.00036,   0.00068,  -0.00299,448740512.00000,   0.00000,274640576.00000,   0.00000,   0.00000,   0.00000,-25900064.00000,   0.00000
176594234.69692,225546761.14786,-230817988.26570,   0.00036,   0.00068,  -0.00300,449570400.00000,   0.00000,274640576.00000,   0.00000,   0.00000,   0.00000,-25070176.00000,   0.00000
176515680.95261,225435702.40591,-231392243.22406,   0.00036,   0.00068,  -0.00301,450409344.00000,   0.00000,274640576.00000,   0.00000,   0.00000,   0.00000,-24231232.00000,   0.00000
176464214.70634,225351731.16200,-231961080.68282,   0.00036,   0.00068,  -0.00302,451252832.00000,   0.00000,274640576.00000,   0.00000,   0.00000,   0.00000,-23387744.00000,   0.00000
176385660.96204,225240672.42005,-232529918.14158,   0.00036,   0.00068,  -0.00302,452084960.00000,   0.00000,274640576.00000,   0.00000,   0.00000,   0.00000,-22555616.00000,   0.00000
176315233.46715,225148574.92673,-233098755.60034,   0.00036,   0.00068,  -0.00303,452924544.00000,   0.00000,274640576.00000,   0.00000,   0.00000,   0.00000,-21716032.00000,   0.00000
176244805.97225,225056477.43341,-233667593.05910,   0.00036,   0.00068,  -0.00304,453765056.00000,   0.00000,274640576.00000,   0.00000,   0.00000,   0.00000,-20875520.00000,   0.00000
176193339.72598,224972506.18949,-234236430.51786,   0.00036,   0.00068,  -0.00305,454611232.00000,   0.00000,274640576.00000,   0.00000,   0.00000,   0.00000,-20029344.00000,   0.00000
176122912.23109,224880408.69617,-234799850.47701,   0.00036,   0.00068,  -0.00305,455444768.00000,   0.00000,274640576.00000,   0.00000,   0.00000,   0.00000,-19195808.00000,   0.00000
176060610.98561,224807272.45147,-235368687.93577,   0.00036,   0.00068,  -0.00306,456294112.00000,   0.00000,274640576.00000,   0.00000,   0.00000,   0.00000,-18346464.00000,   0.00000
175998309.74012,224734136.20678,-235932107.89492,   0.00036,   0.00068,  -0.00307,457135808.00000,   0.00000,274640576.00000,   0.00000,   0.00000,   0.00000,-17504768.00000,   0.00000
175936008.49464,224660999.96208,-236500945.35368,   0.00036,   0.00068,  -0.00307,457986464.00000,   0.00000,274640576.00000,   0.00000,   0.00000,   0.00000,-16654112.00000,   0.00000
175892668.49778,224595989.96679,-237064365.31283,   0.00036,   0.00068,  -0.00308,458834592.00000,   0.00000,274640576.00000,   0.00000,   0.00000,   0.00000,-15805984.00000,   0.00000
175830367.25230,224522853.72209,-237627785.27199,   0.00036,   0.00068,  -0.00309,459678144.00000,   0.00000,274640576.00000,   0.00000,   0.00000,   0.00000,-14962432.00000,   0.00000
175776192.25623,224468678.72602,-238191205.23114,   0.00036,   0.00068,  -0.00310,460529088.00000,   0.00000,274640576.00000,   0.00000,   0.00000,   0.00000,-14111488.00000,   0.00000
175713891.01074,224395542.48132,-238754625.19029,   0.00036,   0.00068,  -0.00310,461373728.00000,   0.00000,274640576.00000,   0.00000,   0.00000,   0.00000,-13266848.00000,   0.00000
175659716.01467,224341367.48525,-239318045.14944,   0.00036,   0.00068,  -0.00311,462225760.00000,   0.00000,274640576.00000,   0.00000,   0.00000,   0.00000,-12414816.00000,   0.00000
175605541.01860,224287192.48918,-239876047.60899,   0.00036,   0.00068,  -0.00312,463070016.00000,   0.00000,274640576.00000,   0.00000,   0.00000,   0.00000,-11570560.00000,   0.00000
175551366.02253,224233017.49311,-240434050.06853,   0.00036,   0.00068,  -0.00313,463914624.00000,   0.00000,274640576.00000,   0.00000,   0.00000,   0.00000,-10725952.00000,   0.00000
175505317.27586,224197803.74566,-240997470.02768,   0.00036,   0.00068,  -0.00313,464774784.00000,   0.00000,274640576.00000,   0.00000,   0.00000,   0.00000,-9865792.00000,   0.00000
175459268.52920,224162589.99821,-241555472.48723,   0.00036,   0.00068,  -0.00314,465626976.00000,   0.00000,274640576.00000,   0.00000,   0.00000,   0.00000,-9013600.00000,   0.00000
175405093.53313,224108415.00214,-242113474.94677,   0.00036,   0.00068,  -0.00315,466472640.00000,   0.00000,274640576.00000,   0.00000,   0.00000,   0.00000,-8167936.00000,   0.00000
175367171.03588,224092162.50332,-242666059.90671,   0.00036,   0.00068,  -0.00315,467323776.00000,   0.00000,274640576.00000,   0.00000,   0.00000,   0.00000,-7316800.00000,   0.00000
175321122.28922,224056948.75587,-243224062.36626,   0.00036,   0.00068,  -0.00316,468176992.00000,   0.00000,274640576.00000,   0.00000,   0.00000,   0.00000,-6463584.00000,   0.00000
175275073.54256,224021735.00842,-243776647.32619,   0.00036,   0.00068,  -0.00317,469021760.00000,   0.00000,274640576.00000,   0.00000,   0.00000,   0.00000,-5618816.00000,   0.00000
175237151.04531,224005482.50960,-244329232.28613,   0.00036,   0.00068,  -0.00318,469873664.00000,   0.00000,274640576.00000,   0.00000,   0.00000,   0.00000,-4766912.00000,   0.00000
175199228.54806,223989230.01078,-244887234.74568,   0.00036,   0.00068,  -0.00318,470734144.00000,   0.00000,274640576.00000,   0.00000,   0.00000,   0.00000,-3906432.00000,   0.00000
175161306.05081,223972977.51196,-245434402.20601,   0.00036,   0.00068,  -0.00319,471577952.00000,   0.00000,274640576.00000,   0.00000,   0.00000,   0.00000,-3062624.00000,   0.00000
175123383.55355,223956725.01314,-245986987.16594,   0.00036,   0.00068,  -0.00320,472430464.00000,   0.00000,274640576.00000,   0.00000,   0.00000,   0.00000,-2210112.00000,   0.00000
175093587.30571,223959433.76294,-246534154.62627,   0.00036,   0.00068,  -0.00320,473281248.00000,   0.00000,274640576.00000,   0.00000,   0.00000,   0.00000,-1359328.00000,   0.00000
175055664.80846,223943181.26412,-247086739.58621,   0.00036,   0.00068,  -0.00321,474134208.00000,   0.00000,274640576.00000,   0.00000,   0.00000,   0.00000,-506368.00000,   0.00000
175037915.09051,223944794.87484,-247412688.95223,   0.00036,   0.00068,  -0.00322,474641216.00000,   0.00000,274640576.00000,   0.00000,   0.00000,   0.00000, 640.00000,   0.00000
174919729.17208,223803205.59980,-247449484.30457,   0.00036,   0.00068,  -0.00322,474641216.00000,   0.00000,274642176.00000,   0.00000,   0.00000,  -0.00000,   0.00000,   2.00000
174631010.73496,223457800.34882,-247540216.47189,   0.00036,   0.00068,  -0.00323,475485216.00000,   0.00000,274646016.00000,   0.00000,   0.00000,  -0.00001, -64.00000,   2.00000
174340151.19335,223109446.55872,-247631613.26608,   0.00036,   0.00068,  -0.00323,475497952.00000,   0.00001,274649952.00000,   0.00000,   0.00000,  -0.00001,  64.00000,   2.00000
174058371.33875,222781250.07347,-247718263.74136,   0.00036,   0.00068,  -0.00324,475500352.00000,   0.00001,274653856.00000,   0.00000,   0.00000,  -0.00002,  64.00000,   2.00000
173776984.20968,222453499.16985,-247804603.81724,   0.00036,   0.00068,  -0.00325,475504512.00000,   0.00002,274657760.00000,   0.00000,   0.00000,  -0.00003,   0.00000,   2.00000
173472462.40014,222103881.26083,-247896806.30508,   0.00036,   0.00068,  -0.00325,475497408.00000,   0.00002,274661600.00000,   0.00000,   0.00001,  -0.00003,  32.00000,   2.00000
173198089.56358,221793399.39867,-247979110.05612,   0.00036,   0.00068,  -0.00326,475519552.00000,   0.00002,274665536.00000,   0.00000,   0.00001,  -0.00004,   0.00000,   2.00000
172920538.35269,221470542.76566,-248063728.85969,   0.00036,   0.00068,  -0.00327,475508800.00000,   0.00003,274669408.00000,   0.00000,   0.00001,  -0.00004,  32.00000,   2.00000
172640817.18676,221144693.41747,-248148921.55880,   0.00036,   0.00068,  -0.00328,475521536.00000,   0.00003,274673312.00000,   0.00000,   0.00001,  -0.00005,  32.00000,   2.00000
172370264.11971,220839119.74745,-248229560.55085,   0.00036,   0.00068,  -0.00328,475523584.00000,   0.00003,274677248.00000,   0.00000,   0.00001,  -0.00006,  32.00000,   2.00000
172085113.58125,220531178.17345,-248311504.25603,   0.00036,   0.00068,  -0.00329,475514656.00000,   0.00004,274681088.00000,   0.00001,   0.00001,  -0.00006,-128.00000,   2.00000
171815367.97814,220226488.38322,-248391558.30487,   0.00036,   0.00068,  -0.00330,475532000.00000,   0.00004,274684992.00000,   0.00001,   0.00001,  -0.00007, -64.00000,   2.00000
171548565.15696,219925686.17490,-248470473.83284,   0.00036,   0.00068,  -0.00330,475527776.00000,   0.00004,274688864.00000,   0.00001,   0.00001,  -0.00007,   0.00000,   2.00000
171282179.93595,219625370.68330,-248549167.25781,   0.00036,   0.00068,  -0.00331,475531840.00000,   0.00005,274692736.00000,   0.00001,   0.00001,  -0.00008, -64.00000,   2.00000
171007435.67268,219339099.30313,-248625880.99257,   0.00036,   0.00068,  -0.00332,475529344.00000,   0.00005,274696576.00000,   0.00001,   0.00002,  -0.00008,  64.00000,   2.00000
170748021.81142,219055965.66558,-248700547.82260,   0.00036,   0.00068,  -0.00332,475546848.00000,   0.00005,274700480.00000,   0.00001,   0.00002,  -0.00009,   0.00000,   2.00000
170491532.01727,218776690.24443,-248774118.41803,   0.00036,   0.00068,  -0.00333,475542464.00000,   0.00006,274704352.00000,   0.00001,   0.00002,  -0.00010, -96.00000,   2.00000
170217929.73718,218491662.26344,-248850023.15465,   0.00036,   0.00068,  -0.00334,475541760.00000,   0.00006,274708192.00000,   0.00001,   0.00002,  -0.00010, -32.00000,   2.00000
169971022.85237,218233088.08244,-248918900.02924,   0.00036,   0.00068,  -0.00334,475548448.00000,   0.00007,274712064.00000,   0.00001,   0.00002,  -0.00011,  32.00000,   2.00000
169718229.61124,217958498.12356,-248990909.99191,   0.00036,   0.00068,  -0.00335,475546368.00000,   0.00007,274715904.00000,   0.00001,   0.00002,  -0.00011,   0.00000,   2.00000
169454545.91019,217694533.81364,-249061858.48682,   0.00036,   0.00068,  -0.00336,475551968.00000,   0.00007,274719744.00000,   0.00001,   0.00002,  -0.00012,  64.00000,   2.00000
169208774.99822,217437182.93631,-249130003.34774,   0.00036,   0.00068,  -0.00336,475560800.00000,   0.00008,274723584.00000,   0.00001,   0.00002,  -0.00013, -64.00000,   2.00000
168965907.24001,217183663.59210,-249197132.03697,   0.00036,   0.00068,  -0.00337,475556448.00000,   0.00008,274727424.00000,   0.00001,   0.00002,  -0.00013,  96.00000,   2.00000
168712065.23649,216940642.77911,-249263083.36912,   0.00036,   0.00068,  -0.00338,475562144.00000,   0.00008,274731264.00000,   0.00001,   0.00002,  -0.00014,-128.00000,   2.00000
168469962.63024,216687922.54428,-249329807.96011,   0.00036,   0.00068,  -0.00338,475564352.00000,   0.00009,274735072.00000,   0.00001,   0.00003,  -0.00014, -64.00000,   2.00000
168219387.84679,216449091.93473,-249394536.71151,   0.00036,   0.00068,  -0.00339,475561728.00000,   0.00009,274738880.00000,   0.00001,   0.00003,  -0.00015,  32.00000,   2.00000
167986755.01050,216216901.67224,-249456552.41095,   0.00036,   0.00068,  -0.00340,475570336.00000,   0.00009,274742688.00000,   0.00001,   0.00003,  -0.00016,  64.00000,   2.00000
167736929.19217,215978842.33070,-249520918.46860,   0.00036,   0.00068,  -0.00340,475569600.00000,   0.00010,274746496.00000,   0.00001,   0.00003,  -0.00016, -32.00000,   2.00000
167513816.19436,215767238.97133,-249578369.62441,   0.00036,   0.00069,  -0.00341,475576064.00000,   0.00010,274750304.00000,   0.00001,   0.00003,  -0.00017,  32.00000,   2.00000
167267167.44030,215533229.26558,-249641494.77134,   0.00035,   0.00069,  -0.00342,475569184.00000,   0.00010,274754080.00000,   0.00001,   0.00003,  -0.00017,   0.00000,   2.00000
167027203.78644,215316073.06195,-249701094.93631,   0.00035,   0.00069,  -0.00342,475579360.00000,   0.00011,274757856.00000,   0.00001,   0.00003,  -0.00018,  32.00000,   2.00000
166807648.36030,215108888.87663,-249757172.63821,   0.00035,   0.00069,  -0.00343,475579488.00000,   0.00011,274761632.00000,   0.00002,   0.00003,  -0.00018,  32.00000,   2.00000
166570845.87629,214895756.71586,-249815593.48782,   0.00035,   0.00069,  -0.00344,475578752.00000,   0.00011,274765376.00000,   0.00002,   0.00003,  -0.00019,  32.00000,   2.00000
166340698.79929,214699419.28847,-249870459.11321,   0.00035,   0.00069,  -0.00344,475588928.00000,   0.00012,274769184.00000,   0.00002,   0.00003,  -0.00020,  32.00000,   2.00000
166124664.77109,214496588.37616,-249925249.93443,   0.00035,   0.00069,  -0.00345,475582720.00000,   0.00012,274772896.00000,   0.00002,   0.00004,  -0.00020,  96.00000,   2.00000
165897619.07465,214304186.01351,-249978910.40780,   0.00035,   0.00069,  -0.00346,475588352.00000,   0.00012,274776640.00000,   0.00002,   0.00004,  -0.00021, -96.00000,   2.00000
165670968.78430,214112158.12348,-250032514.17935,   0.00035,   0.00069,  -0.00346,475592000.00000,   0.00013,274780384.00000,   0.00002,   0.00004,  -0.00021,   0.00000,   2.00000
165447101.03287,213923754.44683,-250085131.91336,   0.00035,   0.00069,  -0.00347,475587456.00000,   0.00013,274784096.00000,   0.00002,   0.00004,  -0.00022,  96.00000,   2.00000
165241183.72846,213741973.76120,-250135132.44549,   0.00035,   0.00069,  -0.00348,475595872.00000,   0.00013,274787840.00000,   0.00002,   0.00004,  -0.00022,  32.00000,   2.00000
165026727.39179,213573973.33553,-250183288.69500,   0.00035,   0.00069,  -0.00348,475592864.00000,   0.00014,274791520.00000,   0.00002,   0.00004,  -0.00023,  96.00000,   2.00000
164812600.57353,213406242.87017,-250231327.54474,   0.00035,   0.00069,  -0.00349,475596672.00000,   0.00014,274795232.00000,   0.00002,   0.00004,  -0.00024, -32.00000,   2.00000
164592455.63710,213222271.22410,-250282588.13839,   0.00035,   0.00069,  -0.00349,475594304.00000,   0.00014,274798880.00000,   0.00002,   0.00004,  -0.00024, 128.00000,   2.00000
164387756.45554,213074921.27795,-250326205.72084,   0.00035,   0.00069,  -0.00350,475601952.00000,   0.00015,274802592.00000,   0.00002,   0.00004,  -0.00025,  64.00000,   2.00000
164176970.82021,212911220.09877,-250372966.78451,   0.00035,   0.00069,  -0.00351,475599616.00000,   0.00015,274806240.00000,   0.00002,   0.00004,  -0.00025, -96.00000,   2.00000
163966572.85059,212747876.19731,-250419750.28614,   0.00035,   0.00069,  -0.00351,475603200.00000,   0.00015,274809888.00000,   0.00002,   0.00005,  -0.00026,  64.00000,   2.00000
163765249.67915,212604595.08877,-250462238.51344,   0.00035,   0.00069,  -0.00352,475604672.00000,   0.00016,274813536.00000,   0.00002,   0.00005,  -0.00026,  32.00000,   2.00000
163566645.01346,212464837.26865,-250503815.84110,   0.00035,   0.00070,  -0.00353,475599872.00000,   0.00016,274817152.00000,   0.00002,   0.00005,  -0.00027,  32.00000,   2.00000
163348227.38976,212315565.34133,-250548460.95909,   0.00035,   0.00070,  -0.00353,475607680.00000,   0.00016,274820800.00000,   0.00002,   0.00005,  -0.00027, -96.00000,   2.00000
163152663.64634,212179559.46113,-250589053.13977,   0.00035,   0.00070,  -0.00354,475598720.00000,   0.00017,274824352.00000,   0.00002,   0.00005,  -0.00028,  64.00000,   2.00000
162954940.44382,212040407.65169,-250630287.94681,   0.00035,   0.00070,  -0.00354,475611008.00000,   0.00017,274827968.00000,   0.00002,   0.00005,  -0.00029, 128.00000,   2.00000
162748613.48897,211914907.80504,-250669698.89074,   0.00035,   0.00070,  -0.00355,475607712.00000,   0.00017,274831552.00000,   0.00002,   0.00005,  -0.00029,   0.00000,   2.00000
162562725.00744,211799351.52809,-250705919.45242,   0.00035,   0.00070,  -0.00356,475607328.00000,   0.00018,274835104.00000,   0.00002,   0.00005,  -0.00030,  96.00000,   2.00000
162368259.23169,211664031.70840,-250746063.24928,   0.00035,   0.00070,  -0.00356,475613408.00000,   0.00018,274838688.00000,   0.00002,   0.00005,  -0.00030,  96.00000,   2.00000
162173997.47008,211562248.58383,-250780347.38331,   0.00035,   0.00070,  -0.00357,475607776.00000,   0.00018,274842208.00000,   0.00002,   0.00005,  -0.00031,  64.00000,   2.00000
161988897.14617,211447125.17551,-250816235.30632,   0.00035,   0.00070,  -0.00357,475618176.00000,   0.00019,274845792.00000,   0.00002,   0.00006,  -0.00031,  32.00000,   2.00000
161791151.66415,211332333.13380,-250852841.35946,   0.00035,   0.00070,  -0.00358,475600224.00000,   0.00019,274849248.00000,   0.00003,   0.00006,  -0.00032,   0.00000,   2.00000
161597715.84167,211230991.70173,-250886887.33616,   0.00035,   0.00070,  -0.00358,475618400.00000,   0.00019,274852768.00000,   0.00003,   0.00006,  -0.00032, -32.00000,   2.00000
161424644.83554,211139485.52506,-250917684.20580,   0.00035,   0.00070,  -0.00359,475617920.00000,   0.00020,274856288.00000,   0.00003,   0.00006,  -0.00033, -32.00000,   2.00000
161236509.26403,211044975.84519,-250950024.92411,   0.00035,   0.00070,  -0.00360,475608544.00000,   0.00020,274859744.00000,   0.00003,   0.00006,  -0.00033,  32.00000,   2.00000
161048607.07799,210950538.16914,-250982240.81641,   0.00035,   0.00071,  -0.00360,475612000.00000,   0.00020,274863200.00000,   0.00003,   0.00006,  -0.00034, -32.00000,   2.00000
160861007.15416,210856270.25357,-251014471.07989,   0.00035,   0.00071,  -0.00361,475615424.00000,   0.00021,274866656.00000,   0.00003,   0.00006,  -0.00034,  32.00000,   2.00000
160682441.75587,210781947.62380,-251042503.74894,   0.00035,   0.00071,  -0.00361,475616640.00000,   0.00021,274870080.00000,   0.00003,   0.00006,  -0.00035,   0.00000,   2.00000
160506516.42326,210711010.28592,-251069728.71711,   0.00035,   0.00071,  -0.00362,475611456.00000,   0.00021,274873504.00000,   0.00003,   0.00006,  -0.00035,  32.00000,   2.00000
160321999.24140,210620222.72335,-251100910.20995,   0.00035,   0.00071,  -0.00362,475617504.00000,   0.00022,274876896.00000,   0.00003,   0.00006,  -0.00036,   0.00000,   2.00000
160148919.23181,210552721.94277,-251127207.02030,   0.00035,   0.00071,  -0.00363,475609792.00000,   0.00022,274880288.00000,   0.00003,   0.00006,  -0.00037,  32.00000,   2.00000
159982499.72888,210501858.97764,-251150145.40846,   0.00035,   0.00071,  -0.00364,475619392.00000,   0.00022,274883680.00000,   0.00003,   0.00007,  -0.00037,   0.00000,   2.00000
159809886.85363,210434456.95125,-251176358.24043,   0.00035,   0.00071,  -0.00364,475616608.00000,   0.00022,274887040.00000,   0.00003,   0.00007,  -0.00038,  32.00000,   2.00000
159628558.37531,210380526.97013,-251200781.20845,   0.00035,   0.00071,  -0.00365,475613184.00000,   0.00023,274890368.00000,   0.00003,   0.00007,  -0.00038, -32.00000,   2.00000
159458762.58927,210316474.02140,-251226082.08644,   0.00035,   0.00071,  -0.00365,475614944.00000,   0.00023,274893696.00000,   0.00003,   0.00007,  -0.00039,  32.00000,   2.00000
159280291.28379,210265958.14120,-251249699.46539,   0.00035,   0.00071,  -0.00366,475611296.00000,   0.00023,274896992.00000,   0.00003,   0.00007,  -0.00039,   0.00000,   2.00000
159119776.51385,210221887.21567,-251270881.65057,   0.00035,   0.00072,  -0.00366,475619200.00000,   0.00024,274900320.00000,   0.00003,   0.00007,  -0.00040,  64.00000,   2.00000
158950507.26812,210191230.02880,-251290266.21934,   0.00034,   0.00072,  -0.00367,475615616.00000,   0.00024,274903584.00000,   0.00003,   0.00007,  -0.00040,  64.00000,   2.00000
158792774.58233,210150442.08470,-251310589.68546,   0.00034,   0.00072,  -0.00367,475617184.00000,   0.00024,274906880.00000,   0.00003,   0.00007,  -0.00041,   0.00000,   2.00000
158626293.80863,210123087.25932,-251329151.67872,   0.00034,   0.00072,  -0.00368,475613664.00000,   0.00025,274910112.00000,   0.00003,   0.00007,  -0.00041,  96.00000,   2.00000
158453554.03094,210079090.45988,-251350929.53223,   0.00034,   0.00072,  -0.00368,475610880.00000,   0.00025,274913312.00000,   0.00003,   0.00007,  -0.00042, -32.00000,   2.00000
158289854.25085,210055018.96748,-251368652.51574,   0.00034,   0.00072,  -0.00369,475611616.00000,   0.00025,274916544.00000,   0.00003,   0.00007,  -0.00042, -64.00000,   2.00000
158126355.24500,210030913.62000,-251386330.02942,   0.00034,   0.00072,  -0.00369,475614752.00000,   0.00025,274919744.00000,   0.00003,   0.00007,  -0.00043, -32.00000,   2.00000
157971875.20091,210026687.89785,-251399942.02240,   0.00034,   0.00072,  -0.00370,475615616.00000,   0.00026,274922944.00000,   0.00003,   0.00008,  -0.00043, -32.00000,   2.00000
157793361.08442,209999337.50276,-251419140.89089,   0.00034,   0.00072,  -0.00370,475608544.00000,   0.00026,274926080.00000,   0.00003,   0.00008,  -0.00044,  32.00000,   2.00000
157641583.95595,209998248.96635,-251431824.19537,   0.00034,   0.00073,  -0.00371,475613472.00000,   0.00026,274929248.00000,   0.00003,   0.00008,  -0.00044, -32.00000,   2.00000
157485899.84614,209983848.67398,-251447081.96333,   0.00034,   0.00073,  -0.00371,475601920.00000,   0.00027,274932320.00000,   0.00003,   0.00008,  -0.00044, -32.00000,   2.00000
157319097.72358,209979534.04265,-251461344.41168,   0.00034,   0.00073,  -0.00372,475606848.00000,   0.00027,274935424.00000,   0.00003,   0.00008,  -0.00045,  32.00000,   2.00000
157170229.29399,209981566.20823,-251473170.69764,   0.00034,   0.00073,  -0.00372,475614368.00000,   0.00027,274938528.00000,   0.00004,   0.00008,  -0.00045, -32.00000,   2.00000
157012611.19923,209997020.98034,-251483338.58245,   0.00034,   0.00073,  -0.00373,475610720.00000,   0.00027,274941632.00000,   0.00004,   0.00008,  -0.00046,  32.00000,   2.00000
156850993.30817,209999027.55725,-251495929.94159,   0.00034,   0.00073,  -0.00373,475599168.00000,   0.00028,274944640.00000,   0.00004,   0.00008,  -0.00046, -32.00000,   2.00000
156696072.97907,210017605.61792,-251505273.10127,   0.00034,   0.00073,  -0.00374,475608288.00000,   0.00028,274947680.00000,   0.00004,   0.00008,  -0.00047, 128.00000,   2.00000
156534832.28530,210019453.59721,-251517831.69714,   0.00034,   0.00073,  -0.00374,475605440.00000,   0.00028,274950720.00000,   0.00004,   0.00008,  -0.00047,  32.00000,   2.00000
156384896.20537,210044437.40490,-251525560.18642,   0.00034,   0.00073,  -0.00375,475597312.00000,   0.00029,274953696.00000,   0.00004,   0.00008,  -0.00048, -32.00000,   2.00000
156232809.20663,210066000.17841,-251534015.92319,   0.00034,   0.00074,  -0.00375,475608992.00000,   0.00029,274956704.00000,   0.00004,   0.00008,  -0.00048, -32.00000,   2.00000
156067706.81981,210087561.39994,-251543187.30859,   0.00034,   0.00074,  -0.00376,475590592.00000,   0.00029,274959616.00000,   0.00004,   0.00009,  -0.00049, -64.00000,   2.00000
155920619.60159,210115551.49038,-251550104.75486,   0.00034,   0.00074,  -0.00376,475597792.00000,   0.00029,274962528.00000,   0.00004,   0.00009,  -0.00049,  64.00000,   2.00000
155762338.28978,210153475.65003,-251555918.80148,   0.00034,   0.00074,  -0.00377,475602784.00000,   0.00030,274965472.00000,   0.00004,   0.00009,  -0.00050,   0.00000,   2.00000
155606513.16324,210194543.19080,-251560898.60985,   0.00034,   0.00074,  -0.00377,475597120.00000,   0.00030,274968384.00000,   0.00004,   0.00009,  -0.00050,   0.00000,   2.00000
155464534.01396,210228767.78306,-251566207.14008,   0.00034,   0.00074,  -0.00377,475589568.00000,   0.00030,274971232.00000,   0.00004,   0.00009,  -0.00050,   0.00000,   2.00000
155311349.93094,210272921.48565,-251570413.95585,   0.00034,   0.00074,  -0.00378,475594336.00000,   0.00030,274974080.00000,   0.00004,   0.00009,  -0.00051,   0.00000,   2.00000
155160638.55912,210320269.48088,-251573857.31751,   0.00033,   0.00074,  -0.00378,475588640.00000,   0.00031,274976896.00000,   0.00004,   0.00009,  -0.00051,  32.00000,   2.00000
154992266.32482,210360981.58633,-251579553.22866,   0.00033,   0.00075,  -0.00379,475587328.00000,   0.00031,274979712.00000,   0.00004,   0.00009,  -0.00052, -64.00000,   2.00000
154850677.16688,210427958.89052,-251578892.48752,   0.00033,   0.00075,  -0.00379,475592000.00000,   0.00031,274982528.00000,   0.00004,   0.00009,  -0.00052,  32.00000,   2.00000
154702691.33938,210478119.12846,-251581408.21320,   0.00033,   0.00075,  -0.00380,475588864.00000,   0.00031,274985312.00000,   0.00004,   0.00009,  -0.00053, -64.00000,   2.00000
154545839.37426,210541574.96373,-251582155.33655,   0.00033,   0.00075,  -0.00380,475584800.00000,   0.00032,274988064.00000,   0.00004,   0.00009,  -0.00053, -64.00000,   2.00000
154391461.42369,210608237.21303,-251582177.32431,   0.00033,   0.00075,  -0.00380,475579040.00000,   0.00032,274990752.00000,   0.00004,   0.00009,  -0.00053,  32.00000,   2.00000
154255030.70133,210681181.99971,-251579835.91302,   0.00033,   0.00075,  -0.00381,475586176.00000,   0.00032,274993504.00000,   0.00004,   0.00009,  -0.00054,  32.00000,   2.00000
154103178.98365,210750779.29258,-251578959.48678,   0.00033,   0.00075,  -0.00381,475576192.00000,   0.00032,274996160.00000,   0.00004,   0.00010,  -0.00054,  64.00000,   2.00000
153933674.36925,210813763.82337,-251580391.81925,   0.00033,   0.00075,  -0.00382,475574656.00000,   0.00033,274998816.00000,   0.00004,   0.00010,  -0.00055,  96.00000,   2.00000
153784410.06302,210886371.13138,-251578700.34497,   0.00033,   0.00076,  -0.00382,475573152.00000,   0.00033,275001472.00000,   0.00004,   0.00010,  -0.00055,  64.00000,   2.00000
153644014.16613,210978641.13983,-251572812.42106,   0.00033,   0.00076,  -0.00383,475573440.00000,   0.00033,275004096.00000,   0.00004,   0.00010,  -0.00055, -32.00000,   2.00000
153479465.36205,211047747.15814,-251572587.76430,   0.00033,   0.00076,  -0.00383,475565664.00000,   0.00033,275006656.00000,   0.00004,   0.00010,  -0.00056,   0.00000,   2.00000
153323811.60047,211136548.91324,-251568199.31594,   0.00033,   0.00076,  -0.00383,475565856.00000,   0.00034,275009248.00000,   0.00004,   0.00010,  -0.00056, -64.00000,   2.00000
153186159.09852,211231685.38718,-251561556.08286,   0.00033,   0.00076,  -0.00384,475572800.00000,   0.00034,275011808.00000,   0.00004,   0.00010,  -0.00057,  32.00000,   2.00000
153035300.63457,211326804.60734,-251555583.74393,   0.00033,   0.00076,  -0.00384,475554176.00000,   0.00034,275014304.00000,   0.00004,   0.00010,  -0.00057,  32.00000,   2.00000
152864446.15968,211411864.85313,-251552562.35721,   0.00033,   0.00076,  -0.00384,475561216.00000,   0.00034,275016832.00000,   0.00004,   0.00010,  -0.00057,  32.00000,   2.00000
152713849.92248,211506592.00701,-251546489.03772,   0.00033,   0.00077,  -0.00385,475559392.00000,   0.00035,275019296.00000,   0.00004,   0.00010,  -0.00058,  64.00000,   2.00000
152572128.69995,211621000.49067,-251536255.94456,   0.00033,   0.00077,  -0.00385,475559456.00000,   0.00035,275021792.00000,   0.00004,   0.00010,  -0.00058,   0.00000,   2.00000
152408473.39744,211715598.04845,-251530907.91417,   0.00032,   0.00077,  -0.00386,475543200.00000,   0.00035,275024192.00000,   0.00004,   0.00010,  -0.00059, 160.00000,   2.00000
152251376.83238,211826423.35795,-251522021.47138,   0.00032,   0.00077,  -0.00386,475552000.00000,   0.00035,275026592.00000,   0.00004,   0.00010,  -0.00059, -64.00000,   2.00000
152096689.54491,211940451.70203,-251512394.98304,   0.00032,   0.00077,  -0.00386,475545760.00000,   0.00035,275028992.00000,   0.00004,   0.00010,  -0.00059,   0.00000,   2.00000
151942114.36718,212054257.38203,-251502704.07130,   0.00032,   0.00077,  -0.00387,475548320.00000,   0.00036,275031360.00000,   0.00004,   0.00010,  -0.00060,   0.00000,   2.00000
151789922.25131,212171249.00113,-251492237.48414,   0.00032,   0.00077,  -0.00387,475542144.00000,   0.00036,275033696.00000,   0.00004,   0.00011,  -0.00060,   0.00000,   2.00000
151619955.17113,212281496.51376,-251483909.80574,   0.00032,   0.00078,  -0.00387,475540608.00000,   0.00036,275036032.00000,   0.00004,   0.00011,  -0.00060,  64.00000,   2.00000
151472448.93879,212404763.04586,-251471732.44002,   0.00032,   0.00078,  -0.00388,475529888.00000,   0.00036,275038304.00000,   0.00005,   0.00011,  -0.00061, -96.00000,   2.00000
151311496.38782,212534524.79612,-251459249.80668,   0.00032,   0.00078,  -0.00388,475543040.00000,   0.00037,275040608.00000,   0.00005,   0.00011,  -0.00061,  64.00000,   2.00000
151148582.94590,212654256.92982,-251448452.57740,   0.00032,   0.00078,  -0.00388,475522112.00000,   0.00037,275042816.00000,   0.00005,   0.00011,  -0.00061,   0.00000,   2.00000
150992325.55924,212790335.56469,-251434311.60865,   0.00032,   0.00078,  -0.00389,475530592.00000,   0.00037,275045056.00000,   0.00005,   0.00011,  -0.00062, -32.00000,   2.00000
150820464.83276,212922979.63649,-251421440.59614,   0.00032,   0.00078,  -0.00389,475520320.00000,   0.00037,275047232.00000,   0.00005,   0.00011,  -0.00062,   0.00000,   2.00000
150660142.66098,213045490.31972,-251409752.72243,   0.00032,   0.00079,  -0.00389,475520448.00000,   0.00037,275049408.00000,   0.00005,   0.00011,  -0.00062,   0.00000,   2.00000
150490767.59168,213181159.25775,-251396070.97715,   0.00032,   0.00079,  -0.00390,475516352.00000,   0.00038,275051552.00000,   0.00005,   0.00011,  -0.00063, -32.00000,   2.00000
150330214.78711,213336453.95530,-251378142.04056,   0.00031,   0.00079,  -0.00390,475516352.00000,   0.00038,275053696.00000,   0.00005,   0.00011,  -0.00063,   0.00000,   2.00000
150163317.72184,213475130.68989,-251363653.09351,   0.00031,   0.00079,  -0.00390,475512288.00000,   0.00038,275055776.00000,   0.00005,   0.00011,  -0.00063, 192.00000,   2.00000
149998644.31726,213616839.74682,-251348123.25148,   0.00031,   0.00079,  -0.00390,475506080.00000,   0.00038,275057856.00000,   0.00005,   0.00011,  -0.00064, -32.00000,   2.00000
149822753.50084,213768396.08942,-251331488.52096,   0.00031,   0.00079,  -0.00391,475510400.00000,   0.00038,275059936.00000,   0.00005,   0.00011,  -0.00064,  96.00000,   2.00000
149660506.95409,213913073.48778,-251315060.58513,   0.00031,   0.00079,  -0.00391,475501888.00000,   0.00038,275061952.00000,   0.00005,   0.00011,  -0.00064, -64.00000,   2.00000
149489239.14829,214070997.02763,-251296741.47532,   0.00031,   0.00080,  -0.00391,475497536.00000,   0.00039,275063968.00000,   0.00005,   0.00011,  -0.00065, -96.00000,   2.00000
149320257.14964,214232074.64798,-251277536.78136,   0.00031,   0.00080,  -0.00392,475491232.00000,   0.00039,275065920.00000,   0.00005,   0.00011,  -0.00065,  96.00000,   2.00000
149151344.38203,214392882.20027,-251258197.96152,   0.00031,   0.00080,  -0.00392,475493472.00000,   0.00039,275067872.00000,   0.00005,   0.00012,  -0.00065, -32.00000,   2.00000
148964651.45668,214547008.11520,-251241047.47316,   0.00031,   0.00080,  -0.00392,475491392.00000,   0.00039,275069824.00000,   0.00005,   0.00012,  -0.00066,   0.00000,   2.00000
148782421.70183,214707702.87116,-251222202.98380,   0.00031,   0.00080,  -0.00392,475476384.00000,   0.00039,275071680.00000,   0.00005,   0.00012,  -0.00066,  32.00000,   2.00000
148618223.24144,214874712.35653,-251201125.94381,   0.00031,   0.00080,  -0.00393,475482496.00000,   0.00040,275073568.00000,   0.00005,   0.00012,  -0.00066,  32.00000,   2.00000
148418231.28746,215028411.15133,-251184245.79425,   0.00030,   0.00081,  -0.00393,475476416.00000,   0.00040,275075424.00000,   0.00005,   0.00012,  -0.00066,-192.00000,   2.00000
148247222.15234,215211794.70587,-251160279.77216,   0.00030,   0.00081,  -0.00393,475471552.00000,   0.00040,275077216.00000,   0.00005,   0.00012,  -0.00067, -32.00000,   2.00000
148069751.18856,215378472.37155,-251139574.67639,   0.00030,   0.00081,  -0.00393,475467456.00000,   0.00040,275079008.00000,   0.00005,   0.00012,  -0.00067,  32.00000,   2.00000
147880949.47544,215554822.36721,-251117520.93094,   0.00030,   0.00081,  -0.00394,475471776.00000,   0.00040,275080832.00000,   0.00005,   0.00012,  -0.00067,  32.00000,   2.00000
147696576.57320,215737792.63567,-251093785.52558,   0.00030,   0.00081,  -0.00394,475456512.00000,   0.00040,275082528.00000,   0.00005,   0.00012,  -0.00067,  64.00000,   2.00000
147512303.61975,215920553.96327,-251069983.45056,   0.00030,   0.00081,  -0.00394,475458496.00000,   0.00041,275084256.00000,   0.00005,   0.00012,  -0.00068,  64.00000,   2.00000
147310152.24329,216096528.59219,-251048192.88884,   0.00030,   0.00082,  -0.00394,475456352.00000,   0.00041,275085984.00000,   0.00005,   0.00012,  -0.00068, -32.00000,   2.00000
147128225.14834,216282277.86832,-251023412.59340,   0.00030,   0.00082,  -0.00395,475453696.00000,   0.00041,275087648.00000,   0.00005,   0.00012,  -0.00068, -32.00000,   2.00000
146930585.11837,216464714.53188,-250999885.48149,   0.00030,   0.00082,  -0.00395,475443040.00000,   0.00041,275089280.00000,   0.00005,   0.00012,  -0.00069,   0.00000,   2.00000
146735182.81204,216650371.95174,-250975462.64619,   0.00029,   0.00082,  -0.00395,475436256.00000,   0.00041,275090880.00000,   0.00005,   0.00012,  -0.00069,  96.00000,   2.00000
146539878.66832,216835832.46223,-250950971.18704,   0.00029,   0.00082,  -0.00395,475437984.00000,   0.00041,275092480.00000,   0.00005,   0.00012,  -0.00069,  32.00000,   2.00000
146335363.70006,217034367.89671,-250924267.76090,   0.00029,   0.00082,  -0.00395,475433824.00000,   0.00041,275094016.00000,   0.00005,   0.00012,  -0.00069, 128.00000,   2.00000
146124400.65308,217216287.45083,-250900888.67985,   0.00029,   0.00083,  -0.00396,475429280.00000,   0.00042,275095552.00000,   0.00005,   0.00012,  -0.00069,  64.00000,   2.00000
145922168.72011,217417784.27682,-250873115.03434,   0.00029,   0.00083,  -0.00396,475428864.00000,   0.00042,275097088.00000,   0.00005,   0.00012,  -0.00070,   0.00000,   2.00000
145722155.30060,217622519.24746,-250844443.41047,   0.00029,   0.00083,  -0.00396,475422048.00000,   0.00042,275098592.00000,   0.00005,   0.00012,  -0.00070,  64.00000,   2.00000
145515710.55874,217810702.58807,-250819163.92489,   0.00029,   0.00083,  -0.00396,475417248.00000,   0.00042,275100032.00000,   0.00005,   0.00012,  -0.00070,  64.00000,   2.00000
145299975.55583,218011881.13217,-250791530.59272,   0.00029,   0.00083,  -0.00396,475413024.00000,   0.00042,275101472.00000,   0.00005,   0.00012,  -0.00070, -64.00000,   2.00000
145086495.89087,218216394.59457,-250763100.62197,   0.00029,   0.00084,  -0.00397,475405888.00000,   0.00042,275102880.00000,   0.00005,   0.00013,  -0.00071,  64.00000,   2.00000
144873056.86738,218420628.88462,-250734479.80980,   0.00028,   0.00084,  -0.00397,475407776.00000,   0.00042,275104256.00000,   0.00005,   0.00013,  -0.00071,  96.00000,   2.00000
144643804.95910,218621557.20530,-250707015.89454,   0.00028,   0.00084,  -0.00397,475396832.00000,   0.00042,275105600.00000,   0.00005,   0.00013,  -0.00071,   0.00000,   2.00000
144441270.70126,218848623.43019,-250673062.33742,   0.00028,   0.00084,  -0.00397,475400224.00000,   0.00043,275106944.00000,   0.00005,   0.00013,  -0.00071,   0.00000,   2.00000
144214268.30887,219052586.96376,-250644556.87388,   0.00028,   0.00084,  -0.00397,475391552.00000,   0.00043,275108256.00000,   0.00005,   0.00013,  -0.00071,  64.00000,   2.00000
143971433.94752,219253267.82220,-250617205.35881,   0.00028,   0.00084,  -0.00397,475380608.00000,   0.00043,275109504.00000,   0.00005,   0.00013,  -0.00072,  96.00000,   2.00000
143755303.58128,219480067.17407,-250583328.73964,   0.00028,   0.00085,  -0.00398,475384032.00000,   0.00043,275110784.00000,   0.00005,   0.00013,  -0.00072,  64.00000,   2.00000
143514649.09088,219683718.82461,-250554811.16177,   0.00028,   0.00085,  -0.00398,475375168.00000,   0.00043,275111968.00000,   0.00005,   0.00013,  -0.00072,-160.00000,   2.00000
143282738.44354,219907031.63640,-250521964.25370,   0.00027,   0.00085,  -0.00398,475374464.00000,   0.00043,275113184.00000,   0.00005,   0.00013,  -0.00072, -32.00000,   2.00000
143052959.46477,220133593.34841,-250488142.22879,   0.00027,   0.00085,  -0.00398,475367488.00000,   0.00043,275114336.00000,   0.00005,   0.00013,  -0.00072,  64.00000,   2.00000
142816672.30229,220343601.75116,-250457636.94671,   0.00027,   0.00085,  -0.00398,475362528.00000,   0.00043,275115488.00000,   0.00005,   0.00013,  -0.00073,  32.00000,   2.00000
142571035.62343,220566628.66673,-250424737.29420,   0.00027,   0.00085,  -0.00398,475358112.00000,   0.00043,275116608.00000,   0.00005,   0.00013,  -0.00073,   0.00000,   2.00000
142325426.45015,220789380.44355,-250391628.08335,   0.00027,   0.00086,  -0.00398,475359616.00000,   0.00044,275117696.00000,   0.00005,   0.00013,  -0.00073,   0.00000,   2.00000
142081937.61030,221015417.02197,-250357558.15663,   0.00027,   0.00086,  -0.00398,475352416.00000,   0.00044,275118784.00000,   0.00005,   0.00013,  -0.00073, -32.00000,   2.00000
141822533.23945,221238204.02150,-250324600.22964,   0.00027,   0.00086,  -0.00399,475341408.00000,   0.00044,275119808.00000,   0.00005,   0.00013,  -0.00073,  32.00000,   2.00000
141564973.13475,221463841.91004,-250290092.29319,   0.00026,   0.00086,  -0.00399,475334240.00000,   0.00044,275120800.00000,   0.00005,   0.00013,  -0.00073,-960.00000,   1.00000
141307941.55834,221690087.73230,-250256514.09563,   0.00026,   0.00086,  -0.00399,475334688.00000,   0.00044,275121760.00000,   0.00005,   0.00013,  -0.00073,  32.00000,   2.00000
141057228.25327,221931872.63567,-250218615.31893,   0.00026,   0.00087,  -0.00399,475343584.00000,   0.00044,275122784.00000,   0.00005,   0.00013,  -0.00074,   0.00000,   2.00000
140785807.37300,222157293.62793,-250183989.80427,   0.00026,   0.00087,  -0.00399,475317440.00000,   0.00044,275123680.00000,   0.00005,   0.00013,  -0.00074,-896.00000,   1.00000
140514639.59669,222382868.53182,-250149688.60888,   0.00026,   0.00087,  -0.00399,475317760.00000,   0.00044,275124576.00000,   0.00005,   0.00013,  -0.00074,-864.00000,   1.00000
140250066.61863,222624444.96055,-250111672.19770,   0.00026,   0.00087,  -0.00399,475325568.00000,   0.00044,275125504.00000,   0.00005,   0.00013,  -0.00074,-864.00000,   1.00000
139983013.23980,222856642.38732,-250075386.10510,   0.00025,   0.00087,  -0.00399,475303232.00000,   0.00044,275126336.00000,   0.00005,   0.00013,  -0.00074,-832.00000,   1.00000
139704431.49359,223098180.84615,-250037283.89232,   0.00025,   0.00088,  -0.00399,475307456.00000,   0.00044,275127168.00000,   0.00005,   0.00013,  -0.00074,-896.00000,   1.00000
139425886.63961,223339502.05893,-249999023.14097,   0.00025,   0.00088,  -0.00399,475308608.00000,   0.00045,275128000.00000,   0.00005,   0.00013,  -0.00074,-800.00000,   1.00000
139124701.95037,223561317.46933,-249965263.77272,   0.00025,   0.00088,  -0.00399,475291072.00000,   0.00045,275128736.00000,   0.00005,   0.00013,  -0.00075,-736.00000,   1.00000
138850172.24360,223809195.07193,-249924875.03095,   0.00025,   0.00088,  -0.00400,475294080.00000,   0.00045,275129504.00000,   0.00005,   0.00013,  -0.00075,-864.00000,   1.00000
138557561.82098,224050247.25829,-249886276.64031,   0.00025,   0.00088,  -0.00400,475291552.00000,   0.00045,275130240.00000,   0.00005,   0.00013,  -0.00075,-800.00000,   1.00000
138268961.59176,224298213.60794,-249845860.49190,   0.00024,   0.00088,  -0.00400,475275584.00000,   0.00045,275130912.00000,   0.00005,   0.00013,  -0.00075,-704.00000,   1.00000
137960239.09658,224535720.27205,-249807959.68817,   0.00024,   0.00089,  -0.00400,475281664.00000,   0.00045,275131616.00000,   0.00005,   0.00013,  -0.00075,-704.00000,   1.00000
137673588.67091,224786717.46223,-249766220.23845,   0.00024,   0.00089,  -0.00400,475269408.00000,   0.00045,275132256.00000,   0.00005,   0.00013,  -0.00075,-640.00000,   1.00000
137366803.38371,225027225.84902,-249726962.36486,   0.00024,   0.00089,  -0.00400,475275520.00000,   0.00045,275132896.00000,   0.00005,   0.00013,  -0.00075,-704.00000,   1.00000
137045868.22255,225268109.60994,-249687862.31085,   0.00024,   0.00089,  -0.00400,475255776.00000,   0.00045,275133472.00000,   0.00005,   0.00013,  -0.00075,-544.00000,   1.00000
136743005.85404,225515283.21961,-249646498.52177,   0.00023,   0.00089,  -0.00400,475260576.00000,   0.00045,275134048.00000,   0.00005,   0.00013,  -0.00075,-512.00000,   1.00000
136430516.04217,225775277.89213,-249602348.47384,   0.00023,   0.00090,  -0.00400,475256288.00000,   0.00045,275134624.00000,   0.00005,   0.00013,  -0.00075,-576.00000,   1.00000
136111430.72585,226018912.23502,-249561603.79472,   0.00023,   0.00090,  -0.00400,475250560.00000,   0.00045,275135168.00000,   0.00005,   0.00014,  -0.00076,-512.00000,   1.00000
135776121.00656,226259270.58248,-249521705.29016,   0.00023,   0.00090,  -0.00400,475239488.00000,   0.00045,275135648.00000,   0.00005,   0.00014,  -0.00076,-480.00000,   1.00000
135449277.36971,226519024.51945,-249477019.65566,   0.00023,   0.00090,  -0.00400,475238816.00000,   0.00045,275136096.00000,   0.00005,   0.00014,  -0.00076,-416.00000,   1.00000
135115791.85008,226762395.14818,-249435684.48556,   0.00023,   0.00090,  -0.00400,475233056.00000,   0.00045,275136544.00000,   0.00005,   0.00014,  -0.00076,-384.00000,   1.00000
134784157.48012,227009054.52508,-249393176.29398,   0.00022,   0.00091,  -0.00400,475225632.00000,   0.00045,275136960.00000,   0.00005,   0.00014,  -0.00076,-416.00000,   1.00000
134442859.68643,227268580.67857,-249347893.18159,   0.00022,   0.00091,  -0.00400,475221152.00000,   0.00045,275137344.00000,   0.00005,   0.00014,  -0.00076,-384.00000,   1.00000
134101476.83251,227527777.89111,-249302257.37393,   0.00022,   0.00091,  -0.00400,475222208.00000,   0.00045,275137728.00000,   0.00005,   0.00014,  -0.00076,-416.00000,   1.00000
133753400.72601,227770571.39958,-249259916.25610,   0.00022,   0.00091,  -0.00400,475216480.00000,   0.00045,275138112.00000,   0.00005,   0.00014,  -0.00076,-480.00000,   1.00000
133397540.35891,228029868.72163,-249213955.85138,   0.00021,   0.00091,  -0.00400,475203456.00000,   0.00045,275138400.00000,   0.00005,   0.00014,  -0.00076,-288.00000,   1.00000
133039659.24877,228285147.34243,-249168397.81735,   0.00021,   0.00092,  -0.00400,475213088.00000,   0.00046,275138752.00000,   0.00005,   0.00014,  -0.00076,-288.00000,   1.00000
132678871.59831,228531385.50554,-249124547.45383,   0.00021,   0.00092,  -0.00400,475190112.00000,   0.00046,275138976.00000,   0.00005,   0.00014,  -0.00076,-128.00000,   1.00000
132324567.18698,228793287.89158,-249076593.47135,   0.00021,   0.00092,  -0.00400,475197984.00000,   0.00046,275139264.00000,   0.00005,   0.00014,  -0.00076,-288.00000,   1.00000
131953872.91091,229051948.75623,-249029398.63383,   0.00021,   0.00092,  -0.00400,475186784.00000,   0.00046,275139488.00000,   0.00005,   0.00014,  -0.00076,-224.00000,   1.00000
131583072.08663,229310295.31631,-248981847.63398,   0.00020,   0.00092,  -0.00400,475187680.00000,   0.00046,275139712.00000,   0.00005,   0.00014,  -0.00076,-160.00000,   1.00000
131195798.19064,229565308.58123,-248934914.80375,   0.00020,   0.00093,  -0.00400,475176672.00000,   0.00046,275139872.00000,   0.00005,   0.00014,  -0.00076,-160.00000,   1.00000
130826600.87393,229826611.93558,-248885717.89389,   0.00020,   0.00093,  -0.00400,475181056.00000,   0.00046,275140064.00000,   0.00005,   0.00014,  -0.00076,-224.00000,   1.00000
130440932.68323,230084653.28881,-248837204.84319,   0.00020,   0.00093,  -0.00400,475169888.00000,   0.00046,275140192.00000,   0.00005,   0.00014,  -0.00076,-128.00000,   1.00000
130038725.93862,230339349.15392,-248789253.31005,   0.00020,   0.00093,  -0.00400,475158880.00000,   0.00046,275140288.00000,   0.00005,   0.00014,  -0.00076,-160.00000,   1.00000
129654598.71292,230600351.21671,-248739054.26002,   0.00019,   0.00093,  -0.00400,475163168.00000,   0.00046,275140384.00000,   0.00005,   0.00014,  -0.00076, -96.00000,   1.00000
129252097.52198,230854360.81432,-248690282.24609,   0.00019,   0.00094,  -0.00400,475160608.00000,   0.00046,275140480.00000,   0.00005,   0.00014,  -0.00076,-160.00000,   1.00000
128834950.05223,231108983.29586,-248641524.74962,   0.00019,   0.00094,  -0.00400,475140928.00000,   0.00046,275140480.00000,   0.00005,   0.00014,  -0.00076, 448.00000,   0.00000
128433825.75722,231365713.48420,-248590737.10814,   0.00019,   0.00094,  -0.00399,475154368.00000,   0.00046,275140544.00000,   0.00005,   0.00014,  -0.00076, -96.00000,   1.00000
128016678.28747,231620335.96574,-248536562.11206,   0.00018,   0.00094,  -0.00399,475134112.00000,   0.00046,275140544.00000,   0.00005,   0.00014,  -0.00076,-6432.00000,   0.00000
127599530.81771,231874958.44728,-248482387.11599,   0.00018,   0.00094,  -0.00399,475128640.00000,   0.00046,275140544.00000,   0.00005,   0.00014,  -0.00076,-11904.00000,   0.00000
127163422.09933,232121454.67941,-248428212.11992,   0.00018,   0.00095,  -0.00399,475120576.00000,   0.00046,275140544.00000,   0.00005,   0.00014,  -0.00076,-19968.00000,   0.00000
126735439.63036,232386912.16017,-248368619.62424,   0.00018,   0.00095,  -0.00399,475111712.00000,   0.00046,275140544.00000,   0.00005,   0.00014,  -0.00076,-28832.00000,   0.00000
126299330.91197,232633408.39229,-248303609.62895,   0.00017,   0.00095,  -0.00399,475088224.00000,   0.00046,275140544.00000,   0.00005,   0.00014,  -0.00076,-52320.00000,   0.00000
125863222.19359,232879904.62442,-248238599.63367,   0.00017,   0.00095,  -0.00399,475065408.00000,   0.00046,275140544.00000,   0.00005,   0.00014,  -0.00076,-75136.00000,   0.00000
125416278.47600,233137235.85577,-248168172.13877,   0.00017,   0.00095,  -0.00399,475038656.00000,   0.00046,275140544.00000,   0.00005,   0.00014,  -0.00076,-101888.00000,   0.00000
124961208.50899,233375605.83849,-248097744.64388,   0.00017,   0.00096,  -0.00399,475005664.00000,   0.00046,275140544.00000,   0.00005,   0.00014,  -0.00076,-134880.00000,   0.00000
124487177.29335,233605849.57179,-248021899.64938,   0.00016,   0.00096,  -0.00399,474961664.00000,   0.00046,275140544.00000,   0.00005,   0.00014,  -0.00076,-178880.00000,   0.00000
124040233.57576,233863180.80314,-247946054.65488,   0.00016,   0.00096,  -0.00399,474928672.00000,   0.00046,275140544.00000,   0.00005,   0.00014,  -0.00076,-211872.00000,   0.00000
123566202.36013,234093424.53644,-247864792.16077,   0.00016,   0.00096,  -0.00399,474877920.00000,   0.00046,275140544.00000,   0.00005,   0.00014,  -0.00076,-262624.00000,   0.00000
123081336.14528,234334503.26897,-247783529.66666,   0.00016,   0.00096,  -0.00398,474831872.00000,   0.00046,275140544.00000,   0.00005,   0.00014,  -0.00076,-308672.00000,   0.00000
122588343.68102,234556620.75286,-247696849.67294,   0.00015,   0.00097,  -0.00398,474771168.00000,   0.00046,275140544.00000,   0.00005,   0.00014,  -0.00076,-369376.00000,   0.00000
122095351.21676,234778738.23676,-247610169.67923,   0.00015,   0.00097,  -0.00398,474711872.00000,   0.00046,275140544.00000,   0.00005,   0.00014,  -0.00076,-428672.00000,   0.00000
121610485.00192,235019816.96928,-247518072.18591,   0.00015,   0.00097,  -0.00398,474652032.00000,   0.00046,275140544.00000,   0.00005,   0.00014,  -0.00076,-488512.00000,   0.00000
121117492.53766,235241934.45318,-247420557.19297,   0.00015,   0.00097,  -0.00398,474578080.00000,   0.00046,275140544.00000,   0.00005,   0.00014,  -0.00076,-562464.00000,   0.00000
120613665.07418,235474886.93629,-247323042.20004,   0.00014,   0.00097,  -0.00398,474509344.00000,   0.00046,275140544.00000,   0.00005,   0.00014,  -0.00076,-631200.00000,   0.00000
120082750.11268,235680751.92136,-247225527.20711,   0.00014,   0.00098,  -0.00398,474431520.00000,   0.00046,275140544.00000,   0.00005,   0.00014,  -0.00076,-709024.00000,   0.00000
119578922.64920,235913704.40447,-247122594.71458,   0.00014,   0.00098,  -0.00398,474356736.00000,   0.00046,275140544.00000,   0.00005,   0.00014,  -0.00076,-783808.00000,   0.00000
119056133.93711,236138530.63817,-247019662.22204,   0.00013,   0.00098,  -0.00397,474279872.00000,   0.00046,275140544.00000,   0.00005,   0.00014,  -0.00076,-860672.00000,   0.00000
118525218.97560,236344395.62325,-246911312.22990,   0.00013,   0.00098,  -0.00397,474188704.00000,   0.00046,275140544.00000,   0.00005,   0.00014,  -0.00076,-951840.00000,   0.00000
117983469.01487,236561095.60754,-246797544.73814,   0.00013,   0.00098,  -0.00397,474094048.00000,   0.00046,275140544.00000,   0.00005,   0.00014,  -0.00076,-1046496.00000,   0.00000
117433592.80474,236758834.34320,-246689194.74600,   0.00013,   0.00099,  -0.00397,474001728.00000,   0.00046,275140544.00000,   0.00005,   0.00014,  -0.00076,-1138816.00000,   0.00000
116891842.84402,236975534.32749,-246570009.75464,   0.00012,   0.00099,  -0.00397,473900544.00000,   0.00046,275140544.00000,   0.00005,   0.00014,  -0.00076,-1240000.00000,   0.00000
116341966.63388,237173273.06315,-246450824.76328,   0.00012,   0.00099,  -0.00397,473793120.00000,   0.00046,275140544.00000,   0.00005,   0.00014,  -0.00076,-1347424.00000,   0.00000
115781255.42453,237381846.79803,-246331639.77192,   0.00012,   0.00099,  -0.00397,473690784.00000,   0.00046,275140544.00000,   0.00005,   0.00014,  -0.00076,-1449760.00000,   0.00000
115220544.21519,237590420.53291,-246207037.28096,   0.00011,   0.00099,  -0.00396,473580928.00000,   0.00046,275140544.00000,   0.00005,   0.00014,  -0.00076,-1559616.00000,   0.00000
114651706.75643,237780033.01916,-246082434.78999,   0.00011,   0.00100,  -0.00396,473464800.00000,   0.00046,275140544.00000,   0.00005,   0.00014,  -0.00076,-1675744.00000,   0.00000
114072034.29845,237980480.50463,-245952414.79942,   0.00011,   0.00100,  -0.00396,473345568.00000,   0.00046,275140544.00000,   0.00005,   0.00014,  -0.00076,-1794976.00000,   0.00000
113484235.59107,238161966.74147,-245822394.80884,   0.00010,   0.00100,  -0.00396,473220096.00000,   0.00046,275140544.00000,   0.00005,   0.00014,  -0.00076,-1920448.00000,   0.00000
112904563.13309,238362414.22694,-245692374.81827,   0.00010,   0.00100,  -0.00396,473102688.00000,   0.00046,275140544.00000,   0.00005,   0.00014,  -0.00076,-2037856.00000,   0.00000
112305929.42650,238554735.46300,-245556937.32809,   0.00010,   0.00100,  -0.00396,472975232.00000,   0.00046,275140544.00000,   0.00005,   0.00014,  -0.00076,-2165312.00000,   0.00000
111699169.47049,238728095.45043,-245416082.33830,   0.00010,   0.00101,  -0.00395,472832960.00000,   0.00046,275140544.00000,   0.00005,   0.00014,  -0.00076,-2307584.00000,   0.00000
111100535.76389,238920416.68649,-245275227.34851,   0.00009,   0.00101,  -0.00395,472699168.00000,   0.00046,275140544.00000,   0.00005,   0.00014,  -0.00076,-2441376.00000,   0.00000
110474814.55925,239085650.42451,-245134372.35872,   0.00009,   0.00101,  -0.00395,472556192.00000,   0.00046,275140544.00000,   0.00005,   0.00014,  -0.00076,-2584352.00000,   0.00000
109876180.85265,239277971.66056,-244988099.86933,   0.00009,   0.00101,  -0.00395,472416096.00000,   0.00046,275140544.00000,   0.00005,   0.00014,  -0.00076,-2724448.00000,   0.00000
109239624.64880,239454040.39780,-244841827.37993,   0.00008,   0.00101,  -0.00395,472271296.00000,   0.00046,275140544.00000,   0.00005,   0.00014,  -0.00076,-2869248.00000,   0.00000
108613903.44417,239619274.13582,-244695554.89054,   0.00008,   0.00102,  -0.00394,472123200.00000,   0.00046,275140544.00000,   0.00005,   0.00014,  -0.00076,-3017344.00000,   0.00000
107977347.24032,239795342.87305,-244543864.90154,   0.00008,   0.00102,  -0.00394,471972160.00000,   0.00046,275140544.00000,   0.00005,   0.00014,  -0.00076,-3168384.00000,   0.00000
107332664.78706,239952450.36166,-244386757.41293,   0.00007,   0.00102,  -0.00394,471806528.00000,   0.00046,275140544.00000,   0.00005,   0.00014,  -0.00076,-3334016.00000,   0.00000
106696108.58321,240128519.09890,-244229649.92432,   0.00007,   0.00102,  -0.00394,471649088.00000,   0.00046,275140544.00000,   0.00005,   0.00014,  -0.00076,-3491456.00000,   0.00000
106032464.88132,240277500.33810,-244072542.43571,   0.00007,   0.00102,  -0.00394,471482816.00000,   0.00046,275140544.00000,   0.00005,   0.00014,  -0.00076,-3657728.00000,   0.00000
105376947.42885,240445442.82592,-243910017.44749,   0.00006,   0.00103,  -0.00393,471316224.00000,   0.00046,275140544.00000,   0.00005,   0.00014,  -0.00076,-3824320.00000,   0.00000
104713303.72696,240594424.06512,-243747492.45927,   0.00006,   0.00103,  -0.00393,471143552.00000,   0.00046,275140544.00000,   0.00005,   0.00014,  -0.00076,-3996992.00000,   0.00000
104057786.27449,240762366.55295,-243584967.47106,   0.00006,   0.00103,  -0.00393,470979040.00000,   0.00046,275140544.00000,   0.00005,   0.00014,  -0.00076,-4161504.00000,   0.00000
103375181.32397,240903221.54273,-243417024.98323,   0.00005,   0.00103,  -0.00393,470797376.00000,   0.00046,275140544.00000,   0.00005,   0.00014,  -0.00076,-4343168.00000,   0.00000
102700702.62287,241063037.78115,-243249082.49541,   0.00005,   0.00103,  -0.00393,470624160.00000,   0.00046,275140544.00000,   0.00005,   0.00014,  -0.00076,-4516384.00000,   0.00000
101999136.42374,241195766.52152,-243081140.00758,   0.00005,   0.00104,  -0.00392,470442496.00000,   0.00046,275140544.00000,   0.00005,   0.00014,  -0.00076,-4698048.00000,   0.00000
101324657.72264,241355582.75994,-242907780.02015,   0.00004,   0.00104,  -0.00392,470263584.00000,   0.00046,275140544.00000,   0.00005,   0.00014,  -0.00076,-4876960.00000,   0.00000
100623091.52350,241488311.50031,-242734420.03272,   0.00004,   0.00104,  -0.00392,470076416.00000,   0.00046,275140544.00000,   0.00005,   0.00014,  -0.00076,-5064128.00000,   0.00000
99910690.32515,241631875.23991,-242555642.54568,   0.00004,   0.00104,  -0.00392,469887200.00000,   0.00046,275140544.00000,   0.00005,   0.00014,  -0.00076,-5253344.00000,   0.00000
99209124.12601,241764603.98028,-242376865.05864,   0.00003,   0.00104,  -0.00391,469694752.00000,   0.00046,275140544.00000,   0.00005,   0.00014,  -0.00076,-5445792.00000,   0.00000
98488596.67825,241889206.47125,-242198087.57160,   0.00003,   0.00105,  -0.00391,469501408.00000,   0.00046,275140544.00000,   0.00005,   0.00014,  -0.00076,-5639136.00000,   0.00000
97776195.47990,242032770.21084,-242013892.58496,   0.00003,   0.00105,  -0.00391,469308608.00000,   0.00046,275140544.00000,   0.00005,   0.00014,  -0.00076,-5831936.00000,   0.00000
97055668.03214,242157372.70181,-241829697.59831,   0.00002,   0.00105,  -0.00391,469109696.00000,   0.00046,275140544.00000,   0.00005,   0.00014,  -0.00076,-6030848.00000,   0.00000
96316179.33575,242273848.94336,-241645502.61167,   0.00002,   0.00105,  -0.00390,468909888.00000,   0.00046,275140544.00000,   0.00005,   0.00014,  -0.00076,-6230656.00000,   0.00000
95584816.88878,242409286.43354,-241461307.62502,   0.00001,   0.00105,  -0.00390,468718752.00000,   0.00046,275140544.00000,   0.00005,   0.00014,  -0.00076,-6421792.00000,   0.00000
94845328.19239,242525762.67510,-241271695.13877,   0.00001,   0.00106,  -0.00390,468513312.00000,   0.00046,275140544.00000,   0.00005,   0.00014,  -0.00076,-6627232.00000,   0.00000
94086878.24738,242634112.66724,-241076665.15291,   0.00001,   0.00106,  -0.00390,468298432.00000,   0.00046,275140544.00000,   0.00005,   0.00014,  -0.00076,-6842112.00000,   0.00000
93347389.55099,242750588.90880,-240887052.66665,   0.00000,   0.00106,  -0.00389,468096000.00000,   0.00046,275140544.00000,   0.00005,   0.00014,  -0.00076,-7044544.00000,   0.00000
92588939.60598,242858938.90094,-240692022.68079,   0.00000,   0.00106,  -0.00389,467884512.00000,   0.00046,275140544.00000,   0.00005,   0.00014,  -0.00076,-7256032.00000,   0.00000
91811528.41234,242959162.64368,-240496992.69493,  -0.00000,   0.00106,  -0.00389,467672576.00000,   0.00046,275140544.00000,   0.00005,   0.00014,  -0.00076,-7467968.00000,   0.00000
91061204.71674,243086473.88445,-240301962.70907,  -0.00001,   0.00107,  -0.00389,467472224.00000,   0.00046,275140544.00000,   0.00005,   0.00014,  -0.00076,-7668320.00000,   0.00000
90283793.52310,243186697.62718,-240101515.22361,  -0.00001,   0.00107,  -0.00388,467255936.00000,   0.00046,275140544.00000,   0.00005,   0.00014,  -0.00076,-7884608.00000,   0.00000
89506382.32946,243286921.36992,-239901067.73814,  -0.00001,   0.00107,  -0.00388,467041536.00000,   0.00046,275140544.00000,   0.00005,   0.00014,  -0.00076,-8099008.00000,   0.00000
88728971.13582,243387145.11265,-239700620.25267,  -0.00002,   0.00107,  -0.00388,466829312.00000,   0.00046,275140544.00000,   0.00005,   0.00014,  -0.00076,-8311232.00000,   0.00000
87932598.69356,243479242.60597,-239494755.26760,  -0.00002,   0.00107,  -0.00388,466608416.00000,   0.00046,275140544.00000,   0.00005,   0.00014,  -0.00076,-8532128.00000,   0.00000
87155187.49992,243579466.34871,-239294307.78213,  -0.00003,   0.00108,  -0.00387,466400032.00000,   0.00046,275140544.00000,   0.00005,   0.00014,  -0.00076,-8740512.00000,   0.00000
86331727.55962,243644476.34399,-239088442.79705,  -0.00003,   0.00108,  -0.00387,466173696.00000,   0.00046,275140544.00000,   0.00005,   0.00014,  -0.00076,-8966848.00000,   0.00000
85535355.11736,243736573.83732,-238877160.31237,  -0.00003,   0.00108,  -0.00387,465950400.00000,   0.00046,275140544.00000,   0.00005,   0.00014,  -0.00076,-9190144.00000,   0.00000
84738982.67510,243828671.33064,-238671295.32730,  -0.00004,   0.00108,  -0.00387,465737504.00000,   0.00046,275140544.00000,   0.00005,   0.00014,  -0.00076,-9403040.00000,   0.00000
83923648.98421,243912642.57455,-238460012.84261,  -0.00004,   0.00108,  -0.00386,465516096.00000,   0.00046,275140544.00000,   0.00005,   0.00014,  -0.00076,-9624448.00000,   0.00000
83108315.29332,243996613.81846,-238248730.35793,  -0.00005,   0.00109,  -0.00386,465296448.00000,   0.00046,275140544.00000,   0.00005,   0.00014,  -0.00076,-9844096.00000,   0.00000
82284855.35302,244061623.81375,-238037447.87325,  -0.00005,   0.00109,  -0.00386,465071232.00000,   0.00046,275140544.00000,   0.00005,   0.00014,  -0.00076,-10069312.00000,   0.00000
81450560.41351,244137468.80825,-237826165.38857,  -0.00005,   0.00109,  -0.00386,464853440.00000,   0.00046,275140544.00000,   0.00005,   0.00014,  -0.00076,-10287104.00000,   0.00000
80608139.22459,244194352.55413,-237609465.40428,  -0.00006,   0.00109,  -0.00385,464621600.00000,   0.00046,275140544.00000,   0.00005,   0.00014,  -0.00076,-10518944.00000,   0.00000
79792805.53370,244278323.79804,-237392765.41999,  -0.00006,   0.00109,  -0.00385,464400768.00000,   0.00046,275140544.00000,   0.00005,   0.00014,  -0.00076,-10739776.00000,   0.00000
78931423.09615,244327081.29450,-237176065.43570,  -0.00006,   0.00109,  -0.00385,464170592.00000,   0.00046,275140544.00000,   0.00005,   0.00014,  -0.00076,-10969952.00000,   0.00000
78097128.15663,244402926.28900,-236959365.45141,  -0.00007,   0.00110,  -0.00384,463951616.00000,   0.00046,275140544.00000,   0.00005,   0.00014,  -0.00076,-11188928.00000,   0.00000
77235745.71908,244451683.78547,-236742665.46712,  -0.00007,   0.00110,  -0.00384,463725120.00000,   0.00046,275140544.00000,   0.00005,   0.00014,  -0.00076,-11415424.00000,   0.00000
76401450.77957,244527528.77997,-236520547.98323,  -0.00008,   0.00110,  -0.00384,463501344.00000,   0.00046,275140544.00000,   0.00005,   0.00014,  -0.00076,-11639200.00000,   0.00000
75540068.34202,244576286.27644,-236298430.49933,  -0.00008,   0.00110,  -0.00384,463270048.00000,   0.00046,275140544.00000,   0.00005,   0.00014,  -0.00076,-11870496.00000,   0.00000
74659724.65585,244616917.52349,-236076313.01543,  -0.00008,   0.00110,  -0.00383,463038880.00000,   0.00046,275140544.00000,   0.00005,   0.00014,  -0.00076,-12101664.00000,   0.00000
73798342.21830,244665675.01996,-235854195.53154,  -0.00009,   0.00111,  -0.00383,462811136.00000,   0.00046,275140544.00000,   0.00005,   0.00014,  -0.00076,-12329408.00000,   0.00000
72917998.53212,244706306.26701,-235632078.04764,  -0.00009,   0.00111,  -0.00383,462583616.00000,   0.00046,275140544.00000,   0.00005,   0.00014,  -0.00076,-12556928.00000,   0.00000
72056616.09457,244755063.76347,-235409960.56374,  -0.00010,   0.00111,  -0.00382,462359584.00000,   0.00046,275140544.00000,   0.00005,   0.00014,  -0.00076,-12780960.00000,   0.00000
71157311.15977,244787568.76112,-235182425.58024,  -0.00010,   0.00111,  -0.00382,462125856.00000,   0.00046,275140544.00000,   0.00005,   0.00014,  -0.00076,-13014688.00000,   0.00000
70276967.47360,244828200.00817,-234954890.59674,  -0.00011,   0.00111,  -0.00382,461895648.00000,   0.00046,275140544.00000,   0.00005,   0.00014,  -0.00076,-13244896.00000,   0.00000
69396623.78742,244868831.25523,-234727355.61323,  -0.00011,   0.00112,  -0.00381,461667200.00000,   0.00046,275140544.00000,   0.00005,   0.00014,  -0.00076,-13473344.00000,   0.00000
68497318.85262,244901336.25287,-234499820.62973,  -0.00011,   0.00112,  -0.00381,461439200.00000,   0.00046,275140544.00000,   0.00005,   0.00014,  -0.00076,-13701344.00000,   0.00000
67598013.91782,244933841.25051,-234272285.64622,  -0.00012,   0.00112,  -0.00381,461213216.00000,   0.00046,275140544.00000,   0.00005,   0.00014,  -0.00076,-13927328.00000,   0.00000
66717670.23164,244974472.49757,-234044750.66272,  -0.00012,   0.00112,  -0.00381,460990560.00000,   0.00046,275140544.00000,   0.00005,   0.00014,  -0.00076,-14149984.00000,   0.00000
65791277.79881,244979889.99717,-233817215.67922,  -0.00013,   0.00112,  -0.00380,460759200.00000,   0.00046,275140544.00000,   0.00005,   0.00014,  -0.00076,-14381344.00000,   0.00000
64891972.86401,245012394.99482,-233584263.19611,  -0.00013,   0.00113,  -0.00380,460530560.00000,   0.00046,275140544.00000,   0.00005,   0.00014,  -0.00076,-14609984.00000,   0.00000
63984541.67980,245025938.74384,-233356728.21260,  -0.00013,   0.00113,  -0.00380,460304672.00000,   0.00046,275140544.00000,   0.00005,   0.00014,  -0.00076,-14835872.00000,   0.00000
63066275.49637,245050317.49207,-233123775.72949,  -0.00014,   0.00113,  -0.00379,460078816.00000,   0.00046,275140544.00000,   0.00005,   0.00014,  -0.00076,-15061728.00000,   0.00000
62139883.06353,245055734.99168,-232896240.74599,  -0.00014,   0.00113,  -0.00379,459855520.00000,   0.00046,275140544.00000,   0.00005,   0.00014,  -0.00076,-15285024.00000,   0.00000
61213490.63070,245061152.49128,-232663288.26288,  -0.00015,   0.00113,  -0.00379,459625984.00000,   0.00046,275140544.00000,   0.00005,   0.00014,  -0.00076,-15514560.00000,   0.00000
60287098.19786,245066569.99089,-232430335.77977,  -0.00015,   0.00113,  -0.00378,459398688.00000,   0.00046,275140544.00000,   0.00005,   0.00014,  -0.00076,-15741856.00000,   0.00000
59360705.76502,245071987.49050,-232197383.29666,  -0.00016,   0.00114,  -0.00378,459173312.00000,   0.00046,275140544.00000,   0.00005,   0.00014,  -0.00076,-15967232.00000,   0.00000
58423478.33297,245088239.98932,-231964430.81354,  -0.00016,   0.00114,  -0.00378,458956576.00000,   0.00046,275140544.00000,   0.00005,   0.00014,  -0.00076,-16183968.00000,   0.00000
57497085.90014,245093657.48893,-231731478.33043,  -0.00016,   0.00114,  -0.00378,458735552.00000,   0.00046,275140544.00000,   0.00005,   0.00014,  -0.00076,-16404992.00000,   0.00000
56543605.96926,245071987.49050,-231498525.84732,  -0.00017,   0.00114,  -0.00377,458507680.00000,   0.00046,275140544.00000,   0.00005,   0.00014,  -0.00076,-16632864.00000,   0.00000
55598252.28780,245069278.74069,-231265573.36421,  -0.00017,   0.00114,  -0.00377,458289632.00000,   0.00046,275140544.00000,   0.00005,   0.00014,  -0.00076,-16850912.00000,   0.00000
54671859.85497,245074696.24030,-231032620.88110,  -0.00018,   0.00115,  -0.00377,458075072.00000,   0.00046,275140544.00000,   0.00005,   0.00014,  -0.00076,-17065472.00000,   0.00000
53707544.92488,245063861.24109,-230794250.89838,  -0.00018,   0.00115,  -0.00376,457852288.00000,   0.00046,275140544.00000,   0.00005,   0.00014,  -0.00076,-17288256.00000,   0.00000
52754064.99401,245042191.24266,-230561298.41527,  -0.00019,   0.00115,  -0.00376,457633152.00000,   0.00046,275140544.00000,   0.00005,   0.00014,  -0.00076,-17507392.00000,   0.00000
51808711.31254,245039482.49285,-230328345.93216,  -0.00019,   0.00115,  -0.00376,457424128.00000,   0.00046,275140544.00000,   0.00005,   0.00014,  -0.00076,-17716416.00000,   0.00000
50855231.38167,245017812.49443,-230095393.44905,  -0.00019,   0.00115,  -0.00375,457209536.00000,   0.00046,275140544.00000,   0.00005,   0.00014,  -0.00076,-17931008.00000,   0.00000
49882790.20217,244988016.24659,-229862440.96594,  -0.00020,   0.00115,  -0.00375,456996320.00000,   0.00046,275140544.00000,   0.00005,   0.00014,  -0.00076,-18144224.00000,   0.00000
48910349.02267,244958219.99875,-229624070.98322,  -0.00020,   0.00116,  -0.00375,456777216.00000,   0.00046,275140544.00000,   0.00005,   0.00014,  -0.00076,-18363328.00000,   0.00000
47956869.09180,244936550.00032,-229391118.50011,  -0.00021,   0.00116,  -0.00375,456569376.00000,   0.00046,275140544.00000,   0.00005,   0.00014,  -0.00076,-18571168.00000,   0.00000
46984427.91230,244906753.75248,-229158166.01700,  -0.00021,   0.00116,  -0.00374,456363040.00000,   0.00046,275140544.00000,   0.00005,   0.00014,  -0.00076,-18777504.00000,   0.00000
46011986.73281,244876957.50464,-228925213.53389,  -0.00022,   0.00116,  -0.00374,456159040.00000,   0.00046,275140544.00000,   0.00005,   0.00014,  -0.00076,-18981504.00000,   0.00000
45039545.55331,244847161.25680,-228686843.55117,  -0.00022,   0.00116,  -0.00374,455949184.00000,   0.00046,275140544.00000,   0.00005,   0.00014,  -0.00076,-19191360.00000,   0.00000
44067104.37381,244817365.00896,-228453891.06806,  -0.00022,   0.00116,  -0.00373,455749984.00000,   0.00046,275140544.00000,   0.00005,   0.00014,  -0.00076,-19390560.00000,   0.00000
43086536.94490,244768607.51249,-228220938.58495,  -0.00023,   0.00117,  -0.00373,455545120.00000,   0.00046,275140544.00000,   0.00005,   0.00014,  -0.00076,-19595424.00000,   0.00000
42095134.51678,244730685.01524,-227987986.10184,  -0.00023,   0.00117,  -0.00373,455349792.00000,   0.00046,275140544.00000,   0.00005,   0.00014,  -0.00076,-19790752.00000,   0.00000
41114567.08787,244681927.51878,-227755033.61873,  -0.00024,   0.00117,  -0.00372,455149760.00000,   0.00046,275140544.00000,   0.00005,   0.00014,  -0.00076,-19990784.00000,   0.00000
40142125.90837,244652131.27094,-227522081.13561,  -0.00024,   0.00117,  -0.00372,454959712.00000,   0.00046,275140544.00000,   0.00005,   0.00014,  -0.00076,-20180832.00000,   0.00000
39142597.23084,244595247.52506,-227289128.65250,  -0.00025,   0.00117,  -0.00372,454763776.00000,   0.00046,275140544.00000,   0.00005,   0.00014,  -0.00076,-20376768.00000,   0.00000
38162029.80193,244546490.02860,-227061593.66900,  -0.00025,   0.00118,  -0.00372,454578720.00000,   0.00046,275140544.00000,   0.00005,   0.00014,  -0.00076,-20561824.00000,   0.00000
37162501.12439,244489606.28272,-226828641.18589,  -0.00026,   0.00118,  -0.00371,454387424.00000,   0.00046,275140544.00000,   0.00005,   0.00014,  -0.00076,-20753120.00000,   0.00000
36181933.69549,244440848.78626,-226595688.70278,  -0.00026,   0.00118,  -0.00371,454198784.00000,   0.00046,275140544.00000,   0.00005,   0.00014,  -0.00076,-20941760.00000,   0.00000
35174278.76854,244365003.79175,-226368153.71927,  -0.00026,   0.00118,  -0.00371,454012288.00000,   0.00046,275140544.00000,   0.00005,   0.00014,  -0.00076,-21128256.00000,   0.00000
34193711.33963,244316246.29529,-226135201.23616,  -0.00027,   0.00118,  -0.00370,453828320.00000,   0.00046,275140544.00000,   0.00005,   0.00014,  -0.00076,-21312224.00000,   0.00000
33194182.66210,244259362.54941,-225907666.25266,  -0.00027,   0.00118,  -0.00370,453654208.00000,   0.00046,275140544.00000,   0.00005,   0.00014,  -0.00076,-21486336.00000,   0.00000
32186527.73515,244183517.55491,-225680131.26916,  -0.00028,   0.00119,  -0.00370,453474464.00000,   0.00046,275140544.00000,   0.00005,   0.00014,  -0.00076,-21666080.00000,   0.00000
31197834.05683,244115798.80982,-225452596.28565,  -0.00028,   0.00119,  -0.00369,453297312.00000,   0.00046,275140544.00000,   0.00005,   0.00014,  -0.00076,-21843232.00000,   0.00000
30190179.12989,244039953.81532,-225225061.30215,  -0.00029,   0.00119,  -0.00369,453121888.00000,   0.00046,275140544.00000,   0.00005,   0.00014,  -0.00076,-22018656.00000,   0.00000
29182524.20294,243964108.82082,-224997526.31864,  -0.00029,   0.00119,  -0.00369,452948768.00000,   0.00046,275140544.00000,   0.00005,   0.00014,  -0.00076,-22191776.00000,   0.00000
28174869.27600,243888263.82632,-224769991.33514,  -0.00029,   0.00119,  -0.00369,452777920.00000,   0.00046,275140544.00000,   0.00005,   0.00014,  -0.00076,-22362624.00000,   0.00000
27186175.59768,243820545.08123,-224547873.85124,  -0.00030,   0.00119,  -0.00368,452617184.00000,   0.00046,275140544.00000,   0.00005,   0.00014,  -0.00076,-22523360.00000,   0.00000
26178520.67073,243744700.08673,-224320338.86774,  -0.00030,   0.00119,  -0.00368,452450528.00000,   0.00046,275140544.00000,   0.00005,   0.00014,  -0.00076,-22690016.00000,   0.00000
25162739.49438,243649893.84360,-224098221.38384,  -0.00031,   0.00120,  -0.00368,452285856.00000,   0.00046,275140544.00000,   0.00005,   0.00014,  -0.00076,-22854688.00000,   0.00000
24155084.56743,243574048.84910,-223876103.89995,  -0.00031,   0.00120,  -0.00367,452131200.00000,   0.00046,275140544.00000,   0.00005,   0.00014,  -0.00076,-23009344.00000,   0.00000
23158264.63970,243487368.85538,-223653986.41605,  -0.00032,   0.00120,  -0.00367,451970752.00000,   0.00046,275140544.00000,   0.00005,   0.00014,  -0.00076,-23169792.00000,   0.00000
22142483.46335,243392562.61226,-223431868.93215,  -0.00032,   0.00120,  -0.00367,451812320.00000,   0.00046,275140544.00000,   0.00005,   0.00014,  -0.00076,-23328224.00000,   0.00000
21145663.53561,243305882.61854,-223215168.94787,  -0.00033,   0.00120,  -0.00367,451663872.00000,   0.00046,275140544.00000,   0.00005,   0.00014,  -0.00076,-23476672.00000,   0.00000
20129882.35926,243211076.37541,-222993051.46397,  -0.00033,   0.00120,  -0.00366,451509408.00000,   0.00046,275140544.00000,   0.00005,   0.00014,  -0.00076,-23631136.00000,   0.00000
19114101.18290,243116270.13229,-222776351.47968,  -0.00033,   0.00121,  -0.00366,451364832.00000,   0.00046,275140544.00000,   0.00005,   0.00014,  -0.00076,-23775712.00000,   0.00000
18109155.00576,243010628.88995,-222559651.49539,  -0.00034,   0.00121,  -0.00366,451214272.00000,   0.00046,275140544.00000,   0.00005,   0.00014,  -0.00076,-23926272.00000,   0.00000
17112335.07803,242923948.89623,-222342951.51110,  -0.00034,   0.00121,  -0.00365,451073888.00000,   0.00046,275140544.00000,   0.00005,   0.00014,  -0.00076,-24066656.00000,   0.00000
16088427.65226,242810181.40448,-222126251.52681,  -0.00035,   0.00121,  -0.00365,450927808.00000,   0.00046,275140544.00000,   0.00005,   0.00014,  -0.00076,-24212736.00000,   0.00000
15083481.47512,242704540.16214,-221914969.04213,  -0.00035,   0.00121,  -0.00365,450791776.00000,   0.00046,275140544.00000,   0.00005,   0.00014,  -0.00076,-24348768.00000,   0.00000
14078535.29798,242598898.91980,-221703686.55745,  -0.00036,   0.00121,  -0.00365,450657856.00000,   0.00046,275140544.00000,   0.00005,   0.00014,  -0.00076,-24482688.00000,   0.00000
13073589.12084,242493257.67746,-221492404.07277,  -0.00036,   0.00121,  -0.00364,450526272.00000,   0.00046,275140544.00000,   0.00005,   0.00014,  -0.00076,-24614272.00000,   0.00000
12041555.44566,242360528.93708,-221281121.58808,  -0.00037,   0.00122,  -0.00364,450389344.00000,   0.00046,275140544.00000,   0.00005,   0.00014,  -0.00076,-24751200.00000,   0.00000
11036609.26852,242254887.69474,-221075256.60301,  -0.00037,   0.00122,  -0.00364,450270496.00000,   0.00046,275140544.00000,   0.00005,   0.00014,  -0.00076,-24870048.00000,   0.00000
10042498.09059,242138411.45318,-220869391.61793,  -0.00037,   0.00122,  -0.00363,450145792.00000,   0.00046,275140544.00000,   0.00005,   0.00014,  -0.00076,-24994752.00000,   0.00000
9029425.66404,242013808.96222,-220663526.63286,  -0.00038,   0.00122,  -0.00363,450024064.00000,   0.00046,275140544.00000,   0.00005,   0.00014,  -0.00076,-25116480.00000,   0.00000
8016353.23749,241889206.47125,-220457661.64778,  -0.00038,   0.00122,  -0.00363,449904864.00000,   0.00046,275140544.00000,   0.00005,   0.00014,  -0.00076,-25235680.00000,   0.00000
7022242.05956,241772730.22969,-220257214.16232,  -0.00039,   0.00122,  -0.00363,449795840.00000,   0.00046,275140544.00000,   0.00005,   0.00014,  -0.00076,-25344704.00000,   0.00000
6009169.63301,241648127.73873,-220051349.17724,  -0.00039,   0.00122,  -0.00362,449681856.00000,   0.00046,275140544.00000,   0.00005,   0.00014,  -0.00076,-25458688.00000,   0.00000
5006932.20567,241512690.24855,-219856319.19138,  -0.00040,   0.00123,  -0.00362,449577888.00000,   0.00046,275140544.00000,   0.00005,   0.00014,  -0.00076,-25562656.00000,   0.00000
4012821.02775,241396214.00699,-219655871.70591,  -0.00040,   0.00123,  -0.00362,449476576.00000,   0.00046,275140544.00000,   0.00005,   0.00014,  -0.00076,-25663968.00000,   0.00000
3010583.60041,241260776.51681,-219460841.72005,  -0.00040,   0.00123,  -0.00362,449377760.00000,   0.00046,275140544.00000,   0.00005,   0.00014,  -0.00076,-25762784.00000,   0.00000
2008346.17307,241125339.02663,-219265811.73419,  -0.00041,   0.00123,  -0.00361,449281504.00000,   0.00046,275140544.00000,   0.00005,   0.00014,  -0.00076,-25859040.00000,   0.00000
1006108.74573,240989901.53645,-219070781.74833,  -0.00041,   0.00123,  -0.00361,449187936.00000,   0.00046,275140544.00000,   0.00005,   0.00014,  -0.00076,-25952608.00000,   0.00000
-4254.93102,240835502.79764,-218875751.76247,  -0.00042,   0.00123,  -0.00361,449088768.00000,   0.00046,275140544.00000,   0.00005,   0.00014,  -0.00076,-26051776.00000,   0.00000
-987531.10973,240708191.55687,-218686139.27622,  -0.00042,   0.00123,  -0.00361,449007232.00000,   0.00046,275140544.00000,   0.00005,   0.00014,  -0.00076,-26133312.00000,   0.00000
-1978933.53785,240561919.06748,-218501944.28957,  -0.00043,   0.00124,  -0.00360,448928032.00000,   0.00046,275140544.00000,   0.00005,   0.00014,  -0.00076,-26212512.00000,   0.00000
-2989297.21460,240407520.32867,-218312331.80332,  -0.00043,   0.00124,  -0.00360,448843936.00000,   0.00046,275140544.00000,   0.00005,   0.00014,  -0.00076,-26296608.00000,   0.00000
-3980699.64272,240261247.83928,-218128136.81668,  -0.00043,   0.00124,  -0.00360,448769312.00000,   0.00046,275140544.00000,   0.00005,   0.00014,  -0.00076,-26371232.00000,   0.00000
-4953140.82222,240123101.59929,-217943941.83003,  -0.00044,   0.00124,  -0.00360,448696064.00000,   0.00046,275140544.00000,   0.00005,   0.00014,  -0.00076,-26444480.00000,   0.00000
-5952669.49976,239957867.86127,-217765164.34299,  -0.00044,   0.00124,  -0.00359,448625760.00000,   0.00046,275140544.00000,   0.00005,   0.00014,  -0.00076,-26514784.00000,   0.00000
-6933236.92867,239800760.37266,-217586386.85595,  -0.00045,   0.00124,  -0.00359,448556608.00000,   0.00046,275140544.00000,   0.00005,   0.00014,  -0.00076,-26583936.00000,   0.00000
-7913804.35757,239643652.88405,-217407609.36891,  -0.00045,   0.00124,  -0.00359,448489568.00000,   0.00046,275140544.00000,   0.00005,   0.00014,  -0.00076,-26650976.00000,   0.00000
-8894371.78648,239486545.39544,-217234249.38148,  -0.00045,   0.00124,  -0.00359,448432320.00000,   0.00046,275140544.00000,   0.00005,   0.00014,  -0.00076,-26708224.00000,   0.00000
-9874939.21539,239329437.90683,-217055471.89444,  -0.00046,   0.00125,  -0.00359,448369376.00000,   0.00046,275140544.00000,   0.00005,   0.00014,  -0.00076,-26771168.00000,   0.00000
-10855506.64430,239172330.41822,-216887529.40662,  -0.00046,   0.00125,  -0.00358,448324128.00000,   0.00046,275140544.00000,   0.00005,   0.00014,  -0.00076,-26816416.00000,   0.00000
-11825239.07399,239004387.93040,-216714169.41919,  -0.00047,   0.00125,  -0.00358,448263904.00000,   0.00046,275140544.00000,   0.00005,   0.00014,  -0.00076,-26876640.00000,   0.00000
-12794971.50369,238836445.44257,-216551644.43097,  -0.00047,   0.00125,  -0.00358,448221536.00000,   0.00046,275140544.00000,   0.00005,   0.00014,  -0.00076,-26919008.00000,   0.00000
-13764703.93338,238668502.95475,-216383701.94315,  -0.00048,   0.00125,  -0.00358,448173216.00000,   0.00046,275140544.00000,   0.00005,   0.00014,  -0.00076,-26967328.00000,   0.00000
-14723601.36386,238489725.46771,-216221176.95493,  -0.00048,   0.00125,  -0.00357,448125728.00000,   0.00046,275140544.00000,   0.00005,   0.00014,  -0.00076,-27014816.00000,   0.00000
-15693333.79356,238321782.97989,-216058651.96671,  -0.00048,   0.00125,  -0.00357,448089344.00000,   0.00046,275140544.00000,   0.00005,   0.00014,  -0.00076,-27051200.00000,   0.00000
-16652231.22404,238143005.49285,-215901544.47810,  -0.00049,   0.00125,  -0.00357,448053632.00000,   0.00046,275140544.00000,   0.00005,   0.00014,  -0.00076,-27086912.00000,   0.00000
-17611128.65452,237964228.00581,-215744436.98949,  -0.00049,   0.00125,  -0.00357,448019936.00000,   0.00046,275140544.00000,   0.00005,   0.00014,  -0.00076,-27120608.00000,   0.00000
-18551064.83637,237793576.76818,-215587329.50088,  -0.00050,   0.00126,  -0.00357,447987008.00000,   0.00046,275140544.00000,   0.00005,   0.00014,  -0.00076,-27153536.00000,   0.00000
-19499127.26764,237603964.28193,-215435639.51188,  -0.00050,   0.00126,  -0.00356,447956032.00000,   0.00046,275140544.00000,   0.00005,   0.00014,  -0.00076,-27184512.00000,   0.00000
-20439063.44949,237433313.04430,-215283949.52288,  -0.00050,   0.00126,  -0.00356,447934816.00000,   0.00046,275140544.00000,   0.00005,   0.00014,  -0.00076,-27205728.00000,   0.00000
-21387125.88076,237243700.55805,-215137677.03348,  -0.00051,   0.00126,  -0.00356,447915616.00000,   0.00046,275140544.00000,   0.00005,   0.00014,  -0.00076,-27224928.00000,   0.00000
-22316227.06340,237062214.32121,-214991404.54409,  -0.00051,   0.00126,  -0.00356,447896832.00000,   0.00046,275140544.00000,   0.00005,   0.00014,  -0.00076,-27243712.00000,   0.00000
-23253454.49545,236861766.83574,-214850549.55430,  -0.00052,   0.00126,  -0.00356,447879840.00000,   0.00046,275140544.00000,   0.00005,   0.00014,  -0.00076,-27260704.00000,   0.00000
-24190681.92750,236661319.35027,-214709694.56451,  -0.00052,   0.00126,  -0.00355,447864832.00000,   0.00046,275140544.00000,   0.00005,   0.00014,  -0.00076,-27275712.00000,   0.00000
-25119783.11014,236479833.11343,-214568839.57472,  -0.00052,   0.00126,  -0.00355,447859392.00000,   0.00046,275140544.00000,   0.00005,   0.00014,  -0.00076,-27281152.00000,   0.00000
-26046175.54298,236268550.62875,-214433402.08454,  -0.00053,   0.00126,  -0.00355,447845984.00000,   0.00046,275140544.00000,   0.00005,   0.00014,  -0.00076,-27294560.00000,   0.00000
-26945480.47778,236084355.64210,-214303382.09397,  -0.00053,   0.00126,  -0.00355,447848096.00000,   0.00046,275140544.00000,   0.00005,   0.00014,  -0.00076,-27292448.00000,   0.00000
-27871872.91061,235873073.15742,-214173362.10340,  -0.00053,   0.00126,  -0.00355,447845280.00000,   0.00046,275140544.00000,   0.00005,   0.00014,  -0.00076,-27295264.00000,   0.00000
-28771177.84541,235688878.17077,-214043342.11282,  -0.00054,   0.00127,  -0.00355,447849920.00000,   0.00046,275140544.00000,   0.00005,   0.00014,  -0.00076,-27290624.00000,   0.00000
-29686735.27904,235466760.68688,-213918739.62186,  -0.00054,   0.00127,  -0.00354,447847264.00000,   0.00046,275140544.00000,   0.00005,   0.00014,  -0.00076,-27293280.00000,   0.00000
-30575205.21462,235271730.70102,-213794137.13089,  -0.00055,   0.00127,  -0.00354,447851808.00000,   0.00046,275140544.00000,   0.00005,   0.00014,  -0.00076,-27288736.00000,   0.00000
-31471801.39962,235057739.46653,-213674952.13953,  -0.00055,   0.00127,  -0.00354,447856640.00000,   0.00046,275140544.00000,   0.00005,   0.00014,  -0.00076,-27283904.00000,   0.00000
-32368397.58462,234843748.23205,-213555767.14817,  -0.00055,   0.00127,  -0.00354,447861952.00000,   0.00046,275140544.00000,   0.00005,   0.00014,  -0.00076,-27278592.00000,   0.00000
-33246032.52099,234637883.24697,-213441999.65642,  -0.00056,   0.00127,  -0.00354,447873920.00000,   0.00046,275140544.00000,   0.00005,   0.00014,  -0.00076,-27266624.00000,   0.00000
-34123667.45736,234432018.26190,-213328232.16467,  -0.00056,   0.00127,  -0.00354,447886272.00000,   0.00046,275140544.00000,   0.00005,   0.00014,  -0.00076,-27254272.00000,   0.00000
-35009428.64314,234207192.02820,-213214464.67292,  -0.00056,   0.00127,  -0.00354,447891424.00000,   0.00046,275140544.00000,   0.00005,   0.00014,  -0.00076,-27249120.00000,   0.00000
-35876228.58030,233990492.04391,-213111532.18038,  -0.00057,   0.00127,  -0.00353,447911136.00000,   0.00046,275140544.00000,   0.00005,   0.00014,  -0.00076,-27229408.00000,   0.00000
-36743028.51746,233773792.05962,-213003182.18823,  -0.00057,   0.00127,  -0.00353,447924384.00000,   0.00046,275140544.00000,   0.00005,   0.00014,  -0.00076,-27216160.00000,   0.00000
-37598993.45540,233546257.07611,-212905667.19530,  -0.00057,   0.00127,  -0.00353,447945248.00000,   0.00046,275140544.00000,   0.00005,   0.00014,  -0.00076,-27195296.00000,   0.00000
-38454958.39334,233318722.09261,-212802734.70277,  -0.00058,   0.00127,  -0.00353,447960480.00000,   0.00046,275140544.00000,   0.00005,   0.00014,  -0.00076,-27180064.00000,   0.00000
-39291962.08266,233099313.35852,-212705219.70984,  -0.00058,   0.00127,  -0.00353,447984256.00000,   0.00046,275140544.00000,   0.00005,   0.00014,  -0.00076,-27156288.00000,   0.00000
-40128965.77197,232879904.62442,-212613122.21651,  -0.00058,   0.00127,  -0.00353,448018816.00000,   0.00046,275140544.00000,   0.00005,   0.00014,  -0.00076,-27121728.00000,   0.00000
-40974095.71070,232641534.64171,-212526442.22280,  -0.00059,   0.00128,  -0.00353,448056768.00000,   0.00046,275140544.00000,   0.00005,   0.00014,  -0.00076,-27083776.00000,   0.00000
-41800264.40081,232411290.90840,-212434344.72948,  -0.00059,   0.00128,  -0.00352,448088512.00000,   0.00046,275140544.00000,   0.00005,   0.00014,  -0.00076,-27052032.00000,   0.00000
-42634559.34032,232162085.92647,-212353082.23537,  -0.00059,   0.00128,  -0.00352,448131584.00000,   0.00046,275140544.00000,   0.00005,   0.00014,  -0.00076,-27008960.00000,   0.00000
-43441766.78180,231939968.44257,-212271819.74126,  -0.00060,   0.00128,  -0.00352,448183552.00000,   0.00046,275140544.00000,   0.00005,   0.00014,  -0.00076,-26956992.00000,   0.00000
-44257100.47268,231698889.71005,-212190557.24715,  -0.00060,   0.00128,  -0.00352,448230944.00000,   0.00046,275140544.00000,   0.00005,   0.00014,  -0.00076,-26909600.00000,   0.00000
-45053472.91495,231465937.22694,-212114712.25265,  -0.00060,   0.00128,  -0.00352,448286112.00000,   0.00046,275140544.00000,   0.00005,   0.00014,  -0.00076,-26854432.00000,   0.00000
-45857971.60662,231214023.49520,-212038867.25815,  -0.00061,   0.00128,  -0.00352,448335232.00000,   0.00046,275140544.00000,   0.00005,   0.00014,  -0.00076,-26805312.00000,   0.00000
-46662470.29830,230962109.76346,-211973857.26286,  -0.00061,   0.00128,  -0.00352,448400736.00000,   0.00046,275140544.00000,   0.00005,   0.00014,  -0.00076,-26739808.00000,   0.00000
-47448007.74134,230718322.28114,-211903429.76797,  -0.00061,   0.00128,  -0.00352,448456160.00000,   0.00046,275140544.00000,   0.00005,   0.00014,  -0.00076,-26684384.00000,   0.00000
-48214583.93577,230482661.04822,-211838419.77268,  -0.00062,   0.00128,  -0.00352,448516416.00000,   0.00046,275140544.00000,   0.00005,   0.00014,  -0.00076,-26624128.00000,   0.00000
-48989286.37960,230228038.56668,-211778827.27700,  -0.00062,   0.00128,  -0.00352,448575360.00000,   0.00046,275140544.00000,   0.00005,   0.00014,  -0.00076,-26565184.00000,   0.00000
-49745027.57481,229981542.33456,-211719234.78132,  -0.00062,   0.00128,  -0.00352,448630560.00000,   0.00046,275140544.00000,   0.00005,   0.00014,  -0.00076,-26509984.00000,   0.00000
-50508895.01943,229716084.85380,-211665059.78525,  -0.00063,   0.00128,  -0.00351,448684128.00000,   0.00046,275140544.00000,   0.00005,   0.00014,  -0.00076,-26456416.00000,   0.00000
-51272762.46405,229450627.37305,-211616302.28878,  -0.00063,   0.00128,  -0.00351,448744544.00000,   0.00046,275140544.00000,   0.00005,   0.00014,  -0.00076,-26396000.00000,   0.00000
-52017668.66004,229193296.14170,-211567544.79232,  -0.00063,   0.00128,  -0.00351,448802176.00000,   0.00046,275140544.00000,   0.00005,   0.00014,  -0.00076,-26338368.00000,   0.00000
-52743613.60741,228944091.15977,-211524204.79546,  -0.00063,   0.00128,  -0.00351,448865760.00000,   0.00046,275140544.00000,   0.00005,   0.00014,  -0.00076,-26274784.00000,   0.00000
-53477684.80419,228675924.92921,-211480864.79860,  -0.00064,   0.00128,  -0.00351,448922656.00000,   0.00046,275140544.00000,   0.00005,   0.00014,  -0.00076,-26217888.00000,   0.00000
-54192794.75235,228415884.94807,-211442942.30135,  -0.00064,   0.00128,  -0.00351,448986432.00000,   0.00046,275140544.00000,   0.00005,   0.00014,  -0.00076,-26154112.00000,   0.00000
-54916030.94991,228136883.71829,-211405019.80410,  -0.00064,   0.00128,  -0.00351,449044512.00000,   0.00046,275140544.00000,   0.00005,   0.00014,  -0.00076,-26096032.00000,   0.00000
-55620305.89885,227866008.73793,-211372514.80646,  -0.00064,   0.00128,  -0.00351,449109408.00000,   0.00046,275140544.00000,   0.00005,   0.00014,  -0.00076,-26031136.00000,   0.00000
-56305619.59917,227603260.00698,-211345427.30842,  -0.00065,   0.00128,  -0.00351,449180992.00000,   0.00046,275140544.00000,   0.00005,   0.00014,  -0.00076,-25959552.00000,   0.00000
-56999059.54889,227321550.02740,-211318339.81039,  -0.00065,   0.00128,  -0.00351,449246080.00000,   0.00046,275140544.00000,   0.00005,   0.00014,  -0.00076,-25894464.00000,   0.00000
-57692499.49862,227039840.04783,-211296669.81196,  -0.00065,   0.00128,  -0.00351,449319744.00000,   0.00046,275140544.00000,   0.00005,   0.00014,  -0.00076,-25820800.00000,   0.00000
-58366978.19972,226766256.31766,-211274999.81353,  -0.00066,   0.00128,  -0.00351,449391520.00000,   0.00046,275140544.00000,   0.00005,   0.00014,  -0.00076,-25749024.00000,   0.00000
-59030621.90160,226481837.58828,-211258747.31471,  -0.00066,   0.00128,  -0.00351,449461216.00000,   0.00046,275140544.00000,   0.00005,   0.00014,  -0.00076,-25679328.00000,   0.00000
-59675304.35487,226205545.10832,-211242494.81588,  -0.00066,   0.00128,  -0.00351,449528608.00000,   0.00046,275140544.00000,   0.00005,   0.00014,  -0.00076,-25611936.00000,   0.00000
-60319986.80813,225929252.62835,-211237077.31628,  -0.00066,   0.00128,  -0.00351,449611840.00000,   0.00046,275140544.00000,   0.00005,   0.00014,  -0.00076,-25528704.00000,   0.00000
-60972795.51080,225633998.89975,-211231659.81667,  -0.00066,   0.00128,  -0.00351,449687776.00000,   0.00046,275140544.00000,   0.00005,   0.00014,  -0.00076,-25452768.00000,   0.00000
-61606642.96484,225346871.42057,-211226242.31706,  -0.00067,   0.00128,  -0.00351,449761504.00000,   0.00046,275140544.00000,   0.00005,   0.00014,  -0.00076,-25379040.00000,   0.00000
-62229655.41967,225048908.94217,-211226242.31706,  -0.00067,   0.00128,  -0.00351,449833024.00000,   0.00046,275140544.00000,   0.00005,   0.00014,  -0.00076,-25307520.00000,   0.00000
-62833706.62588,224759072.71318,-211231659.81667,  -0.00067,   0.00128,  -0.00351,449910112.00000,   0.00046,275140544.00000,   0.00005,   0.00014,  -0.00076,-25230432.00000,   0.00000
-63437757.83209,224469236.48420,-211237077.31628,  -0.00067,   0.00128,  -0.00351,449987744.00000,   0.00046,275140544.00000,   0.00005,   0.00014,  -0.00076,-25152800.00000,   0.00000
-64049935.28770,224160439.00659,-211247912.31549,  -0.00068,   0.00128,  -0.00351,450066048.00000,   0.00046,275140544.00000,   0.00005,   0.00014,  -0.00076,-25074496.00000,   0.00000
-64624190.24607,223867894.02779,-211264164.81431,  -0.00068,   0.00128,  -0.00351,450147008.00000,   0.00046,275140544.00000,   0.00005,   0.00014,  -0.00076,-24993536.00000,   0.00000
-65206571.45385,223556387.80038,-211280417.31314,  -0.00068,   0.00128,  -0.00351,450221056.00000,   0.00046,275140544.00000,   0.00005,   0.00014,  -0.00076,-24919488.00000,   0.00000
-65788952.66163,223244881.57296,-211302087.31156,  -0.00068,   0.00128,  -0.00351,450303168.00000,   0.00046,275140544.00000,   0.00005,   0.00014,  -0.00076,-24837376.00000,   0.00000
-66333411.37215,222949627.84437,-211323757.30999,  -0.00068,   0.00128,  -0.00351,450380544.00000,   0.00046,275140544.00000,   0.00005,   0.00014,  -0.00076,-24760000.00000,   0.00000
-66885996.33209,222635412.86715,-211350844.80803,  -0.00069,   0.00128,  -0.00351,450458208.00000,   0.00046,275140544.00000,   0.00005,   0.00014,  -0.00076,-24682336.00000,   0.00000
-67438581.29203,222321197.88993,-211383349.80567,  -0.00069,   0.00128,  -0.00351,450544320.00000,   0.00046,275140544.00000,   0.00005,   0.00014,  -0.00076,-24596224.00000,   0.00000
-67961370.00413,222004274.16291,-211415854.80332,  -0.00069,   0.00128,  -0.00351,450617472.00000,   0.00046,275140544.00000,   0.00005,   0.00014,  -0.00076,-24523072.00000,   0.00000
-68484158.71622,221687350.43588,-211459194.80017,  -0.00069,   0.00128,  -0.00351,450706368.00000,   0.00046,275140544.00000,   0.00005,   0.00014,  -0.00076,-24434176.00000,   0.00000
-68987986.17970,221378552.95827,-211497117.29742,  -0.00069,   0.00128,  -0.00351,450785120.00000,   0.00046,275140544.00000,   0.00005,   0.00014,  -0.00076,-24355424.00000,   0.00000
-69499939.89258,221050794.23203,-211545874.79389,  -0.00069,   0.00128,  -0.00351,450872128.00000,   0.00046,275140544.00000,   0.00005,   0.00014,  -0.00076,-24268416.00000,   0.00000
-69992932.35684,220731161.75521,-211594632.29035,  -0.00070,   0.00128,  -0.00351,450956448.00000,   0.00046,275140544.00000,   0.00005,   0.00014,  -0.00076,-24184096.00000,   0.00000
-70475089.82188,220400694.27917,-211643389.78682,  -0.00070,   0.00128,  -0.00351,451030656.00000,   0.00046,275140544.00000,   0.00005,   0.00014,  -0.00076,-24109888.00000,   0.00000
-70938286.03830,220078353.05254,-211697564.78289,  -0.00070,   0.00128,  -0.00352,451109824.00000,   0.00046,275140544.00000,   0.00005,   0.00014,  -0.00076,-24030720.00000,   0.00000
-71409608.50413,219737050.57728,-211757157.27857,  -0.00070,   0.00128,  -0.00352,451189504.00000,   0.00046,275140544.00000,   0.00005,   0.00014,  -0.00076,-23951040.00000,   0.00000
-71861969.72133,219403874.35144,-211822167.27386,  -0.00070,   0.00128,  -0.00352,451273984.00000,   0.00046,275140544.00000,   0.00005,   0.00014,  -0.00076,-23866560.00000,   0.00000
