# sigma_xx, sigma_yy, sigma_xy, epsilon_xx, epsilon_yy, epsilon_xy, vonMises, epsPlastic, hardening, epsilonP__xx, epsilonP__yy, epsilonP__xy, yieldValue, iteration
   0.00000,   0.00000,   0.00000,   0.00000,   0.00000,   0.00000,   0.00000,   0.00000,274640135.82653,   0.00000,   0.00000,   0.00000,-474640135.82653,   0.00000
   0.00000,   0.00000,   0.00000,   0.00000,   0.00000,   0.00000,   0.00000,   0.00000,274640135.82653,   0.00000,   0.00000,   0.00000,-474640135.82653,   0.00000
-380774.81109,249473.15209,-551466.96779,  -0.00000,   0.00000,  -0.00001,1102073.88700,   0.00000,274640135.82653,   0.00000,   0.00000,   0.00000,-473538061.93953,   0.00000
-761549.62218,498946.30419,-1109499.01852,  -0.00000,   0.00000,  -0.00001,2214010.34940,   0.00000,274640135.82653,   0.00000,   0.00000,   0.00000,-472426125.47713,   0.00000
-1142324.43327,748419.45628,-1667531.06926,  -0.00001,   0.00001,  -0.00002,3325951.62704,   0.00000,274640135.82653,   0.00000,   0.00000,   0.00000,-471314184.19949,   0.00000
-1532946.86878,974914.81805,-2225563.11999,  -0.00001,   0.00001,  -0.00003,4433313.79735,   0.00000,274640135.82653,   0.00000,   0.00000,   0.00000,-470206822.02918,   0.00000
-1900591.51397,1211257.80424,-2790160.25367,  -0.00001,   0.00001,  -0.00004,5544049.29622,   0.00000,274640135.82653,   0.00000,   0.00000,   0.00000,-469096086.53031,   0.00000
-2291213.94949,1437753.16601,-3354757.38736,  -0.00001,   0.00001,  -0.00004,6661395.27597,   0.00000,274640135.82653,   0.00000,   0.00000,   0.00000,-467978740.55056,   0.00000
-2658858.59468,1674096.15220,-3919354.52104,  -0.00002,   0.00001,  -0.00005,7772215.35219,   0.00000,274640135.82653,   0.00000,   0.00000,   0.00000,-466867920.47434,   0.00000
-3049481.03019,1900591.51397,-4490516.73768,  -0.00002,   0.00001,  -0.00006,8899529.32118,   0.00000,274640135.82653,   0.00000,   0.00000,   0.00000,-465740606.50534,   0.00000
-3426973.29981,2113956.70984,-5055113.87136,  -0.00002,   0.00002,  -0.00007,10005996.24863,   0.00000,274640135.82653,   0.00000,   0.00000,   0.00000,-464634139.57790,   0.00000
-3827443.35975,2317474.28129,-5632841.17095,  -0.00002,   0.00002,  -0.00007,11138972.58445,   0.00000,274640135.82653,   0.00000,   0.00000,   0.00000,-463501163.24208,   0.00000
-4204935.62936,2530839.47716,-6204003.38758,  -0.00002,   0.00002,  -0.00008,12255513.99556,   0.00000,274640135.82653,   0.00000,   0.00000,   0.00000,-462384621.83097,   0.00000
-4582427.89898,2744204.67303,-6781730.68717,  -0.00003,   0.00002,  -0.00009,13382078.99135,   0.00000,274640135.82653,   0.00000,   0.00000,   0.00000,-461258056.83518,   0.00000
-4969767.79302,2934592.07857,-7359457.98675,  -0.00003,   0.00002,  -0.00010,14504465.84188,   0.00000,274640135.82653,   0.00000,   0.00000,   0.00000,-460135669.98465,   0.00000
-5357107.68706,3124979.48412,-7937185.28634,  -0.00003,   0.00002,  -0.00010,15626953.70096,   0.00000,274640135.82653,   0.00000,   0.00000,   0.00000,-459013182.12557,   0.00000
-5744447.58110,3315366.88966,-8514912.58592,  -0.00003,   0.00003,  -0.00011,16749522.26102,   0.00000,274640135.82653,   0.00000,   0.00000,   0.00000,-457890613.56551,   0.00000
-6131787.47513,3505754.29521,-9099204.96845,  -0.00003,   0.00003,  -0.00012,17882177.27993,   0.00000,274640135.82653,   0.00000,   0.00000,   0.00000,-456757958.54660,   0.00000
-6528974.99360,3673163.91043,-9683497.35099,  -0.00004,   0.00003,  -0.00013,19010839.16449,   0.00000,274640135.82653,   0.00000,   0.00000,   0.00000,-455629296.66203,   0.00000
-6916314.88764,3863551.31597,-10267789.73352,  -0.00004,   0.00003,  -0.00013,20143646.53973,   0.00000,274640135.82653,   0.00000,   0.00000,   0.00000,-454496489.28680,   0.00000
-7290524.61578,4040808.55562,-10858647.19901,  -0.00004,   0.00003,  -0.00014,21276046.48839,   0.00000,274640135.82653,   0.00000,   0.00000,   0.00000,-453364089.33814,   0.00000
-7697559.75867,4185240.38051,-11442939.58154,  -0.00004,   0.00003,  -0.00015,22401058.01106,   0.00000,274640135.82653,   0.00000,   0.00000,   0.00000,-452239077.81547,   0.00000
-8104594.90156,4329672.20541,-12033797.04703,  -0.00005,   0.00004,  -0.00016,23536303.30602,   0.00000,274640135.82653,   0.00000,   0.00000,   0.00000,-451103832.52051,   0.00000
-8478804.62970,4506929.44505,-12631219.59546,  -0.00005,   0.00004,  -0.00016,24679121.55288,   0.00000,274640135.82653,   0.00000,   0.00000,   0.00000,-449961014.27365,   0.00000
-8895687.39701,4628383.47963,-13222077.06094,  -0.00005,   0.00004,  -0.00017,25810807.92817,   0.00000,274640135.82653,   0.00000,   0.00000,   0.00000,-448829327.89836,   0.00000
-9279744.74957,4782662.92895,-13819499.60938,  -0.00005,   0.00004,  -0.00018,26950048.73602,   0.00000,274640135.82653,   0.00000,   0.00000,   0.00000,-447690087.09051,   0.00000
-9673649.72656,4913964.58794,-14410357.07486,  -0.00005,   0.00004,  -0.00019,28075571.09430,   0.00000,274640135.82653,   0.00000,   0.00000,   0.00000,-446564564.73222,   0.00000
-10090532.49388,5035418.62251,-15014344.70625,  -0.00006,   0.00004,  -0.00020,29227999.97979,   0.00000,274640135.82653,   0.00000,   0.00000,   0.00000,-445412135.84674,   0.00000
-10484437.47087,5166720.28151,-15611767.25468,  -0.00006,   0.00004,  -0.00020,30363965.71121,   0.00000,274640135.82653,   0.00000,   0.00000,   0.00000,-444276170.11532,   0.00000
-10888190.07228,5275044.15018,-16209189.80311,  -0.00006,   0.00005,  -0.00021,31496475.34889,   0.00000,274640135.82653,   0.00000,   0.00000,   0.00000,-443143660.47764,   0.00000
-11314920.46402,5373520.39443,-16813177.43450,  -0.00006,   0.00005,  -0.00022,32645855.91990,   0.00000,274640135.82653,   0.00000,   0.00000,   0.00000,-441994279.90663,   0.00000
-11718673.06543,5481844.26310,-17417165.06588,  -0.00006,   0.00005,  -0.00023,33788914.93450,   0.00000,274640135.82653,   0.00000,   0.00000,   0.00000,-440851220.89203,   0.00000
-12122425.66685,5590168.13177,-18021152.69726,  -0.00007,   0.00005,  -0.00023,34932154.45756,   0.00000,274640135.82653,   0.00000,   0.00000,   0.00000,-439707981.36897,   0.00000
-12536025.89269,5675514.21012,-18625140.32865,  -0.00007,   0.00005,  -0.00024,36072141.00396,   0.00000,274640135.82653,   0.00000,   0.00000,   0.00000,-438567994.82257,   0.00000
-12949626.11853,5760860.28847,-19235693.04298,  -0.00007,   0.00005,  -0.00025,37222533.16556,   0.00000,274640135.82653,   0.00000,   0.00000,   0.00000,-437417602.66097,   0.00000
-13373073.96879,5823228.57649,-19839680.67437,  -0.00007,   0.00005,  -0.00026,38359644.84588,   0.00000,274640135.82653,   0.00000,   0.00000,   0.00000,-436280490.98065,   0.00000
-13796521.81905,5885596.86452,-20450233.38870,  -0.00007,   0.00005,  -0.00027,39507229.30391,   0.00000,274640135.82653,   0.00000,   0.00000,   0.00000,-435132906.52262,   0.00000
-14219969.66932,5947965.15254,-21060786.10303,  -0.00008,   0.00005,  -0.00027,40655083.87334,   0.00000,274640135.82653,   0.00000,   0.00000,   0.00000,-433985051.95319,   0.00000
-14643417.51958,6010333.44056,-21671338.81737,  -0.00008,   0.00006,  -0.00028,41803186.30359,   0.00000,274640135.82653,   0.00000,   0.00000,   0.00000,-432836949.52294,   0.00000
-15076712.99427,6049723.93826,-22281891.53170,  -0.00008,   0.00006,  -0.00029,42948392.94600,   0.00000,274640135.82653,   0.00000,   0.00000,   0.00000,-431691742.88053,   0.00000
-15510008.46896,6089114.43596,-22899009.32898,  -0.00008,   0.00006,  -0.00030,44104124.28037,   0.00000,274640135.82653,   0.00000,   0.00000,   0.00000,-430536011.54616,   0.00000
-15943303.94365,6128504.93366,-23509562.04332,  -0.00008,   0.00006,  -0.00031,45249913.28881,   0.00000,274640135.82653,   0.00000,   0.00000,   0.00000,-429390222.53772,   0.00000
-16386447.04276,6144917.64103,-24126679.84060,  -0.00009,   0.00006,  -0.00031,46403222.59714,   0.00000,274640135.82653,   0.00000,   0.00000,   0.00000,-428236913.22939,   0.00000
-16829590.14187,6161330.34841,-24743797.63788,  -0.00009,   0.00006,  -0.00032,47556874.63587,   0.00000,274640135.82653,   0.00000,   0.00000,   0.00000,-427083261.19066,   0.00000
-17272733.24098,6177743.05578,-25360915.43517,  -0.00009,   0.00006,  -0.00033,48710845.05365,   0.00000,274640135.82653,   0.00000,   0.00000,   0.00000,-425929290.77288,   0.00000
-17702746.17420,6181025.59726,-25978033.23245,  -0.00009,   0.00006,  -0.00034,49855672.28175,   0.00000,274640135.82653,   0.00000,   0.00000,   0.00000,-424784463.54478,   0.00000
-18145889.27331,6197438.30463,-26595151.02973,  -0.00009,   0.00006,  -0.00035,51010251.35398,   0.00000,274640135.82653,   0.00000,   0.00000,   0.00000,-423629884.47255,   0.00000
-18608727.62127,6167895.43136,-27218833.90997,  -0.00010,   0.00006,  -0.00035,52169906.28771,   0.00000,274640135.82653,   0.00000,   0.00000,   0.00000,-422470229.53882,   0.00000
-19061718.34481,6161330.34841,-27835951.70725,  -0.00010,   0.00007,  -0.00036,53322389.89388,   0.00000,274640135.82653,   0.00000,   0.00000,   0.00000,-421317745.93265,   0.00000
-19534404.31720,6108809.68481,-28459634.58748,  -0.00010,   0.00007,  -0.00037,54480224.56481,   0.00000,274640135.82653,   0.00000,   0.00000,   0.00000,-420159911.26172,   0.00000
-19974264.87484,6089114.43596,-29083317.46772,  -0.00010,   0.00007,  -0.00038,55634451.74786,   0.00000,274640135.82653,   0.00000,   0.00000,   0.00000,-419005684.07867,   0.00000
-20446950.84722,6036593.77236,-29700435.26500,  -0.00010,   0.00007,  -0.00039,56782882.66952,   0.00000,274640135.82653,   0.00000,   0.00000,   0.00000,-417857253.15701,   0.00000
-20919636.81961,5984073.10876,-30324118.14523,  -0.00011,   0.00007,  -0.00039,57942052.04884,   0.00000,274640135.82653,   0.00000,   0.00000,   0.00000,-416698083.77769,   0.00000
-21392322.79200,5931552.44517,-30947801.02547,  -0.00011,   0.00007,  -0.00040,59101638.20358,   0.00000,274640135.82653,   0.00000,   0.00000,   0.00000,-415538497.62295,   0.00000
-21851878.59849,5865901.61567,-31578048.98865,  -0.00011,   0.00007,  -0.00041,60262873.34514,   0.00000,274640135.82653,   0.00000,   0.00000,   0.00000,-414377262.48139,   0.00000
-22334412.19530,5790403.16174,-32201731.86888,  -0.00011,   0.00007,  -0.00042,61420962.17044,   0.00000,274640135.82653,   0.00000,   0.00000,   0.00000,-413219173.65609,   0.00000
-22826793.41653,5691926.91750,-32825414.74912,  -0.00011,   0.00007,  -0.00043,62577252.49607,   0.00000,274640135.82653,   0.00000,   0.00000,   0.00000,-412062883.33046,   0.00000
-23309327.01335,5616428.46357,-33449097.62935,  -0.00012,   0.00007,  -0.00043,63736257.80401,   0.00000,274640135.82653,   0.00000,   0.00000,   0.00000,-410903878.02252,   0.00000
-23811555.85901,5494974.42900,-34079345.59253,  -0.00012,   0.00007,  -0.00044,64901727.36536,   0.00000,274640135.82653,   0.00000,   0.00000,   0.00000,-409738408.46117,   0.00000
-24280959.28992,5406345.80918,-34703028.47276,  -0.00012,   0.00007,  -0.00045,66052746.93070,   0.00000,274640135.82653,   0.00000,   0.00000,   0.00000,-408587388.89582,   0.00000
-24783188.13558,5284891.77461,-35333276.43595,  -0.00012,   0.00007,  -0.00046,67219299.56089,   0.00000,274640135.82653,   0.00000,   0.00000,   0.00000,-407420836.26564,   0.00000
-25295264.60567,5140459.94971,-35956959.31618,  -0.00013,   0.00007,  -0.00047,68374065.29076,   0.00000,274640135.82653,   0.00000,   0.00000,   0.00000,-406266070.53577,   0.00000
-25797493.45133,5019005.91514,-36587207.27936,  -0.00013,   0.00007,  -0.00048,69541714.60703,   0.00000,274640135.82653,   0.00000,   0.00000,   0.00000,-405098421.21950,   0.00000
-26309569.92142,4874574.09024,-37217455.24255,  -0.00013,   0.00007,  -0.00048,70707989.74705,   0.00000,274640135.82653,   0.00000,   0.00000,   0.00000,-403932146.07948,   0.00000
-26831494.01593,4707164.47502,-37847703.20573,  -0.00013,   0.00007,  -0.00049,71873031.36652,   0.00000,274640135.82653,   0.00000,   0.00000,   0.00000,-402767104.46001,   0.00000
-27353418.11044,4539754.85980,-38471386.08596,  -0.00013,   0.00007,  -0.00050,73028345.94482,   0.00000,274640135.82653,   0.00000,   0.00000,   0.00000,-401611789.88171,   0.00000
-27852364.41462,4382192.86901,-39101634.04915,  -0.00014,   0.00007,  -0.00051,74187772.62116,   0.00000,274640135.82653,   0.00000,   0.00000,   0.00000,-400452363.20537,   0.00000
-28384136.13356,4191805.46346,-39731882.01233,  -0.00014,   0.00007,  -0.00052,75353026.07551,   0.00000,274640135.82653,   0.00000,   0.00000,   0.00000,-399287109.75101,   0.00000
-28915907.85250,4001418.05792,-40362129.97551,  -0.00014,   0.00007,  -0.00052,76518953.97698,   0.00000,274640135.82653,   0.00000,   0.00000,   0.00000,-398121181.84955,   0.00000
-29447679.57143,3811030.65237,-40992377.93870,  -0.00014,   0.00007,  -0.00053,77685525.95863,   0.00000,274640135.82653,   0.00000,   0.00000,   0.00000,-396954609.86790,   0.00000
-29989298.91479,3597665.45650,-41622625.90188,  -0.00014,   0.00007,  -0.00054,78851262.96903,   0.00000,274640135.82653,   0.00000,   0.00000,   0.00000,-395788872.85750,   0.00000
-30530918.25815,3384300.26063,-42252873.86506,  -0.00015,   0.00007,  -0.00055,80017699.93026,   0.00000,274640135.82653,   0.00000,   0.00000,   0.00000,-394622435.89627,   0.00000
-31105363.01626,3138109.65002,-42883121.82824,  -0.00015,   0.00007,  -0.00056,81190453.83298,   0.00000,274640135.82653,   0.00000,   0.00000,   0.00000,-393449681.99355,   0.00000
-31656829.98405,2901766.66382,-43513369.79143,  -0.00015,   0.00007,  -0.00057,82357002.86045,   0.00000,274640135.82653,   0.00000,   0.00000,   0.00000,-392283132.96608,   0.00000
-32208296.95183,2665423.67763,-44143617.75461,  -0.00015,   0.00007,  -0.00057,83524275.50494,   0.00000,274640135.82653,   0.00000,   0.00000,   0.00000,-391115860.32159,   0.00000
-32769611.54404,2406102.90111,-44773865.71779,  -0.00015,   0.00007,  -0.00058,84691091.52247,   0.00000,274640135.82653,   0.00000,   0.00000,   0.00000,-389949044.30406,   0.00000
-33330926.13625,2146782.12459,-45404113.68098,  -0.00016,   0.00007,  -0.00059,85858687.18121,   0.00000,274640135.82653,   0.00000,   0.00000,   0.00000,-388781448.64532,   0.00000
-33902088.35289,1864483.55775,-46034361.64416,  -0.00016,   0.00007,  -0.00060,87026002.64224,   0.00000,274640135.82653,   0.00000,   0.00000,   0.00000,-387614133.18429,   0.00000
-34496228.35985,1572337.36648,-46664609.60734,  -0.00016,   0.00007,  -0.00061,88201242.02141,   0.00000,274640135.82653,   0.00000,   0.00000,   0.00000,-386438893.80512,   0.00000
-35067390.57648,1290038.79964,-47294857.57053,  -0.00016,   0.00007,  -0.00061,89370213.35010,   0.00000,274640135.82653,   0.00000,   0.00000,   0.00000,-385269922.47643,   0.00000
-35648400.41754,984762.44247,-47925105.53371,  -0.00016,   0.00007,  -0.00062,90539111.08750,   0.00000,274640135.82653,   0.00000,   0.00000,   0.00000,-384101024.73903,   0.00000
-36252388.04892,669638.46088,-48555353.49689,  -0.00017,   0.00007,  -0.00063,91716013.36669,   0.00000,274640135.82653,   0.00000,   0.00000,   0.00000,-382924122.45984,   0.00000
-36843245.51441,341384.31339,-49185601.46007,  -0.00017,   0.00007,  -0.00064,92885893.23641,   0.00000,274640135.82653,   0.00000,   0.00000,   0.00000,-381754242.59012,   0.00000
-37457080.77022,3282.54147,-49815849.42326,  -0.00017,   0.00007,  -0.00065,94063874.18294,   0.00000,274640135.82653,   0.00000,   0.00000,   0.00000,-380576261.64359,   0.00000
-38047938.23570,-324971.60602,-50439532.30349,  -0.00017,   0.00007,  -0.00066,95225133.06855,   0.00000,274640135.82653,   0.00000,   0.00000,   0.00000,-379415002.75798,   0.00000
-38671621.11593,-686051.16826,-51069780.26667,  -0.00017,   0.00007,  -0.00066,96404365.07002,   0.00000,274640135.82653,   0.00000,   0.00000,   0.00000,-378235770.75651,   0.00000
-39305151.62059,-1070108.52082,-51700028.22986,  -0.00018,   0.00007,  -0.00067,97584107.59651,   0.00000,274640135.82653,   0.00000,   0.00000,   0.00000,-377056028.23002,   0.00000
-39905856.71050,-1421340.45864,-52330276.19304,  -0.00018,   0.00007,  -0.00068,98758043.81993,   0.00000,274640135.82653,   0.00000,   0.00000,   0.00000,-375882092.00660,   0.00000
-40549234.83958,-1828375.60153,-52953959.07327,  -0.00018,   0.00007,  -0.00069,99929022.39278,   0.00000,274640135.82653,   0.00000,   0.00000,   0.00000,-374711113.43375,   0.00000
-41182765.34424,-2212432.95409,-53584207.03646,  -0.00018,   0.00007,  -0.00070,101111832.36874,   0.00000,274640135.82653,   0.00000,   0.00000,   0.00000,-373528303.45779,   0.00000
-41826143.47332,-2619468.09698,-54207889.91669,  -0.00019,   0.00007,  -0.00070,102284953.09758,   0.00000,274640135.82653,   0.00000,   0.00000,   0.00000,-372355182.72895,   0.00000
-42479369.22683,-3049481.03019,-54838137.87987,  -0.00019,   0.00007,  -0.00071,103469416.79659,   0.00000,274640135.82653,   0.00000,   0.00000,   0.00000,-371170719.02994,   0.00000
-43122747.35591,-3456516.17308,-55461820.76011,  -0.00019,   0.00007,  -0.00072,104644660.90533,   0.00000,274640135.82653,   0.00000,   0.00000,   0.00000,-369995474.92120,   0.00000
-43785820.73384,-3909506.89662,-56092068.72329,  -0.00019,   0.00007,  -0.00073,105831289.76986,   0.00000,274640135.82653,   0.00000,   0.00000,   0.00000,-368808846.05667,   0.00000
-44439046.48735,-4339519.82983,-56715751.60352,  -0.00019,   0.00007,  -0.00074,107008623.95837,   0.00000,274640135.82653,   0.00000,   0.00000,   0.00000,-367631511.86815,   0.00000
-45111967.48971,-4815488.34370,-57339434.48375,  -0.00020,   0.00007,  -0.00075,108187220.25232,   0.00000,274640135.82653,   0.00000,   0.00000,   0.00000,-366452915.57421,   0.00000
-45775040.86764,-5268479.06723,-57963117.36399,  -0.00020,   0.00007,  -0.00075,109366884.00589,   0.00000,274640135.82653,   0.00000,   0.00000,   0.00000,-365273251.82064,   0.00000
-46470939.66032,-5754295.20552,-58586800.24422,  -0.00020,   0.00006,  -0.00076,110555380.37342,   0.00000,274640135.82653,   0.00000,   0.00000,   0.00000,-364084755.45311,   0.00000
-47153708.28710,-6253241.50971,-59210483.12445,  -0.00020,   0.00006,  -0.00077,111737888.13156,   0.00000,274640135.82653,   0.00000,   0.00000,   0.00000,-362902247.69497,   0.00000
-47836476.91389,-6752187.81389,-59834166.00469,  -0.00020,   0.00006,  -0.00078,112921662.89848,   0.00000,274640135.82653,   0.00000,   0.00000,   0.00000,-361718472.92805,   0.00000
-48542223.33099,-7260981.74250,-60457848.88492,  -0.00021,   0.00006,  -0.00079,114114239.16326,   0.00000,274640135.82653,   0.00000,   0.00000,   0.00000,-360525896.66327,   0.00000
-49234839.58220,-7782905.83702,-61074966.68220,  -0.00021,   0.00006,  -0.00079,115290535.59283,   0.00000,274640135.82653,   0.00000,   0.00000,   0.00000,-359349600.23370,   0.00000
-49950433.62373,-8314677.55595,-61698649.56244,  -0.00021,   0.00006,  -0.00080,116486170.87956,   0.00000,274640135.82653,   0.00000,   0.00000,   0.00000,-358153964.94697,   0.00000
-50666027.66526,-8846449.27489,-62315767.35972,  -0.00021,   0.00006,  -0.00081,117672665.32777,   0.00000,274640135.82653,   0.00000,   0.00000,   0.00000,-356967470.49876,   0.00000
-51401316.95564,-9424176.57447,-62939450.23995,  -0.00022,   0.00006,  -0.00082,118872278.48095,   0.00000,274640135.82653,   0.00000,   0.00000,   0.00000,-355767857.34558,   0.00000
-52126758.62160,-9978926.08373,-63556568.03724,  -0.00022,   0.00006,  -0.00083,120062154.24073,   0.00000,274640135.82653,   0.00000,   0.00000,   0.00000,-354577981.58580,   0.00000
-52839070.12165,-10546805.75889,-64173685.83452,  -0.00022,   0.00006,  -0.00083,121246463.43191,   0.00000,274640135.82653,   0.00000,   0.00000,   0.00000,-353393672.39462,   0.00000
-53574359.41203,-11124533.05848,-64790803.63180,  -0.00022,   0.00005,  -0.00084,122439871.75580,   0.00000,274640135.82653,   0.00000,   0.00000,   0.00000,-352200264.07073,   0.00000
-54342474.11716,-11735085.77281,-65407921.42909,  -0.00022,   0.00005,  -0.00085,123643405.37780,   0.00000,274640135.82653,   0.00000,   0.00000,   0.00000,-350996730.44873,   0.00000
-55087611.03197,-12335790.86272,-66018474.14342,  -0.00023,   0.00005,  -0.00086,124830221.34594,   0.00000,274640135.82653,   0.00000,   0.00000,   0.00000,-349809914.48059,   0.00000
-55842595.57120,-12959473.74295,-66635591.94070,  -0.00023,   0.00005,  -0.00087,126029992.97248,   0.00000,274640135.82653,   0.00000,   0.00000,   0.00000,-348610142.85405,   0.00000
-56597580.11042,-13583156.62318,-67246144.65504,  -0.00023,   0.00005,  -0.00087,127220856.52900,   0.00000,274640135.82653,   0.00000,   0.00000,   0.00000,-347419279.29753,   0.00000
-57385390.06440,-14239664.91817,-67863262.45232,  -0.00023,   0.00005,  -0.00088,128432743.08418,   0.00000,274640135.82653,   0.00000,   0.00000,   0.00000,-346207392.74235,   0.00000
-58150222.22806,-14886325.58872,-68473815.16665,  -0.00024,   0.00005,  -0.00089,129627921.31325,   0.00000,274640135.82653,   0.00000,   0.00000,   0.00000,-345012214.51328,   0.00000
-58938032.18204,-15542833.88371,-69084367.88099,  -0.00024,   0.00004,  -0.00090,130832553.04219,   0.00000,274640135.82653,   0.00000,   0.00000,   0.00000,-343807582.78434,   0.00000
-59735689.76044,-16222319.96901,-69694920.59532,  -0.00024,   0.00004,  -0.00091,132040185.90503,   0.00000,274640135.82653,   0.00000,   0.00000,   0.00000,-342599949.92150,   0.00000
-60520217.17294,-16914936.22022,-70305473.30966,  -0.00024,   0.00004,  -0.00091,133242991.83208,   0.00000,274640135.82653,   0.00000,   0.00000,   0.00000,-341397143.99445,   0.00000
-61327722.37577,-17617400.09585,-70909460.94104,  -0.00024,   0.00004,  -0.00092,134445090.08782,   0.00000,274640135.82653,   0.00000,   0.00000,   0.00000,-340195045.73871,   0.00000
-62135227.57860,-18319863.97148,-71520013.65537,  -0.00025,   0.00004,  -0.00093,135659249.83168,   0.00000,274640135.82653,   0.00000,   0.00000,   0.00000,-338980885.99485,   0.00000
-62952580.40585,-19045305.63744,-72124001.28676,  -0.00025,   0.00004,  -0.00094,136866411.50012,   0.00000,274640135.82653,   0.00000,   0.00000,   0.00000,-337773724.32641,   0.00000
-63769933.23311,-19770747.30339,-72727988.91814,  -0.00025,   0.00003,  -0.00095,138075300.88403,   0.00000,274640135.82653,   0.00000,   0.00000,   0.00000,-336564834.94250,   0.00000
-64587286.06036,-20496188.96935,-73331976.54952,  -0.00025,   0.00003,  -0.00095,139285872.99787,   0.00000,274640135.82653,   0.00000,   0.00000,   0.00000,-335354262.82866,   0.00000
-65437464.30236,-21254456.05005,-73935964.18091,  -0.00026,   0.00003,  -0.00096,140508207.32379,   0.00000,274640135.82653,   0.00000,   0.00000,   0.00000,-334131928.50274,   0.00000
-66274512.37846,-22025853.29666,-74539951.81229,  -0.00026,   0.00003,  -0.00097,141726178.83098,   0.00000,274640135.82653,   0.00000,   0.00000,   0.00000,-332913956.99555,   0.00000
-67111560.45457,-22797250.54326,-75137374.36073,  -0.00026,   0.00003,  -0.00098,142935622.56631,   0.00000,274640135.82653,   0.00000,   0.00000,   0.00000,-331704513.26022,   0.00000
-67971586.32099,-23578495.41429,-75734796.90916,  -0.00026,   0.00003,  -0.00098,144155099.26894,   0.00000,274640135.82653,   0.00000,   0.00000,   0.00000,-330485036.55759,   0.00000
-68841459.81184,-24382718.07564,-76338784.54054,  -0.00027,   0.00002,  -0.00099,145388966.90828,   0.00000,274640135.82653,   0.00000,   0.00000,   0.00000,-329251168.91825,   0.00000
-69688355.51237,-25177093.11257,-76929642.00603,  -0.00027,   0.00002,  -0.00100,146595743.98170,   0.00000,274640135.82653,   0.00000,   0.00000,   0.00000,-328044391.84483,   0.00000
-70568076.62765,-26004293.56425,-77527064.55446,  -0.00027,   0.00002,  -0.00101,147825373.18440,   0.00000,274640135.82653,   0.00000,   0.00000,   0.00000,-326814762.64213,   0.00000
-71447797.74292,-26831494.01593,-78124487.10289,  -0.00027,   0.00002,  -0.00102,149056942.71359,   0.00000,274640135.82653,   0.00000,   0.00000,   0.00000,-325583193.11294,   0.00000
-72337366.48263,-27681672.25793,-78715344.56838,  -0.00028,   0.00002,  -0.00102,150282622.77861,   0.00000,274640135.82653,   0.00000,   0.00000,   0.00000,-324357513.04792,   0.00000
-73226935.22233,-28531850.49993,-79306202.03386,  -0.00028,   0.00001,  -0.00103,151510301.99224,   0.00000,274640135.82653,   0.00000,   0.00000,   0.00000,-323129833.83428,   0.00000
-74139481.75235,-29391876.36636,-79897059.49935,  -0.00028,   0.00001,  -0.00104,152748378.12310,   0.00000,274640135.82653,   0.00000,   0.00000,   0.00000,-321891757.70343,   0.00000
-75038898.11648,-30265032.39868,-80487916.96483,  -0.00028,   0.00001,  -0.00105,153982687.55280,   0.00000,274640135.82653,   0.00000,   0.00000,   0.00000,-320657448.27373,   0.00000
-75948162.10503,-31161166.22134,-81078774.43031,  -0.00028,   0.00001,  -0.00105,155221813.20037,   0.00000,274640135.82653,   0.00000,   0.00000,   0.00000,-319418322.62616,   0.00000
-76880403.88390,-32067147.66841,-81663066.81285,  -0.00029,   0.00000,  -0.00106,156461281.60228,   0.00000,274640135.82653,   0.00000,   0.00000,   0.00000,-318178854.22425,   0.00000
-77789667.87245,-32963281.49106,-82253924.27833,  -0.00029,   0.00000,  -0.00107,157704571.31214,   0.00000,274640135.82653,   0.00000,   0.00000,   0.00000,-316935564.51439,   0.00000
-78731757.27575,-33892240.72846,-82838216.66087,  -0.00029,  -0.00000,  -0.00108,158951213.68967,   0.00000,274640135.82653,   0.00000,   0.00000,   0.00000,-315688922.13686,   0.00000
-79673846.67905,-34821199.96586,-83422509.04340,  -0.00029,  -0.00000,  -0.00108,160200012.20265,   0.00000,274640135.82653,   0.00000,   0.00000,   0.00000,-314440123.62388,   0.00000
-80625783.70678,-35773136.99359,-84000236.34299,  -0.00030,  -0.00001,  -0.00109,161443848.56652,   0.00000,274640135.82653,   0.00000,   0.00000,   0.00000,-313196287.26001,   0.00000
-81577720.73450,-36725074.02131,-84584528.72552,  -0.00030,  -0.00001,  -0.00110,162700139.05587,   0.00000,274640135.82653,   0.00000,   0.00000,   0.00000,-311939996.77066,   0.00000
-82529657.76223,-37677011.04903,-85162256.02510,  -0.00030,  -0.00001,  -0.00111,163948346.43392,   0.00000,274640135.82653,   0.00000,   0.00000,   0.00000,-310691789.39261,   0.00000
-83491442.41437,-38651925.86708,-85739983.32469,  -0.00030,  -0.00001,  -0.00111,165202062.66414,   0.00000,274640135.82653,   0.00000,   0.00000,   0.00000,-309438073.16239,   0.00000
-84463074.69095,-39649818.47546,-86317710.62427,  -0.00031,  -0.00002,  -0.00112,166461452.03697,   0.00000,274640135.82653,   0.00000,   0.00000,   0.00000,-308178683.78955,   0.00000
-85447837.13342,-40634580.91793,-86888872.84091,  -0.00031,  -0.00002,  -0.00113,167718197.15101,   0.00000,274640135.82653,   0.00000,   0.00000,   0.00000,-306921938.67552,   0.00000
-86429317.03442,-41655451.31663,-87460035.05754,  -0.00031,  -0.00002,  -0.00114,168975514.36871,   0.00000,274640135.82653,   0.00000,   0.00000,   0.00000,-305664621.45782,   0.00000
-87423927.10132,-42663191.54943,-88037762.35713,  -0.00031,  -0.00002,  -0.00114,170250550.65292,   0.00000,274640135.82653,   0.00000,   0.00000,   0.00000,-304389585.17361,   0.00000
-88438232.41707,-43716887.36287,-88608924.57376,  -0.00032,  -0.00003,  -0.00115,171525122.04036,   0.00000,274640135.82653,   0.00000,   0.00000,   0.00000,-303115013.78617,   0.00000
-89442690.10839,-44747605.38599,-89173521.70745,  -0.00032,  -0.00003,  -0.00116,172788158.50949,   0.00000,274640135.82653,   0.00000,   0.00000,   0.00000,-301851977.31704,   0.00000
-90456995.42414,-45801301.19944,-89744683.92408,  -0.00032,  -0.00003,  -0.00117,174067527.11981,   0.00000,274640135.82653,   0.00000,   0.00000,   0.00000,-300572608.70672,   0.00000
-91481148.36431,-46877974.80321,-90309281.05777,  -0.00032,  -0.00003,  -0.00117,175343071.70580,   0.00000,274640135.82653,   0.00000,   0.00000,   0.00000,-299297064.12073,   0.00000
-92505301.30448,-47954648.40698,-90873878.19145,  -0.00033,  -0.00004,  -0.00118,176621077.69487,   0.00000,274640135.82653,   0.00000,   0.00000,   0.00000,-298019058.13166,   0.00000
-93529454.24465,-49031322.01075,-91438475.32514,  -0.00033,  -0.00004,  -0.00119,177901492.04046,   0.00000,274640135.82653,   0.00000,   0.00000,   0.00000,-296738643.78607,   0.00000
-94563454.80925,-50130973.40485,-91996507.37587,  -0.00033,  -0.00004,  -0.00120,179178334.48813,   0.00000,274640135.82653,   0.00000,   0.00000,   0.00000,-295461801.33840,   0.00000
-95620433.16417,-51240472.42337,-92561104.50956,  -0.00034,  -0.00005,  -0.00120,180476844.18812,   0.00000,274640135.82653,   0.00000,   0.00000,   0.00000,-294163291.63841,   0.00000
-96654433.72877,-52340123.81746,-93119136.56029,  -0.00034,  -0.00005,  -0.00121,181758586.79300,   0.00000,274640135.82653,   0.00000,   0.00000,   0.00000,-292881549.03353,   0.00000
-97731107.33254,-53495578.41663,-93677168.61103,  -0.00034,  -0.00005,  -0.00122,183060645.39233,   0.00000,274640135.82653,   0.00000,   0.00000,   0.00000,-291579490.43420,   0.00000
-98797933.31189,-54628055.22548,-94228635.57881,  -0.00034,  -0.00006,  -0.00122,184350818.75713,   0.00000,274640135.82653,   0.00000,   0.00000,   0.00000,-290289317.06939,   0.00000
-99874606.91566,-55783509.82465,-94780102.54660,  -0.00035,  -0.00006,  -0.00123,185648012.31102,   0.00000,274640135.82653,   0.00000,   0.00000,   0.00000,-288992123.51551,   0.00000
-100951280.51943,-56938964.42382,-95338134.59733,  -0.00035,  -0.00006,  -0.00124,186957816.26782,   0.00000,274640135.82653,   0.00000,   0.00000,   0.00000,-287682319.55871,   0.00000
-102037801.74763,-58117396.81331,-95883036.48217,  -0.00035,  -0.00007,  -0.00125,188254730.18981,   0.00000,274640135.82653,   0.00000,   0.00000,   0.00000,-286385405.63671,   0.00000
-103124322.97582,-59295829.20280,-96434503.44995,  -0.00035,  -0.00007,  -0.00125,189564288.50170,   0.00000,274640135.82653,   0.00000,   0.00000,   0.00000,-285075847.32483,   0.00000
-104220691.82844,-60497239.38262,-96985970.41774,  -0.00036,  -0.00007,  -0.00126,190881219.11168,   0.00000,274640135.82653,   0.00000,   0.00000,   0.00000,-283758916.71485,   0.00000
-105317060.68106,-61698649.56244,-97530872.30257,  -0.00036,  -0.00008,  -0.00127,192190788.96951,   0.00000,274640135.82653,   0.00000,   0.00000,   0.00000,-282449346.85702,   0.00000
-106436407.32401,-62909907.36668,-98075774.18741,  -0.00036,  -0.00008,  -0.00127,193512359.22056,   0.00000,274640135.82653,   0.00000,   0.00000,   0.00000,-281127776.60597,   0.00000
-107565601.59138,-64144142.96125,-98614110.98929,  -0.00036,  -0.00008,  -0.00128,194831606.91834,   0.00000,274640135.82653,   0.00000,   0.00000,   0.00000,-279808528.90819,   0.00000
-108681665.69285,-65391508.72171,-99159012.87413,  -0.00037,  -0.00009,  -0.00129,196159183.52997,   0.00000,274640135.82653,   0.00000,   0.00000,   0.00000,-278480952.29656,   0.00000
-109810859.96022,-66625744.31628,-99697349.67601,  -0.00037,  -0.00009,  -0.00130,197483845.13500,   0.00000,274640135.82653,   0.00000,   0.00000,   0.00000,-277156290.69153,   0.00000
-110949901.85201,-67882957.70117,-100235686.47790,  -0.00037,  -0.00009,  -0.00130,198816366.79093,   0.00000,274640135.82653,   0.00000,   0.00000,   0.00000,-275823769.03560,   0.00000
-112098791.36823,-69163148.87639,-100767458.19683,  -0.00038,  -0.00010,  -0.00131,200146987.70355,   0.00000,274640135.82653,   0.00000,   0.00000,   0.00000,-274493148.12298,   0.00000
-113247680.88445,-70443340.05160,-101305794.99872,  -0.00038,  -0.00010,  -0.00132,201490319.34488,   0.00000,274640135.82653,   0.00000,   0.00000,   0.00000,-273149816.48165,   0.00000
-114396570.40067,-71723531.22682,-101837566.71766,  -0.00038,  -0.00010,  -0.00132,202826488.03010,   0.00000,274640135.82653,   0.00000,   0.00000,   0.00000,-271813647.79643,   0.00000
-115578285.33164,-73036547.81678,-102369338.43659,  -0.00038,  -0.00011,  -0.00133,204180515.10814,   0.00000,274640135.82653,   0.00000,   0.00000,   0.00000,-270459620.71839,   0.00000
-116737022.47228,-74339716.78232,-102894545.07258,  -0.00039,  -0.00011,  -0.00134,205517860.38066,   0.00000,274640135.82653,   0.00000,   0.00000,   0.00000,-269122275.44587,   0.00000
-117928585.02767,-75675711.16261,-103426316.79151,  -0.00039,  -0.00011,  -0.00134,206883164.86220,   0.00000,274640135.82653,   0.00000,   0.00000,   0.00000,-267756970.96433,   0.00000
-119097169.79274,-77001857.91847,-103951523.42750,  -0.00039,  -0.00012,  -0.00135,208231785.03139,   0.00000,274640135.82653,   0.00000,   0.00000,   0.00000,-266408350.79514,   0.00000
-120288732.34813,-78337852.29876,-104476730.06348,  -0.00039,  -0.00012,  -0.00136,209592935.61350,   0.00000,274640135.82653,   0.00000,   0.00000,   0.00000,-265047200.21303,   0.00000
-121490142.52795,-79696824.46938,-104995371.61652,  -0.00040,  -0.00013,  -0.00136,210952943.04851,   0.00000,274640135.82653,   0.00000,   0.00000,   0.00000,-263687192.77802,   0.00000
-122691552.70777,-81055796.63999,-105520578.25251,  -0.00040,  -0.00013,  -0.00137,212325634.42338,   0.00000,274640135.82653,   0.00000,   0.00000,   0.00000,-262314501.40315,   0.00000
-123902810.51201,-82437746.60093,-106039219.80554,  -0.00040,  -0.00013,  -0.00138,213697375.81961,   0.00000,274640135.82653,   0.00000,   0.00000,   0.00000,-260942760.00692,   0.00000
-125114068.31625,-83819696.56187,-106557861.35858,  -0.00041,  -0.00014,  -0.00139,215072038.70429,   0.00000,274640135.82653,   0.00000,   0.00000,   0.00000,-259568097.12224,   0.00000
-126325326.12050,-85201646.52280,-107069937.82866,  -0.00041,  -0.00014,  -0.00139,216439824.35437,   0.00000,274640135.82653,   0.00000,   0.00000,   0.00000,-258200311.47216,   0.00000
-127546431.54916,-86606574.27407,-107588579.38170,  -0.00041,  -0.00015,  -0.00140,217826395.67136,   0.00000,274640135.82653,   0.00000,   0.00000,   0.00000,-256813740.15517,   0.00000
-128790514.76815,-88021349.64975,-108100655.85179,  -0.00041,  -0.00015,  -0.00141,219216092.34541,   0.00000,274640135.82653,   0.00000,   0.00000,   0.00000,-255424043.48112,   0.00000
-130021467.82125,-89449255.19134,-108612732.32187,  -0.00042,  -0.00015,  -0.00141,220605087.79366,   0.00000,274640135.82653,   0.00000,   0.00000,   0.00000,-254035048.03287,   0.00000
-131275398.66466,-90887008.35735,-109118243.70901,  -0.00042,  -0.00016,  -0.00142,221997350.56433,   0.00000,274640135.82653,   0.00000,   0.00000,   0.00000,-252642785.26220,   0.00000
-132529329.50808,-92324761.52336,-109623755.09615,  -0.00042,  -0.00016,  -0.00143,223392589.56523,   0.00000,274640135.82653,   0.00000,   0.00000,   0.00000,-251247546.26130,   0.00000
-133760282.56117,-93752667.06495,-110129266.48328,  -0.00043,  -0.00017,  -0.00143,224780689.88150,   0.00000,274640135.82653,   0.00000,   0.00000,   0.00000,-249859445.94503,   0.00000
-135033908.65344,-95236375.81161,-110634777.87042,  -0.00043,  -0.00017,  -0.00144,226194929.02237,   0.00000,274640135.82653,   0.00000,   0.00000,   0.00000,-248445206.80416,   0.00000
-136297687.12128,-96697106.76794,-111140289.25755,  -0.00043,  -0.00017,  -0.00144,227605557.17484,   0.00000,274640135.82653,   0.00000,   0.00000,   0.00000,-247034578.65169,   0.00000
-137571313.21354,-98180815.51460,-111639235.56174,  -0.00043,  -0.00018,  -0.00145,229016226.02366,   0.00000,274640135.82653,   0.00000,   0.00000,   0.00000,-245623909.80287,   0.00000
-138867917.09613,-99674371.88569,-112138181.86593,  -0.00044,  -0.00018,  -0.00146,230440061.39207,   0.00000,274640135.82653,   0.00000,   0.00000,   0.00000,-244200074.43446,   0.00000
-140151390.81282,-101181058.42267,-112637128.17011,  -0.00044,  -0.00019,  -0.00146,231863582.29718,   0.00000,274640135.82653,   0.00000,   0.00000,   0.00000,-242776553.52935,   0.00000
-141425016.90509,-102664767.16933,-113129509.39135,  -0.00044,  -0.00019,  -0.00147,233273618.47719,   0.00000,274640135.82653,   0.00000,   0.00000,   0.00000,-241366517.34934,   0.00000
-142741316.03653,-104204279.12107,-113621890.61259,  -0.00045,  -0.00020,  -0.00148,234710803.39801,   0.00000,274640135.82653,   0.00000,   0.00000,   0.00000,-239929332.42852,   0.00000
-144024789.75322,-105710965.65805,-114114271.83382,  -0.00045,  -0.00020,  -0.00148,236133754.10728,   0.00000,274640135.82653,   0.00000,   0.00000,   0.00000,-238506381.71925,   0.00000
-145341088.88466,-107250477.60978,-114606653.05506,  -0.00045,  -0.00020,  -0.00149,237577041.48328,   0.00000,274640135.82653,   0.00000,   0.00000,   0.00000,-237063094.34325,   0.00000
-146644257.85020,-108803119.72742,-115092469.19335,  -0.00046,  -0.00021,  -0.00150,239010740.08024,   0.00000,274640135.82653,   0.00000,   0.00000,   0.00000,-235629395.74628,   0.00000
-147970404.60606,-110365609.46948,-115578285.33164,  -0.00046,  -0.00021,  -0.00150,240457864.55356,   0.00000,274640135.82653,   0.00000,   0.00000,   0.00000,-234182271.27297,   0.00000
-149296551.36193,-111928099.21153,-116064101.46992,  -0.00046,  -0.00022,  -0.00151,241908055.63055,   0.00000,274640135.82653,   0.00000,   0.00000,   0.00000,-232732080.19598,   0.00000
-150622698.11779,-113490588.95359,-116549917.60821,  -0.00046,  -0.00022,  -0.00152,243361258.48949,   0.00000,274640135.82653,   0.00000,   0.00000,   0.00000,-231278877.33704,   0.00000
-151958692.49808,-115076056.48597,-117029168.66355,  -0.00047,  -0.00023,  -0.00152,244815471.06931,   0.00000,274640135.82653,   0.00000,   0.00000,   0.00000,-229824664.75722,   0.00000
-153294686.87837,-116661524.01836,-117508419.71888,  -0.00047,  -0.00023,  -0.00153,246272748.25031,   0.00000,274640135.82653,   0.00000,   0.00000,   0.00000,-228367387.57621,   0.00000
-154653659.04898,-118256839.17516,-117987670.77422,  -0.00047,  -0.00024,  -0.00153,247743522.10928,   0.00000,274640135.82653,   0.00000,   0.00000,   0.00000,-226896613.71725,   0.00000
-155999501.05370,-119865284.49787,-118466921.82956,  -0.00048,  -0.00024,  -0.00154,249214447.58429,   0.00000,274640135.82653,   0.00000,   0.00000,   0.00000,-225425688.24224,   0.00000
-157345343.05841,-121473729.82058,-118939607.80194,  -0.00048,  -0.00025,  -0.00155,250679056.24469,   0.00000,274640135.82653,   0.00000,   0.00000,   0.00000,-223961079.58184,   0.00000
-158724010.47787,-123115000.55803,-119412293.77433,  -0.00048,  -0.00025,  -0.00155,252165017.27910,   0.00000,274640135.82653,   0.00000,   0.00000,   0.00000,-222475118.54743,   0.00000
-160079700.10701,-124746423.67106,-119884979.74672,  -0.00049,  -0.00026,  -0.00156,253643520.75501,   0.00000,274640135.82653,   0.00000,   0.00000,   0.00000,-220996615.07152,   0.00000
-161458367.52647,-126387694.40852,-120357665.71911,  -0.00049,  -0.00026,  -0.00156,255135661.99110,   0.00000,274640135.82653,   0.00000,   0.00000,   0.00000,-219504473.83543,   0.00000
-162814057.15561,-128019117.52155,-120823786.60854,  -0.00049,  -0.00026,  -0.00157,256610915.53670,   0.00000,274640135.82653,   0.00000,   0.00000,   0.00000,-218029220.28983,   0.00000
-164202572.19950,-129683366.04933,-121289907.49798,  -0.00049,  -0.00027,  -0.00158,258107812.45951,   0.00000,274640135.82653,   0.00000,   0.00000,   0.00000,-216532323.36702,   0.00000
-165591087.24339,-131347614.57711,-121756028.38742,  -0.00050,  -0.00027,  -0.00158,259607783.14783,   0.00000,274640135.82653,   0.00000,   0.00000,   0.00000,-215032352.67870,   0.00000
-166989449.91170,-133034840.89521,-122215584.19391,  -0.00050,  -0.00028,  -0.00159,261109703.82814,   0.00000,274640135.82653,   0.00000,   0.00000,   0.00000,-213530431.99839,   0.00000
-168377964.95559,-134699089.42299,-122681705.08334,  -0.00050,  -0.00028,  -0.00159,262615741.15430,   0.00000,274640135.82653,   0.00000,   0.00000,   0.00000,-212024394.67223,   0.00000
-169776327.62390,-136386315.74110,-123141260.88983,  -0.00051,  -0.00029,  -0.00160,264123779.91923,   0.00000,274640135.82653,   0.00000,   0.00000,   0.00000,-210516355.90730,   0.00000
-171184537.91664,-138096519.84953,-123594251.61337,  -0.00051,  -0.00029,  -0.00161,265634001.91533,   0.00000,274640135.82653,   0.00000,   0.00000,   0.00000,-209006133.91120,   0.00000
-172592748.20937,-139806723.95796,-124053807.41986,  -0.00051,  -0.00030,  -0.00161,267156492.52518,   0.00000,274640135.82653,   0.00000,   0.00000,   0.00000,-207483643.30135,   0.00000
-174023936.29243,-141526775.69081,-124506798.14339,  -0.00052,  -0.00030,  -0.00162,268683718.14351,   0.00000,274640135.82653,   0.00000,   0.00000,   0.00000,-205956417.68302,   0.00000
-175432146.58517,-143236979.79924,-124959788.86693,  -0.00052,  -0.00031,  -0.00162,270203157.09099,   0.00000,274640135.82653,   0.00000,   0.00000,   0.00000,-204436978.73554,   0.00000
-176840356.87791,-144947183.90767,-125412779.59047,  -0.00052,  -0.00031,  -0.00163,271725563.88131,   0.00000,274640135.82653,   0.00000,   0.00000,   0.00000,-202914571.94522,   0.00000
-178281392.58540,-146690213.43085,-125865770.31401,  -0.00053,  -0.00032,  -0.00164,273270405.53212,   0.00000,274640135.82653,   0.00000,   0.00000,   0.00000,-201369730.29441,   0.00000
-179709298.12698,-148446373.11992,-126312195.95460,  -0.00053,  -0.00032,  -0.00164,274806980.52177,   0.00000,274640135.82653,   0.00000,   0.00000,   0.00000,-199833155.30476,   0.00000
-181150333.83447,-150189402.64310,-126758621.59518,  -0.00053,  -0.00033,  -0.00165,276348845.00133,   0.00000,274640135.82653,   0.00000,   0.00000,   0.00000,-198291290.82520,   0.00000
-182578239.37605,-151945562.33218,-127205047.23577,  -0.00053,  -0.00034,  -0.00165,277891500.91583,   0.00000,274640135.82653,   0.00000,   0.00000,   0.00000,-196748634.91070,   0.00000
-184029122.70797,-153711569.64568,-127644907.79341,  -0.00054,  -0.00034,  -0.00166,279439128.95729,   0.00000,274640135.82653,   0.00000,   0.00000,   0.00000,-195201006.86924,   0.00000
-185480006.03988,-155477576.95918,-128091333.43400,  -0.00054,  -0.00035,  -0.00167,280998748.69276,   0.00000,274640135.82653,   0.00000,   0.00000,   0.00000,-193641387.13377,   0.00000
-186940736.99621,-157266562.06301,-128531193.99164,  -0.00054,  -0.00035,  -0.00167,282561298.06050,   0.00000,274640135.82653,   0.00000,   0.00000,   0.00000,-192078837.76603,   0.00000
-188378490.16222,-159045699.54241,-128971054.54927,  -0.00055,  -0.00036,  -0.00168,284115821.60590,   0.00000,274640135.82653,   0.00000,   0.00000,   0.00000,-190524314.22063,   0.00000
-189839221.11856,-160834684.64624,-129404350.02396,  -0.00055,  -0.00036,  -0.00168,285675430.88869,   0.00000,274640135.82653,   0.00000,   0.00000,   0.00000,-188964704.93784,   0.00000
-191299952.07489,-162623669.75007,-129844210.58160,  -0.00055,  -0.00037,  -0.00169,287246908.53355,   0.00000,274640135.82653,   0.00000,   0.00000,   0.00000,-187393227.29298,   0.00000
-192770530.65565,-164435632.64422,-130277506.05629,  -0.00056,  -0.00037,  -0.00169,288821564.91783,   0.00000,274640135.82653,   0.00000,   0.00000,   0.00000,-185818570.90870,   0.00000
-194241109.23642,-166247595.53837,-130710801.53098,  -0.00056,  -0.00038,  -0.00170,290399199.52547,   0.00000,274640135.82653,   0.00000,   0.00000,   0.00000,-184240936.30106,   0.00000
-195711687.81718,-168059558.43252,-131144097.00567,  -0.00056,  -0.00038,  -0.00170,291979764.08039,   0.00000,274640135.82653,   0.00000,   0.00000,   0.00000,-182660371.74614,   0.00000
-197215091.81268,-169904346.74142,-131570827.39740,  -0.00057,  -0.00039,  -0.00171,293574906.97341,   0.00000,274640135.82653,   0.00000,   0.00000,   0.00000,-181065228.85312,   0.00000
-198685670.39345,-171716309.63557,-131997557.78914,  -0.00057,  -0.00039,  -0.00172,295152472.97628,   0.00000,274640135.82653,   0.00000,   0.00000,   0.00000,-179487662.85025,   0.00000
-200166096.59863,-173551250.32005,-132424288.18088,  -0.00057,  -0.00040,  -0.00172,296742316.96785,   0.00000,274640135.82653,   0.00000,   0.00000,   0.00000,-177897818.85868,   0.00000
-201656370.42824,-175409168.79485,-132851018.57262,  -0.00058,  -0.00040,  -0.00173,298344551.34950,   0.00000,274640135.82653,   0.00000,   0.00000,   0.00000,-176295584.47703,   0.00000
-203136796.63343,-177244109.47932,-133277748.96436,  -0.00058,  -0.00041,  -0.00173,299940172.32917,   0.00000,274640135.82653,   0.00000,   0.00000,   0.00000,-174699963.49736,   0.00000
-204650048.25336,-179111875.57855,-133697914.27315,  -0.00058,  -0.00042,  -0.00174,301550740.48398,   0.00000,274640135.82653,   0.00000,   0.00000,   0.00000,-173089395.34255,   0.00000
-206140322.08297,-180969794.05335,-134118079.58194,  -0.00059,  -0.00042,  -0.00174,303152939.82902,   0.00000,274640135.82653,   0.00000,   0.00000,   0.00000,-171487195.99751,   0.00000
-207653573.70290,-182837560.15257,-134538244.89072,  -0.00059,  -0.00043,  -0.00175,304769298.51309,   0.00000,274640135.82653,   0.00000,   0.00000,   0.00000,-169870837.31344,   0.00000
-209143847.53251,-184695478.62737,-134958410.19951,  -0.00059,  -0.00043,  -0.00175,306377158.44176,   0.00000,274640135.82653,   0.00000,   0.00000,   0.00000,-168262977.38477,   0.00000
-210643968.98655,-186576374.89250,-135372010.42535,  -0.00059,  -0.00044,  -0.00176,307988929.72274,   0.00000,274640135.82653,   0.00000,   0.00000,   0.00000,-166651206.10379,   0.00000
-212167068.23091,-188467118.78205,-135792175.73414,  -0.00060,  -0.00044,  -0.00177,309623559.54550,   0.00000,274640135.82653,   0.00000,   0.00000,   0.00000,-165016576.28103,   0.00000
-213667189.68494,-190348015.04717,-136205775.95998,  -0.00060,  -0.00045,  -0.00177,311240983.09446,   0.00000,274640135.82653,   0.00000,   0.00000,   0.00000,-163399152.73207,   0.00000
-215190288.92930,-192238758.93672,-136619376.18582,  -0.00060,  -0.00046,  -0.00178,312872575.74963,   0.00000,274640135.82653,   0.00000,   0.00000,   0.00000,-161767560.07690,   0.00000
-216700258.00776,-194142632.99217,-137026411.32871,  -0.00061,  -0.00046,  -0.00178,314496927.34735,   0.00000,274640135.82653,   0.00000,   0.00000,   0.00000,-160143208.47918,   0.00000
-218233204.87654,-196056354.67204,-137440011.55455,  -0.00061,  -0.00047,  -0.00179,316144096.30709,   0.00000,274640135.82653,   0.00000,   0.00000,   0.00000,-158496039.51944,   0.00000
-219766151.74533,-197970076.35191,-137847046.69744,  -0.00061,  -0.00047,  -0.00179,317785486.75602,   0.00000,274640135.82653,   0.00000,   0.00000,   0.00000,-156854649.07051,   0.00000
-221276120.82379,-199873950.40736,-138254081.84032,  -0.00062,  -0.00048,  -0.00180,319418156.55177,   0.00000,274640135.82653,   0.00000,   0.00000,   0.00000,-155221979.27475,   0.00000
-222809067.69257,-201787672.08724,-138661116.98321,  -0.00062,  -0.00048,  -0.00180,321065006.27117,   0.00000,274640135.82653,   0.00000,   0.00000,   0.00000,-153575129.55536,   0.00000
-224328884.39545,-203714523.93301,-139061587.04315,  -0.00062,  -0.00049,  -0.00181,322704785.70855,   0.00000,274640135.82653,   0.00000,   0.00000,   0.00000,-151935350.11798,   0.00000
-225861831.26424,-205628245.61288,-139468622.18604,  -0.00063,  -0.00050,  -0.00181,324356994.41434,   0.00000,274640135.82653,   0.00000,   0.00000,   0.00000,-150283141.41218,   0.00000
-227404625.75745,-207564945.08308,-139869092.24598,  -0.00063,  -0.00050,  -0.00182,326013696.77268,   0.00000,274640135.82653,   0.00000,   0.00000,   0.00000,-148626439.05385,   0.00000
-228924442.46033,-209491796.92885,-140269562.30592,  -0.00063,  -0.00051,  -0.00182,327661518.72441,   0.00000,274640135.82653,   0.00000,   0.00000,   0.00000,-146978617.10212,   0.00000
-230477084.57796,-211451474.18938,-140670032.36586,  -0.00064,  -0.00051,  -0.00183,329333975.12096,   0.00000,274640135.82653,   0.00000,   0.00000,   0.00000,-145306160.70557,   0.00000
-232019879.07117,-213388173.65957,-141070502.42580,  -0.00064,  -0.00052,  -0.00183,330998638.45378,   0.00000,274640135.82653,   0.00000,   0.00000,   0.00000,-143641497.37275,   0.00000
-233549543.39848,-215338003.29567,-141464407.40279,  -0.00064,  -0.00052,  -0.00184,332656411.66890,   0.00000,274640135.82653,   0.00000,   0.00000,   0.00000,-141983724.15763,   0.00000
-235102185.51611,-217297680.55619,-141864877.46273,  -0.00065,  -0.00053,  -0.00184,334336791.83685,   0.00000,274640135.82653,   0.00000,   0.00000,   0.00000,-140303343.98968,   0.00000
-236654827.63375,-219257357.81672,-142258782.43972,  -0.00065,  -0.00054,  -0.00185,336011410.10578,   0.00000,274640135.82653,   0.00000,   0.00000,   0.00000,-138628725.72075,   0.00000
-238184491.96106,-221207187.45281,-142652687.41671,  -0.00065,  -0.00054,  -0.00185,337676943.41126,   0.00000,274640135.82653,   0.00000,   0.00000,   0.00000,-136963192.41527,   0.00000
-239737134.07869,-223166864.71334,-143046592.39369,  -0.00066,  -0.00055,  -0.00186,339356657.78188,   0.00000,274640135.82653,   0.00000,   0.00000,   0.00000,-135283478.04465,   0.00000
-241299623.82075,-225149519.76418,-143433932.28773,  -0.00066,  -0.00055,  -0.00186,341041345.11540,   0.00000,274640135.82653,   0.00000,   0.00000,   0.00000,-133598790.71113,   0.00000
-242829288.14806,-227099349.40028,-143827837.26472,  -0.00066,  -0.00056,  -0.00187,342714377.64341,   0.00000,274640135.82653,   0.00000,   0.00000,   0.00000,-131925758.18312,   0.00000
-244391777.89011,-229082004.45113,-144215177.15876,  -0.00067,  -0.00057,  -0.00187,344404122.33595,   0.00000,274640135.82653,   0.00000,   0.00000,   0.00000,-130236013.49058,   0.00000
-245931289.84185,-231054811.87755,-144602517.05280,  -0.00067,  -0.00057,  -0.00188,346084644.73283,   0.00000,274640135.82653,   0.00000,   0.00000,   0.00000,-128555491.09370,   0.00000
-247493779.58390,-233037466.92839,-144989856.94684,  -0.00067,  -0.00058,  -0.00188,347779361.52503,   0.00000,274640135.82653,   0.00000,   0.00000,   0.00000,-126860774.30150,   0.00000
-249066116.95039,-235043099.76957,-145377196.84088,  -0.00067,  -0.00058,  -0.00189,349487489.43328,   0.00000,274640135.82653,   0.00000,   0.00000,   0.00000,-125152646.39325,   0.00000
-250605628.90212,-237015907.19599,-145757971.65197,  -0.00068,  -0.00059,  -0.00189,351167139.57744,   0.00000,274640135.82653,   0.00000,   0.00000,   0.00000,-123472996.24909,   0.00000
-252168118.64418,-238998562.24683,-146145311.54601,  -0.00068,  -0.00060,  -0.00190,352869113.52057,   0.00000,274640135.82653,   0.00000,   0.00000,   0.00000,-121771022.30596,   0.00000
-253717478.22034,-240994347.46358,-146526086.35710,  -0.00068,  -0.00060,  -0.00190,354564575.37303,   0.00000,274640135.82653,   0.00000,   0.00000,   0.00000,-120075560.45350,   0.00000
-255289815.58682,-242999980.30475,-146906861.16819,  -0.00069,  -0.00061,  -0.00191,356274245.19004,   0.00000,274640135.82653,   0.00000,   0.00000,   0.00000,-118365890.63649,   0.00000
-256839175.16298,-244995765.52150,-147287635.97928,  -0.00069,  -0.00061,  -0.00191,357974468.11748,   0.00000,274640135.82653,   0.00000,   0.00000,   0.00000,-116665667.70905,   0.00000
-258411512.52946,-247001398.36267,-147668410.79037,  -0.00069,  -0.00062,  -0.00192,359688857.61050,   0.00000,274640135.82653,   0.00000,   0.00000,   0.00000,-114951278.21603,   0.00000
-259960872.10562,-248997183.57941,-148049185.60146,  -0.00070,  -0.00063,  -0.00192,361393707.10212,   0.00000,274640135.82653,   0.00000,   0.00000,   0.00000,-113246428.72441,   0.00000
-261510231.68178,-250992968.79616,-148423395.32960,  -0.00070,  -0.00063,  -0.00193,363092763.74294,   0.00000,274640135.82653,   0.00000,   0.00000,   0.00000,-111547372.08359,   0.00000
-263082569.04826,-252998601.63733,-148804170.14069,  -0.00070,  -0.00064,  -0.00193,364813995.94436,   0.00000,274640135.82653,   0.00000,   0.00000,   0.00000,-109826139.88217,   0.00000
-264641776.24884,-255017364.64440,-149178379.86883,  -0.00071,  -0.00064,  -0.00194,366528913.88456,   0.00000,274640135.82653,   0.00000,   0.00000,   0.00000,-108111221.94197,   0.00000
-266191135.82500,-257013149.86115,-149552589.59697,  -0.00071,  -0.00065,  -0.00194,368234692.65583,   0.00000,274640135.82653,   0.00000,   0.00000,   0.00000,-106405443.17070,   0.00000
-267750343.02558,-259031912.86822,-149926799.32511,  -0.00071,  -0.00066,  -0.00195,369954091.76959,   0.00000,274640135.82653,   0.00000,   0.00000,   0.00000,-104686044.05694,   0.00000
-269309550.22617,-261050675.87529,-150301009.05325,  -0.00072,  -0.00066,  -0.00195,371675704.18179,   0.00000,274640135.82653,   0.00000,   0.00000,   0.00000,-102964431.64474,   0.00000
-270868757.42675,-263069438.88236,-150675218.78139,  -0.00072,  -0.00067,  -0.00196,373399499.27823,   0.00000,274640135.82653,   0.00000,   0.00000,   0.00000,-101240636.54830,   0.00000
-272418117.00291,-265065224.09911,-151049428.50953,  -0.00072,  -0.00067,  -0.00196,375113881.14179,   0.00000,274640135.82653,   0.00000,   0.00000,   0.00000,-99526254.68474,   0.00000
-273977324.20349,-267083987.10618,-151417073.15472,  -0.00073,  -0.00068,  -0.00197,376834001.05287,   0.00000,274640135.82653,   0.00000,   0.00000,   0.00000,-97806134.77366,   0.00000
-275546379.02850,-269125727.90357,-151791282.88286,  -0.00073,  -0.00069,  -0.00197,378575785.36639,   0.00000,274640135.82653,   0.00000,   0.00000,   0.00000,-96064350.46014,   0.00000
-277105586.22908,-271144490.91064,-152158927.52805,  -0.00073,  -0.00069,  -0.00198,380300151.77940,   0.00000,274640135.82653,   0.00000,   0.00000,   0.00000,-94339984.04713,   0.00000
-278664793.42966,-273163253.91771,-152526572.17324,  -0.00074,  -0.00070,  -0.00198,382026588.49786,   0.00000,274640135.82653,   0.00000,   0.00000,   0.00000,-92613547.32867,   0.00000
-280224000.63025,-275182016.92478,-152894216.81843,  -0.00074,  -0.00071,  -0.00199,383755067.58011,   0.00000,274640135.82653,   0.00000,   0.00000,   0.00000,-90885068.24642,   0.00000
-281770077.66493,-277213910.09775,-153261861.46362,  -0.00074,  -0.00071,  -0.00199,385485328.09800,   0.00000,274640135.82653,   0.00000,   0.00000,   0.00000,-89154807.72853,   0.00000
-283329284.86551,-279232673.10482,-153629506.10881,  -0.00074,  -0.00072,  -0.00200,387217834.36653,   0.00000,274640135.82653,   0.00000,   0.00000,   0.00000,-87422301.46000,   0.00000
-284888492.06610,-281251436.11190,-153997150.75400,  -0.00075,  -0.00072,  -0.00200,388952301.73172,   0.00000,274640135.82653,   0.00000,   0.00000,   0.00000,-85687834.09480,   0.00000
-286434569.10078,-283283329.28487,-154364795.39919,  -0.00075,  -0.00073,  -0.00201,390688544.55362,   0.00000,274640135.82653,   0.00000,   0.00000,   0.00000,-83951591.27291,   0.00000
-287980646.13546,-285315222.45784,-154725874.96143,  -0.00075,  -0.00074,  -0.00201,392418979.85038,   0.00000,274640135.82653,   0.00000,   0.00000,   0.00000,-82221155.97615,   0.00000
-289539853.33605,-287333985.46491,-155093519.60662,  -0.00076,  -0.00074,  -0.00202,394159238.55080,   0.00000,274640135.82653,   0.00000,   0.00000,   0.00000,-80480897.27573,   0.00000
-291085930.37073,-289365878.63788,-155454599.16886,  -0.00076,  -0.00075,  -0.00202,395893535.92483,   0.00000,274640135.82653,   0.00000,   0.00000,   0.00000,-78746599.90170,   0.00000
-292632007.40541,-291397771.81085,-155815678.73110,  -0.00076,  -0.00076,  -0.00203,397629746.71329,   0.00000,274640135.82653,   0.00000,   0.00000,   0.00000,-77010389.11324,   0.00000
-294168236.81567,-293406687.19349,-156176758.29334,  -0.00077,  -0.00076,  -0.00203,399355790.35806,   0.00000,274640135.82653,   0.00000,   0.00000,   0.00000,-75284345.46847,   0.00000
-295714313.85036,-295438580.36646,-156544402.93853,  -0.00077,  -0.00077,  -0.00204,401103407.34166,   0.00000,274640135.82653,   0.00000,   0.00000,   0.00000,-73536728.48487,   0.00000
-297260390.88504,-297470473.53943,-156905482.50077,  -0.00077,  -0.00077,  -0.00204,402845162.18047,   0.00000,274640135.82653,   0.00000,   0.00000,   0.00000,-71794973.64606,   0.00000
-298806467.91972,-299502366.71240,-157259996.98006,  -0.00078,  -0.00078,  -0.00204,404581077.85284,   0.00000,274640135.82653,   0.00000,   0.00000,   0.00000,-70059057.97369,   0.00000
-300342697.32998,-301511282.09505,-157621076.54230,  -0.00078,  -0.00079,  -0.00205,406314273.24334,   0.00000,274640135.82653,   0.00000,   0.00000,   0.00000,-68325862.58319,   0.00000
-301865796.57434,-303533327.64359,-157982156.10454,  -0.00078,  -0.00079,  -0.00205,408049256.01964,   0.00000,274640135.82653,   0.00000,   0.00000,   0.00000,-66590879.80689,   0.00000
-303411873.60902,-305565220.81656,-158343235.66678,  -0.00078,  -0.00080,  -0.00206,409798113.59520,   0.00000,274640135.82653,   0.00000,   0.00000,   0.00000,-64842022.23133,   0.00000
-304934972.85338,-307587266.36511,-158704315.22902,  -0.00079,  -0.00080,  -0.00206,411536545.63951,   0.00000,274640135.82653,   0.00000,   0.00000,   0.00000,-63103590.18702,   0.00000
-306458072.09774,-309609311.91366,-159058829.70831,  -0.00079,  -0.00081,  -0.00207,413269085.54776,   0.00000,274640135.82653,   0.00000,   0.00000,   0.00000,-61371050.27877,   0.00000
-308004149.13242,-311641205.08663,-159419909.27055,  -0.00079,  -0.00082,  -0.00207,415023053.33417,   0.00000,274640135.82653,   0.00000,   0.00000,   0.00000,-59617082.49236,   0.00000
-309527248.37678,-313663250.63517,-159774423.74984,  -0.00080,  -0.00082,  -0.00208,416758957.73755,   0.00000,274640135.82653,   0.00000,   0.00000,   0.00000,-57881178.08898,   0.00000
-311050347.62114,-315685296.18372,-160135503.31208,  -0.00080,  -0.00083,  -0.00208,418504052.70206,   0.00000,274640135.82653,   0.00000,   0.00000,   0.00000,-56136083.12447,   0.00000
-312563599.24108,-317684363.94194,-160490017.79137,  -0.00080,  -0.00084,  -0.00209,420230803.10640,   0.00000,274640135.82653,   0.00000,   0.00000,   0.00000,-54409332.72013,   0.00000
-314063720.69511,-319696561.86606,-160844532.27067,  -0.00081,  -0.00084,  -0.00209,421959371.61871,   0.00000,274640135.82653,   0.00000,   0.00000,   0.00000,-52680764.20782,   0.00000
-315586819.93947,-321718607.41460,-161205611.83291,  -0.00081,  -0.00085,  -0.00210,423709215.03578,   0.00000,274640135.82653,   0.00000,   0.00000,   0.00000,-50930920.79075,   0.00000
-317109919.18383,-323740652.96315,-161560126.31220,  -0.00081,  -0.00085,  -0.00210,425453125.70265,   0.00000,274640135.82653,   0.00000,   0.00000,   0.00000,-49187010.12388,   0.00000
-318610040.63786,-325752850.88727,-161914640.79149,  -0.00081,  -0.00086,  -0.00210,427186377.94909,   0.00000,274640135.82653,   0.00000,   0.00000,   0.00000,-47453757.87744,   0.00000
-320110162.09190,-327765048.81139,-162269155.27078,  -0.00082,  -0.00087,  -0.00211,428921154.11884,   0.00000,274640135.82653,   0.00000,   0.00000,   0.00000,-45718981.70769,   0.00000
-321600435.92151,-329754268.94519,-162623669.75007,  -0.00082,  -0.00087,  -0.00211,430644836.86870,   0.00000,274640135.82653,   0.00000,   0.00000,   0.00000,-43995298.95783,   0.00000
-323100557.37554,-331766466.86931,-162978184.22936,  -0.00082,  -0.00088,  -0.00212,432382578.22840,   0.00000,274640135.82653,   0.00000,   0.00000,   0.00000,-42257557.59813,   0.00000
-324600678.82958,-333778664.79343,-163332698.70865,  -0.00083,  -0.00089,  -0.00212,434121789.36271,   0.00000,274640135.82653,   0.00000,   0.00000,   0.00000,-40518346.46382,   0.00000
-326090952.65919,-335767884.92723,-163687213.18794,  -0.00083,  -0.00089,  -0.00213,435849772.02025,   0.00000,274640135.82653,   0.00000,   0.00000,   0.00000,-38790363.80628,   0.00000
-327591074.11322,-337780082.85135,-164041727.66723,  -0.00083,  -0.00090,  -0.00213,437591843.27697,   0.00000,274640135.82653,   0.00000,   0.00000,   0.00000,-37048292.54956,   0.00000
-329058370.15251,-339759455.36072,-164396242.14652,  -0.00083,  -0.00090,  -0.00214,439310344.91032,   0.00000,274640135.82653,   0.00000,   0.00000,   0.00000,-35329790.91621,   0.00000
-330558491.60654,-341771653.28484,-164750756.62581,  -0.00084,  -0.00091,  -0.00214,441055203.57985,   0.00000,274640135.82653,   0.00000,   0.00000,   0.00000,-33584932.24668,   0.00000
-332025787.64583,-343751025.79421,-165105271.10510,  -0.00084,  -0.00092,  -0.00215,442776397.22899,   0.00000,274640135.82653,   0.00000,   0.00000,   0.00000,-31863738.59754,   0.00000
-333502931.30954,-345753376.09391,-165459785.58439,  -0.00084,  -0.00092,  -0.00215,444511709.37535,   0.00000,274640135.82653,   0.00000,   0.00000,   0.00000,-30128426.45118,   0.00000
-334970227.34882,-347732748.60328,-165814300.06368,  -0.00085,  -0.00093,  -0.00216,446235527.63296,   0.00000,274640135.82653,   0.00000,   0.00000,   0.00000,-28404608.19357,   0.00000
-336414545.59778,-349702273.48823,-166168814.54297,  -0.00085,  -0.00094,  -0.00216,447948345.14974,   0.00000,274640135.82653,   0.00000,   0.00000,   0.00000,-26691790.67679,   0.00000
-337881841.63707,-351681645.99760,-166523329.02226,  -0.00085,  -0.00094,  -0.00216,449674698.13853,   0.00000,274640135.82653,   0.00000,   0.00000,   0.00000,-24965437.68799,   0.00000
-339326159.88603,-353651170.88254,-166877843.50155,  -0.00085,  -0.00095,  -0.00217,451390012.79382,   0.00000,274640135.82653,   0.00000,   0.00000,   0.00000,-23250123.03271,   0.00000
-340803303.54974,-355653521.18224,-167232357.98084,  -0.00086,  -0.00095,  -0.00217,453131778.37053,   0.00000,274640135.82653,   0.00000,   0.00000,   0.00000,-21508357.45600,   0.00000
-342237774.17428,-357600068.27686,-167580307.37718,  -0.00086,  -0.00096,  -0.00218,454829341.35083,   0.00000,274640135.82653,   0.00000,   0.00000,   0.00000,-19810794.47570,   0.00000
-343682092.42324,-359569593.16181,-167934821.85647,  -0.00086,  -0.00097,  -0.00218,456548306.32173,   0.00000,274640135.82653,   0.00000,   0.00000,   0.00000,-18091829.50480,   0.00000
-345126410.67220,-361539118.04676,-168289336.33576,  -0.00087,  -0.00097,  -0.00219,458268455.45535,   0.00000,274640135.82653,   0.00000,   0.00000,   0.00000,-16371680.37118,   0.00000
-346547751.13084,-363498795.30728,-168643850.81505,  -0.00087,  -0.00098,  -0.00219,459977470.32259,   0.00000,274640135.82653,   0.00000,   0.00000,   0.00000,-14662665.50394,   0.00000
-347982221.75537,-365445342.40190,-168998365.29435,  -0.00087,  -0.00098,  -0.00220,461686890.84526,   0.00000,274640135.82653,   0.00000,   0.00000,   0.00000,-12953244.98127,   0.00000
-349403562.21401,-367405019.66242,-169352879.77364,  -0.00087,  -0.00099,  -0.00220,463398175.19979,   0.00000,274640135.82653,   0.00000,   0.00000,   0.00000,-11241960.62674,   0.00000
-350815055.04822,-369341719.13262,-169707394.25293,  -0.00088,  -0.00100,  -0.00221,465097486.34406,   0.00000,274640135.82653,   0.00000,   0.00000,   0.00000,-9542649.48247,   0.00000
-352226547.88243,-371278418.60282,-170061908.73222,  -0.00088,  -0.00100,  -0.00221,466797866.18043,   0.00000,274640135.82653,   0.00000,   0.00000,   0.00000,-7842269.64610,   0.00000
-353647888.34107,-373238095.86334,-170416423.21151,  -0.00088,  -0.00101,  -0.00222,468512446.56027,   0.00000,274640135.82653,   0.00000,   0.00000,   0.00000,-6127689.26626,   0.00000
-355036403.38496,-375164947.70911,-170770937.69080,  -0.00088,  -0.00101,  -0.00222,470202628.11552,   0.00000,274640135.82653,   0.00000,   0.00000,   0.00000,-4437507.71101,   0.00000
-356424918.42884,-377091799.55489,-171125452.17009,  -0.00089,  -0.00102,  -0.00222,471893838.71085,   0.00000,274640135.82653,   0.00000,   0.00000,   0.00000,-2746297.11567,   0.00000
-357826563.63863,-379005521.23476,-171479966.64938,  -0.00089,  -0.00103,  -0.00223,473585185.99570,   0.00000,274640135.82653,   0.00000,   0.00000,   0.00000,-1054949.83083,   0.00000
-358691767.61519,-380206170.72468,-171700869.79233,  -0.00089,  -0.00103,  -0.00223,474640136.35482,   0.00000,274640135.82653,   0.00000,   0.00000,   0.00000,   0.52829,   0.00000
-358772400.28695,-380457383.39151,-171578823.39144,  -0.00089,  -0.00103,  -0.00223,474640136.35482,   0.00000,274642734.11449,  -0.00000,  -0.00000,  -0.00000,   0.00000,   2.00000
-358970851.28041,-381120291.06353,-171260569.98698,  -0.00089,  -0.00104,  -0.00224,476324680.28556,   0.00001,274649577.58626,  -0.00000,  -0.00000,  -0.00001,   0.00000,   2.00000
-359181449.34208,-381767337.69318,-170943311.10961,  -0.00090,  -0.00104,  -0.00224,476331738.17243,   0.00001,274656417.69186,  -0.00001,  -0.00001,  -0.00002,   0.00000,   2.00000
-359371810.23625,-382418083.64925,-170630038.30208,  -0.00090,  -0.00105,  -0.00225,476347723.07920,   0.00002,274663290.78542,  -0.00001,  -0.00001,  -0.00003,  -0.00000,   2.00000
-359564954.42989,-383057754.76932,-170318946.25441,  -0.00090,  -0.00106,  -0.00225,476335315.03110,   0.00003,274670081.38819,  -0.00001,  -0.00002,  -0.00004,   0.00000,   2.00000
-359756590.55024,-383694097.02573,-170008478.89469,  -0.00090,  -0.00106,  -0.00226,476343186.10772,   0.00003,274676872.26655,  -0.00002,  -0.00002,  -0.00005,  -0.00000,   2.00000
-359941846.10833,-384321842.67114,-169702396.05300,  -0.00091,  -0.00107,  -0.00226,476358092.95332,   0.00004,274683692.01142,  -0.00002,  -0.00002,  -0.00006,   0.00000,   2.00000
-360130004.04380,-384938777.19478,-169398469.96937,  -0.00091,  -0.00107,  -0.00227,476345530.54844,   0.00005,274690429.11873,  -0.00002,  -0.00003,  -0.00006,   0.00000,   2.00000
-360298045.03776,-385559536.30558,-169098532.11324,  -0.00091,  -0.00108,  -0.00227,476361346.03094,   0.00005,274697199.07136,  -0.00002,  -0.00003,  -0.00007,   0.00000,   2.00000
-360469581.24736,-386182363.72119,-168795427.73799,  -0.00091,  -0.00109,  -0.00228,476362128.79954,   0.00006,274703940.78203,  -0.00003,  -0.00003,  -0.00008,   0.00000,   2.00000
-360634410.58823,-386783962.57164,-168502029.74277,  -0.00092,  -0.00109,  -0.00228,476363436.23470,   0.00006,274710656.63016,  -0.00003,  -0.00004,  -0.00009,  -0.00000,   2.00000
-360802779.99291,-387387761.96099,-168205444.02935,  -0.00092,  -0.00110,  -0.00228,476364130.95988,   0.00007,274717344.23795,  -0.00003,  -0.00004,  -0.00010,   0.00000,   2.00000
-360950691.38131,-387982761.46453,-167918141.76507,  -0.00092,  -0.00110,  -0.00229,476366378.98907,   0.00008,274724010.14604,  -0.00004,  -0.00004,  -0.00011,   0.00000,   2.00000
-361097371.05566,-388574726.60285,-167631438.53034,  -0.00092,  -0.00111,  -0.00229,476373985.29180,   0.00008,274730676.12498,  -0.00004,  -0.00005,  -0.00012,   0.00000,   2.00000
-361242827.84268,-389163671.01653,-167345337.09135,  -0.00093,  -0.00112,  -0.00230,476381584.37903,   0.00009,274737342.15231,  -0.00004,  -0.00005,  -0.00012,   0.00000,   2.00000
-361386714.84747,-389737071.72570,-167065135.64175,  -0.00093,  -0.00112,  -0.00230,476375607.03719,   0.00009,274743953.49634,  -0.00004,  -0.00005,  -0.00013,   0.00000,   2.00000
-361529431.15424,-390307577.53963,-166785531.50391,  -0.00093,  -0.00113,  -0.00231,476383096.37534,   0.00010,274750564.77017,  -0.00005,  -0.00006,  -0.00014,   0.00000,   2.00000
-361657059.68489,-390887353.13890,-166506055.85435,  -0.00093,  -0.00113,  -0.00231,476391791.42358,   0.00011,274757180.84949,  -0.00005,  -0.00006,  -0.00015,   0.00000,   2.00000
-361782963.89368,-391439316.21463,-166237764.92776,  -0.00093,  -0.00114,  -0.00232,476372044.10114,   0.00011,274763687.21940,  -0.00005,  -0.00006,  -0.00016,   0.00000,   2.00000
-361908097.06389,-392000941.86044,-165964749.80878,  -0.00094,  -0.00115,  -0.00232,476393017.82194,   0.00012,274770248.39514,  -0.00005,  -0.00007,  -0.00016,  -0.00000,   2.00000
-362032153.32651,-392559745.67919,-165692320.18678,  -0.00094,  -0.00115,  -0.00233,476400426.74407,   0.00012,274776809.50003,  -0.00006,  -0.00007,  -0.00017,  -0.00000,   2.00000
-362135878.91060,-393097872.47579,-165434465.35970,  -0.00094,  -0.00116,  -0.00233,476388592.07416,   0.00013,274783293.28125,  -0.00006,  -0.00007,  -0.00018,   0.00000,   2.00000
-362243681.00783,-393650936.82272,-165167973.34889,  -0.00094,  -0.00116,  -0.00234,476402710.19435,   0.00014,274789804.40317,  -0.00006,  -0.00008,  -0.00019,   0.00000,   2.00000
-362345495.96043,-394183677.45850,-164911253.99248,  -0.00095,  -0.00117,  -0.00234,476403157.28161,   0.00014,274796287.88505,  -0.00007,  -0.00008,  -0.00020,   0.00000,   2.00000
-362450970.16148,-394706844.69359,-164656483.60890,  -0.00095,  -0.00117,  -0.00235,476389818.48353,   0.00015,274802688.50728,  -0.00007,  -0.00008,  -0.00021,   0.00000,   2.00000
-362536724.80503,-395234194.55374,-164405664.13372,  -0.00095,  -0.00118,  -0.00235,476405136.38739,   0.00015,274809121.80600,  -0.00007,  -0.00009,  -0.00021,   0.00000,   2.00000
-362621464.93733,-395746783.24976,-164160687.27952,  -0.00095,  -0.00119,  -0.00236,476398529.30542,   0.00016,274815499.68784,  -0.00007,  -0.00009,  -0.00022,  -0.00000,   2.00000
-362705530.59607,-396269025.53068,-163910943.73589,  -0.00095,  -0.00119,  -0.00236,476419426.79092,   0.00017,274821932.71298,  -0.00008,  -0.00010,  -0.00023,  -0.00000,   2.00000
-362774430.29804,-396776466.56525,-163671807.63817,  -0.00096,  -0.00120,  -0.00237,476400350.94308,   0.00017,274828260.45933,  -0.00008,  -0.00010,  -0.00024,   0.00000,   2.00000
-362856661.39616,-397269493.43435,-163433733.26542,  -0.00096,  -0.00120,  -0.00237,476405948.97570,   0.00018,274834582.33182,  -0.00008,  -0.00010,  -0.00025,  -0.00000,   2.00000
-362919284.05634,-397766813.27081,-163199589.39754,  -0.00096,  -0.00121,  -0.00237,476421145.97414,   0.00018,274840936.86681,  -0.00008,  -0.00011,  -0.00025,   0.00000,   2.00000
-362985851.63486,-398255011.10686,-162967300.88461,  -0.00096,  -0.00121,  -0.00238,476407525.53797,   0.00019,274847208.53890,  -0.00009,  -0.00011,  -0.00026,   0.00000,   2.00000
-363037594.07175,-398752802.29088,-162734957.32633,  -0.00096,  -0.00122,  -0.00238,476415927.17303,   0.00019,274853485.90823,  -0.00009,  -0.00011,  -0.00027,   0.00000,   2.00000
-363083884.28090,-399230951.02725,-162512391.98016,  -0.00097,  -0.00122,  -0.00239,476415706.05853,   0.00020,274859734.55309,  -0.00009,  -0.00012,  -0.00028,  -0.00000,   2.00000
-363129521.68274,-399694905.81979,-162295616.73058,  -0.00097,  -0.00123,  -0.00239,476408640.87777,   0.00021,274865927.30616,  -0.00009,  -0.00012,  -0.00028,   0.00000,   2.00000
-363174603.14654,-400168588.46718,-162074015.82688,  -0.00097,  -0.00124,  -0.00240,476429376.60515,   0.00021,274872175.51352,  -0.00010,  -0.00012,  -0.00029,   0.00000,   2.00000
-363209594.61090,-400633441.77068,-161858927.48430,  -0.00097,  -0.00124,  -0.00240,476403130.46688,   0.00022,274878291.27940,  -0.00010,  -0.00013,  -0.00030,   0.00000,   2.00000
-363239334.08678,-401090833.92060,-161648303.33135,  -0.00097,  -0.00125,  -0.00241,476416549.25081,   0.00022,274884433.70046,  -0.00010,  -0.00013,  -0.00031,   0.00000,   2.00000
-363263859.53447,-401540798.66454,-161442146.67630,  -0.00097,  -0.00125,  -0.00241,476429966.91913,   0.00023,274890602.68967,  -0.00010,  -0.00013,  -0.00031,  -0.00000,   2.00000
-363292617.75201,-401982182.06122,-161237736.91907,  -0.00098,  -0.00126,  -0.00242,476415980.76597,   0.00023,274896688.78343,  -0.00011,  -0.00014,  -0.00032,   0.00000,   2.00000
-363306670.56602,-402433334.09644,-161033165.26028,  -0.00098,  -0.00126,  -0.00242,476424226.92869,   0.00024,274902781.07800,  -0.00011,  -0.00014,  -0.00033,   0.00000,   2.00000
-363315639.10417,-402865367.74658,-160838366.48447,  -0.00098,  -0.00127,  -0.00243,476423503.44050,   0.00025,274908843.87601,  -0.00011,  -0.00014,  -0.00034,   0.00000,   2.00000
-363324268.86552,-403283723.81276,-160649300.23170,  -0.00098,  -0.00127,  -0.00243,476416013.23308,   0.00025,274914850.40386,  -0.00011,  -0.00015,  -0.00034,   0.00000,   2.00000
-363322935.07508,-403717244.00188,-160455982.51479,  -0.00098,  -0.00128,  -0.00244,476417524.63118,   0.00026,274920836.77096,  -0.00012,  -0.00015,  -0.00035,   0.00000,   2.00000
-363316649.27507,-404131842.15927,-160272426.79360,  -0.00098,  -0.00128,  -0.00244,476416586.25486,   0.00026,274926793.41112,  -0.00012,  -0.00015,  -0.00036,   0.00000,   2.00000
-363310043.18711,-404544579.61855,-160089268.01061,  -0.00099,  -0.00129,  -0.00245,476423027.85039,   0.00027,274932749.85366,  -0.00012,  -0.00016,  -0.00037,  -0.00000,   2.00000
-363284274.72611,-404950268.64225,-159915220.36816,  -0.00099,  -0.00129,  -0.00245,476423692.12129,   0.00027,274938683.20980,  -0.00012,  -0.00016,  -0.00037,   0.00000,   2.00000
-363262911.75742,-405359445.73209,-159737485.54505,  -0.00099,  -0.00130,  -0.00246,476423471.62711,   0.00028,274944590.03389,  -0.00013,  -0.00016,  -0.00038,   0.00000,   2.00000
-363241408.16188,-405755247.88190,-159565437.67535,  -0.00099,  -0.00131,  -0.00246,476415693.48814,   0.00028,274950440.44512,  -0.00013,  -0.00017,  -0.00039,   0.00000,   2.00000
-363215024.92762,-406144002.68660,-159397827.13290,  -0.00099,  -0.00131,  -0.00247,476428605.80678,   0.00029,274956317.01823,  -0.00013,  -0.00017,  -0.00040,   0.00000,   2.00000
-363174224.35549,-406531187.74381,-159235217.36383,  -0.00099,  -0.00132,  -0.00247,476422520.15865,   0.00029,274962144.18219,  -0.00013,  -0.00017,  -0.00040,   0.00000,   2.00000
-363133406.81117,-406905199.30134,-159078260.65383,  -0.00100,  -0.00132,  -0.00248,476414577.42368,   0.00030,274967914.83975,  -0.00014,  -0.00018,  -0.00041,   0.00000,   2.00000
-363092441.26567,-407277591.84785,-158921635.98938,  -0.00100,  -0.00133,  -0.00248,476420758.29007,   0.00030,274973685.36102,  -0.00014,  -0.00018,  -0.00042,   0.00000,   2.00000
-363037115.70029,-407648541.82621,-158769966.21151,  -0.00100,  -0.00133,  -0.00249,476414548.39418,   0.00031,274979406.60350,  -0.00014,  -0.00018,  -0.00042,   0.00000,   2.00000
-362981688.42386,-408017890.81808,-158618608.82405,  -0.00100,  -0.00134,  -0.00249,476420683.27550,   0.00031,274985127.80740,  -0.00014,  -0.00019,  -0.00043,   0.00000,   2.00000
-362907514.77449,-408369144.10075,-158481586.85702,  -0.00100,  -0.00134,  -0.00250,476406742.78828,   0.00032,274990769.44226,  -0.00015,  -0.00019,  -0.00044,  -0.00000,   2.00000
-362852153.19391,-408724022.69578,-158336132.16518,  -0.00100,  -0.00135,  -0.00250,476418575.97871,   0.00033,274996434.04548,  -0.00015,  -0.00019,  -0.00044,   0.00000,   2.00000
-362777883.26040,-409072282.51371,-158199687.81133,  -0.00100,  -0.00135,  -0.00251,476418809.61978,   0.00033,275002075.59953,  -0.00015,  -0.00020,  -0.00045,   0.00000,   2.00000
-362689562.73269,-409407956.51711,-158073432.21796,  -0.00100,  -0.00136,  -0.00251,476398156.08705,   0.00034,275007611.48193,  -0.00015,  -0.00020,  -0.00046,   0.00000,   2.00000
-362615527.14082,-409742017.36547,-157942830.43938,  -0.00101,  -0.00136,  -0.00252,476416418.15817,   0.00034,275013196.40745,  -0.00015,  -0.00020,  -0.00047,  -0.00000,   2.00000
-362527244.08557,-410074898.59902,-157817081.65615,  -0.00101,  -0.00137,  -0.00252,476409993.23655,   0.00035,275018732.36209,  -0.00016,  -0.00021,  -0.00047,  -0.00000,   2.00000
-362424745.53867,-410406612.58609,-157696160.80767,  -0.00101,  -0.00137,  -0.00253,476403533.54089,   0.00035,275024219.48748,  -0.00016,  -0.00021,  -0.00048,  -0.00000,   2.00000
-362332247.23838,-410720172.95476,-157580333.79924,  -0.00101,  -0.00138,  -0.00253,476413917.21698,   0.00036,275029724.76341,  -0.00016,  -0.00021,  -0.00049,   0.00000,   2.00000
-362225558.34374,-411032674.76032,-157469307.78248,  -0.00101,  -0.00138,  -0.00254,476407401.71120,   0.00036,275035181.22973,  -0.00016,  -0.00022,  -0.00049,   0.00000,   2.00000
-362104707.45789,-411344127.01257,-157363057.94129,  -0.00101,  -0.00139,  -0.00254,476400853.71623,   0.00037,275040589.03255,  -0.00017,  -0.00022,  -0.00050,   0.00000,   2.00000
-361984248.46988,-411643128.53709,-157262320.52014,  -0.00101,  -0.00139,  -0.00255,476392214.83583,   0.00037,275045940.15417,  -0.00017,  -0.00022,  -0.00051,   0.00000,   2.00000
-361863953.36685,-411940916.50846,-157161762.43820,  -0.00101,  -0.00139,  -0.00255,476397887.37612,   0.00038,275051291.50109,  -0.00017,  -0.00023,  -0.00051,  -0.00000,   2.00000
-361743823.30177,-412237496.00021,-157061384.20948,  -0.00101,  -0.00140,  -0.00256,476403558.10357,   0.00038,275056643.06842,  -0.00017,  -0.00023,  -0.00052,  -0.00000,   2.00000
-361609548.61923,-412533125.05609,-156965733.97170,  -0.00102,  -0.00140,  -0.00257,476396912.34675,   0.00039,275061946.17434,  -0.00017,  -0.00023,  -0.00052,  -0.00000,   2.00000
-361471189.66224,-412811139.14356,-156879718.18002,  -0.00102,  -0.00141,  -0.00257,476394613.83585,   0.00039,275067218.31076,  -0.00018,  -0.00024,  -0.00053,   0.00000,   2.00000
-361333060.47133,-413088036.58969,-156793844.92328,  -0.00102,  -0.00141,  -0.00258,476400188.22270,   0.00039,275072490.75855,  -0.00018,  -0.00024,  -0.00054,  -0.00000,   2.00000
-361181083.28100,-413353027.36036,-156717979.16761,  -0.00102,  -0.00142,  -0.00258,476379007.12121,   0.00040,275077657.79045,  -0.00018,  -0.00024,  -0.00054,  -0.00000,   2.00000
-361029375.01893,-413616965.92596,-156642226.53565,  -0.00102,  -0.00142,  -0.00259,476384469.36626,   0.00040,275082825.22632,  -0.00018,  -0.00025,  -0.00055,   0.00000,   2.00000
-360863578.83254,-413880121.05076,-156571112.30088,  -0.00102,  -0.00143,  -0.00259,476377649.14583,   0.00041,275087944.55364,  -0.00019,  -0.00025,  -0.00056,   0.00000,   2.00000
-360693565.96366,-414136896.46917,-156504249.88679,  -0.00102,  -0.00143,  -0.00260,476389567.03984,   0.00041,275093090.09708,  -0.00019,  -0.00025,  -0.00056,   0.00000,   2.00000
-360528646.85459,-414386987.28884,-156438650.97191,  -0.00102,  -0.00144,  -0.00260,476374028.52935,   0.00042,275098153.21621,  -0.00019,  -0.00025,  -0.00057,  -0.00000,   2.00000
-360345138.36250,-414631028.84637,-156381810.18478,  -0.00102,  -0.00144,  -0.00261,476373604.55753,   0.00042,275103194.09015,  -0.00019,  -0.00026,  -0.00057,   0.00000,   2.00000
-360161981.30921,-414874099.85920,-156325026.59226,  -0.00102,  -0.00145,  -0.00261,476378945.21491,   0.00043,275108235.59754,  -0.00019,  -0.00026,  -0.00058,   0.00000,   2.00000
-359979442.17738,-415105264.11186,-156273643.00736,  -0.00102,  -0.00145,  -0.00262,476369756.24048,   0.00043,275113220.35933,  -0.00020,  -0.00026,  -0.00059,   0.00000,   2.00000
-359778343.80313,-415330449.48976,-156230972.37245,  -0.00102,  -0.00145,  -0.00262,476369264.56109,   0.00044,275118183.06604,  -0.00020,  -0.00027,  -0.00059,   0.00000,   2.00000
-359582398.81975,-415549167.45502,-156189500.06019,  -0.00102,  -0.00146,  -0.00263,476353499.29621,   0.00044,275123063.46846,  -0.00020,  -0.00027,  -0.00060,   0.00000,   2.00000
-359367643.35732,-415772849.47205,-156151358.71716,  -0.00103,  -0.00146,  -0.00263,476367472.22253,   0.00045,275127979.44471,  -0.00020,  -0.00027,  -0.00060,   0.00000,   2.00000
-359158315.90992,-415979211.98722,-156119748.99158,  -0.00103,  -0.00147,  -0.00264,476337098.52644,   0.00045,275132755.69832,  -0.00020,  -0.00028,  -0.00061,   0.00000,   2.00000
-358944662.80596,-416190289.95718,-156086951.10918,  -0.00103,  -0.00147,  -0.00265,476363200.08423,   0.00045,275137615.89608,  -0.00020,  -0.00028,  -0.00062,   0.00000,   2.00000
-358727222.71832,-416384323.25726,-156063672.81399,  -0.00103,  -0.00148,  -0.00265,476360243.70482,   0.00046,275142444.98324,  -0.00021,  -0.00028,  -0.00062,  -0.00000,   2.00000
-358485696.60693,-416583452.14857,-156045141.94613,  -0.00103,  -0.00148,  -0.00266,476334518.92726,   0.00046,275147153.21923,  -0.00021,  -0.00028,  -0.00063,   0.00000,   2.00000
-358259153.31604,-416781519.38357,-156022088.76412,  -0.00103,  -0.00149,  -0.00266,476351716.03707,   0.00047,275151910.58147,  -0.00021,  -0.00029,  -0.00063,  -0.00000,   2.00000
-358014322.92230,-416962875.65403,-156013002.07687,  -0.00103,  -0.00149,  -0.00267,476336471.46025,   0.00047,275156588.85392,  -0.00021,  -0.00029,  -0.00064,  -0.00000,   2.00000
-357769978.09531,-417143493.45161,-156003843.96307,  -0.00103,  -0.00149,  -0.00267,476341452.20501,   0.00048,275161268.23881,  -0.00021,  -0.00029,  -0.00065,   0.00000,   2.00000
-357511805.19936,-417312827.54903,-156004437.85122,  -0.00103,  -0.00150,  -0.00268,476319672.97296,   0.00048,275165843.12406,  -0.00022,  -0.00030,  -0.00065,  -0.00000,   2.00000
-357254134.50361,-417481462.01581,-156004933.63881,  -0.00103,  -0.00150,  -0.00268,476324557.99627,   0.00048,275170419.24132,  -0.00022,  -0.00030,  -0.00066,   0.00000,   2.00000
-356996966.04406,-417649399.87263,-156005332.20100,  -0.00103,  -0.00151,  -0.00269,476329442.68720,   0.00049,275174996.58486,  -0.00022,  -0.00030,  -0.00066,   0.00000,   2.00000
-356721487.13320,-417800746.59567,-156019628.07450,  -0.00103,  -0.00151,  -0.00270,476314046.85001,   0.00049,275179495.16048,  -0.00022,  -0.00030,  -0.00067,   0.00000,   2.00000
-356450975.69693,-417956815.04778,-156029614.83097,  -0.00103,  -0.00151,  -0.00270,476312396.92531,   0.00050,275183969.54245,  -0.00022,  -0.00031,  -0.00067,  -0.00000,   2.00000
-356176547.61483,-418106850.75252,-156043653.87896,  -0.00103,  -0.00152,  -0.00271,476323657.17087,   0.00050,275188470.85084,  -0.00022,  -0.00031,  -0.00068,   0.00000,   2.00000
-355888214.16017,-418245727.53269,-156067375.71209,  -0.00103,  -0.00152,  -0.00271,476301741.61090,   0.00051,275192868.01330,  -0.00023,  -0.00031,  -0.00068,   0.00000,   2.00000
-355585753.86271,-418384198.15369,-156095368.19037,  -0.00103,  -0.00153,  -0.00272,476294407.14897,   0.00051,275197219.08020,  -0.00023,  -0.00032,  -0.00069,   0.00000,   2.00000
-355279425.41156,-418516654.39983,-156127356.71070,  -0.00103,  -0.00153,  -0.00272,476305586.57562,   0.00051,275201597.39932,  -0.00023,  -0.00032,  -0.00069,  -0.00000,   2.00000
-354978276.50248,-418643174.88581,-156160376.50500,  -0.00103,  -0.00153,  -0.00273,476289171.26339,   0.00052,275205893.84729,  -0.00023,  -0.00032,  -0.00070,   0.00000,   2.00000
-354673262.58867,-418763721.13103,-156197384.47714,  -0.00103,  -0.00154,  -0.00274,476300285.92990,   0.00052,275210217.54165,  -0.00023,  -0.00032,  -0.00070,  -0.00000,   2.00000
-354354253.74593,-418873188.65602,-156244010.49088,  -0.00103,  -0.00154,  -0.00274,476278253.21036,   0.00052,275214437.47548,  -0.00023,  -0.00033,  -0.00071,   0.00000,   2.00000
-354020883.22916,-418992959.49891,-156289428.00295,  -0.00103,  -0.00154,  -0.00275,476285529.23422,   0.00053,275218669.87722,  -0.00024,  -0.00033,  -0.00071,  -0.00000,   2.00000
-353688422.54671,-419090777.90264,-156345423.26182,  -0.00103,  -0.00155,  -0.00275,476260762.31721,   0.00053,275222788.12270,  -0.00024,  -0.00033,  -0.00072,   0.00000,   2.00000
-353356375.63594,-419198733.04337,-156395767.83477,  -0.00103,  -0.00155,  -0.00276,476279964.67283,   0.00054,275226966.40473,  -0.00024,  -0.00033,  -0.00072,   0.00000,   2.00000
-353020655.87440,-419290060.00082,-156455452.64331,  -0.00103,  -0.00156,  -0.00276,476276306.73661,   0.00054,275231114.18745,  -0.00024,  -0.00034,  -0.00073,  -0.00000,   2.00000
-352670823.18002,-419370356.09219,-156524694.12181,  -0.00103,  -0.00156,  -0.00277,476254177.96585,   0.00054,275235158.63287,  -0.00024,  -0.00034,  -0.00073,   0.00000,   2.00000
-352306718.01139,-419450279.87139,-156598050.21909,  -0.00103,  -0.00156,  -0.00278,476246694.15780,   0.00055,275239158.07407,  -0.00024,  -0.00034,  -0.00074,   0.00000,   2.00000
-351943198.46495,-419529681.43415,-156671110.21406,  -0.00103,  -0.00157,  -0.00278,476251127.65595,   0.00055,275243159.80577,  -0.00024,  -0.00034,  -0.00074,   0.00000,   2.00000
-351580264.95259,-419608563.43798,-156743875.38716,  -0.00103,  -0.00157,  -0.00279,476255561.58716,   0.00056,275247163.81992,  -0.00025,  -0.00035,  -0.00075,   0.00000,   2.00000
-351203101.25407,-419676395.37898,-156826157.55424,  -0.00103,  -0.00157,  -0.00279,476233376.90936,   0.00056,275251064.87858,  -0.00025,  -0.00035,  -0.00075,   0.00000,   2.00000
-350822143.13891,-419738293.43875,-156912274.86311,  -0.00103,  -0.00158,  -0.00280,476244236.91054,   0.00056,275254994.12626,  -0.00025,  -0.00035,  -0.00076,  -0.00000,   2.00000
-350431267.37872,-419794578.35194,-157003722.98136,  -0.00103,  -0.00158,  -0.00280,476215523.14180,   0.00057,275258794.89998,  -0.00025,  -0.00035,  -0.00076,   0.00000,   2.00000
-350036596.35923,-419844932.08813,-157098978.41273,  -0.00103,  -0.00158,  -0.00281,476226314.57494,   0.00057,275262624.05012,  -0.00025,  -0.00036,  -0.00077,   0.00000,   2.00000
-349642560.68074,-419884181.19999,-157199324.67938,  -0.00103,  -0.00159,  -0.00282,476215887.78461,   0.00057,275266397.50379,  -0.00025,  -0.00036,  -0.00077,  -0.00000,   2.00000
-349234037.58140,-419933628.31317,-157298230.84221,  -0.00102,  -0.00159,  -0.00282,476223071.45927,   0.00058,275270185.19988,  -0.00025,  -0.00036,  -0.00078,   0.00000,   2.00000
-348821794.22922,-419955897.03883,-157411811.79610,  -0.00102,  -0.00159,  -0.00283,476204404.66484,   0.00058,275273884.79017,  -0.00026,  -0.00036,  -0.00078,   0.00000,   2.00000
-348399397.09194,-419993794.45344,-157519764.89581,  -0.00102,  -0.00160,  -0.00283,476205059.62087,   0.00058,275277573.11069,  -0.00026,  -0.00037,  -0.00079,  -0.00000,   2.00000
-347973221.94230,-420015126.30373,-157636921.02310,  -0.00102,  -0.00160,  -0.00284,476201072.47464,   0.00059,275281231.85895,  -0.00026,  -0.00037,  -0.00079,  -0.00000,   2.00000
-347532488.81559,-420025369.39327,-157763483.93786,  -0.00102,  -0.00160,  -0.00285,476178776.96519,   0.00059,275284788.64572,  -0.00026,  -0.00037,  -0.00080,   0.00000,   2.00000
-347092310.27819,-420035140.36366,-157889613.96634,  -0.00102,  -0.00161,  -0.00285,476182914.76169,   0.00059,275288348.60855,  -0.00026,  -0.00037,  -0.00080,   0.00000,   2.00000
-346652687.51798,-420044442.00667,-158015312.58903,  -0.00102,  -0.00161,  -0.00286,476187053.52866,   0.00060,275291911.73778,  -0.00026,  -0.00037,  -0.00080,   0.00000,   2.00000
-346198377.21864,-420042617.39541,-158150400.39452,  -0.00102,  -0.00161,  -0.00286,476164736.51294,   0.00060,275295373.15977,  -0.00026,  -0.00038,  -0.00081,  -0.00000,   2.00000
-345744604.81551,-420040321.34410,-158285035.00297,  -0.00102,  -0.00162,  -0.00287,476168808.78686,   0.00060,275298837.91344,  -0.00026,  -0.00038,  -0.00081,   0.00000,   2.00000
-345271803.81483,-420031987.01948,-158427666.03701,  -0.00102,  -0.00162,  -0.00288,476167785.33740,   0.00061,275302285.82318,  -0.00027,  -0.00038,  -0.00082,   0.00000,   2.00000
-344803768.79445,-420018040.98163,-158571196.60751,  -0.00102,  -0.00162,  -0.00288,476150555.68525,   0.00061,275305652.62091,  -0.00027,  -0.00038,  -0.00082,   0.00000,   2.00000
-344316640.68953,-419998010.32665,-158722687.45235,  -0.00102,  -0.00163,  -0.00289,476149516.27470,   0.00061,275309002.92168,  -0.00027,  -0.00039,  -0.00082,  -0.00000,   2.00000
-343829895.00785,-419966871.72304,-158879174.56266,  -0.00101,  -0.00163,  -0.00289,476138795.01840,   0.00061,275312298.35107,  -0.00027,  -0.00039,  -0.00083,   0.00000,   2.00000
-343328313.94875,-419935099.75886,-159039475.30206,  -0.00101,  -0.00163,  -0.00290,476131192.27604,   0.00062,275315551.51639,  -0.00027,  -0.00039,  -0.00083,   0.00000,   2.00000
-342822913.72705,-419897310.28360,-159203342.48012,  -0.00101,  -0.00163,  -0.00291,476141772.29186,   0.00062,275318834.83896,  -0.00027,  -0.00039,  -0.00084,   0.00000,   2.00000
-342322140.37003,-419853912.54146,-159368099.45418,  -0.00101,  -0.00164,  -0.00291,476124426.99584,   0.00062,275322037.20308,  -0.00027,  -0.00039,  -0.00084,   0.00000,   2.00000
-341802120.12196,-419804304.28189,-159540722.66545,  -0.00101,  -0.00164,  -0.00292,476123435.71897,   0.00063,275325223.96717,  -0.00027,  -0.00040,  -0.00084,   0.00000,   2.00000
-341286656.98677,-419749079.11996,-159714233.84582,  -0.00101,  -0.00164,  -0.00292,476106019.45177,   0.00063,275328329.84371,  -0.00027,  -0.00040,  -0.00085,   0.00000,   2.00000
-340751871.45771,-419687582.53318,-159895573.89884,  -0.00101,  -0.00165,  -0.00293,476105025.17126,   0.00063,275331420.50158,  -0.00028,  -0.00040,  -0.00085,   0.00000,   2.00000
-340217535.58181,-419625550.67527,-160076333.93822,  -0.00101,  -0.00165,  -0.00294,476108936.27303,   0.00064,275334515.51543,  -0.00028,  -0.00040,  -0.00086,   0.00000,   2.00000
-339667836.56298,-419552075.05733,-160266352.99794,  -0.00100,  -0.00165,  -0.00294,476086636.63222,   0.00064,275337510.54365,  -0.00028,  -0.00040,  -0.00086,   0.00000,   2.00000
-339118251.97753,-419467411.55395,-160461316.07138,  -0.00100,  -0.00165,  -0.00295,476075734.69295,   0.00064,275340451.33822,  -0.00028,  -0.00041,  -0.00086,   0.00000,   2.00000
-338549514.08277,-419386979.11302,-160658466.91572,  -0.00100,  -0.00166,  -0.00296,476089548.32600,   0.00064,275343436.60031,  -0.00028,  -0.00041,  -0.00087,  -0.00000,   2.00000
-337984783.46603,-419290222.58972,-160862051.37454,  -0.00100,  -0.00166,  -0.00296,476057271.92230,   0.00065,275346282.45078,  -0.00028,  -0.00041,  -0.00087,   0.00000,   2.00000
-337416503.67654,-419197998.77705,-161063490.08256,  -0.00100,  -0.00166,  -0.00297,476082458.15462,   0.00065,275349218.52166,  -0.00028,  -0.00041,  -0.00087,   0.00000,   2.00000
-336836833.77620,-419099726.67890,-161270107.38885,  -0.00100,  -0.00166,  -0.00297,476053531.67582,   0.00065,275352028.63914,  -0.00028,  -0.00041,  -0.00088,   0.00000,   2.00000
-336252833.89495,-418984629.36485,-161485683.47143,  -0.00100,  -0.00167,  -0.00298,476049232.99999,   0.00065,275354811.54894,  -0.00028,  -0.00041,  -0.00088,   0.00000,   2.00000
-335653865.31459,-418879187.27270,-161699297.02761,  -0.00099,  -0.00167,  -0.00299,476056436.87811,   0.00066,275357613.27722,  -0.00028,  -0.00042,  -0.00088,   0.00000,   2.00000
-335054334.80443,-418751761.06864,-161923402.87997,  -0.00099,  -0.00167,  -0.00299,476030755.07569,   0.00066,275360302.42015,  -0.00028,  -0.00042,  -0.00089,   0.00000,   2.00000
-334439780.84860,-418633931.55795,-162145507.34743,  -0.00099,  -0.00167,  -0.00300,476037954.65390,   0.00066,275363010.75974,  -0.00029,  -0.00042,  -0.00089,   0.00000,   2.00000
-333820774.42257,-418499161.88418,-162376515.12592,  -0.00099,  -0.00168,  -0.00301,476033709.64004,   0.00066,275365692.50609,  -0.00029,  -0.00042,  -0.00089,   0.00000,   2.00000
-333189927.10230,-418358112.22515,-162612672.26627,  -0.00099,  -0.00168,  -0.00301,476004790.47893,   0.00067,275368249.06256,  -0.00029,  -0.00042,  -0.00090,   0.00000,   2.00000
-332559319.45890,-418216378.82288,-162848111.29885,  -0.00099,  -0.00168,  -0.00302,476008466.61056,   0.00067,275370811.27011,  -0.00029,  -0.00043,  -0.00090,   0.00000,   2.00000
-331908780.35599,-418067787.70183,-163091067.38635,  -0.00098,  -0.00168,  -0.00302,476007742.32198,   0.00067,275373361.53041,  -0.00029,  -0.00043,  -0.00090,   0.00000,   2.00000
-331257871.72447,-417907742.60623,-163338888.58570,  -0.00098,  -0.00168,  -0.00303,475996749.37254,   0.00067,275375858.75808,  -0.00029,  -0.00043,  -0.00091,   0.00000,   2.00000
-330611408.28392,-417752597.17917,-163581987.49622,  -0.00098,  -0.00169,  -0.00304,475993659.06224,   0.00068,275378334.77073,  -0.00029,  -0.00043,  -0.00091,   0.00000,   2.00000
-329944241.21283,-417579723.32570,-163838177.97538,  -0.00098,  -0.00169,  -0.00304,475978284.14804,   0.00068,275380740.42876,  -0.00029,  -0.00043,  -0.00091,   0.00000,   2.00000
-329261173.68066,-417405420.40818,-164097828.99803,  -0.00098,  -0.00169,  -0.00305,475970874.99515,   0.00068,275383107.92562,  -0.00029,  -0.00043,  -0.00092,   0.00000,   2.00000
-328594334.07255,-417231016.16982,-164352455.71603,  -0.00097,  -0.00169,  -0.00306,475985576.86662,   0.00068,275385526.10026,  -0.00029,  -0.00043,  -0.00092,   0.00000,   2.00000
-327890461.32183,-417037991.84895,-164624347.70806,  -0.00097,  -0.00169,  -0.00306,475959327.79339,   0.00068,275387830.41858,  -0.00029,  -0.00044,  -0.00092,   0.00000,   2.00000
-327190145.18602,-416838973.03822,-164897127.45064,  -0.00097,  -0.00170,  -0.00307,475941478.87614,   0.00069,275390054.97303,  -0.00029,  -0.00044,  -0.00092,   0.00000,   2.00000
-326490671.04341,-416649920.92136,-165163433.51893,  -0.00097,  -0.00170,  -0.00307,475959765.04583,   0.00069,275392345.25352,  -0.00029,  -0.00044,  -0.00093,   0.00000,   2.00000
-325773448.74228,-416437593.88052,-165444465.31165,  -0.00097,  -0.00170,  -0.00308,475923092.81828,   0.00069,275394480.05295,  -0.00030,  -0.00044,  -0.00093,   0.00000,   2.00000
-325052864.46839,-416229547.90808,-165722897.24847,  -0.00096,  -0.00170,  -0.00309,475948207.53720,   0.00069,275396708.49119,  -0.00030,  -0.00044,  -0.00093,   0.00000,   2.00000
-324331466.22182,-416009775.28086,-166006151.44525,  -0.00096,  -0.00170,  -0.00309,475937192.33945,   0.00069,275398884.81607,  -0.00030,  -0.00044,  -0.00094,   0.00000,   2.00000
-323597063.29741,-415783046.13329,-166294541.22208,  -0.00096,  -0.00171,  -0.00310,475908399.60152,   0.00070,275400937.57773,  -0.00030,  -0.00044,  -0.00094,   0.00000,   2.00000
-322842056.04349,-415548783.65154,-166590149.74451,  -0.00096,  -0.00171,  -0.00311,475908020.50366,   0.00070,275402981.71123,  -0.00030,  -0.00045,  -0.00094,   0.00000,   2.00000
-322086985.73825,-415313537.30781,-166884860.94735,  -0.00095,  -0.00171,  -0.00311,475911633.65967,   0.00070,275405033.34058,  -0.00030,  -0.00045,  -0.00094,   0.00000,   2.00000
-321318617.94216,-415071124.11749,-167184695.35675,  -0.00095,  -0.00171,  -0.00312,475882902.77444,   0.00070,275406961.92618,  -0.00030,  -0.00045,  -0.00095,  -0.00000,   2.00000
-320545947.52250,-414821982.46785,-167487483.01835,  -0.00095,  -0.00171,  -0.00313,475893383.79007,   0.00070,275408926.18019,  -0.00030,  -0.00045,  -0.00095,   0.00000,   2.00000
-319772121.49209,-414560876.93740,-167795060.13808,  -0.00095,  -0.00171,  -0.00313,475882343.38120,   0.00071,275410839.04870,  -0.00030,  -0.00045,  -0.00095,   0.00000,   2.00000
-318981600.00592,-414297662.28665,-168105887.38808,  -0.00094,  -0.00171,  -0.00314,475875221.71350,   0.00071,275412716.53923,  -0.00030,  -0.00045,  -0.00095,   0.00000,   2.00000
-318190908.38270,-414033362.61289,-168415771.29332,  -0.00094,  -0.00172,  -0.00314,475878804.01751,   0.00071,275414602.05212,  -0.00030,  -0.00045,  -0.00096,  -0.00000,   2.00000
-317382286.87929,-413755864.98724,-168734602.21734,  -0.00094,  -0.00172,  -0.00315,475857151.10520,   0.00071,275416393.44161,  -0.00030,  -0.00045,  -0.00096,   0.00000,   2.00000
-316572265.64812,-413466224.25466,-169058198.57638,  -0.00094,  -0.00172,  -0.00316,475846112.34175,   0.00071,275418133.97618,  -0.00030,  -0.00046,  -0.00096,   0.00000,   2.00000
-315741127.12940,-413168493.74158,-169388777.38198,  -0.00093,  -0.00172,  -0.00316,475846101.07273,   0.00071,275419868.51855,  -0.00030,  -0.00046,  -0.00096,   0.00000,   2.00000
-314913844.49357,-412875293.27035,-169714554.94522,  -0.00093,  -0.00172,  -0.00317,475842683.77520,   0.00072,275421583.25783,  -0.00030,  -0.00046,  -0.00096,  -0.00000,   2.00000
-314068226.06227,-412568573.90954,-170049233.07724,  -0.00093,  -0.00172,  -0.00318,475821163.96217,   0.00072,275423204.81159,  -0.00030,  -0.00046,  -0.00097,   0.00000,   2.00000
-313222252.85020,-412260589.24388,-170382893.67603,  -0.00093,  -0.00172,  -0.00318,475824716.20269,   0.00072,275424835.24969,  -0.00030,  -0.00046,  -0.00097,  -0.00000,   2.00000
-312354942.29052,-411944249.61904,-170723428.66621,  -0.00092,  -0.00173,  -0.00319,475824907.96171,   0.00072,275426460.91428,  -0.00030,  -0.00046,  -0.00097,  -0.00000,   2.00000
-311490006.23051,-411621241.19565,-171064922.80561,  -0.00092,  -0.00173,  -0.00320,475806907.78994,   0.00072,275428007.84530,  -0.00030,  -0.00046,  -0.00097,   0.00000,   2.00000
-310623254.64401,-411285775.89904,-171411147.57262,  -0.00092,  -0.00173,  -0.00320,475795916.32081,   0.00072,275429504.78536,  -0.00031,  -0.00046,  -0.00097,  -0.00000,   2.00000
-309734968.02938,-410941755.09423,-171764168.35646,  -0.00091,  -0.00173,  -0.00321,475796212.49937,   0.00072,275430997.85100,  -0.00031,  -0.00046,  -0.00098,   0.00000,   2.00000
-308833289.28031,-410600639.64943,-172116487.00685,  -0.00091,  -0.00173,  -0.00322,475782383.18726,   0.00073,275432429.50332,  -0.00031,  -0.00046,  -0.00098,  -0.00000,   2.00000
-307929585.84133,-410246881.10633,-172473503.51459,  -0.00091,  -0.00173,  -0.00322,475771453.91548,   0.00073,275433811.74030,  -0.00031,  -0.00047,  -0.00098,   0.00000,   2.00000
-307021245.27876,-409885864.19476,-172833120.39936,  -0.00090,  -0.00173,  -0.00323,475782170.72235,   0.00073,275435233.01593,  -0.00031,  -0.00047,  -0.00098,  -0.00000,   2.00000
-306097730.01838,-409516358.69769,-173197823.55661,  -0.00090,  -0.00173,  -0.00323,475753913.37269,   0.00073,275436534.10871,  -0.00031,  -0.00047,  -0.00098,   0.89350,   1.00000
-305169520.53952,-409139509.33891,-173565076.33395,  -0.00090,  -0.00173,  -0.00324,475764667.60237,   0.00073,275437874.73974,  -0.00031,  -0.00047,  -0.00098,   0.94762,   1.00000
-304225896.38977,-408753988.09484,-173937406.34239,  -0.00089,  -0.00174,  -0.00325,475736478.11632,   0.00073,275439095.59005,  -0.00031,  -0.00047,  -0.00099,   0.78498,   1.00000
-303281588.01779,-408366855.48801,-174308580.17275,  -0.00089,  -0.00174,  -0.00325,475740050.59008,   0.00073,275440326.93137,  -0.00031,  -0.00047,  -0.00099,   0.79761,   1.00000
-302315235.28989,-407970560.29908,-174686301.13706,  -0.00089,  -0.00174,  -0.00326,475740795.91116,   0.00073,275441557.17567,  -0.00031,  -0.00047,  -0.00099,   0.79523,   1.00000
-301350452.22287,-407567063.08530,-175065019.78665,  -0.00088,  -0.00174,  -0.00327,475722785.27582,   0.00073,275442709.47312,  -0.00031,  -0.00047,  -0.00099,   0.69679,   1.00000
-300367528.08558,-407160072.15074,-175446597.55290,  -0.00088,  -0.00174,  -0.00327,475716378.63611,   0.00074,275443831.62062,  -0.00031,  -0.00047,  -0.00099,   0.65995,   1.00000
-299377929.74370,-406734091.88376,-175836412.15690,  -0.00088,  -0.00174,  -0.00328,475712885.38375,   0.00074,275444935.66320,  -0.00031,  -0.00047,  -0.00099,   0.63797,   1.00000
-298391546.64624,-406312181.78556,-176221390.78914,  -0.00087,  -0.00174,  -0.00329,475709256.36571,   0.00074,275446021.08179,  -0.00031,  -0.00047,  -0.00100,   0.61578,   1.00000
-297384903.29536,-405875129.17584,-176615026.00115,  -0.00087,  -0.00174,  -0.00329,475688598.42402,   0.00074,275447017.95943,  -0.00031,  -0.00047,  -0.00100,   0.51867,   1.00000
-296359798.88467,-405434259.04094,-177011425.65369,  -0.00087,  -0.00174,  -0.00330,475682376.15828,   0.00074,275447985.90411,  -0.00031,  -0.00047,  -0.00100,   0.48827,   1.00000
-295327740.64709,-404974106.29693,-177415969.50552,  -0.00086,  -0.00174,  -0.00331,475679043.56263,   0.00074,275448936.89307,  -0.00031,  -0.00047,  -0.00100,   0.47058,   1.00000
-294298716.13877,-404517874.33311,-177815658.37391,  -0.00086,  -0.00174,  -0.00331,475675395.78362,   0.00074,275449869.66401,  -0.00031,  -0.00048,  -0.00100,   0.45200,   1.00000
-293251038.31095,-404057624.73765,-178218051.42845,  -0.00086,  -0.00174,  -0.00332,475669320.54516,   0.00074,275450774.26438,  -0.00031,  -0.00048,  -0.00100,   0.42441,   1.00000
-292200229.10861,-403583795.01014,-178625006.36625,  -0.00085,  -0.00174,  -0.00332,475658716.57445,   0.00074,275451632.08801,  -0.00031,  -0.00048,  -0.00100,   0.38101,   1.00000
-291128423.04404,-403094152.23374,-179040497.05877,  -0.00085,  -0.00174,  -0.00333,475638446.25450,   0.00074,275452403.35901,  -0.00031,  -0.00048,  -0.00100,   0.30745,   1.00000
-290057714.38415,-402614047.59012,-179448740.42831,  -0.00085,  -0.00174,  -0.00334,475656449.93029,   0.00074,275453246.43223,  -0.00031,  -0.00048,  -0.00100,   0.36670,   1.00000
-288981422.65109,-402108516.11488,-179867415.07284,  -0.00084,  -0.00174,  -0.00334,475631660.21189,   0.00075,275453984.17829,  -0.00031,  -0.00048,  -0.00101,   0.28027,   1.00000
-287874398.34709,-401613848.54198,-180283248.56788,  -0.00084,  -0.00174,  -0.00335,475623069.77520,   0.00075,275454683.90877,  -0.00031,  -0.00048,  -0.00101,   0.25164,   1.00000
-286777855.32177,-401101668.89970,-180703103.46434,  -0.00083,  -0.00174,  -0.00336,475629587.18838,   0.00075,275455408.29086,  -0.00031,  -0.00048,  -0.00101,   0.26915,   1.00000
-285659736.89528,-400573138.40129,-181131394.60760,  -0.00083,  -0.00174,  -0.00336,475609673.16650,   0.00075,275456047.71334,  -0.00031,  -0.00048,  -0.00101,   0.20929,   1.00000
-284526214.75343,-400045787.90228,-181558734.39968,  -0.00083,  -0.00174,  -0.00337,475596534.58377,   0.00075,275456630.49941,  -0.00031,  -0.00048,  -0.00101,   0.17348,   1.00000
-283405571.63188,-399512657.12661,-181984132.59216,  -0.00082,  -0.00174,  -0.00338,475617251.69033,   0.00075,275457297.34610,  -0.00031,  -0.00048,  -0.00101,   0.22665,   1.00000
-282248774.91266,-398966257.64643,-182418402.71403,  -0.00082,  -0.00174,  -0.00338,475580666.38732,   0.00075,275457809.95483,  -0.00031,  -0.00048,  -0.00101,   0.13363,   1.00000
-281088011.26992,-398405515.21358,-182857105.87734,  -0.00081,  -0.00174,  -0.00339,475570352.37062,   0.00075,275458277.96533,  -0.00031,  -0.00048,  -0.00101,   0.11113,   1.00000
-279925816.25188,-397842293.15110,-183294306.83483,  -0.00081,  -0.00174,  -0.00339,475574186.96617,   0.00075,275458760.37396,  -0.00031,  -0.00048,  -0.00101,   0.11779,   1.00000
-278762208.42483,-397276602.73615,-183730001.70102,  -0.00081,  -0.00174,  -0.00340,475578033.54877,   0.00075,275459257.19233,  -0.00031,  -0.00048,  -0.00101,   0.12463,   1.00000
-277557831.99726,-396691042.02448,-184177844.78107,  -0.00080,  -0.00174,  -0.00341,475549446.31295,   0.00075,275459633.18176,  -0.00031,  -0.00048,  -0.00101,   0.07120,   1.00000
-276370275.61668,-396105583.90002,-184620256.79551,  -0.00080,  -0.00174,  -0.00341,475562524.16874,   0.00075,275460062.48174,  -0.00031,  -0.00048,  -0.00101,   0.09258,   1.00000
-275162819.04867,-395514763.66427,-185064952.12464,  -0.00079,  -0.00174,  -0.00342,475557354.32325,   0.00075,275460468.76058,  -0.00031,  -0.00048,  -0.00101,   0.08270,   1.00000
-273932520.82381,-394906366.63428,-185517832.59605,  -0.00079,  -0.00174,  -0.00343,475538243.38496,   0.00075,275460793.81468,  -0.00031,  -0.00048,  -0.00101,   0.05279,   1.00000
-272720037.91350,-394291936.37067,-185967919.78672,  -0.00078,  -0.00174,  -0.00343,475529529.06191,   0.00075,275461081.33128,  -0.00031,  -0.00048,  -0.00101,   0.04119,   1.00000
-271468825.74806,-393668929.23605,-186424023.31644,  -0.00078,  -0.00174,  -0.00344,475515531.04398,   0.00075,275461309.28772,  -0.00031,  -0.00048,  -0.00101,   0.02582,   1.00000
-270212112.05887,-393037121.03292,-186881732.80474,  -0.00078,  -0.00174,  -0.00344,475527295.75174,   0.00075,275461585.78124,  -0.00031,  -0.00048,  -0.00102,   0.03787,   1.00000
-268954453.08426,-392396188.39309,-187340462.85787,  -0.00077,  -0.00174,  -0.00345,475509669.89228,   0.00075,275461787.43404,  -0.00031,  -0.00048,  -0.00102,   0.02008,   1.00000
-267695068.99727,-391752386.86754,-187797513.48175,  -0.00077,  -0.00174,  -0.00346,475513706.46392,   0.00075,275462005.35591,  -0.00031,  -0.00048,  -0.00102,   0.02338,   1.00000
-266415844.64331,-391096244.20346,-188259378.84267,  -0.00076,  -0.00174,  -0.00346,475487261.98214,   0.00075,275462111.45811,  -0.00031,  -0.00048,  -0.00102,   0.00553,   1.00000
-265112262.54663,-390427976.85672,-188726486.38336,  -0.00076,  -0.00174,  -0.00347,475490400.50996,   0.00075,275462230.40351,  -0.00031,  -0.00048,  -0.00102,   0.00692,   1.00000
-263807318.08688,-389750237.39479,-189194601.13711,  -0.00075,  -0.00174,  -0.00348,475472858.57242,   0.00075,275462275.13022,  -0.00031,  -0.00048,  -0.00102,   0.00098,   1.00000
-262496760.69794,-389063440.92223,-189664131.14981,  -0.00075,  -0.00174,  -0.00348,475484832.59256,   0.00075,275462370.14232,  -0.00031,  -0.00048,  -0.00102,   0.00439,   1.00000
-261164048.85912,-388360977.04660,-190136817.12220,  -0.00074,  -0.00174,  -0.00349,475458737.85302,   0.00075,275462370.14232,  -0.00031,  -0.00048,  -0.00102,-3632.28929,   0.00000
-259831337.02031,-387658513.17097,-190609503.09459,  -0.00074,  -0.00174,  -0.00349,475459319.77096,   0.00075,275462370.14232,  -0.00031,  -0.00048,  -0.00102,-3050.37135,   0.00000
-258475647.39117,-386946201.67091,-191082189.06698,  -0.00073,  -0.00174,  -0.00350,475455636.45336,   0.00075,275462370.14232,  -0.00031,  -0.00048,  -0.00102,-6733.68895,   0.00000
-257110110.13761,-386210912.38053,-191548309.95641,  -0.00073,  -0.00174,  -0.00351,475434551.22629,   0.00075,275462370.14232,  -0.00031,  -0.00048,  -0.00102,-27818.91602,   0.00000
-255744572.88404,-385475623.09015,-192020995.92880,  -0.00072,  -0.00174,  -0.00351,475425738.26461,   0.00075,275462370.14232,  -0.00031,  -0.00048,  -0.00102,-36631.87771,   0.00000
-254346210.21573,-384707508.38502,-192487116.81824,  -0.00072,  -0.00174,  -0.00352,475391244.43204,   0.00075,275462370.14232,  -0.00031,  -0.00048,  -0.00102,-71125.71027,   0.00000
-252947847.54742,-383939393.67989,-192953237.70768,  -0.00071,  -0.00174,  -0.00352,475361214.45043,   0.00075,275462370.14232,  -0.00031,  -0.00048,  -0.00102,-101155.69188,   0.00000
-251516659.46436,-383138453.56001,-193419358.59711,  -0.00071,  -0.00174,  -0.00353,475313733.73075,   0.00075,275462370.14232,  -0.00031,  -0.00048,  -0.00102,-148636.41156,   0.00000
-250085471.38130,-382337513.44014,-193878914.40360,  -0.00070,  -0.00173,  -0.00354,475262832.81477,   0.00075,275462370.14232,  -0.00031,  -0.00048,  -0.00102,-199537.32755,   0.00000
-248621457.88349,-381503747.90551,-194345035.29304,  -0.00070,  -0.00173,  -0.00354,475202797.99569,   0.00075,275462370.14232,  -0.00031,  -0.00048,  -0.00102,-259572.14662,   0.00000
-247157444.38567,-380669982.37088,-194804591.09953,  -0.00069,  -0.00173,  -0.00355,475139457.35619,   0.00075,275462370.14232,  -0.00031,  -0.00048,  -0.00102,-322912.78612,   0.00000
-245693430.88786,-379836216.83625,-195264146.90601,  -0.00069,  -0.00173,  -0.00355,475080847.34365,   0.00075,275462370.14232,  -0.00031,  -0.00048,  -0.00102,-381522.79866,   0.00000
-244196591.97530,-378969625.88688,-195717137.62955,  -0.00068,  -0.00173,  -0.00356,474997321.73895,   0.00075,275462370.14232,  -0.00031,  -0.00048,  -0.00102,-465048.40337,   0.00000
-242699753.06274,-378103034.93750,-196176693.43604,  -0.00068,  -0.00173,  -0.00357,474926780.77421,   0.00075,275462370.14232,  -0.00031,  -0.00048,  -0.00102,-535589.36811,   0.00000
-241170088.73544,-377203618.57337,-196629684.15958,  -0.00067,  -0.00173,  -0.00357,474831601.18185,   0.00075,275462370.14232,  -0.00031,  -0.00048,  -0.00102,-630768.96046,   0.00000
-239640424.40813,-376304202.20925,-197082674.88311,  -0.00067,  -0.00173,  -0.00358,474741433.94495,   0.00075,275462370.14232,  -0.00031,  -0.00048,  -0.00102,-720936.19736,   0.00000
-238100912.45639,-375381808.05480,-197535665.60665,  -0.00066,  -0.00173,  -0.00358,474642826.63248,   0.00075,275462370.14232,  -0.00031,  -0.00048,  -0.00102,-819543.50984,   0.00000
-236538422.71434,-374449566.27592,-197982091.24724,  -0.00066,  -0.00173,  -0.00359,474533369.40128,   0.00075,275462370.14232,  -0.00031,  -0.00048,  -0.00102,-929000.74104,   0.00000
-234966085.34785,-373494346.70672,-198428516.88783,  -0.00065,  -0.00172,  -0.00360,474415653.91886,   0.00075,275462370.14232,  -0.00031,  -0.00048,  -0.00102,-1046716.22346,   0.00000
-233370770.19105,-372529279.51310,-198874942.52842,  -0.00065,  -0.00172,  -0.00360,474295544.87942,   0.00075,275462370.14232,  -0.00031,  -0.00048,  -0.00102,-1166825.26289,   0.00000
-231775455.03424,-371564212.31948,-199321368.16900,  -0.00064,  -0.00172,  -0.00361,474180750.84764,   0.00075,275462370.14232,  -0.00031,  -0.00048,  -0.00102,-1281619.29468,   0.00000
-230170292.25301,-370576167.33553,-199761228.72664,  -0.00064,  -0.00172,  -0.00361,474049659.84846,   0.00075,275462370.14232,  -0.00031,  -0.00048,  -0.00102,-1412710.29386,   0.00000
-228542151.68145,-369578274.72716,-200207654.36723,  -0.00063,  -0.00172,  -0.00362,473924800.70820,   0.00075,275462370.14232,  -0.00031,  -0.00048,  -0.00102,-1537569.43411,   0.00000
-226904163.48547,-368557404.32846,-200640949.84192,  -0.00063,  -0.00172,  -0.00362,473775497.91779,   0.00075,275462370.14232,  -0.00031,  -0.00048,  -0.00102,-1686872.22453,   0.00000
-225266175.28949,-367536533.92976,-201080810.39956,  -0.00062,  -0.00172,  -0.00363,473640033.31430,   0.00075,275462370.14232,  -0.00031,  -0.00048,  -0.00102,-1822336.82801,   0.00000
-223595361.67876,-366482838.11631,-201514105.87425,  -0.00062,  -0.00171,  -0.00364,473481254.39056,   0.00075,275462370.14232,  -0.00031,  -0.00048,  -0.00102,-1981115.75176,   0.00000
-221901570.27771,-365419294.67844,-201947401.34893,  -0.00061,  -0.00171,  -0.00364,473320938.95247,   0.00075,275462370.14232,  -0.00031,  -0.00048,  -0.00102,-2141431.18985,   0.00000
-220220909.04255,-364342621.07467,-202380696.82362,  -0.00060,  -0.00171,  -0.00365,473160406.66514,   0.00075,275462370.14232,  -0.00031,  -0.00048,  -0.00102,-2301963.47717,   0.00000
-218517270.01707,-363256099.84648,-202807427.21536,  -0.00060,  -0.00171,  -0.00365,472990082.04933,   0.00075,275462370.14232,  -0.00031,  -0.00048,  -0.00102,-2472288.09299,   0.00000
-216790653.20127,-362159730.99386,-203234157.60710,  -0.00059,  -0.00171,  -0.00366,472818550.69194,   0.00075,275462370.14232,  -0.00031,  -0.00048,  -0.00102,-2643819.45038,   0.00000
-215077166.55136,-361050231.97534,-203660887.99884,  -0.00059,  -0.00171,  -0.00366,472646875.16862,   0.00075,275462370.14232,  -0.00031,  -0.00048,  -0.00102,-2815494.97369,   0.00000
-213307876.69639,-359898059.91764,-204081053.30763,  -0.00058,  -0.00170,  -0.00367,472445765.94830,   0.00075,275462370.14232,  -0.00031,  -0.00048,  -0.00102,-3016604.19402,   0.00000
-211571412.25616,-358778713.27470,-204501218.61642,  -0.00058,  -0.00170,  -0.00367,472270636.15573,   0.00075,275462370.14232,  -0.00031,  -0.00048,  -0.00102,-3191733.98659,   0.00000
-209792274.77676,-357603563.42668,-204921383.92520,  -0.00057,  -0.00170,  -0.00368,472068811.57451,   0.00075,275462370.14232,  -0.00031,  -0.00048,  -0.00102,-3393558.56781,   0.00000
-208022984.92178,-356451391.36898,-205334984.15104,  -0.00056,  -0.00170,  -0.00369,471877570.35218,   0.00075,275462370.14232,  -0.00031,  -0.00048,  -0.00102,-3584799.79013,   0.00000
-206220869.65205,-355266393.89654,-205748584.37688,  -0.00056,  -0.00170,  -0.00369,471672930.03105,   0.00075,275462370.14232,  -0.00031,  -0.00048,  -0.00102,-3789440.11126,   0.00000
-204408906.75790,-354058418.63377,-206162184.60272,  -0.00055,  -0.00170,  -0.00370,471461779.75160,   0.00075,275462370.14232,  -0.00031,  -0.00048,  -0.00102,-4000590.39072,   0.00000
-202596943.86375,-352850443.37101,-206569219.74561,  -0.00055,  -0.00169,  -0.00370,471248409.25041,   0.00075,275462370.14232,  -0.00031,  -0.00048,  -0.00102,-4213960.89191,   0.00000
-200784980.96960,-351642468.10824,-206976254.88850,  -0.00054,  -0.00169,  -0.00371,471041418.51434,   0.00075,275462370.14232,  -0.00031,  -0.00048,  -0.00102,-4420951.62797,   0.00000
-198940192.66070,-350401667.43072,-207383290.03139,  -0.00053,  -0.00169,  -0.00371,470821665.30390,   0.00075,275462370.14232,  -0.00031,  -0.00048,  -0.00102,-4640704.83842,   0.00000
-197062578.93705,-349128041.33846,-207783760.09133,  -0.00053,  -0.00169,  -0.00372,470580758.14234,   0.00075,275462370.14232,  -0.00031,  -0.00048,  -0.00102,-4881611.99997,   0.00000
-195217790.62815,-347887240.66094,-208177665.06832,  -0.00052,  -0.00169,  -0.00372,470356843.45266,   0.00075,275462370.14232,  -0.00031,  -0.00048,  -0.00102,-5105526.68965,   0.00000
-193330329.28007,-346590636.77835,-208578135.12826,  -0.00052,  -0.00168,  -0.00373,470116708.00872,   0.00075,275462370.14232,  -0.00031,  -0.00048,  -0.00102,-5345662.13359,   0.00000
-191429737.76610,-345307163.06166,-208972040.10524,  -0.00051,  -0.00168,  -0.00373,469881115.09879,   0.00075,275462370.14232,  -0.00031,  -0.00048,  -0.00102,-5581255.04352,   0.00000
-189542276.41803,-344010559.17907,-209359379.99928,  -0.00050,  -0.00168,  -0.00374,469637141.69435,   0.00075,275462370.14232,  -0.00031,  -0.00048,  -0.00102,-5825228.44797,   0.00000
-187621989.65520,-342681129.88173,-209753284.97627,  -0.00050,  -0.00168,  -0.00374,469390215.11798,   0.00075,275462370.14232,  -0.00031,  -0.00048,  -0.00102,-6072155.02433,   0.00000
-185678725.10206,-341341852.95997,-210134059.78736,  -0.00049,  -0.00167,  -0.00375,469126740.55552,   0.00075,275462370.14232,  -0.00031,  -0.00048,  -0.00102,-6335629.58680,   0.00000
-183758438.33923,-340012423.66263,-210521399.68140,  -0.00049,  -0.00167,  -0.00375,468885102.22556,   0.00075,275462370.14232,  -0.00031,  -0.00048,  -0.00102,-6577267.91675,   0.00000
-181805326.16166,-338650168.95054,-210902174.49249,  -0.00048,  -0.00167,  -0.00376,468623399.70088,   0.00075,275462370.14232,  -0.00031,  -0.00048,  -0.00102,-6838970.44144,   0.00000
-179852213.98409,-337287914.23845,-211276384.22063,  -0.00047,  -0.00167,  -0.00376,468360021.16798,   0.00075,275462370.14232,  -0.00031,  -0.00048,  -0.00102,-7102348.97433,   0.00000
-177866276.39177,-335892834.11161,-211650593.94877,  -0.00047,  -0.00166,  -0.00377,468085806.63325,   0.00075,275462370.14232,  -0.00031,  -0.00048,  -0.00102,-7376563.50907,   0.00000
-175880338.79945,-334497753.98478,-212024803.67691,  -0.00046,  -0.00166,  -0.00377,467818997.92684,   0.00075,275462370.14232,  -0.00031,  -0.00048,  -0.00102,-7643372.21548,   0.00000
-173884553.58270,-333079696.06761,-212392448.32210,  -0.00045,  -0.00166,  -0.00378,467538409.07645,   0.00075,275462370.14232,  -0.00031,  -0.00048,  -0.00102,-7923961.06586,   0.00000
-171865790.57563,-331651790.52603,-212760092.96729,  -0.00045,  -0.00166,  -0.00378,467259814.69957,   0.00075,275462370.14232,  -0.00031,  -0.00048,  -0.00102,-8202555.44274,   0.00000
-169847027.56856,-330223884.98444,-213121172.52953,  -0.00044,  -0.00165,  -0.00379,466979854.20405,   0.00075,275462370.14232,  -0.00031,  -0.00048,  -0.00102,-8482515.93827,   0.00000
-167818416.93706,-328773001.65253,-213482252.09177,  -0.00044,  -0.00165,  -0.00379,466695359.82740,   0.00075,275462370.14232,  -0.00031,  -0.00048,  -0.00102,-8767010.31491,   0.00000
-165789806.30557,-327322118.32062,-213843331.65401,  -0.00043,  -0.00165,  -0.00380,466418556.55569,   0.00075,275462370.14232,  -0.00031,  -0.00048,  -0.00102,-9043813.58662,   0.00000
-163728370.25932,-325838409.57396,-214197846.13330,  -0.00042,  -0.00165,  -0.00380,466123168.78532,   0.00075,275462370.14232,  -0.00031,  -0.00048,  -0.00102,-9339201.35700,   0.00000
-161666934.21308,-324354700.82730,-214545795.52964,  -0.00042,  -0.00164,  -0.00381,465826614.33694,   0.00075,275462370.14232,  -0.00031,  -0.00048,  -0.00102,-9635755.80538,   0.00000
-159595650.54241,-322848014.29031,-214893744.92598,  -0.00041,  -0.00164,  -0.00381,465525979.89931,   0.00075,275462370.14232,  -0.00031,  -0.00048,  -0.00102,-9936390.24301,   0.00000
-157501389.08142,-321331480.12891,-215235129.23938,  -0.00040,  -0.00164,  -0.00381,465219234.10860,   0.00075,275462370.14232,  -0.00031,  -0.00048,  -0.00102,-10243136.03372,   0.00000
-155430105.41075,-319824793.59192,-215576513.55277,  -0.00040,  -0.00163,  -0.00382,464925493.46088,   0.00075,275462370.14232,  -0.00031,  -0.00048,  -0.00102,-10536876.68143,   0.00000
-153325996.32533,-318285281.64019,-215917897.86616,  -0.00039,  -0.00163,  -0.00382,464623061.83785,   0.00075,275462370.14232,  -0.00031,  -0.00048,  -0.00102,-10839308.30446,   0.00000
-151189061.82516,-316712944.27371,-216252717.09660,  -0.00038,  -0.00163,  -0.00383,464303135.38512,   0.00075,275462370.14232,  -0.00031,  -0.00048,  -0.00102,-11159234.75720,   0.00000
-149061974.94942,-315163584.69755,-216580971.24409,  -0.00038,  -0.00163,  -0.00383,463994183.63076,   0.00075,275462370.14232,  -0.00031,  -0.00048,  -0.00102,-11468186.51156,   0.00000
-146938170.61515,-313578117.16516,-216909225.39158,  -0.00037,  -0.00162,  -0.00384,463674781.33635,   0.00075,275462370.14232,  -0.00031,  -0.00048,  -0.00102,-11787588.80597,   0.00000
-144778258.32466,-311995932.17426,-217237479.53907,  -0.00036,  -0.00162,  -0.00384,463366319.08427,   0.00075,275462370.14232,  -0.00031,  -0.00048,  -0.00102,-12096051.05805,   0.00000
-142631476.20007,-310400617.01745,-217559168.60361,  -0.00036,  -0.00162,  -0.00384,463050060.31713,   0.00075,275462370.14232,  -0.00031,  -0.00048,  -0.00102,-12412309.82518,   0.00000
-140451868.66073,-308772476.44589,-217874292.58520,  -0.00035,  -0.00161,  -0.00385,462717106.25554,   0.00075,275462370.14232,  -0.00031,  -0.00048,  -0.00102,-12745263.88677,   0.00000
-138272261.12138,-307144335.87434,-218189416.56680,  -0.00034,  -0.00161,  -0.00385,462392889.16312,   0.00075,275462370.14232,  -0.00031,  -0.00048,  -0.00102,-13069480.97920,   0.00000
-136092653.58204,-305516195.30278,-218497975.46544,  -0.00034,  -0.00161,  -0.00386,462068114.09978,   0.00075,275462370.14232,  -0.00031,  -0.00048,  -0.00102,-13394256.04253,   0.00000
-133903198.41828,-303865076.94090,-218806534.36408,  -0.00033,  -0.00160,  -0.00386,461740667.78030,   0.00075,275462370.14232,  -0.00031,  -0.00048,  -0.00102,-13721702.36201,   0.00000
-131690765.46419,-302204110.95460,-219108528.17977,  -0.00032,  -0.00160,  -0.00386,461408639.98378,   0.00075,275462370.14232,  -0.00031,  -0.00048,  -0.00102,-14053730.15853,   0.00000
-129478332.51010,-300543144.96829,-219410521.99546,  -0.00032,  -0.00160,  -0.00387,461085595.96474,   0.00075,275462370.14232,  -0.00031,  -0.00048,  -0.00102,-14376774.17758,   0.00000
-127256051.93158,-298859201.19166,-219705950.72821,  -0.00031,  -0.00159,  -0.00387,460750905.82571,   0.00075,275462370.14232,  -0.00031,  -0.00048,  -0.00102,-14711464.31661,   0.00000
-125023923.72864,-297152279.62471,-220001379.46095,  -0.00030,  -0.00159,  -0.00388,460414091.59715,   0.00075,275462370.14232,  -0.00031,  -0.00048,  -0.00102,-15048278.54516,   0.00000
-122768817.73538,-295435510.43333,-220290243.11074,  -0.00030,  -0.00159,  -0.00388,460073286.25944,   0.00075,275462370.14232,  -0.00031,  -0.00048,  -0.00102,-15389083.88287,   0.00000
-120513711.74211,-293718741.24195,-220572541.67758,  -0.00029,  -0.00158,  -0.00388,459732374.74171,   0.00075,275462370.14232,  -0.00031,  -0.00048,  -0.00102,-15729995.40060,   0.00000
-118248758.12442,-291978994.26025,-220854840.24442,  -0.00028,  -0.00158,  -0.00389,459389736.27593,   0.00075,275462370.14232,  -0.00031,  -0.00048,  -0.00102,-16072633.86638,   0.00000
-115983804.50673,-290239247.27854,-221130573.72832,  -0.00027,  -0.00158,  -0.00389,459047060.07596,   0.00075,275462370.14232,  -0.00031,  -0.00048,  -0.00102,-16415310.06636,   0.00000
-113695873.09872,-288489652.67242,-221406307.21221,  -0.00027,  -0.00157,  -0.00389,458710373.69808,   0.00075,275462370.14232,  -0.00031,  -0.00048,  -0.00102,-16751996.44423,   0.00000
-111421071.85661,-286726927.90039,-221675475.61315,  -0.00026,  -0.00157,  -0.00390,458366244.68323,   0.00075,275462370.14232,  -0.00031,  -0.00048,  -0.00102,-17096125.45908,   0.00000
-109113445.19974,-284931377.71361,-221938078.93115,  -0.00025,  -0.00157,  -0.00390,458007993.70779,   0.00075,275462370.14232,  -0.00031,  -0.00048,  -0.00102,-17454376.43453,   0.00000
-106805818.54288,-283135827.52684,-222200682.24914,  -0.00025,  -0.00156,  -0.00390,457659540.99314,   0.00075,275462370.14232,  -0.00031,  -0.00048,  -0.00102,-17802829.14918,   0.00000
-104498191.88602,-281340277.34006,-222463285.56713,  -0.00024,  -0.00156,  -0.00391,457320908.93644,   0.00075,275462370.14232,  -0.00031,  -0.00048,  -0.00102,-18141461.20588,   0.00000
-102167587.43883,-279534879.52886,-222712758.71922,  -0.00023,  -0.00156,  -0.00391,456969888.76599,   0.00075,275462370.14232,  -0.00031,  -0.00048,  -0.00102,-18492481.37633,   0.00000
-99840265.53312,-277693373.76143,-222962231.87132,  -0.00023,  -0.00155,  -0.00391,456610532.95201,   0.00075,275462370.14232,  -0.00031,  -0.00048,  -0.00102,-18851837.19031,   0.00000
-97499813.46151,-275864998.15991,-223211705.02341,  -0.00022,  -0.00155,  -0.00392,456268912.76090,   0.00075,275462370.14232,  -0.00031,  -0.00048,  -0.00102,-19193457.38141,   0.00000
-95149513.76547,-274013644.76806,-223448048.00960,  -0.00021,  -0.00154,  -0.00392,455907592.50313,   0.00075,275462370.14232,  -0.00031,  -0.00048,  -0.00102,-19554777.63918,   0.00000
-92799214.06943,-272162291.37621,-223684390.99580,  -0.00020,  -0.00154,  -0.00392,455556451.56828,   0.00075,275462370.14232,  -0.00031,  -0.00048,  -0.00102,-19905918.57403,   0.00000
-90416088.95865,-270278112.56961,-223920733.98199,  -0.00020,  -0.00154,  -0.00393,455202507.38347,   0.00075,275462370.14232,  -0.00031,  -0.00048,  -0.00102,-20259862.75884,   0.00000
-88055941.63819,-268403781.38743,-224150511.88524,  -0.00019,  -0.00153,  -0.00393,454851895.61744,   0.00075,275462370.14232,  -0.00031,  -0.00048,  -0.00102,-20610474.52488,   0.00000
-85672816.52740,-266519602.58083,-224373724.70553,  -0.00018,  -0.00153,  -0.00393,454499450.00343,   0.00075,275462370.14232,  -0.00031,  -0.00048,  -0.00102,-20962920.13889,   0.00000
-83279843.79219,-264612445.98391,-224590372.44287,  -0.00018,  -0.00152,  -0.00394,454137536.39918,   0.00075,275462370.14232,  -0.00031,  -0.00048,  -0.00102,-21324833.74314,   0.00000
-80877023.43256,-262682311.59666,-224807020.18022,  -0.00017,  -0.00152,  -0.00394,453776062.87869,   0.00075,275462370.14232,  -0.00031,  -0.00048,  -0.00102,-21686307.26363,   0.00000
-78474203.07292,-260752177.20941,-225017102.83461,  -0.00016,  -0.00152,  -0.00394,453415558.69378,   0.00075,275462370.14232,  -0.00031,  -0.00048,  -0.00102,-22046811.44854,   0.00000
-76071382.71329,-258822042.82217,-225227185.48901,  -0.00015,  -0.00151,  -0.00394,453065789.58722,   0.00075,275462370.14232,  -0.00031,  -0.00048,  -0.00102,-22396580.55510,   0.00000
-73668562.35365,-256891908.43492,-225424137.97750,  -0.00015,  -0.00151,  -0.00395,452707165.91700,   0.00075,275462370.14232,  -0.00031,  -0.00048,  -0.00102,-22755204.22532,   0.00000
-71232916.57927,-254928948.63292,-225627655.54895,  -0.00014,  -0.00150,  -0.00395,452357249.93572,   0.00075,275462370.14232,  -0.00031,  -0.00048,  -0.00102,-23105120.20660,   0.00000
-68810400.97078,-252952858.66502,-225818042.95449,  -0.00013,  -0.00150,  -0.00395,451990705.57757,   0.00075,275462370.14232,  -0.00031,  -0.00048,  -0.00102,-23471664.56475,   0.00000
-66374755.19640,-250989898.86303,-226008430.36004,  -0.00013,  -0.00150,  -0.00395,451643195.61604,   0.00075,275462370.14232,  -0.00031,  -0.00048,  -0.00102,-23819174.52627,   0.00000
-63919414.17316,-248980983.48038,-226192252.68263,  -0.00012,  -0.00149,  -0.00396,451277418.62374,   0.00075,275462370.14232,  -0.00031,  -0.00048,  -0.00102,-24184951.51858,   0.00000
-61473920.77435,-246995045.88806,-226369509.92228,  -0.00011,  -0.00149,  -0.00396,450922728.20672,   0.00075,275462370.14232,  -0.00031,  -0.00048,  -0.00102,-24539641.93560,   0.00000
-59018579.75112,-244986130.50541,-226546767.16192,  -0.00010,  -0.00148,  -0.00396,450569613.43310,   0.00075,275462370.14232,  -0.00031,  -0.00048,  -0.00102,-24892756.70921,   0.00000
-56553391.10346,-242954237.33244,-226717459.31862,  -0.00010,  -0.00148,  -0.00396,450208374.59853,   0.00075,275462370.14232,  -0.00031,  -0.00048,  -0.00102,-25253995.54379,   0.00000
-54075072.28990,-240935474.32537,-226881586.39236,  -0.00009,  -0.00147,  -0.00397,449856839.19659,   0.00075,275462370.14232,  -0.00031,  -0.00048,  -0.00102,-25605530.94572,   0.00000
-51600036.01782,-238880603.36208,-227039148.38316,  -0.00008,  -0.00147,  -0.00397,449489247.18827,   0.00075,275462370.14232,  -0.00031,  -0.00048,  -0.00102,-25973122.95405,   0.00000
-49134847.37016,-236848710.18911,-227196710.37395,  -0.00007,  -0.00146,  -0.00397,449142577.73408,   0.00075,275462370.14232,  -0.00031,  -0.00048,  -0.00102,-26319792.40824,   0.00000
-46636833.30775,-234783991.60139,-227347707.28180,  -0.00007,  -0.00146,  -0.00397,448787115.53752,   0.00075,275462370.14232,  -0.00031,  -0.00048,  -0.00102,-26675254.60480,   0.00000
-44128971.62092,-232696295.22334,-227492139.10670,  -0.00006,  -0.00146,  -0.00397,448424245.33560,   0.00075,275462370.14232,  -0.00031,  -0.00048,  -0.00102,-27038124.80671,   0.00000
-41653935.34884,-230641424.26005,-227636570.93159,  -0.00005,  -0.00145,  -0.00398,448083272.63617,   0.00075,275462370.14232,  -0.00031,  -0.00048,  -0.00102,-27379097.50615,   0.00000
-39146073.66201,-228553727.88201,-227774437.67354,  -0.00005,  -0.00145,  -0.00398,447734099.56916,   0.00075,275462370.14232,  -0.00031,  -0.00048,  -0.00102,-27728270.57315,   0.00000
-36628364.35075,-226443053.71364,-227905739.33253,  -0.00004,  -0.00144,  -0.00398,447377841.46756,   0.00075,275462370.14232,  -0.00031,  -0.00048,  -0.00102,-28084528.67475,   0.00000
-34110655.03949,-224332379.54527,-228030475.90858,  -0.00003,  -0.00144,  -0.00398,447023626.57481,   0.00075,275462370.14232,  -0.00031,  -0.00048,  -0.00102,-28438743.56751,   0.00000
-31592945.72823,-222221705.37690,-228155212.48463,  -0.00002,  -0.00143,  -0.00398,446681503.12557,   0.00075,275462370.14232,  -0.00031,  -0.00048,  -0.00102,-28780867.01675,   0.00000
-29065388.79255,-220088053.41821,-228266818.89477,  -0.00002,  -0.00143,  -0.00398,446322557.20152,   0.00075,275462370.14232,  -0.00031,  -0.00048,  -0.00102,-29139812.94080,   0.00000
-26537831.85687,-217954401.45952,-228378425.30492,  -0.00001,  -0.00142,  -0.00399,445975846.66785,   0.00075,275462370.14232,  -0.00031,  -0.00048,  -0.00102,-29486523.47446,   0.00000
-24000427.29676,-215797771.71050,-228490031.71507,  -0.00000,  -0.00142,  -0.00399,445632745.46914,   0.00075,275462370.14232,  -0.00031,  -0.00048,  -0.00102,-29829624.67318,   0.00000
-21463022.73666,-213641141.96148,-228588507.95932,   0.00001,  -0.00141,  -0.00399,445281856.92816,   0.00075,275462370.14232,  -0.00031,  -0.00048,  -0.00102,-30180513.21415,   0.00000
-18902640.38623,-211474664.58804,-228686984.20356,   0.00001,  -0.00141,  -0.00399,444943394.45940,   0.00075,275462370.14232,  -0.00031,  -0.00048,  -0.00102,-30518975.68292,   0.00000
-16365235.82612,-209318034.83902,-228778895.36486,   0.00002,  -0.00140,  -0.00399,444607321.73775,   0.00075,275462370.14232,  -0.00031,  -0.00048,  -0.00102,-30855048.40457,   0.00000
-13808136.01716,-207115449.50936,-228864241.44321,   0.00003,  -0.00140,  -0.00399,444256816.24684,   0.00075,275462370.14232,  -0.00031,  -0.00048,  -0.00102,-31205553.89548,   0.00000
-11260883.83263,-204935841.97002,-228943022.43861,   0.00004,  -0.00139,  -0.00399,443917188.99932,   0.00075,275462370.14232,  -0.00031,  -0.00048,  -0.00102,-31545181.14300,   0.00000
-8680806.23335,-202723409.01593,-229015238.35105,   0.00004,  -0.00139,  -0.00399,443572172.84027,   0.00075,275462370.14232,  -0.00031,  -0.00048,  -0.00102,-31890197.30205,   0.00000
-6123706.42440,-200520823.68626,-229087454.26350,   0.00005,  -0.00138,  -0.00399,443239613.48096,   0.00075,275462370.14232,  -0.00031,  -0.00048,  -0.00102,-32222756.66135,   0.00000
-3556758.99101,-198295260.56627,-229153105.09300,   0.00006,  -0.00138,  -0.00400,442901579.55009,   0.00075,275462370.14232,  -0.00031,  -0.00048,  -0.00102,-32560790.59223,   0.00000
-999659.18206,-196092675.23661,-229212190.83955,   0.00007,  -0.00137,  -0.00400,442574283.08137,   0.00075,275462370.14232,  -0.00031,  -0.00048,  -0.00102,-32888087.06094,   0.00000
1600113.66607,-193834286.70187,-229264711.50315,   0.00007,  -0.00137,  -0.00400,442234521.24177,   0.00075,275462370.14232,  -0.00031,  -0.00048,  -0.00102,-33227848.90055,   0.00000
4167061.09945,-191608723.58188,-229317232.16675,   0.00008,  -0.00136,  -0.00400,441915027.48276,   0.00075,275462370.14232,  -0.00031,  -0.00048,  -0.00102,-33547342.65956,   0.00000
6753703.78168,-189337204.88124,-229356622.66445,   0.00009,  -0.00136,  -0.00400,441572528.74670,   0.00075,275462370.14232,  -0.00031,  -0.00048,  -0.00102,-33889841.39562,   0.00000
9330498.83949,-187088663.97092,-229396013.16214,   0.00009,  -0.00135,  -0.00400,441251005.12196,   0.00075,275462370.14232,  -0.00031,  -0.00048,  -0.00102,-34211365.02036,   0.00000
11940119.31204,-184807297.64586,-229428838.57689,   0.00010,  -0.00135,  -0.00400,440925958.41956,   0.00075,275462370.14232,  -0.00031,  -0.00048,  -0.00102,-34536411.72276,   0.00000
14526761.99427,-182535778.94522,-229455098.90869,   0.00011,  -0.00134,  -0.00400,440602903.38461,   0.00075,275462370.14232,  -0.00031,  -0.00048,  -0.00102,-34859466.75771,   0.00000
17113404.67650,-180264260.24458,-229481359.24049,   0.00012,  -0.00134,  -0.00400,440293186.51555,   0.00075,275462370.14232,  -0.00031,  -0.00048,  -0.00102,-35169183.62677,   0.00000
19709894.98316,-177969763.75362,-229494489.40639,   0.00012,  -0.00133,  -0.00400,439968912.68387,   0.00075,275462370.14232,  -0.00031,  -0.00048,  -0.00102,-35493457.45844,   0.00000
22316232.91424,-175652289.47233,-229507619.57229,   0.00013,  -0.00133,  -0.00400,439650862.36394,   0.00075,275462370.14232,  -0.00031,  -0.00048,  -0.00102,-35811507.77838,   0.00000
24912723.22089,-173357792.98137,-229514184.65524,   0.00014,  -0.00132,  -0.00400,439343448.51638,   0.00075,275462370.14232,  -0.00031,  -0.00048,  -0.00102,-36118921.62594,   0.00000
27519061.15197,-171040318.70008,-229507619.57229,   0.00015,  -0.00131,  -0.00400,439021868.09166,   0.00075,275462370.14232,  -0.00031,  -0.00048,  -0.00102,-36440502.05066,   0.00000
30112268.91715,-168709714.25289,-229501054.48934,   0.00015,  -0.00131,  -0.00400,438705084.01694,   0.00075,275462370.14232,  -0.00031,  -0.00048,  -0.00102,-36757286.12538,   0.00000
32718606.84823,-166392239.97161,-229494489.40639,   0.00016,  -0.00130,  -0.00400,438410959.08153,   0.00075,275462370.14232,  -0.00031,  -0.00048,  -0.00102,-37051411.06079,   0.00000
35334792.40374,-164051787.89999,-229474794.15754,   0.00017,  -0.00130,  -0.00400,438103088.32197,   0.00075,275462370.14232,  -0.00031,  -0.00048,  -0.00102,-37359281.82035,   0.00000
37937847.79334,-161698205.66248,-229448533.82574,   0.00018,  -0.00129,  -0.00400,437789859.34908,   0.00075,275462370.14232,  -0.00031,  -0.00048,  -0.00102,-37672510.79324,   0.00000
40563880.97327,-159334775.80055,-229422273.49394,   0.00018,  -0.00129,  -0.00400,437492828.31252,   0.00075,275462370.14232,  -0.00031,  -0.00048,  -0.00102,-37969541.82979,   0.00000
43166936.36288,-156981193.56303,-229389448.07919,   0.00019,  -0.00128,  -0.00400,437197247.69304,   0.00075,275462370.14232,  -0.00031,  -0.00048,  -0.00102,-38265122.44928,   0.00000
45769991.75248,-154627611.32552,-229350057.58150,   0.00020,  -0.00128,  -0.00400,436905300.45107,   0.00075,275462370.14232,  -0.00031,  -0.00048,  -0.00102,-38557069.69125,   0.00000
48405872.55684,-152241203.67326,-229297536.91790,   0.00020,  -0.00127,  -0.00400,436602751.02961,   0.00075,275462370.14232,  -0.00031,  -0.00048,  -0.00102,-38859619.11271,   0.00000
51018775.57086,-149864643.64543,-229245016.25430,   0.00021,  -0.00126,  -0.00400,436311895.24029,   0.00075,275462370.14232,  -0.00031,  -0.00048,  -0.00102,-39150474.90202,   0.00000
53641526.20932,-147465105.82727,-229192495.59070,   0.00022,  -0.00126,  -0.00400,436028925.89275,   0.00075,275462370.14232,  -0.00031,  -0.00048,  -0.00102,-39433444.24957,   0.00000
56241299.05745,-145075415.63353,-229126844.76120,   0.00023,  -0.00125,  -0.00399,435736758.54593,   0.00075,275462370.14232,  -0.00031,  -0.00048,  -0.00102,-39725611.59639,   0.00000
58864049.69590,-142675877.81537,-229054628.84875,   0.00023,  -0.00125,  -0.00399,435451411.07848,   0.00075,275462370.14232,  -0.00031,  -0.00048,  -0.00102,-40010959.06384,   0.00000
61473670.16846,-140263209.83131,-228982412.93631,   0.00024,  -0.00124,  -0.00399,435171357.92294,   0.00075,275462370.14232,  -0.00031,  -0.00048,  -0.00102,-40291012.21937,   0.00000
64106268.43134,-137840694.22283,-228897066.85796,   0.00025,  -0.00124,  -0.00399,434888175.08546,   0.00075,275462370.14232,  -0.00031,  -0.00048,  -0.00102,-40574195.05686,   0.00000
66715888.90389,-135428026.23877,-228811720.77961,   0.00026,  -0.00123,  -0.00399,434616350.33045,   0.00075,275462370.14232,  -0.00031,  -0.00048,  -0.00102,-40846019.81186,   0.00000
69335357.00087,-132992380.46438,-228719809.61831,   0.00026,  -0.00122,  -0.00399,434342829.00196,   0.00075,275462370.14232,  -0.00031,  -0.00048,  -0.00102,-41119541.14036,   0.00000
71954825.09785,-130556734.69000,-228621333.37406,   0.00027,  -0.00122,  -0.00399,434073596.36235,   0.00075,275462370.14232,  -0.00031,  -0.00048,  -0.00102,-41388773.77996,   0.00000
74574293.19483,-128121088.91561,-228516292.04687,   0.00028,  -0.00121,  -0.00399,433808673.80933,   0.00075,275462370.14232,  -0.00031,  -0.00048,  -0.00102,-41653696.33298,   0.00000
77170783.50149,-125695290.76565,-228404685.63672,   0.00028,  -0.00121,  -0.00399,433544393.66708,   0.00075,275462370.14232,  -0.00031,  -0.00048,  -0.00102,-41917976.47524,   0.00000
79800099.22289,-123236667.20094,-228286514.14362,   0.00029,  -0.00120,  -0.00398,433282618.93232,   0.00075,275462370.14232,  -0.00031,  -0.00048,  -0.00102,-42179751.20999,   0.00000
82416284.77839,-120764913.47034,-228161777.56758,   0.00030,  -0.00119,  -0.00398,433016159.10999,   0.00075,275462370.14232,  -0.00031,  -0.00048,  -0.00102,-42446211.03232,   0.00000
85022622.70947,-118316137.53005,-228030475.90858,   0.00030,  -0.00119,  -0.00398,432759513.96055,   0.00075,275462370.14232,  -0.00031,  -0.00048,  -0.00102,-42702856.18177,   0.00000
87638808.26498,-115844383.79944,-227892609.16663,   0.00031,  -0.00118,  -0.00398,432502103.63729,   0.00075,275462370.14232,  -0.00031,  -0.00048,  -0.00102,-42960266.50503,   0.00000
90232016.03016,-113382477.69326,-227754742.42469,   0.00032,  -0.00117,  -0.00398,432255480.70591,   0.00075,275462370.14232,  -0.00031,  -0.00048,  -0.00102,-43206889.43641,   0.00000
92858049.21009,-110887746.17233,-227603745.51684,   0.00033,  -0.00117,  -0.00398,432002227.15286,   0.00075,275462370.14232,  -0.00031,  -0.00048,  -0.00102,-43460142.98945,   0.00000
95461104.59969,-108402862.27582,-227452748.60900,   0.00033,  -0.00116,  -0.00397,431759792.66829,   0.00075,275462370.14232,  -0.00031,  -0.00048,  -0.00102,-43702577.47403,   0.00000
98064159.98930,-105917978.37931,-227288621.53525,   0.00034,  -0.00116,  -0.00397,431511654.11155,   0.00075,275462370.14232,  -0.00031,  -0.00048,  -0.00102,-43950716.03077,   0.00000
100677063.00333,-103410116.69248,-227124494.46151,   0.00035,  -0.00115,  -0.00397,431273878.22118,   0.00075,275462370.14232,  -0.00031,  -0.00048,  -0.00102,-44188491.92113,   0.00000
103266988.22703,-100912102.63007,-226953802.30481,   0.00035,  -0.00114,  -0.00397,431036306.32558,   0.00075,275462370.14232,  -0.00031,  -0.00048,  -0.00102,-44426063.81673,   0.00000
105879891.24106,-98404240.94324,-226776545.06516,   0.00036,  -0.00114,  -0.00396,430808287.41871,   0.00075,275462370.14232,  -0.00031,  -0.00048,  -0.00102,-44654082.72361,   0.00000
108469816.46477,-95906226.88083,-226586157.65962,   0.00037,  -0.00113,  -0.00396,430569967.36287,   0.00075,275462370.14232,  -0.00031,  -0.00048,  -0.00102,-44892402.77945,   0.00000
111046611.52257,-93395082.65252,-226395770.25407,   0.00037,  -0.00112,  -0.00396,430337464.34927,   0.00075,275462370.14232,  -0.00031,  -0.00048,  -0.00102,-45124905.79305,   0.00000
113646384.37070,-90874090.79979,-226198817.76558,   0.00038,  -0.00112,  -0.00396,430114901.37780,   0.00075,275462370.14232,  -0.00031,  -0.00048,  -0.00102,-45347468.76452,   0.00000
116233027.05293,-88339968.78116,-225995300.19414,   0.00039,  -0.00111,  -0.00395,429888027.01733,   0.00075,275462370.14232,  -0.00031,  -0.00048,  -0.00102,-45574343.12499,   0.00000
118809822.11074,-85828824.55285,-225785217.53974,   0.00040,  -0.00111,  -0.00395,429670294.19034,   0.00075,275462370.14232,  -0.00031,  -0.00048,  -0.00102,-45792075.95198,   0.00000
121396464.79297,-83294702.53422,-225568569.80240,   0.00040,  -0.00110,  -0.00395,429453525.54872,   0.00075,275462370.14232,  -0.00031,  -0.00048,  -0.00102,-46008844.59359,   0.00000
123969977.30930,-80747450.34969,-225345356.98210,   0.00041,  -0.00109,  -0.00395,429232518.96828,   0.00075,275462370.14232,  -0.00031,  -0.00048,  -0.00102,-46229851.17404,   0.00000
126533642.20120,-78223175.95548,-225115579.07886,   0.00042,  -0.00109,  -0.00394,429020469.27331,   0.00075,275462370.14232,  -0.00031,  -0.00048,  -0.00102,-46441900.86901,   0.00000
129107154.71754,-75675923.77095,-224879236.09267,   0.00042,  -0.00108,  -0.00394,428809769.61048,   0.00075,275462370.14232,  -0.00031,  -0.00048,  -0.00102,-46652600.53183,   0.00000
131690514.85829,-73105693.79610,-224636328.02352,   0.00043,  -0.00107,  -0.00394,428600746.88200,   0.00075,275462370.14232,  -0.00031,  -0.00048,  -0.00102,-46861623.26032,   0.00000
134241049.58430,-70568289.23599,-224393419.95438,   0.00044,  -0.00107,  -0.00393,428405094.28584,   0.00075,275462370.14232,  -0.00031,  -0.00048,  -0.00102,-47057275.85647,   0.00000
136801431.93473,-68007906.88556,-224137381.71934,   0.00044,  -0.00106,  -0.00393,428200868.60628,   0.00075,275462370.14232,  -0.00031,  -0.00048,  -0.00102,-47261501.53604,   0.00000
139338836.49483,-65457372.15955,-223874778.40134,   0.00045,  -0.00105,  -0.00393,427995890.41864,   0.00075,275462370.14232,  -0.00031,  -0.00048,  -0.00102,-47466479.72368,   0.00000
141909066.46969,-62874012.01880,-223605610.00040,   0.00046,  -0.00105,  -0.00392,427799162.40613,   0.00075,275462370.14232,  -0.00031,  -0.00048,  -0.00102,-47663207.73619,   0.00000
144446471.02980,-60323477.29279,-223336441.59946,   0.00046,  -0.00104,  -0.00392,427615150.29261,   0.00075,275462370.14232,  -0.00031,  -0.00048,  -0.00102,-47847219.84971,   0.00000
146970745.42400,-57759812.40088,-223054143.03262,   0.00047,  -0.00103,  -0.00392,427416717.96412,   0.00075,275462370.14232,  -0.00031,  -0.00048,  -0.00102,-48045652.17819,   0.00000
149495019.81821,-55196147.50898,-222765279.38282,   0.00048,  -0.00103,  -0.00391,427223634.54231,   0.00075,275462370.14232,  -0.00031,  -0.00048,  -0.00102,-48238735.60000,   0.00000
152029141.83684,-52609504.82675,-222476415.73303,   0.00048,  -0.00102,  -0.00391,427043398.85928,   0.00075,275462370.14232,  -0.00031,  -0.00048,  -0.00102,-48418971.28304,   0.00000
154563263.85547,-50022862.14452,-222174421.91734,   0.00049,  -0.00101,  -0.00390,426858533.20995,   0.00075,275462370.14232,  -0.00031,  -0.00048,  -0.00102,-48603836.93237,   0.00000
157074408.08378,-47446067.08671,-221865863.01870,   0.00049,  -0.00101,  -0.00390,426672527.09720,   0.00075,275462370.14232,  -0.00031,  -0.00048,  -0.00102,-48789843.04512,   0.00000
159585552.31209,-44869272.02891,-221557304.12006,   0.00050,  -0.00100,  -0.00390,426502291.51151,   0.00075,275462370.14232,  -0.00031,  -0.00048,  -0.00102,-48960078.63080,   0.00000
162083566.37450,-42279346.80520,-221235615.05551,   0.00051,  -0.00099,  -0.00389,426317962.41315,   0.00075,275462370.14232,  -0.00031,  -0.00048,  -0.00102,-49144407.72917,   0.00000
164581580.43690,-39689421.58150,-220907360.90802,   0.00051,  -0.00098,  -0.00389,426139273.99987,   0.00075,275462370.14232,  -0.00031,  -0.00048,  -0.00102,-49323096.14245,   0.00000
167079594.49931,-37099496.35779,-220579106.76053,   0.00052,  -0.00098,  -0.00388,425976477.46497,   0.00075,275462370.14232,  -0.00031,  -0.00048,  -0.00102,-49485892.67734,   0.00000
169554630.77140,-34519418.75851,-220237722.44714,   0.00053,  -0.00097,  -0.00388,425801894.72994,   0.00075,275462370.14232,  -0.00031,  -0.00048,  -0.00102,-49660475.41238,   0.00000
172039514.66790,-31916363.36891,-219896338.13375,   0.00053,  -0.00096,  -0.00387,425641073.08355,   0.00075,275462370.14232,  -0.00031,  -0.00048,  -0.00102,-49821297.05877,   0.00000
174524398.56441,-29313307.97930,-219541823.65446,   0.00054,  -0.00096,  -0.00387,425475921.95629,   0.00075,275462370.14232,  -0.00031,  -0.00048,  -0.00102,-49986448.18602,   0.00000
176986304.67059,-26720100.21412,-219187309.17517,   0.00054,  -0.00095,  -0.00387,425319217.88709,   0.00075,275462370.14232,  -0.00031,  -0.00048,  -0.00102,-50143152.25523,   0.00000
179435080.61088,-24113762.28304,-218819664.52998,   0.00055,  -0.00094,  -0.00386,425148695.54005,   0.00075,275462370.14232,  -0.00031,  -0.00048,  -0.00102,-50313674.60227,   0.00000
181883856.55116,-21507424.35196,-218445454.80184,   0.00056,  -0.00094,  -0.00386,424984011.50225,   0.00075,275462370.14232,  -0.00031,  -0.00048,  -0.00102,-50478358.64007,   0.00000
184332632.49145,-18901086.42088,-218071245.07370,   0.00056,  -0.00093,  -0.00385,424835334.30025,   0.00075,275462370.14232,  -0.00031,  -0.00048,  -0.00102,-50627035.84206,   0.00000
186758430.64141,-16304596.11423,-217683905.17966,   0.00057,  -0.00092,  -0.00385,424674486.84307,   0.00075,275462370.14232,  -0.00031,  -0.00048,  -0.00102,-50787883.29925,   0.00000
189184228.79137,-13708105.80757,-217296565.28562,   0.00057,  -0.00091,  -0.00384,424529544.16435,   0.00075,275462370.14232,  -0.00031,  -0.00048,  -0.00102,-50932825.97796,   0.00000
191596896.77543,-11098485.33502,-216896095.22568,   0.00058,  -0.00091,  -0.00384,424370982.69350,   0.00075,275462370.14232,  -0.00031,  -0.00048,  -0.00102,-51091387.44882,   0.00000
194009564.75949,-8488864.86246,-216495625.16574,   0.00059,  -0.00090,  -0.00383,424228429.23336,   0.00075,275462370.14232,  -0.00031,  -0.00048,  -0.00102,-51233940.90896,   0.00000
196422232.74355,-5879244.38991,-216082024.93990,   0.00059,  -0.00089,  -0.00383,424081829.18731,   0.00075,275462370.14232,  -0.00031,  -0.00048,  -0.00102,-51380540.95501,   0.00000
198821770.56171,-3256493.75145,-215668424.71406,   0.00060,  -0.00089,  -0.00382,423941943.32511,   0.00075,275462370.14232,  -0.00031,  -0.00048,  -0.00102,-51520426.81721,   0.00000
201188482.96512,-666568.52775,-215241694.32233,   0.00060,  -0.00088,  -0.00381,423790416.15701,   0.00075,275462370.14232,  -0.00031,  -0.00048,  -0.00102,-51671953.98530,   0.00000
203565042.99295,1946334.48628,-214808398.84764,   0.00061,  -0.00087,  -0.00381,423644017.93219,   0.00075,275462370.14232,  -0.00031,  -0.00048,  -0.00102,-51818352.21012,   0.00000
205941603.02079,4559237.50031,-214375103.37295,   0.00062,  -0.00086,  -0.00380,423513693.59264,   0.00075,275462370.14232,  -0.00031,  -0.00048,  -0.00102,-51948676.54968,   0.00000
208305032.88273,7185270.68024,-213928677.73236,   0.00062,  -0.00086,  -0.00380,423370197.65526,   0.00075,275462370.14232,  -0.00031,  -0.00048,  -0.00102,-52092172.48706,   0.00000
210635637.32991,9778478.44542,-213482252.09177,   0.00063,  -0.00085,  -0.00379,423234344.29302,   0.00075,275462370.14232,  -0.00031,  -0.00048,  -0.00102,-52228025.84929,   0.00000
212976089.40152,12394664.00093,-213022696.28529,   0.00063,  -0.00084,  -0.00379,423094177.08361,   0.00075,275462370.14232,  -0.00031,  -0.00048,  -0.00102,-52368193.05870,   0.00000
215316541.47314,15010849.55643,-212556575.39585,   0.00064,  -0.00083,  -0.00378,422960219.94666,   0.00075,275462370.14232,  -0.00031,  -0.00048,  -0.00102,-52502150.19566,   0.00000
217643863.37885,17640165.27783,-212090454.50641,   0.00064,  -0.00083,  -0.00377,422833106.14709,   0.00075,275462370.14232,  -0.00031,  -0.00048,  -0.00102,-52629263.99522,   0.00000
219938359.86981,20236655.58449,-211611203.45107,   0.00065,  -0.00082,  -0.00377,422693141.42886,   0.00075,275462370.14232,  -0.00031,  -0.00048,  -0.00102,-52769228.71345,   0.00000
222242703.98520,22856123.68147,-211131952.39574,   0.00065,  -0.00081,  -0.00376,422569188.53853,   0.00075,275462370.14232,  -0.00031,  -0.00048,  -0.00102,-52893181.60378,   0.00000
224524070.31026,25465744.15402,-210639571.17450,   0.00066,  -0.00080,  -0.00375,422432215.36336,   0.00075,275462370.14232,  -0.00031,  -0.00048,  -0.00102,-53030154.77896,   0.00000
226805436.63533,28075364.62658,-210140624.87031,   0.00066,  -0.00080,  -0.00375,422301472.31106,   0.00075,275462370.14232,  -0.00031,  -0.00048,  -0.00102,-53160897.83126,   0.00000
229063825.17007,30675137.47471,-209641678.56613,   0.00067,  -0.00079,  -0.00374,422177138.07018,   0.00075,275462370.14232,  -0.00031,  -0.00048,  -0.00102,-53285232.07213,   0.00000
231332061.32923,33297888.11316,-209129602.09604,   0.00068,  -0.00078,  -0.00374,422049729.62323,   0.00075,275462370.14232,  -0.00031,  -0.00048,  -0.00102,-53412640.51908,   0.00000
233567472.07365,35887813.33687,-208617525.62595,   0.00068,  -0.00078,  -0.00373,421928061.77418,   0.00075,275462370.14232,  -0.00031,  -0.00048,  -0.00102,-53534308.36813,   0.00000
235789752.65216,38490868.72647,-208092318.98997,   0.00069,  -0.00077,  -0.00372,421793600.80799,   0.00075,275462370.14232,  -0.00031,  -0.00048,  -0.00102,-53668769.33432,   0.00000
238012033.23068,41093924.11608,-207560547.27103,   0.00069,  -0.00076,  -0.00371,421665427.18121,   0.00075,275462370.14232,  -0.00031,  -0.00048,  -0.00102,-53796942.96110,   0.00000
240221183.64329,43710109.67158,-207028775.55210,   0.00070,  -0.00075,  -0.00371,421544111.80303,   0.00075,275462370.14232,  -0.00031,  -0.00048,  -0.00102,-53918258.33929,   0.00000
242420486.43148,46303317.43676,-206483873.66726,   0.00070,  -0.00074,  -0.00370,421418541.31591,   0.00075,275462370.14232,  -0.00031,  -0.00048,  -0.00102,-54043828.82641,   0.00000
244606659.05377,48909655.36784,-205932406.69948,   0.00070,  -0.00074,  -0.00369,421290176.75916,   0.00075,275462370.14232,  -0.00031,  -0.00048,  -0.00102,-54172193.38315,   0.00000
246792831.67606,51515993.29892,-205380939.73169,   0.00071,  -0.00073,  -0.00369,421177887.22182,   0.00075,275462370.14232,  -0.00031,  -0.00048,  -0.00102,-54284482.92050,   0.00000
248933048.71771,54102635.98115,-204816342.59801,   0.00071,  -0.00072,  -0.00368,421041597.03196,   0.00075,275462370.14232,  -0.00031,  -0.00048,  -0.00102,-54420773.11036,   0.00000
251096243.54967,56699126.28781,-204245180.38137,   0.00072,  -0.00071,  -0.00367,420922151.88821,   0.00075,275462370.14232,  -0.00031,  -0.00048,  -0.00102,-54540218.25411,   0.00000
253213482.80099,59275921.34561,-203674018.16474,   0.00072,  -0.00071,  -0.00366,420797525.25357,   0.00075,275462370.14232,  -0.00031,  -0.00048,  -0.00102,-54664844.88875,   0.00000
255340569.67673,61875694.19374,-203089725.78220,   0.00073,  -0.00070,  -0.00366,420671300.66727,   0.00075,275462370.14232,  -0.00031,  -0.00048,  -0.00102,-54791069.47504,   0.00000
257444678.76215,64465619.41745,-202498868.31672,   0.00073,  -0.00069,  -0.00365,420540869.63855,   0.00075,275462370.14232,  -0.00031,  -0.00048,  -0.00102,-54921500.50376,   0.00000
259548787.84757,67055544.64115,-201908010.85123,   0.00074,  -0.00068,  -0.00364,420426412.76197,   0.00075,275462370.14232,  -0.00031,  -0.00048,  -0.00102,-55035957.38034,   0.00000
261629919.14266,69635622.24043,-201304023.21985,   0.00074,  -0.00068,  -0.00363,420298110.33681,   0.00075,275462370.14232,  -0.00031,  -0.00048,  -0.00102,-55164259.80551,   0.00000
263688072.64743,72205852.21529,-200693470.50552,   0.00075,  -0.00067,  -0.00363,420165288.97184,   0.00075,275462370.14232,  -0.00031,  -0.00048,  -0.00102,-55297081.17048,   0.00000
265746226.15220,74776082.19014,-200082917.79118,   0.00075,  -0.00066,  -0.00362,420048306.16117,   0.00075,275462370.14232,  -0.00031,  -0.00048,  -0.00102,-55414063.98115,   0.00000
267791249.49107,77359442.33090,-199459234.91095,   0.00075,  -0.00065,  -0.00361,419919532.85576,   0.00075,275462370.14232,  -0.00031,  -0.00048,  -0.00102,-55542837.28656,   0.00000
269813295.03962,79932954.84723,-198835552.03072,   0.00076,  -0.00065,  -0.00360,419795483.27161,   0.00075,275462370.14232,  -0.00031,  -0.00048,  -0.00102,-55666886.87071,   0.00000
271802515.17341,82473641.94881,-198198738.98458,   0.00076,  -0.00064,  -0.00359,419654841.45776,   0.00075,275462370.14232,  -0.00031,  -0.00048,  -0.00102,-55807528.68456,   0.00000
273801582.93164,85037306.84072,-197555360.85550,   0.00077,  -0.00063,  -0.00358,419523137.57122,   0.00075,275462370.14232,  -0.00031,  -0.00048,  -0.00102,-55939232.57109,   0.00000
275787520.52396,87614101.89852,-196911982.72642,   0.00077,  -0.00062,  -0.00358,419398495.73700,   0.00075,275462370.14232,  -0.00031,  -0.00048,  -0.00102,-56063874.40532,   0.00000
277763610.49185,90167919.16600,-196255474.43144,   0.00078,  -0.00061,  -0.00357,419268582.07483,   0.00075,275462370.14232,  -0.00031,  -0.00048,  -0.00102,-56193788.06749,   0.00000
279716722.66943,92711888.80906,-195598966.13645,   0.00078,  -0.00061,  -0.00356,419142863.75681,   0.00075,275462370.14232,  -0.00031,  -0.00048,  -0.00102,-56319506.38551,   0.00000
281656704.68110,95268988.61802,-194929327.67557,   0.00078,  -0.00060,  -0.00355,419005797.63986,   0.00075,275462370.14232,  -0.00031,  -0.00048,  -0.00102,-56456572.50245,   0.00000
283573708.90245,97816240.80255,-194259689.21469,   0.00079,  -0.00059,  -0.00354,418872810.90031,   0.00075,275462370.14232,  -0.00031,  -0.00048,  -0.00102,-56589559.24201,   0.00000
285457887.70905,100330667.57233,-193576920.58791,   0.00079,  -0.00058,  -0.00353,418722271.47129,   0.00075,275462370.14232,  -0.00031,  -0.00048,  -0.00102,-56740098.67103,   0.00000
287351914.14007,102868072.13244,-192894151.96113,   0.00079,  -0.00058,  -0.00352,418590595.89945,   0.00075,275462370.14232,  -0.00031,  -0.00048,  -0.00102,-56871774.24286,   0.00000
289222962.78077,105395629.06812,-192198253.16845,   0.00080,  -0.00057,  -0.00351,418444536.69051,   0.00075,275462370.14232,  -0.00031,  -0.00048,  -0.00102,-57017833.45181,   0.00000
291080881.25557,107936316.16970,-191502354.37577,   0.00080,  -0.00056,  -0.00351,418305611.89761,   0.00075,275462370.14232,  -0.00031,  -0.00048,  -0.00102,-57156758.24471,   0.00000
292928952.10595,110454025.48096,-190793325.41718,   0.00080,  -0.00055,  -0.00350,418160925.79061,   0.00075,275462370.14232,  -0.00031,  -0.00048,  -0.00102,-57301444.35171,   0.00000
294731067.37567,112952039.54337,-190084296.45860,   0.00081,  -0.00054,  -0.00349,418007427.46633,   0.00075,275462370.14232,  -0.00031,  -0.00048,  -0.00102,-57454942.67598,   0.00000
296543030.26982,115473031.39610,-189368702.41707,   0.00081,  -0.00054,  -0.00348,417864312.30981,   0.00075,275462370.14232,  -0.00031,  -0.00048,  -0.00102,-57598057.83251,   0.00000
298322167.74922,117961197.83408,-188639978.20964,   0.00081,  -0.00053,  -0.00347,417702817.62719,   0.00075,275462370.14232,  -0.00031,  -0.00048,  -0.00102,-57759552.51513,   0.00000
300111152.85305,120472342.06239,-187911254.00221,   0.00082,  -0.00052,  -0.00346,417560910.46407,   0.00075,275462370.14232,  -0.00031,  -0.00048,  -0.00102,-57901459.67824,   0.00000
301854182.37623,122963791.04185,-187175964.71183,   0.00082,  -0.00051,  -0.00345,417400805.00162,   0.00075,275462370.14232,  -0.00031,  -0.00048,  -0.00102,-58061565.14069,   0.00000
303597211.89941,125455240.02130,-186434110.33850,   0.00082,  -0.00050,  -0.00344,417247475.39845,   0.00075,275462370.14232,  -0.00031,  -0.00048,  -0.00102,-58214894.74386,   0.00000
305317263.63226,127936841.37634,-185679125.79927,   0.00083,  -0.00050,  -0.00343,417079553.32192,   0.00075,275462370.14232,  -0.00031,  -0.00048,  -0.00102,-58382816.82039,   0.00000
307014337.57479,130408595.10694,-184924141.26004,   0.00083,  -0.00049,  -0.00342,416914512.55111,   0.00075,275462370.14232,  -0.00031,  -0.00048,  -0.00102,-58547857.59121,   0.00000
308688433.72700,132870501.21313,-184162591.63786,   0.00083,  -0.00048,  -0.00341,416743461.58971,   0.00075,275462370.14232,  -0.00031,  -0.00048,  -0.00102,-58718908.55260,   0.00000
310372377.50363,135355385.10964,-183394476.93273,   0.00084,  -0.00047,  -0.00340,416583872.49068,   0.00075,275462370.14232,  -0.00031,  -0.00048,  -0.00102,-58878497.65164,   0.00000
312000518.07518,137797595.96697,-182619797.14465,   0.00084,  -0.00046,  -0.00339,416400708.84872,   0.00075,275462370.14232,  -0.00031,  -0.00048,  -0.00102,-59061661.29360,   0.00000
313638506.27116,140262784.61463,-181838552.27363,   0.00084,  -0.00046,  -0.00338,416229177.72640,   0.00075,275462370.14232,  -0.00031,  -0.00048,  -0.00102,-59233192.41592,   0.00000
315243669.05239,142695147.84754,-181057307.40260,   0.00084,  -0.00045,  -0.00337,416055260.54245,   0.00075,275462370.14232,  -0.00031,  -0.00048,  -0.00102,-59407109.59986,   0.00000
316835701.66773,145140641.24635,-180262932.36567,   0.00085,  -0.00044,  -0.00336,415871500.63223,   0.00075,275462370.14232,  -0.00031,  -0.00048,  -0.00102,-59590869.51009,   0.00000
318404756.49273,147576287.02073,-179461992.24579,   0.00085,  -0.00043,  -0.00335,415681582.10049,   0.00075,275462370.14232,  -0.00031,  -0.00048,  -0.00102,-59780788.04182,   0.00000
319940985.90299,149979107.38037,-178654487.04296,   0.00085,  -0.00042,  -0.00334,415480181.05900,   0.00075,275462370.14232,  -0.00031,  -0.00048,  -0.00102,-59982189.08332,   0.00000
321487062.93768,152404905.53033,-177846981.84013,   0.00085,  -0.00042,  -0.00333,415299444.08667,   0.00075,275462370.14232,  -0.00031,  -0.00048,  -0.00102,-60162926.05565,   0.00000
322987184.39171,154811008.43144,-177026346.47141,   0.00086,  -0.00041,  -0.00332,415090568.33633,   0.00075,275462370.14232,  -0.00031,  -0.00048,  -0.00102,-60371801.80599,   0.00000
324487305.84574,157217111.33255,-176205711.10268,   0.00086,  -0.00040,  -0.00331,414897135.12777,   0.00075,275462370.14232,  -0.00031,  -0.00048,  -0.00102,-60565235.01454,   0.00000
325964449.50945,159613366.60923,-175371945.56805,   0.00086,  -0.00039,  -0.00330,414688948.29761,   0.00075,275462370.14232,  -0.00031,  -0.00048,  -0.00102,-60773421.84471,   0.00000
327418615.38284,161999774.26149,-174538180.03342,   0.00086,  -0.00038,  -0.00329,414482645.77314,   0.00075,275462370.14232,  -0.00031,  -0.00048,  -0.00102,-60979724.36918,   0.00000
328849803.46590,164376334.28933,-173697849.41585,   0.00086,  -0.00038,  -0.00327,414269810.58670,   0.00075,275462370.14232,  -0.00031,  -0.00048,  -0.00102,-61192559.55562,   0.00000
330258013.75864,166743046.69274,-172850953.71532,   0.00086,  -0.00037,  -0.00326,414050393.62891,   0.00075,275462370.14232,  -0.00031,  -0.00048,  -0.00102,-61411976.51341,   0.00000
331643246.26105,169099911.47173,-171997492.93184,   0.00087,  -0.00036,  -0.00325,413824349.20131,   0.00075,275462370.14232,  -0.00031,  -0.00048,  -0.00102,-61638020.94100,   0.00000
333015348.59756,171469906.41661,-171137467.06541,   0.00087,  -0.00035,  -0.00324,413597797.92627,   0.00075,275462370.14232,  -0.00031,  -0.00048,  -0.00102,-61864572.21605,   0.00000
334354625.51933,173807075.94675,-170270876.11604,   0.00087,  -0.00034,  -0.00323,413358475.44778,   0.00075,275462370.14232,  -0.00031,  -0.00048,  -0.00102,-62103894.69454,   0.00000
335670924.65077,176134397.85246,-169397720.08371,   0.00087,  -0.00034,  -0.00322,413112408.77210,   0.00075,275462370.14232,  -0.00031,  -0.00048,  -0.00102,-62349961.37022,   0.00000
336997071.40663,178484697.54850,-168517998.96843,   0.00087,  -0.00033,  -0.00321,412880056.38425,   0.00075,275462370.14232,  -0.00031,  -0.00048,  -0.00102,-62582313.75807,   0.00000
338267414.95742,180792324.20536,-167638277.85316,   0.00087,  -0.00032,  -0.00320,412628565.37712,   0.00075,275462370.14232,  -0.00031,  -0.00048,  -0.00102,-62833804.76520,   0.00000
339514780.71789,183090103.23780,-166745426.57198,   0.00088,  -0.00031,  -0.00318,412362204.65164,   0.00075,275462370.14232,  -0.00031,  -0.00048,  -0.00102,-63100165.49067,   0.00000
340771994.10278,185410860.06056,-165852575.29081,   0.00088,  -0.00030,  -0.00317,412117872.30574,   0.00075,275462370.14232,  -0.00031,  -0.00048,  -0.00102,-63344497.83657,   0.00000
341973404.28260,187688943.84415,-164953158.92668,   0.00088,  -0.00030,  -0.00316,411845791.19501,   0.00075,275462370.14232,  -0.00031,  -0.00048,  -0.00102,-63616578.94730,   0.00000
343174814.46242,189967027.62774,-164047177.47961,   0.00088,  -0.00029,  -0.00315,411581042.71696,   0.00075,275462370.14232,  -0.00031,  -0.00048,  -0.00102,-63881327.42535,   0.00000
344340116.68601,192248393.95280,-163134630.94958,   0.00088,  -0.00028,  -0.00314,411302139.52219,   0.00075,275462370.14232,  -0.00031,  -0.00048,  -0.00102,-64160230.62013,   0.00000
345495571.28518,194506782.48754,-162215519.33660,   0.00088,  -0.00027,  -0.00313,411023685.95725,   0.00075,275462370.14232,  -0.00031,  -0.00048,  -0.00102,-64438684.18506,   0.00000
346614917.92812,196768453.56376,-161289842.64068,   0.00088,  -0.00026,  -0.00311,410731158.15885,   0.00075,275462370.14232,  -0.00031,  -0.00048,  -0.00102,-64731211.98346,   0.00000
347724416.94664,199007146.84965,-160357600.86180,   0.00088,  -0.00026,  -0.00310,410438973.53209,   0.00075,275462370.14232,  -0.00031,  -0.00048,  -0.00102,-65023396.61023,   0.00000
348820785.79926,201258970.30144,-159425359.08293,   0.00088,  -0.00025,  -0.00309,410155015.71830,   0.00075,275462370.14232,  -0.00031,  -0.00048,  -0.00102,-65307354.42402,   0.00000
349861351.44681,203468120.71405,-158486552.22110,   0.00088,  -0.00024,  -0.00308,409842129.84823,   0.00075,275462370.14232,  -0.00031,  -0.00048,  -0.00102,-65620240.29408,   0.00000
350878939.30403,205667423.50224,-157534615.19338,   0.00088,  -0.00023,  -0.00306,409514611.07230,   0.00075,275462370.14232,  -0.00031,  -0.00048,  -0.00102,-65947759.07002,   0.00000
351906374.78568,207889704.08076,-156582678.16566,   0.00088,  -0.00022,  -0.00305,409210115.78875,   0.00075,275462370.14232,  -0.00031,  -0.00048,  -0.00102,-66252254.35356,   0.00000
352878007.06225,210069311.62010,-155624176.05498,   0.00088,  -0.00022,  -0.00304,408876284.51857,   0.00075,275462370.14232,  -0.00031,  -0.00048,  -0.00102,-66586085.62375,   0.00000
353849639.33883,212248919.15944,-154665673.94431,   0.00088,  -0.00021,  -0.00303,408557682.02285,   0.00075,275462370.14232,  -0.00031,  -0.00048,  -0.00102,-66904688.11946,   0.00000
354785163.65918,214431809.24026,-153694041.66773,   0.00088,  -0.00020,  -0.00301,408217912.35095,   0.00075,275462370.14232,  -0.00031,  -0.00048,  -0.00102,-67244457.79136,   0.00000
355687862.56478,216581873.90632,-152722409.39116,   0.00088,  -0.00019,  -0.00300,407870595.74255,   0.00075,275462370.14232,  -0.00031,  -0.00048,  -0.00102,-67591774.39976,   0.00000
356590561.47038,218731938.57239,-151744212.03164,   0.00088,  -0.00018,  -0.00299,407531179.60430,   0.00075,275462370.14232,  -0.00031,  -0.00048,  -0.00102,-67931190.53802,   0.00000
357447304.79533,220862307.98961,-150759449.58916,   0.00088,  -0.00017,  -0.00298,407169906.79011,   0.00075,275462370.14232,  -0.00031,  -0.00048,  -0.00102,-68292463.35221,   0.00000
358290917.95438,223005807.57272,-149768122.06374,   0.00088,  -0.00017,  -0.00296,406810137.23218,   0.00075,275462370.14232,  -0.00031,  -0.00048,  -0.00102,-68652232.91014,   0.00000
359101705.69869,225116481.74109,-148770229.45537,   0.00088,  -0.00016,  -0.00295,406435107.15696,   0.00075,275462370.14232,  -0.00031,  -0.00048,  -0.00102,-69027262.98536,   0.00000
359889515.65267,227217308.28504,-147765771.76404,   0.00088,  -0.00015,  -0.00294,406053212.70675,   0.00075,275462370.14232,  -0.00031,  -0.00048,  -0.00102,-69409157.43557,   0.00000
360654347.81632,229308287.20455,-146761314.07272,   0.00088,  -0.00014,  -0.00292,405671626.23718,   0.00075,275462370.14232,  -0.00031,  -0.00048,  -0.00102,-69790743.90513,   0.00000
361373224.39933,231379570.87522,-145750291.29845,   0.00088,  -0.00013,  -0.00291,405268027.09393,   0.00075,275462370.14232,  -0.00031,  -0.00048,  -0.00102,-70194343.04839,   0.00000
362092100.98233,233450854.54589,-144732703.44123,   0.00088,  -0.00013,  -0.00290,404872754.10872,   0.00075,275462370.14232,  -0.00031,  -0.00048,  -0.00102,-70589616.03360,   0.00000
362765021.98469,235502442.96771,-143708550.50105,   0.00088,  -0.00012,  -0.00288,404455504.82102,   0.00075,275462370.14232,  -0.00031,  -0.00048,  -0.00102,-71006865.32130,   0.00000
363428095.36262,237531053.59921,-142684397.56088,   0.00088,  -0.00011,  -0.00287,404044595.86257,   0.00075,275462370.14232,  -0.00031,  -0.00048,  -0.00102,-71417774.27974,   0.00000
364055060.78433,239562946.77218,-141653679.53776,   0.00088,  -0.00010,  -0.00286,403620718.47192,   0.00075,275462370.14232,  -0.00031,  -0.00048,  -0.00102,-71841651.67039,   0.00000
364659048.41571,241584992.32072,-140616396.43169,   0.00088,  -0.00009,  -0.00284,403190140.66711,   0.00075,275462370.14232,  -0.00031,  -0.00048,  -0.00102,-72272229.47521,   0.00000
365253188.42267,243584060.07894,-139572548.24266,   0.00087,  -0.00009,  -0.00283,402758885.75368,   0.00075,275462370.14232,  -0.00031,  -0.00048,  -0.00102,-72703484.38863,   0.00000
365788242.68308,245576562.75422,-138522134.97069,   0.00087,  -0.00008,  -0.00282,402299655.67454,   0.00075,275462370.14232,  -0.00031,  -0.00048,  -0.00102,-73162714.46778,   0.00000
366313449.31907,247546087.63916,-137471721.69872,   0.00087,  -0.00007,  -0.00280,401846451.05983,   0.00075,275462370.14232,  -0.00031,  -0.00048,  -0.00102,-73615919.08249,   0.00000
366825525.78915,249528742.69001,-136414743.34380,   0.00087,  -0.00006,  -0.00279,401396305.62181,   0.00075,275462370.14232,  -0.00031,  -0.00048,  -0.00102,-74066064.52050,   0.00000
367281799.05417,251468724.70168,-135351199.90593,   0.00087,  -0.00005,  -0.00278,400914449.41931,   0.00075,275462370.14232,  -0.00031,  -0.00048,  -0.00102,-74547920.72301,   0.00000
367738072.31918,253408706.71336,-134281091.38511,   0.00087,  -0.00005,  -0.00276,400441590.82970,   0.00075,275462370.14232,  -0.00031,  -0.00048,  -0.00102,-75020779.31261,   0.00000
368148390.00354,255328993.47618,-133210982.86429,   0.00086,  -0.00004,  -0.00275,399953337.23984,   0.00075,275462370.14232,  -0.00031,  -0.00048,  -0.00102,-75509032.90247,   0.00000
368535729.89758,257239432.61458,-132134309.26052,   0.00086,  -0.00003,  -0.00273,399458652.29986,   0.00075,275462370.14232,  -0.00031,  -0.00048,  -0.00102,-76003717.84246,   0.00000
368900092.00130,259140024.12855,-131051070.57379,   0.00086,  -0.00002,  -0.00272,398957642.53525,   0.00075,275462370.14232,  -0.00031,  -0.00048,  -0.00102,-76504727.60707,   0.00000
369241476.31469,261030768.01810,-129961266.80412,   0.00086,  -0.00002,  -0.00271,398450418.67792,   0.00075,275462370.14232,  -0.00031,  -0.00048,  -0.00102,-77011951.46440,   0.00000
369527057.42301,262878838.86847,-128871463.03445,   0.00086,  -0.00001,  -0.00269,397917388.73869,   0.00075,275462370.14232,  -0.00031,  -0.00048,  -0.00102,-77544981.40362,   0.00000
369799508.36542,264740039.88475,-127775094.18183,   0.00085,   0.00000,  -0.00268,397388541.09170,   0.00075,275462370.14232,  -0.00031,  -0.00048,  -0.00102,-78073829.05061,   0.00000
370039133.89309,266568415.48628,-126672160.24626,   0.00085,   0.00001,  -0.00266,396843097.08219,   0.00075,275462370.14232,  -0.00031,  -0.00048,  -0.00102,-78619273.06013,   0.00000
370255781.63044,268386943.46338,-125562661.22774,   0.00085,   0.00002,  -0.00265,396291588.86446,   0.00075,275462370.14232,  -0.00031,  -0.00048,  -0.00102,-79170781.27785,   0.00000
370459299.20188,270218601.60638,-124453162.20922,   0.00085,   0.00002,  -0.00263,395751133.90674,   0.00075,275462370.14232,  -0.00031,  -0.00048,  -0.00102,-79711236.23558,   0.00000
370629991.35858,272017434.33463,-123337098.10775,   0.00084,   0.00003,  -0.00262,395194097.94245,   0.00075,275462370.14232,  -0.00031,  -0.00048,  -0.00102,-80268272.19986,   0.00000
370754727.93462,273796571.81403,-122221034.00628,   0.00084,   0.00004,  -0.00261,394621592.15043,   0.00075,275462370.14232,  -0.00031,  -0.00048,  -0.00102,-80840777.99188,   0.00000
370846639.09592,275542883.87868,-121091839.73891,   0.00084,   0.00005,  -0.00259,394026216.29249,   0.00075,275462370.14232,  -0.00031,  -0.00048,  -0.00102,-81436153.84982,   0.00000
370925420.09132,277302326.10924,-119969210.55449,   0.00083,   0.00006,  -0.00258,393448344.73454,   0.00075,275462370.14232,  -0.00031,  -0.00048,  -0.00102,-82014025.40777,   0.00000
370948397.88164,279019095.30061,-118833451.20417,   0.00083,   0.00006,  -0.00256,392831834.79508,   0.00075,275462370.14232,  -0.00031,  -0.00048,  -0.00102,-82630535.34724,   0.00000
370981223.29639,280758842.28232,-117697691.85385,   0.00083,   0.00007,  -0.00255,392243007.33116,   0.00075,275462370.14232,  -0.00031,  -0.00048,  -0.00102,-83219362.81115,   0.00000
370958245.50607,282455916.22485,-116555367.42059,   0.00082,   0.00008,  -0.00253,391621595.96659,   0.00075,275462370.14232,  -0.00031,  -0.00048,  -0.00102,-83840774.17572,   0.00000
370912289.92542,284143142.54295,-115406477.90437,   0.00082,   0.00009,  -0.00252,390994928.39622,   0.00075,275462370.14232,  -0.00031,  -0.00048,  -0.00102,-84467441.74610,   0.00000
370843356.55445,285820521.23663,-114257588.38815,   0.00082,   0.00009,  -0.00250,390368945.36559,   0.00075,275462370.14232,  -0.00031,  -0.00048,  -0.00102,-85093424.77673,   0.00000
370728467.60282,287478204.68146,-113102133.78898,   0.00081,   0.00010,  -0.00249,389722001.65003,   0.00075,275462370.14232,  -0.00031,  -0.00048,  -0.00102,-85740368.49229,   0.00000
370580753.23645,289103062.71154,-111940114.10686,   0.00081,   0.00011,  -0.00247,389058366.10289,   0.00075,275462370.14232,  -0.00031,  -0.00048,  -0.00102,-86404004.03942,   0.00000
370419908.70418,290741050.90752,-110778094.42474,   0.00081,   0.00012,  -0.00246,388407456.83706,   0.00075,275462370.14232,  -0.00031,  -0.00048,  -0.00102,-87054913.30526,   0.00000
370226238.75716,292346213.68876,-109609509.65967,   0.00080,   0.00013,  -0.00244,387739953.10909,   0.00075,275462370.14232,  -0.00031,  -0.00048,  -0.00102,-87722417.03322,   0.00000
369986613.22949,293931681.22114,-108440924.89460,   0.00080,   0.00013,  -0.00243,387057415.01055,   0.00075,275462370.14232,  -0.00031,  -0.00048,  -0.00102,-88404955.13177,   0.00000
369724009.91150,295507301.12910,-107265775.04659,   0.00079,   0.00014,  -0.00241,386370422.88858,   0.00075,275462370.14232,  -0.00031,  -0.00048,  -0.00102,-89091947.25374,   0.00000
369438428.80318,297073073.41263,-106084060.11562,   0.00079,   0.00015,  -0.00240,385679189.96744,   0.00075,275462370.14232,  -0.00031,  -0.00048,  -0.00102,-89783180.17488,   0.00000
369097044.48979,298596172.65699,-104902345.18465,   0.00078,   0.00016,  -0.00238,384960834.14883,   0.00075,275462370.14232,  -0.00031,  -0.00048,  -0.00102,-90501535.99349,   0.00000
368742530.01050,300132402.06725,-103714065.17073,   0.00078,   0.00016,  -0.00236,384250898.34054,   0.00075,275462370.14232,  -0.00031,  -0.00048,  -0.00102,-91211471.80178,   0.00000
368355190.11646,301635806.06276,-102519220.07386,   0.00078,   0.00017,  -0.00235,383524656.76974,   0.00075,275462370.14232,  -0.00031,  -0.00048,  -0.00102,-91937713.37258,   0.00000
367944872.43210,303129362.43384,-101324374.97700,   0.00077,   0.00018,  -0.00233,382799989.31676,   0.00075,275462370.14232,  -0.00031,  -0.00048,  -0.00102,-92662380.82555,   0.00000
367478751.54266,304580245.76575,-100122964.79718,   0.00077,   0.00019,  -0.00232,382042948.79876,   0.00075,275462370.14232,  -0.00031,  -0.00048,  -0.00102,-93419421.34355,   0.00000
366999500.48732,306044259.26356,-98921554.61736,   0.00076,   0.00019,  -0.00230,381300476.80685,   0.00075,275462370.14232,  -0.00031,  -0.00048,  -0.00102,-94161893.33546,   0.00000
366487424.01724,307475447.34662,-97713579.35459,   0.00076,   0.00020,  -0.00229,380541888.37504,   0.00075,275462370.14232,  -0.00031,  -0.00048,  -0.00102,-94920481.76727,   0.00000
365939239.59093,308909917.97116,-96505604.09183,   0.00075,   0.00021,  -0.00227,379782304.58021,   0.00075,275462370.14232,  -0.00031,  -0.00048,  -0.00102,-95680065.56210,   0.00000
365348382.12544,310288585.39062,-95291063.74611,   0.00074,   0.00022,  -0.00226,378993633.68074,   0.00075,275462370.14232,  -0.00031,  -0.00048,  -0.00102,-96468736.46158,   0.00000
364744394.49406,311680382.97598,-94076523.40039,   0.00074,   0.00022,  -0.00224,378220357.26274,   0.00075,275462370.14232,  -0.00031,  -0.00048,  -0.00102,-97242012.87957,   0.00000
364094451.28203,313052485.31250,-92848852.88877,   0.00073,   0.00023,  -0.00222,377423745.41177,   0.00075,275462370.14232,  -0.00031,  -0.00048,  -0.00102,-98038624.73055,   0.00000
363411682.65525,314391762.23426,-91627747.46011,   0.00073,   0.00024,  -0.00221,376621194.62189,   0.00075,275462370.14232,  -0.00031,  -0.00048,  -0.00102,-98841175.52043,   0.00000
362705936.23814,315721191.53160,-90400076.94849,   0.00072,   0.00025,  -0.00219,375816495.56227,   0.00075,275462370.14232,  -0.00031,  -0.00048,  -0.00102,-99645874.58004,   0.00000
361954234.24038,317030925.58009,-89165841.35392,   0.00072,   0.00025,  -0.00218,374993908.42107,   0.00075,275462370.14232,  -0.00031,  -0.00048,  -0.00102,-100468461.72125,   0.00000
361179554.45231,318330812.00416,-87931605.75936,   0.00071,   0.00026,  -0.00216,374174421.16177,   0.00075,275462370.14232,  -0.00031,  -0.00048,  -0.00102,-101287948.98055,   0.00000
360372049.24948,319597873.01347,-86690805.08184,   0.00070,   0.00027,  -0.00214,373339739.29730,   0.00075,275462370.14232,  -0.00031,  -0.00048,  -0.00102,-102122630.84502,   0.00000
359518588.46600,320845238.77394,-85450004.40432,   0.00070,   0.00028,  -0.00213,372492369.17626,   0.00075,275462370.14232,  -0.00031,  -0.00048,  -0.00102,-102970000.96605,   0.00000
358642149.89220,322082756.90998,-84202638.64386,   0.00069,   0.00028,  -0.00211,371644042.95023,   0.00075,275462370.14232,  -0.00031,  -0.00048,  -0.00102,-103818327.19208,   0.00000
357742733.52807,323310427.42160,-82955272.88339,   0.00068,   0.00029,  -0.00209,370799503.35082,   0.00075,275462370.14232,  -0.00031,  -0.00048,  -0.00102,-104662866.79150,   0.00000
356787513.95887,324495424.89404,-81707907.12292,   0.00068,   0.00030,  -0.00208,369928697.47340,   0.00075,275462370.14232,  -0.00031,  -0.00048,  -0.00102,-105533672.66891,   0.00000
355809316.59935,325670574.74206,-80447411.19656,   0.00067,   0.00031,  -0.00206,369053283.82351,   0.00075,275462370.14232,  -0.00031,  -0.00048,  -0.00102,-106409086.31881,   0.00000
354785163.65918,326826029.34123,-79193480.35314,   0.00066,   0.00031,  -0.00205,368170560.32639,   0.00075,275462370.14232,  -0.00031,  -0.00048,  -0.00102,-107291809.81593,   0.00000
353738032.92868,327971636.31597,-77932984.42678,   0.00066,   0.00032,  -0.00203,367288168.69892,   0.00075,275462370.14232,  -0.00031,  -0.00048,  -0.00102,-108174201.44339,   0.00000
352658076.78344,329084417.87597,-76665923.41746,   0.00065,   0.00033,  -0.00201,366391848.62955,   0.00075,275462370.14232,  -0.00031,  -0.00048,  -0.00102,-109070521.51277,   0.00000
351532165.05754,330177504.18711,-75398862.40814,   0.00064,   0.00033,  -0.00200,365484609.52331,   0.00075,275462370.14232,  -0.00031,  -0.00048,  -0.00102,-109977760.61900,   0.00000
350383275.54132,331260742.87383,-74131801.39883,   0.00064,   0.00034,  -0.00198,364582593.30076,   0.00075,275462370.14232,  -0.00031,  -0.00048,  -0.00102,-110879776.84155,   0.00000
349211408.23478,332334133.93613,-72858175.30656,   0.00063,   0.00035,  -0.00196,363682078.78734,   0.00075,275462370.14232,  -0.00031,  -0.00048,  -0.00102,-111780291.35498,   0.00000
347983737.72316,333364851.95925,-71577984.13135,   0.00062,   0.00036,  -0.00195,362752646.39725,   0.00075,275462370.14232,  -0.00031,  -0.00048,  -0.00102,-112709723.74507,   0.00000
346733089.42122,334385722.35795,-70304358.03908,   0.00061,   0.00036,  -0.00193,361833055.87353,   0.00075,275462370.14232,  -0.00031,  -0.00048,  -0.00102,-113629314.26879,   0.00000
345436485.53863,335386897.50780,-69017601.78092,   0.00061,   0.00037,  -0.00191,360896319.53950,   0.00075,275462370.14232,  -0.00031,  -0.00048,  -0.00102,-114566050.60282,   0.00000
344107056.24129,336355247.24289,-67737410.60570,   0.00060,   0.00038,  -0.00190,359954684.52224,   0.00075,275462370.14232,  -0.00031,  -0.00048,  -0.00102,-115507685.62007,   0.00000
342741518.98773,337326879.51947,-66450654.34754,   0.00059,   0.00038,  -0.00188,359015757.02483,   0.00075,275462370.14232,  -0.00031,  -0.00048,  -0.00102,-116446613.11749,   0.00000
341343156.31942,338265686.38129,-65157333.00642,   0.00058,   0.00039,  -0.00186,358065052.77490,   0.00075,275462370.14232,  -0.00031,  -0.00048,  -0.00102,-117397317.36741,   0.00000
339911968.23635,339171667.82837,-63864011.66531,   0.00057,   0.00040,  -0.00185,357106277.15598,   0.00075,275462370.14232,  -0.00031,  -0.00048,  -0.00102,-118356092.98634,   0.00000
338434824.57264,340057954.02659,-62570690.32419,   0.00056,   0.00040,  -0.00183,356139526.62922,   0.00075,275462370.14232,  -0.00031,  -0.00048,  -0.00102,-119322843.51310,   0.00000
336934703.11861,340934392.60040,-61277368.98307,   0.00056,   0.00041,  -0.00181,355180762.03273,   0.00075,275462370.14232,  -0.00031,  -0.00048,  -0.00102,-120281608.10958,   0.00000
335388626.08393,341791135.92535,-59977482.55901,   0.00055,   0.00042,  -0.00180,354211443.71729,   0.00075,275462370.14232,  -0.00031,  -0.00048,  -0.00102,-121250926.42503,   0.00000
333819571.25892,342638031.62588,-58671031.05200,   0.00054,   0.00043,  -0.00178,353247669.08177,   0.00075,275462370.14232,  -0.00031,  -0.00048,  -0.00102,-122214701.06054,   0.00000
332194713.22884,343442254.28723,-57371144.62793,   0.00053,   0.00043,  -0.00176,352264890.47481,   0.00075,275462370.14232,  -0.00031,  -0.00048,  -0.00102,-123197479.66751,   0.00000
330546877.40843,344236629.32416,-56064693.12092,   0.00052,   0.00044,  -0.00175,351288345.47199,   0.00075,275462370.14232,  -0.00031,  -0.00048,  -0.00102,-124174024.67033,   0.00000
328866216.17328,344998178.94634,-54751676.53095,   0.00051,   0.00045,  -0.00173,350302332.51937,   0.00075,275462370.14232,  -0.00031,  -0.00048,  -0.00102,-125160037.62294,   0.00000
327139599.35747,345740033.31967,-53445225.02394,   0.00050,   0.00045,  -0.00171,349314197.19100,   0.00075,275462370.14232,  -0.00031,  -0.00048,  -0.00102,-126148172.95131,   0.00000
325390004.75135,346472040.06857,-52125643.35102,   0.00049,   0.00046,  -0.00169,348330646.17043,   0.00075,275462370.14232,  -0.00031,  -0.00048,  -0.00102,-127131723.97188,   0.00000
323594454.56457,347184351.56863,-50812626.76106,   0.00048,   0.00047,  -0.00168,347345912.93830,   0.00075,275462370.14232,  -0.00031,  -0.00048,  -0.00102,-128116457.20402,   0.00000
321766078.96304,347863837.65393,-49493045.08814,   0.00047,   0.00047,  -0.00166,346353230.96504,   0.00075,275462370.14232,  -0.00031,  -0.00048,  -0.00102,-129109139.17728,   0.00000
319891747.78087,348523628.49039,-48173463.41523,   0.00046,   0.00048,  -0.00164,345357300.46713,   0.00075,275462370.14232,  -0.00031,  -0.00048,  -0.00102,-130105069.67519,   0.00000
317984591.18394,349150593.91210,-46853881.74231,   0.00045,   0.00049,  -0.00163,344356918.46657,   0.00075,275462370.14232,  -0.00031,  -0.00048,  -0.00102,-131105451.67575,   0.00000
316031479.00637,349757864.08496,-45534300.06940,   0.00044,   0.00049,  -0.00161,343354163.48106,   0.00075,275462370.14232,  -0.00031,  -0.00048,  -0.00102,-132108206.66126,   0.00000
314055389.03848,350355286.63339,-44208153.31353,   0.00043,   0.00050,  -0.00159,342361988.06076,   0.00075,275462370.14232,  -0.00031,  -0.00048,  -0.00102,-133100382.08155,   0.00000
312056321.28025,350942861.55740,-42875441.47472,   0.00042,   0.00051,  -0.00157,341381036.11192,   0.00075,275462370.14232,  -0.00031,  -0.00048,  -0.00102,-134081334.03039,   0.00000
310001450.31696,351487763.44224,-41549294.71886,   0.00041,   0.00051,  -0.00156,340384873.76408,   0.00075,275462370.14232,  -0.00031,  -0.00048,  -0.00102,-135077496.37823,   0.00000
307900623.77302,352012970.07822,-40216582.88004,   0.00040,   0.00052,  -0.00154,339386258.96678,   0.00075,275462370.14232,  -0.00031,  -0.00048,  -0.00102,-136076111.17553,   0.00000
305766971.81432,352505351.29946,-38883871.04123,   0.00039,   0.00052,  -0.00152,338385632.39820,   0.00075,275462370.14232,  -0.00031,  -0.00048,  -0.00102,-137076737.74412,   0.00000
303610342.06531,352987884.89627,-37551159.20241,   0.00038,   0.00053,  -0.00150,337400626.68381,   0.00075,275462370.14232,  -0.00031,  -0.00048,  -0.00102,-138061743.45851,   0.00000
301407756.73564,353450723.24423,-36218447.36360,   0.00037,   0.00054,  -0.00149,336417282.19718,   0.00075,275462370.14232,  -0.00031,  -0.00048,  -0.00102,-139045087.94513,   0.00000
299182193.61565,353903713.96777,-34879170.44184,   0.00036,   0.00054,  -0.00147,335448660.53598,   0.00075,275462370.14232,  -0.00031,  -0.00048,  -0.00102,-140013709.60634,   0.00000
296900827.29059,354314031.65214,-33539893.52007,   0.00035,   0.00055,  -0.00145,334465511.71273,   0.00075,275462370.14232,  -0.00031,  -0.00048,  -0.00102,-140996858.42959,   0.00000
294563657.76045,354681676.29733,-32200616.59831,   0.00034,   0.00056,  -0.00143,333468360.10555,   0.00075,275462370.14232,  -0.00031,  -0.00048,  -0.00102,-141994010.03677,   0.00000
292213358.06441,355062451.10842,-30854774.59359,   0.00032,   0.00056,  -0.00142,332505715.74499,   0.00075,275462370.14232,  -0.00031,  -0.00048,  -0.00102,-142956654.39732,   0.00000
289830232.95363,355410400.50476,-29515497.67183,   0.00031,   0.00057,  -0.00140,331546273.32684,   0.00075,275462370.14232,  -0.00031,  -0.00048,  -0.00102,-143916096.81547,   0.00000
287391304.63777,355715676.86192,-28169655.66712,   0.00030,   0.00058,  -0.00138,330572837.35130,   0.00075,275462370.14232,  -0.00031,  -0.00048,  -0.00102,-144889532.79101,   0.00000
284929398.53159,356011105.59466,-26823813.66240,   0.00029,   0.00058,  -0.00137,329619766.10155,   0.00075,275462370.14232,  -0.00031,  -0.00048,  -0.00102,-145842604.04077,   0.00000
282421536.84475,356286839.07856,-25477971.65769,   0.00028,   0.00059,  -0.00135,328673912.32586,   0.00075,275462370.14232,  -0.00031,  -0.00048,  -0.00102,-146788457.81646,   0.00000
279890697.36760,356552724.93803,-24132129.65298,   0.00027,   0.00059,  -0.00133,327749807.54715,   0.00075,275462370.14232,  -0.00031,  -0.00048,  -0.00102,-147712562.59517,   0.00000
277304054.68537,356775937.75832,-22779722.56531,   0.00025,   0.00060,  -0.00131,326814843.04446,   0.00075,275462370.14232,  -0.00031,  -0.00048,  -0.00102,-148647527.09786,   0.00000
274661608.79806,356956477.53944,-21427315.47765,   0.00024,   0.00061,  -0.00129,325871255.80322,   0.00075,275462370.14232,  -0.00031,  -0.00048,  -0.00102,-149591114.33909,   0.00000
272006032.74486,357150147.48646,-20081473.47293,   0.00023,   0.00061,  -0.00128,324971247.52460,   0.00075,275462370.14232,  -0.00031,  -0.00048,  -0.00102,-150491122.61771,   0.00000
269317631.27691,357310992.01873,-18729066.38527,   0.00022,   0.00062,  -0.00126,324076094.94888,   0.00075,275462370.14232,  -0.00031,  -0.00048,  -0.00102,-151386275.19343,   0.00000
266573426.60388,357429163.51183,-17370094.21466,   0.00020,   0.00062,  -0.00124,323173393.60422,   0.00075,275462370.14232,  -0.00031,  -0.00048,  -0.00102,-152288976.53809,   0.00000
263806244.14053,357537487.38050,-16017687.12699,   0.00019,   0.00063,  -0.00122,322297791.71955,   0.00075,275462370.14232,  -0.00031,  -0.00048,  -0.00102,-153164578.42277,   0.00000
260993106.09653,357626116.00032,-14665280.03933,   0.00018,   0.00064,  -0.00121,321435997.91424,   0.00075,275462370.14232,  -0.00031,  -0.00048,  -0.00102,-154026372.22807,   0.00000
258124164.84746,357672071.58097,-13306307.86872,   0.00016,   0.00064,  -0.00119,320569437.07786,   0.00075,275462370.14232,  -0.00031,  -0.00048,  -0.00102,-154892933.06446,   0.00000
255232245.80806,357708179.53719,-11953900.78105,   0.00015,   0.00065,  -0.00117,319732178.91307,   0.00075,275462370.14232,  -0.00031,  -0.00048,  -0.00102,-155730191.22925,   0.00000
252307501.35391,357711462.07867,-10594928.61044,   0.00014,   0.00065,  -0.00115,318904433.45299,   0.00075,275462370.14232,  -0.00031,  -0.00048,  -0.00102,-156557936.68933,   0.00000
249346648.94354,357718027.16162,-9235956.43983,   0.00012,   0.00066,  -0.00114,318113274.84153,   0.00075,275462370.14232,  -0.00031,  -0.00048,  -0.00102,-157349095.30078,   0.00000
246320145.70368,357658941.41507,-7876984.26921,   0.00011,   0.00066,  -0.00112,317302805.90562,   0.00075,275462370.14232,  -0.00031,  -0.00048,  -0.00102,-158159564.23670,   0.00000
243270664.67348,357590008.04410,-6518012.09860,   0.00010,   0.00067,  -0.00110,316524129.65100,   0.00075,275462370.14232,  -0.00031,  -0.00048,  -0.00102,-158938240.49131,   0.00000
240198205.85297,357511227.04870,-5159039.92799,   0.00008,   0.00068,  -0.00108,315778003.24025,   0.00075,275462370.14232,  -0.00031,  -0.00048,  -0.00102,-159684366.90207,   0.00000
237079791.45180,357412750.80445,-3800067.75737,   0.00007,   0.00068,  -0.00107,315053460.66086,   0.00075,275462370.14232,  -0.00031,  -0.00048,  -0.00102,-160408909.48146,   0.00000
233905573.84556,357271601.52103,-2441095.58676,   0.00005,   0.00069,  -0.00105,314332423.71718,   0.00075,275462370.14232,  -0.00031,  -0.00048,  -0.00102,-161129946.42514,   0.00000
230698530.82457,357097626.82286,-1075558.33320,   0.00004,   0.00069,  -0.00103,313627326.32114,   0.00075,275462370.14232,  -0.00031,  -0.00048,  -0.00102,-161835043.82118,   0.00000
227445532.22293,356903956.87584,283413.83742,   0.00003,   0.00070,  -0.00101,312947176.22615,   0.00075,275462370.14232,  -0.00031,  -0.00048,  -0.00102,-162515193.91617,   0.00000
224169555.83097,356700439.30440,1642386.00803,   0.00001,   0.00070,  -0.00099,312304188.91399,   0.00075,275462370.14232,  -0.00031,  -0.00048,  -0.00102,-163158181.22833,   0.00000
220837776.23394,356454248.69378,3007923.26159,  -0.00000,   0.00071,  -0.00098,311668949.40011,   0.00075,275462370.14232,  -0.00031,  -0.00048,  -0.00102,-163793420.74221,   0.00000
217483018.84658,356198210.45873,4366895.43221,  -0.00002,   0.00071,  -0.00096,311072621.47200,   0.00075,275462370.14232,  -0.00031,  -0.00048,  -0.00102,-164389748.67032,   0.00000
214082305.87857,355922476.97484,5732432.68577,  -0.00003,   0.00072,  -0.00094,310505911.49751,   0.00075,275462370.14232,  -0.00031,  -0.00048,  -0.00102,-164956458.64481,   0.00000
210648767.49581,355613918.07620,7091404.85638,  -0.00005,   0.00072,  -0.00092,309960307.94025,   0.00075,275462370.14232,  -0.00031,  -0.00048,  -0.00102,-165502062.20207,   0.00000
207159425.90798,355262686.13839,8450377.02700,  -0.00006,   0.00073,  -0.00091,309426592.93203,   0.00075,275462370.14232,  -0.00031,  -0.00048,  -0.00102,-166035777.21028,   0.00000
203624128.73950,354891758.95172,9815914.28056,  -0.00008,   0.00073,  -0.00089,308926330.51083,   0.00075,275462370.14232,  -0.00031,  -0.00048,  -0.00102,-166536039.63149,   0.00000
200065853.78070,354510984.14063,11174886.45117,  -0.00009,   0.00074,  -0.00087,308469569.43954,   0.00075,275462370.14232,  -0.00031,  -0.00048,  -0.00102,-166992800.70277,   0.00000
196474753.40714,354097383.91479,12540423.70474,  -0.00011,   0.00075,  -0.00085,308038758.13768,   0.00075,275462370.14232,  -0.00031,  -0.00048,  -0.00102,-167423612.00463,   0.00000
192837697.45294,353664088.44010,13899395.87535,  -0.00012,   0.00075,  -0.00084,307643423.69314,   0.00075,275462370.14232,  -0.00031,  -0.00048,  -0.00102,-167818946.44917,   0.00000
189144838.29367,353188119.92624,15258368.04596,  -0.00014,   0.00076,  -0.00082,307265945.82829,   0.00075,275462370.14232,  -0.00031,  -0.00048,  -0.00102,-168196424.31402,   0.00000
185429001.34407,352702303.78795,16623905.29953,  -0.00016,   0.00076,  -0.00080,306937544.71530,   0.00075,275462370.14232,  -0.00031,  -0.00048,  -0.00102,-168524825.42701,   0.00000
181680338.97972,352183662.23492,17982877.47014,  -0.00017,   0.00077,  -0.00078,306637215.65613,   0.00075,275462370.14232,  -0.00031,  -0.00048,  -0.00102,-168825154.48619,   0.00000
177862743.24440,351635477.80861,19341849.64075,  -0.00019,   0.00077,  -0.00076,306369279.50693,   0.00075,275462370.14232,  -0.00031,  -0.00048,  -0.00102,-169093090.63539,   0.00000
174045147.50907,351087293.38230,20700821.81137,  -0.00021,   0.00078,  -0.00075,306160959.71184,   0.00075,275462370.14232,  -0.00031,  -0.00048,  -0.00102,-169301410.43047,   0.00000
170148770.77835,350486588.29239,22059793.98198,  -0.00022,   0.00078,  -0.00073,305968126.00262,   0.00075,275462370.14232,  -0.00031,  -0.00048,  -0.00102,-169494244.13969,   0.00000
166242546.42321,349862905.41216,23418766.15259,  -0.00024,   0.00078,  -0.00071,305816697.31115,   0.00075,275462370.14232,  -0.00031,  -0.00048,  -0.00102,-169645672.83117,   0.00000
162267388.69709,349209679.65865,24777738.32321,  -0.00026,   0.00079,  -0.00069,305703405.15793,   0.00075,275462370.14232,  -0.00031,  -0.00048,  -0.00102,-169758964.98439,   0.00000
158269253.18065,348546606.28072,26136710.49382,  -0.00027,   0.00079,  -0.00068,305645325.63705,   0.00075,275462370.14232,  -0.00031,  -0.00048,  -0.00102,-169817044.50526,   0.00000
154238292.24946,347850707.48803,27489117.58148,  -0.00029,   0.00080,  -0.00066,305621696.17267,   0.00075,275462370.14232,  -0.00031,  -0.00048,  -0.00102,-169840673.96964,   0.00000
150161375.73762,347135113.44650,28848089.75210,  -0.00031,   0.00080,  -0.00064,305649433.82248,   0.00075,275462370.14232,  -0.00031,  -0.00048,  -0.00102,-169812936.31983,   0.00000
146028656.02070,346376846.36580,30200496.83976,  -0.00032,   0.00081,  -0.00062,305706644.92966,   0.00075,275462370.14232,  -0.00031,  -0.00048,  -0.00102,-169755725.21266,   0.00000
