# sigma_xx, sigma_yy, sigma_xy, epsilon_xx, epsilon_yy, epsilon_xy, vonMises, epsPlastic, hardening, epsilonP__xx, epsilonP__yy, epsilonP__xy, yieldValue, iteration
   0.00000,   0.00000,   0.00000,   0.00000,   0.00000,   0.00000,   0.00000,   0.00000,274640135.82653,   0.00000,   0.00000,   0.00000,-474640135.82653,   0.00000
   0.00000,   0.00000,   0.00000,   0.00000,   0.00000,   0.00000,   0.00000,   0.00000,274640135.82653,   0.00000,   0.00000,   0.00000,-474640135.82653,   0.00000
4821801.33976,2660741.50731,-852248.94801,   0.00002,   0.00000,  -0.00001,4436071.61487,   0.00000,274640135.82653,   0.00000,   0.00000,   0.00000,-470204064.21166,   0.00000
9651212.04512,5339238.20104,-1699424.98561,   0.00003,   0.00001,  -0.00002,8876225.22893,   0.00000,274640135.82653,   0.00000,   0.00000,   0.00000,-465763910.59760,   0.00000
14455258.19846,7992370.34275,-2546601.02321,   0.00005,   0.00001,  -0.00003,13294969.97634,   0.00000,274640135.82653,   0.00000,   0.00000,   0.00000,-461345165.85019,   0.00000
19249158.53099,10655648.30527,-3398849.97121,   0.00007,   0.00001,  -0.00004,17709241.22763,   0.00000,274640135.82653,   0.00000,   0.00000,   0.00000,-456930894.59890,   0.00000
24025303.67710,13311316.90218,-4246026.00881,   0.00008,   0.00001,  -0.00006,22106201.71202,   0.00000,274640135.82653,   0.00000,   0.00000,   0.00000,-452533934.11451,   0.00000
28783693.63679,15959376.13348,-5093202.04641,   0.00010,   0.00002,  -0.00007,26488771.84663,   0.00000,274640135.82653,   0.00000,   0.00000,   0.00000,-448151363.97990,   0.00000
33542083.59649,18607435.36478,-5935305.17361,   0.00012,   0.00002,  -0.00008,30868420.96445,   0.00000,274640135.82653,   0.00000,   0.00000,   0.00000,-443771714.86208,   0.00000
38282718.36977,21247885.23048,-6782481.21121,   0.00013,   0.00002,  -0.00009,35236607.39141,   0.00000,274640135.82653,   0.00000,   0.00000,   0.00000,-439403528.43512,   0.00000
43013207.32224,23898480.91698,-7629657.24881,   0.00015,   0.00002,  -0.00010,39597450.53813,   0.00000,274640135.82653,   0.00000,   0.00000,   0.00000,-435042685.28840,   0.00000
47718331.72268,26523712.05146,-8471760.37600,   0.00017,   0.00003,  -0.00011,43933943.19660,   0.00000,274640135.82653,   0.00000,   0.00000,   0.00000,-430706192.62993,   0.00000
52405700.93671,29141333.82033,-9318936.41360,   0.00018,   0.00003,  -0.00012,48258994.29177,   0.00000,274640135.82653,   0.00000,   0.00000,   0.00000,-426381141.53476,   0.00000
57082924.32993,31769101.41002,-10161039.54080,   0.00020,   0.00003,  -0.00013,52573786.39862,   0.00000,274640135.82653,   0.00000,   0.00000,   0.00000,-422066349.42791,   0.00000
61760147.72315,34396868.99970,-11003142.66800,   0.00021,   0.00004,  -0.00014,56888594.45310,   0.00000,274640135.82653,   0.00000,   0.00000,   0.00000,-417751541.37343,   0.00000
66419615.92995,37017027.22377,-11845245.79519,   0.00023,   0.00004,  -0.00015,61189039.03104,   0.00000,274640135.82653,   0.00000,   0.00000,   0.00000,-413451096.79549,   0.00000
71061328.95034,39629576.08224,-12687348.92239,   0.00025,   0.00004,  -0.00016,65475124.27280,   0.00000,274640135.82653,   0.00000,   0.00000,   0.00000,-409165011.55373,   0.00000
75685286.78431,42234515.57510,-13529452.04958,   0.00026,   0.00004,  -0.00018,69746854.66940,   0.00000,274640135.82653,   0.00000,   0.00000,   0.00000,-404893281.15713,   0.00000
80291489.43186,44831845.70236,-14366482.26637,   0.00028,   0.00005,  -0.00019,74001279.96849,   0.00000,274640135.82653,   0.00000,   0.00000,   0.00000,-400638855.85804,   0.00000
84879936.89299,47421566.46400,-15208585.39357,   0.00029,   0.00005,  -0.00020,78244311.56990,   0.00000,274640135.82653,   0.00000,   0.00000,   0.00000,-396395824.25663,   0.00000
89475993.71974,50029042.41207,-16045615.61036,   0.00031,   0.00005,  -0.00021,82491488.00381,   0.00000,274640135.82653,   0.00000,   0.00000,   0.00000,-392148647.82272,   0.00000
94028930.80804,52603544.44250,-16882645.82715,   0.00033,   0.00006,  -0.00022,86702876.92199,   0.00000,274640135.82653,   0.00000,   0.00000,   0.00000,-387937258.90453,   0.00000
98589477.26195,55195801.65935,-17719676.04394,   0.00034,   0.00006,  -0.00023,90921378.52155,   0.00000,274640135.82653,   0.00000,   0.00000,   0.00000,-383718757.30498,   0.00000
103132268.52944,57780449.51059,-18556706.26073,   0.00036,   0.00006,  -0.00024,95125550.53579,   0.00000,274640135.82653,   0.00000,   0.00000,   0.00000,-379514585.29074,   0.00000
107657304.61051,60357487.99623,-19393736.47752,   0.00037,   0.00006,  -0.00025,99315397.42738,   0.00000,274640135.82653,   0.00000,   0.00000,   0.00000,-375324738.39914,   0.00000
112156976.13957,62909161.92984,-20230766.69431,   0.00039,   0.00007,  -0.00026,103483816.80765,   0.00000,274640135.82653,   0.00000,   0.00000,   0.00000,-371156319.01888,   0.00000
116646501.84781,65470981.68426,-21062724.00070,   0.00040,   0.00007,  -0.00027,107642045.11718,   0.00000,274640135.82653,   0.00000,   0.00000,   0.00000,-366998090.70935,   0.00000
121125881.73524,68042947.25949,-21899754.21749,   0.00042,   0.00007,  -0.00028,111796053.68521,   0.00000,274640135.82653,   0.00000,   0.00000,   0.00000,-362844082.14132,   0.00000
125579897.07065,70589548.28269,-22731711.52388,   0.00043,   0.00008,  -0.00030,115925660.63577,   0.00000,274640135.82653,   0.00000,   0.00000,   0.00000,-358714475.19076,   0.00000
130033912.40606,73136149.30590,-23563668.83026,   0.00045,   0.00008,  -0.00031,120055297.86139,   0.00000,274640135.82653,   0.00000,   0.00000,   0.00000,-354584837.96514,   0.00000
134460026.73424,75685286.78431,-24395626.13665,   0.00046,   0.00008,  -0.00032,124163422.40928,   0.00000,274640135.82653,   0.00000,   0.00000,   0.00000,-350476713.41725,   0.00000
138878531.69681,78216669.07630,-25227583.44304,   0.00048,   0.00009,  -0.00033,128264455.83734,   0.00000,274640135.82653,   0.00000,   0.00000,   0.00000,-346375679.98919,   0.00000
143269135.65216,80750587.82349,-26059540.74942,   0.00049,   0.00009,  -0.00034,132344001.51005,   0.00000,274640135.82653,   0.00000,   0.00000,   0.00000,-342296134.31647,   0.00000
147659739.60751,83284506.57069,-26886425.14540,   0.00051,   0.00009,  -0.00035,136420595.04859,   0.00000,274640135.82653,   0.00000,   0.00000,   0.00000,-338219540.77794,   0.00000
152007223.82442,85785451.40025,-27718382.45179,   0.00052,   0.00009,  -0.00036,140464435.47071,   0.00000,274640135.82653,   0.00000,   0.00000,   0.00000,-334175700.35582,   0.00000
156362317.40693,88304151.41623,-28545266.84777,   0.00054,   0.00010,  -0.00037,144512464.81997,   0.00000,274640135.82653,   0.00000,   0.00000,   0.00000,-330127671.00656,   0.00000
160699655.80303,90815242.06660,-29372151.24375,   0.00055,   0.00010,  -0.00038,148546219.17475,   0.00000,274640135.82653,   0.00000,   0.00000,   0.00000,-326093916.65178,   0.00000
165026848.37832,93336478.53778,-30199035.63973,   0.00057,   0.00010,  -0.00039,152572865.47877,   0.00000,274640135.82653,   0.00000,   0.00000,   0.00000,-322067270.34776,   0.00000
169310921.21516,95824741.09134,-31025920.03571,   0.00058,   0.00011,  -0.00040,156563779.33851,   0.00000,274640135.82653,   0.00000,   0.00000,   0.00000,-318076356.48802,   0.00000
173594994.05201,98313003.64489,-31852804.43169,   0.00060,   0.00011,  -0.00041,160554747.08996,   0.00000,274640135.82653,   0.00000,   0.00000,   0.00000,-314085388.73657,   0.00000
177861311.70244,100793656.83283,-32674615.91727,   0.00061,   0.00011,  -0.00042,164528438.32815,   0.00000,274640135.82653,   0.00000,   0.00000,   0.00000,-310111697.49838,   0.00000
182117483.53206,103284455.84158,-33501500.31325,   0.00063,   0.00011,  -0.00044,168498080.13865,   0.00000,274640135.82653,   0.00000,   0.00000,   0.00000,-306142055.68787,   0.00000
186355900.17527,105767645.48473,-34323311.79883,   0.00064,   0.00012,  -0.00045,172450458.90432,   0.00000,274640135.82653,   0.00000,   0.00000,   0.00000,-302189676.92221,   0.00000
190568952.26645,108225470.57585,-35150196.19481,   0.00066,   0.00012,  -0.00046,176384444.86608,   0.00000,274640135.82653,   0.00000,   0.00000,   0.00000,-298255690.96045,   0.00000
194771858.53682,110693441.48778,-35972007.68039,   0.00067,   0.00012,  -0.00047,180308356.84892,   0.00000,274640135.82653,   0.00000,   0.00000,   0.00000,-294331778.97761,   0.00000
198957009.62077,113153803.03411,-36793819.16596,   0.00068,   0.00013,  -0.00048,184218044.51761,   0.00000,274640135.82653,   0.00000,   0.00000,   0.00000,-290422091.30892,   0.00000
203124405.51831,115606555.21483,-37610557.74113,   0.00070,   0.00013,  -0.00049,188110470.42781,   0.00000,274640135.82653,   0.00000,   0.00000,   0.00000,-286529665.39872,   0.00000
207274046.22943,118051698.02994,-38432369.22671,   0.00071,   0.00013,  -0.00050,191991722.59836,   0.00000,274640135.82653,   0.00000,   0.00000,   0.00000,-282648413.22817,   0.00000
211405931.75414,120489231.47944,-39249107.80188,   0.00073,   0.00014,  -0.00051,195855717.36822,   0.00000,274640135.82653,   0.00000,   0.00000,   0.00000,-278784418.45831,   0.00000
215520062.09242,122919155.56333,-40070919.28746,   0.00074,   0.00014,  -0.00052,199708556.76959,   0.00000,274640135.82653,   0.00000,   0.00000,   0.00000,-274931579.05694,   0.00000
219624046.60990,125359225.46804,-40887657.86263,   0.00075,   0.00014,  -0.00053,203551365.94618,   0.00000,274640135.82653,   0.00000,   0.00000,   0.00000,-271088769.88035,   0.00000
223702666.57535,127773930.82072,-41704396.43780,   0.00077,   0.00015,  -0.00054,207372759.62290,   0.00000,274640135.82653,   0.00000,   0.00000,   0.00000,-267267376.20363,   0.00000
227745776.16797,130173417.44219,-42521135.01297,   0.00078,   0.00015,  -0.00055,211165697.84768,   0.00000,274640135.82653,   0.00000,   0.00000,   0.00000,-263474437.97885,   0.00000
231796495.12620,132590659.25007,-43337873.58815,   0.00080,   0.00015,  -0.00056,214965955.05788,   0.00000,274640135.82653,   0.00000,   0.00000,   0.00000,-259674180.76865,   0.00000
235829458.89801,135000291.69235,-44154612.16332,   0.00081,   0.00015,  -0.00057,218752042.33594,   0.00000,274640135.82653,   0.00000,   0.00000,   0.00000,-255888093.49059,   0.00000
239837058.11780,137384559.58260,-44966277.82808,   0.00082,   0.00016,  -0.00058,222513643.36225,   0.00000,274640135.82653,   0.00000,   0.00000,   0.00000,-252126492.46428,   0.00000
243834511.51677,139778973.29366,-45777943.49285,   0.00084,   0.00016,  -0.00060,226268320.89266,   0.00000,274640135.82653,   0.00000,   0.00000,   0.00000,-248371814.93387,   0.00000
247796454.54292,142158168.27351,-46594682.06802,   0.00085,   0.00016,  -0.00061,229997675.63932,   0.00000,274640135.82653,   0.00000,   0.00000,   0.00000,-244642460.18721,   0.00000
251758397.56906,144537363.25336,-47406347.73279,   0.00086,   0.00017,  -0.00062,233724047.92263,   0.00000,274640135.82653,   0.00000,   0.00000,   0.00000,-240916087.90390,   0.00000
255702585.40879,146908948.86760,-48218013.39756,   0.00088,   0.00017,  -0.00063,237436273.22928,   0.00000,274640135.82653,   0.00000,   0.00000,   0.00000,-237203862.59725,   0.00000
259618872.24129,149283070.93704,-49024606.15192,   0.00089,   0.00017,  -0.00064,241124299.05734,   0.00000,274640135.82653,   0.00000,   0.00000,   0.00000,-233515836.76919,   0.00000
263527549.70818,151639437.82007,-49836271.81669,   0.00090,   0.00018,  -0.00065,244808253.60983,   0.00000,274640135.82653,   0.00000,   0.00000,   0.00000,-229831882.21670,   0.00000
267400716.80224,153980585.97188,-50647937.48145,   0.00092,   0.00018,  -0.00066,248463852.20684,   0.00000,274640135.82653,   0.00000,   0.00000,   0.00000,-226176283.61969,   0.00000
271281493.26191,156339489.31011,-51454530.23581,   0.00093,   0.00018,  -0.00067,252123740.32143,   0.00000,274640135.82653,   0.00000,   0.00000,   0.00000,-222516395.50509,   0.00000
275119149.98313,158665418.73071,-52261122.99018,   0.00094,   0.00019,  -0.00068,255748004.06671,   0.00000,274640135.82653,   0.00000,   0.00000,   0.00000,-218892131.75982,   0.00000
278964416.06997,161009103.33772,-53067715.74454,   0.00096,   0.00019,  -0.00069,259379670.86753,   0.00000,274640135.82653,   0.00000,   0.00000,   0.00000,-215260464.95900,   0.00000
282774171.78397,163337569.21352,-53874308.49890,   0.00097,   0.00019,  -0.00070,262983024.61914,   0.00000,274640135.82653,   0.00000,   0.00000,   0.00000,-211657111.20738,   0.00000
286558562.94594,165640670.53730,-54680901.25326,   0.00098,   0.00019,  -0.00071,266564986.64439,   0.00000,274640135.82653,   0.00000,   0.00000,   0.00000,-208075149.18214,   0.00000
290332808.28711,167953917.68188,-55487494.00762,   0.00099,   0.00020,  -0.00072,270140169.95424,   0.00000,274640135.82653,   0.00000,   0.00000,   0.00000,-204499965.87229,   0.00000
294089298.44186,170259555.46086,-56289013.85158,   0.00101,   0.00020,  -0.00073,273698150.71790,   0.00000,274640135.82653,   0.00000,   0.00000,   0.00000,-200941985.10863,   0.00000
297828033.41019,172557583.87423,-57095606.60594,   0.00102,   0.00020,  -0.00074,277245191.59639,   0.00000,274640135.82653,   0.00000,   0.00000,   0.00000,-197394944.23014,   0.00000
301549013.19210,174848002.92200,-57897126.44990,   0.00103,   0.00021,  -0.00075,280775035.38718,   0.00000,274640135.82653,   0.00000,   0.00000,   0.00000,-193865100.43935,   0.00000
305259847.15321,177148567.79057,-58698646.29386,   0.00104,   0.00021,  -0.00076,284298149.58470,   0.00000,274640135.82653,   0.00000,   0.00000,   0.00000,-190341986.24183,   0.00000
308927561.37587,179416158.74151,-59500166.13782,   0.00106,   0.00021,  -0.00077,287785699.98359,   0.00000,274640135.82653,   0.00000,   0.00000,   0.00000,-186854435.84294,   0.00000
312595275.59854,181683749.69245,-60301685.98177,   0.00107,   0.00022,  -0.00078,291273392.91237,   0.00000,274640135.82653,   0.00000,   0.00000,   0.00000,-183366742.91416,   0.00000
316235088.81398,183953877.09860,-61098132.91533,   0.00108,   0.00022,  -0.00079,294737061.07658,   0.00000,274640135.82653,   0.00000,   0.00000,   0.00000,-179903074.74995,   0.00000
319867292.66381,186206249.31833,-61899652.75928,   0.00109,   0.00022,  -0.00080,298196687.42275,   0.00000,274640135.82653,   0.00000,   0.00000,   0.00000,-176443448.40378,   0.00000
323471595.50642,188461157.99326,-62696099.69284,   0.00110,   0.00023,  -0.00082,301632313.34630,   0.00000,274640135.82653,   0.00000,   0.00000,   0.00000,-173007822.48023,   0.00000
327058143.16260,190708457.30258,-63492546.62639,   0.00112,   0.00023,  -0.00083,305053931.61903,   0.00000,274640135.82653,   0.00000,   0.00000,   0.00000,-169586204.20750,   0.00000
330644690.81879,192955756.61190,-64288993.55994,   0.00113,   0.00023,  -0.00084,308475709.20338,   0.00000,274640135.82653,   0.00000,   0.00000,   0.00000,-166164426.62315,   0.00000
334195728.10215,195187837.19001,-65085440.49349,   0.00114,   0.00024,  -0.00085,311869329.67981,   0.00000,274640135.82653,   0.00000,   0.00000,   0.00000,-162770806.14672,   0.00000
337729010.19909,197412308.40252,-65881887.42705,   0.00115,   0.00024,  -0.00086,315248964.46113,   0.00000,274640135.82653,   0.00000,   0.00000,   0.00000,-159391171.36540,   0.00000
341226781.92319,199621560.88380,-66678334.36060,   0.00116,   0.00024,  -0.00087,318600474.36843,   0.00000,274640135.82653,   0.00000,   0.00000,   0.00000,-156039661.45810,   0.00000
344724553.64730,201830813.36509,-67469708.38375,   0.00117,   0.00025,  -0.00088,321948975.31993,   0.00000,274640135.82653,   0.00000,   0.00000,   0.00000,-152691160.50660,   0.00000
348204570.18498,204032456.48077,-68266155.31730,   0.00119,   0.00025,  -0.00089,325286698.26482,   0.00000,274640135.82653,   0.00000,   0.00000,   0.00000,-149353437.56171,   0.00000
351649076.34984,206218880.86524,-69057529.34045,   0.00120,   0.00025,  -0.00090,328593134.15935,   0.00000,274640135.82653,   0.00000,   0.00000,   0.00000,-146047001.66718,   0.00000
355101191.88030,208423060.43612,-69848903.36359,   0.00121,   0.00026,  -0.00091,331907154.67349,   0.00000,274640135.82653,   0.00000,   0.00000,   0.00000,-142732981.15304,   0.00000
358510187.67232,210594266.08937,-70640277.38674,   0.00122,   0.00026,  -0.00092,335185703.87768,   0.00000,274640135.82653,   0.00000,   0.00000,   0.00000,-139454431.94885,   0.00000
361909037.64353,212775617.56343,-71426578.49948,   0.00123,   0.00026,  -0.00093,338454523.26658,   0.00000,274640135.82653,   0.00000,   0.00000,   0.00000,-136185612.55995,   0.00000
365290132.42833,214949359.67188,-72217952.52263,   0.00124,   0.00027,  -0.00094,341712636.60072,   0.00000,274640135.82653,   0.00000,   0.00000,   0.00000,-132927499.22581,   0.00000
368645862.66110,217097737.22831,-73009326.54578,   0.00125,   0.00027,  -0.00095,344949419.81760,   0.00000,274640135.82653,   0.00000,   0.00000,   0.00000,-129690716.00893,   0.00000
371991447.07306,219256260.60555,-73795627.65852,   0.00127,   0.00027,  -0.00096,348176499.54053,   0.00000,274640135.82653,   0.00000,   0.00000,   0.00000,-126463636.28600,   0.00000
375319276.29860,221407174.61719,-74581928.77127,   0.00128,   0.00028,  -0.00097,351389680.96169,   0.00000,274640135.82653,   0.00000,   0.00000,   0.00000,-123250454.86484,   0.00000
378629350.33773,223550479.26321,-75368229.88401,   0.00129,   0.00028,  -0.00098,354588972.20925,   0.00000,274640135.82653,   0.00000,   0.00000,   0.00000,-120051163.61728,   0.00000
381903914.00402,225678565.17802,-76154530.99675,   0.00130,   0.00028,  -0.00099,357760289.49299,   0.00000,274640135.82653,   0.00000,   0.00000,   0.00000,-116879846.33354,   0.00000
385168331.84951,227816796.91364,-76940832.10949,   0.00131,   0.00029,  -0.00100,360925194.62944,   0.00000,274640135.82653,   0.00000,   0.00000,   0.00000,-113714941.19709,   0.00000
388425140.32938,229937273.46284,-77722060.31183,   0.00132,   0.00029,  -0.00101,364079630.89552,   0.00000,274640135.82653,   0.00000,   0.00000,   0.00000,-110560504.93101,   0.00000
391646438.43643,232042531.28083,-78508361.42457,   0.00133,   0.00029,  -0.00102,367209377.00712,   0.00000,274640135.82653,   0.00000,   0.00000,   0.00000,-107430758.81941,   0.00000
394857590.72266,234157934.91963,-79289589.62691,   0.00134,   0.00030,  -0.00103,370329494.47186,   0.00000,274640135.82653,   0.00000,   0.00000,   0.00000,-104310641.35467,   0.00000
398043378.45687,236247974.00641,-80070817.82925,   0.00135,   0.00030,  -0.00104,373428309.36061,   0.00000,274640135.82653,   0.00000,   0.00000,   0.00000,-101211826.46592,   0.00000
401201265.18386,238340549.54838,-80857118.94199,   0.00136,   0.00030,  -0.00105,376509978.31601,   0.00000,274640135.82653,   0.00000,   0.00000,   0.00000,-98130157.51052,   0.00000
404359151.91084,240433125.09036,-81633274.23393,   0.00137,   0.00031,  -0.00106,379585367.48459,   0.00000,274640135.82653,   0.00000,   0.00000,   0.00000,-95054768.34194,   0.00000
407491674.08580,242500336.08031,-82414502.43627,   0.00138,   0.00031,  -0.00107,382642731.75905,   0.00000,274640135.82653,   0.00000,   0.00000,   0.00000,-91997404.06748,   0.00000
410596295.25353,244570083.52547,-83195730.63860,   0.00139,   0.00031,  -0.00108,385679740.19340,   0.00000,274640135.82653,   0.00000,   0.00000,   0.00000,-88960395.63313,   0.00000
413683161.23485,246632221.60502,-83971885.93054,   0.00140,   0.00032,  -0.00109,388699686.65712,   0.00000,274640135.82653,   0.00000,   0.00000,   0.00000,-85940449.16941,   0.00000
416752272.02975,248686750.31896,-84753114.13287,   0.00141,   0.00032,  -0.00110,391709150.86669,   0.00000,274640135.82653,   0.00000,   0.00000,   0.00000,-82930984.95984,   0.00000
419803627.63823,250733669.66729,-85529269.42481,   0.00142,   0.00032,  -0.00111,394701561.39886,   0.00000,274640135.82653,   0.00000,   0.00000,   0.00000,-79938574.42767,   0.00000
422844837.42590,252790734.83644,-86305424.71674,   0.00143,   0.00033,  -0.00112,397687734.27000,   0.00000,274640135.82653,   0.00000,   0.00000,   0.00000,-76952401.55653,   0.00000
425860682.66155,254822435.45356,-87081580.00867,   0.00144,   0.00033,  -0.00113,400652646.38854,   0.00000,274640135.82653,   0.00000,   0.00000,   0.00000,-73987489.43799,   0.00000
428858772.71079,256846526.70507,-87857735.30061,   0.00145,   0.00033,  -0.00114,403603820.53463,   0.00000,274640135.82653,   0.00000,   0.00000,   0.00000,-71036315.29190,   0.00000
431828961.75279,258873154.41178,-88628817.68214,   0.00146,   0.00034,  -0.00115,406531473.27051,   0.00000,274640135.82653,   0.00000,   0.00000,   0.00000,-68108662.55602,   0.00000
434799150.79480,260899782.11850,-89404972.97407,   0.00147,   0.00034,  -0.00116,409462747.64766,   0.00000,274640135.82653,   0.00000,   0.00000,   0.00000,-65177388.17887,   0.00000
437726220.09836,262893435.90758,-90176055.35560,   0.00148,   0.00034,  -0.00117,412355447.75701,   0.00000,274640135.82653,   0.00000,   0.00000,   0.00000,-62284688.06952,   0.00000
440643143.58112,264897235.51747,-90947137.73713,   0.00149,   0.00035,  -0.00118,415242002.17850,   0.00000,274640135.82653,   0.00000,   0.00000,   0.00000,-59398133.64803,   0.00000
443542311.87746,266893425.76176,-91718220.11866,   0.00150,   0.00035,  -0.00119,418114878.66182,   0.00000,274640135.82653,   0.00000,   0.00000,   0.00000,-56525257.16471,   0.00000
446423724.98738,268882006.64044,-92489302.50018,   0.00151,   0.00035,  -0.00120,420974087.05406,   0.00000,274640135.82653,   0.00000,   0.00000,   0.00000,-53666048.77246,   0.00000
449287382.91089,270862978.15351,-93260384.88171,   0.00152,   0.00036,  -0.00121,423819637.29860,   0.00000,274640135.82653,   0.00000,   0.00000,   0.00000,-50820498.52793,   0.00000
452115530.46156,272828730.93537,-94026394.35284,   0.00153,   0.00036,  -0.00122,426634212.64747,   0.00000,274640135.82653,   0.00000,   0.00000,   0.00000,-48005923.17906,   0.00000
454943678.01223,274794483.71723,-94797476.73436,   0.00153,   0.00036,  -0.00123,429452477.12702,   0.00000,274640135.82653,   0.00000,   0.00000,   0.00000,-45187658.69951,   0.00000
457743924.55568,276762772.95429,-95563486.20549,   0.00154,   0.00037,  -0.00124,432247376.84017,   0.00000,274640135.82653,   0.00000,   0.00000,   0.00000,-42392758.98636,   0.00000
460536561.73352,278713307.00493,-96329495.67661,   0.00155,   0.00037,  -0.00125,435035032.25540,   0.00000,274640135.82653,   0.00000,   0.00000,   0.00000,-39605103.57113,   0.00000
463301297.90413,280666377.51077,-97095505.14774,   0.00156,   0.00037,  -0.00126,437802720.96637,   0.00000,274640135.82653,   0.00000,   0.00000,   0.00000,-36837414.86016,   0.00000
466040669.52272,282594083.46459,-97861514.61886,   0.00157,   0.00038,  -0.00127,440549218.50784,   0.00000,274640135.82653,   0.00000,   0.00000,   0.00000,-34090917.31869,   0.00000
468769895.32049,284531935.23923,-98627524.08998,   0.00158,   0.00038,  -0.00128,443289743.79823,   0.00000,274640135.82653,   0.00000,   0.00000,   0.00000,-31350392.02830,   0.00000
471481365.93186,286462177.64825,-99393533.56111,   0.00159,   0.00038,  -0.00129,446016706.39094,   0.00000,274640135.82653,   0.00000,   0.00000,   0.00000,-28623429.43559,   0.00000
474157326.17038,288377201.32606,-100154470.12183,   0.00160,   0.00039,  -0.00130,448712793.61367,   0.00000,274640135.82653,   0.00000,   0.00000,   0.00000,-25927342.21286,   0.00000
476833286.40891,290292225.00387,-100915406.68254,   0.00160,   0.00039,  -0.00131,451409261.28667,   0.00000,274640135.82653,   0.00000,   0.00000,   0.00000,-23230874.53986,   0.00000
479473736.27461,292192029.95046,-101681416.15367,   0.00161,   0.00039,  -0.00132,454081680.98563,   0.00000,274640135.82653,   0.00000,   0.00000,   0.00000,-20558454.84089,   0.00000
482114186.14030,294091834.89706,-102442352.71439,   0.00162,   0.00040,  -0.00133,456751088.76490,   0.00000,274640135.82653,   0.00000,   0.00000,   0.00000,-17889047.06163,   0.00000
484719125.63316,295976421.11244,-103203289.27511,   0.00163,   0.00040,  -0.00134,459393074.94895,   0.00000,274640135.82653,   0.00000,   0.00000,   0.00000,-15247060.87758,   0.00000
487313919.30521,297871153.14863,-103959152.92542,   0.00164,   0.00041,  -0.00135,462025797.08150,   0.00000,274640135.82653,   0.00000,   0.00000,   0.00000,-12614338.74503,   0.00000
489883348.42524,299740520.63279,-104720089.48614,   0.00164,   0.00041,  -0.00136,464640803.51728,   0.00000,274640135.82653,   0.00000,   0.00000,   0.00000,-9999332.30925,   0.00000
492442631.72446,301620033.93777,-105475953.13645,   0.00165,   0.00041,  -0.00137,467246570.01344,   0.00000,274640135.82653,   0.00000,   0.00000,   0.00000,-7393565.81309,   0.00000
494984159.83726,303491937.87714,-106236889.69717,   0.00166,   0.00042,  -0.00138,469842317.33243,   0.00000,274640135.82653,   0.00000,   0.00000,   0.00000,-4797818.49410,   0.00000
497500323.39804,305338477.26448,-106992753.34749,   0.00167,   0.00042,  -0.00139,472413499.06732,   0.00000,274640135.82653,   0.00000,   0.00000,   0.00000,-2226636.75921,   0.00000
499671752.35323,306952107.95596,-107652371.92919,   0.00167,   0.00042,  -0.00140,474640135.84338,   0.00000,274640135.82653,   0.00000,   0.00000,   0.00000,   0.01685,   0.00000
499653375.75478,307001696.50732,-107665149.37684,   0.00168,   0.00042,  -0.00140,474640135.84338,   0.00000,274641397.20896,   0.00000,   0.00000,  -0.00000,   0.80664,   1.00000
499509899.32936,307389625.10102,-107764402.89407,   0.00168,   0.00043,  -0.00141,477193398.82382,   0.00001,274651303.64513,   0.00001,   0.00000,  -0.00001,   0.00000,   2.00000
499359907.49187,307775647.29175,-107870004.10129,   0.00169,   0.00043,  -0.00142,477176037.93009,   0.00002,274661101.07184,   0.00002,   0.00000,  -0.00002,   0.00000,   2.00000
499213866.46086,308161109.58406,-107970664.05836,   0.00170,   0.00043,  -0.00143,477182829.71601,   0.00003,274670883.67643,   0.00003,   0.00000,  -0.00003,  -0.00000,   2.00000
499057365.40718,308555991.41130,-108079845.84161,   0.00171,   0.00044,  -0.00144,477176569.54410,   0.00004,274680600.90979,   0.00004,   0.00001,  -0.00003,   0.00000,   2.00000
498901697.04383,308937404.06607,-108189613.01665,   0.00171,   0.00044,  -0.00145,477161728.50980,   0.00005,274690219.90082,   0.00005,   0.00001,  -0.00004,  -0.00000,   2.00000
498742572.86510,309329907.81354,-108300141.20316,   0.00172,   0.00044,  -0.00146,477165739.71670,   0.00005,274699814.11715,   0.00005,   0.00001,  -0.00005,   0.00000,   2.00000
498580727.70761,309707037.70778,-108415421.72314,   0.00173,   0.00045,  -0.00147,477154239.59435,   0.00006,274709323.70545,   0.00006,   0.00001,  -0.00006,   0.00000,   2.00000
498415401.77288,310095289.04854,-108531430.99175,   0.00174,   0.00045,  -0.00148,477158190.50915,   0.00007,274718808.84884,   0.00007,   0.00001,  -0.00007,   0.00000,   2.00000
498246964.34328,310481416.26385,-108650168.43061,   0.00174,   0.00046,  -0.00149,477154372.23665,   0.00008,274728239.61087,   0.00008,   0.00001,  -0.00008,   0.00000,   2.00000
498079383.34020,310854307.49532,-108769499.25623,   0.00175,   0.00046,  -0.00150,477139224.40999,   0.00009,274737572.47177,   0.00009,   0.00002,  -0.00008,   0.00000,   2.00000
497901144.06363,311236749.45680,-108897250.74301,   0.00176,   0.00046,  -0.00151,477132757.99195,   0.00010,274746841.48636,   0.00010,   0.00002,  -0.00009,  -0.00000,   2.00000
497726491.62710,311631885.02199,-109017937.77948,   0.00176,   0.00047,  -0.00152,477146895.94513,   0.00011,274756126.54469,   0.00011,   0.00002,  -0.00010,   0.00000,   2.00000
497545528.25245,312012224.36880,-109146952.41207,   0.00177,   0.00047,  -0.00153,477121320.76391,   0.00011,274765274.11691,   0.00011,   0.00002,  -0.00011,   0.00000,   2.00000
497365008.34787,312390140.57531,-109275072.60451,   0.00178,   0.00047,  -0.00154,477131016.88374,   0.00012,274774421.23673,   0.00012,   0.00002,  -0.00012,   0.00000,   2.00000
497177721.37090,312766534.76624,-109409470.11022,   0.00178,   0.00048,  -0.00155,477113161.54190,   0.00013,274783461.45426,   0.00013,   0.00002,  -0.00012,   0.00000,   2.00000
496986808.22678,313154064.34573,-109544482.63799,   0.00179,   0.00048,  -0.00156,477116869.41634,   0.00014,274792478.53619,   0.00014,   0.00002,  -0.00013,   0.00000,   2.00000
496800389.65704,313528124.68356,-109676494.95785,   0.00180,   0.00048,  -0.00157,477115078.85515,   0.00015,274801451.40728,   0.00015,   0.00003,  -0.00014,   0.00000,   2.00000
496603066.50638,313911750.37091,-109816854.92937,   0.00180,   0.00049,  -0.00158,477108517.46634,   0.00016,274810361.84736,   0.00016,   0.00003,  -0.00015,  -0.00000,   2.00000
496406124.13383,314295487.47470,-109955732.28300,   0.00181,   0.00049,  -0.00159,477100763.97289,   0.00016,274819205.52999,   0.00016,   0.00003,  -0.00016,   0.00000,   2.00000
496205952.56866,314677295.37401,-110097268.29470,   0.00182,   0.00050,  -0.00160,477096474.67114,   0.00017,274827996.16655,   0.00017,   0.00003,  -0.00016,   0.00000,   2.00000
496002542.41006,315057198.51324,-110241454.54961,   0.00182,   0.00050,  -0.00160,477092147.97758,   0.00018,274836733.88728,   0.00018,   0.00003,  -0.00017,   0.00000,   2.00000
495795883.75806,315435220.86620,-110388282.83245,   0.00183,   0.00050,  -0.00161,477087784.25608,   0.00019,274845418.82244,   0.00019,   0.00003,  -0.00018,  -0.00000,   2.00000
495585966.21595,315811385.94053,-110537745.12472,   0.00183,   0.00051,  -0.00162,477083383.87089,   0.00020,274854051.10235,   0.00020,   0.00004,  -0.00019,   0.00000,   2.00000
495376383.45305,316187810.28749,-110685720.90888,   0.00184,   0.00051,  -0.00163,477075397.49418,   0.00020,274862617.12691,   0.00020,   0.00004,  -0.00019,   0.00000,   2.00000
495162977.11879,316575373.93234,-110834235.40523,   0.00185,   0.00051,  -0.00164,477078872.42806,   0.00021,274871161.33147,   0.00021,   0.00004,  -0.00020,   0.00000,   2.00000
494943180.40818,316946018.15479,-110991604.63065,   0.00185,   0.00052,  -0.00165,477069962.00365,   0.00022,274879636.23319,   0.00022,   0.00004,  -0.00021,  -0.00000,   2.00000
494723146.16260,317329932.11799,-111145355.14107,   0.00186,   0.00052,  -0.00166,477069850.30771,   0.00023,274888075.95723,   0.00023,   0.00004,  -0.00022,   0.00000,   2.00000
494495975.59406,317712562.15666,-111305349.43234,   0.00186,   0.00052,  -0.00167,477051617.87214,   0.00023,274896410.89978,   0.00023,   0.00004,  -0.00023,   0.00000,   2.00000
494272874.40566,318094953.14911,-111460214.82557,   0.00187,   0.00053,  -0.00168,477057086.69835,   0.00024,274904732.79607,   0.00024,   0.00005,  -0.00023,   0.00000,   2.00000
494042770.38376,318473426.64655,-111621809.20826,   0.00188,   0.00053,  -0.00169,477056015.19336,   0.00025,274913016.59058,   0.00025,   0.00005,  -0.00024,   0.00000,   2.00000
493809283.95467,318850135.11285,-111786003.55129,   0.00188,   0.00054,  -0.00170,477051356.41974,   0.00026,274921248.67423,   0.00026,   0.00005,  -0.00025,   0.00000,   2.00000
493572175.74209,319227819.32335,-111952334.66837,   0.00189,   0.00054,  -0.00171,477029429.32732,   0.00026,274929362.82039,   0.00026,   0.00005,  -0.00025,   0.00000,   2.00000
493335514.40452,319603194.87831,-112117620.69660,   0.00189,   0.00054,  -0.00172,477038278.36911,   0.00027,274937478.00166,   0.00027,   0.00005,  -0.00026,   0.00000,   2.00000
493095418.09476,319976867.09947,-112285510.93888,   0.00190,   0.00055,  -0.00173,477033492.76861,   0.00028,274945541.78579,   0.00028,   0.00005,  -0.00027,  -0.00000,   2.00000
492847361.12971,320362268.62608,-112457477.36805,   0.00190,   0.00055,  -0.00174,477023143.78873,   0.00029,274953532.97121,   0.00029,   0.00005,  -0.00028,   0.00000,   2.00000
492599739.24283,320745317.66489,-112628369.11698,   0.00191,   0.00056,  -0.00175,477031919.83581,   0.00029,274961525.44267,   0.00029,   0.00006,  -0.00028,   0.00000,   2.00000
492352888.37957,321116030.45117,-112799948.39162,   0.00191,   0.00056,  -0.00176,477015357.23548,   0.00030,274969421.83919,   0.00030,   0.00006,  -0.00029,   0.00000,   2.00000
492098253.17206,321495709.35566,-112976018.64234,   0.00192,   0.00056,  -0.00177,477022161.69431,   0.00031,274977312.40311,   0.00031,   0.00006,  -0.00030,   0.00000,   2.00000
491839770.32612,321876516.42539,-113154249.25944,   0.00192,   0.00057,  -0.00178,477000052.35446,   0.00031,274985086.04477,   0.00031,   0.00006,  -0.00031,   0.00000,   2.00000
491581715.96826,322255021.03263,-113331390.76873,   0.00193,   0.00057,  -0.00179,477008640.51708,   0.00032,274992861.24863,   0.00032,   0.00006,  -0.00031,  -0.00000,   2.00000
491320089.26874,322631876.93808,-113511116.98686,   0.00193,   0.00057,  -0.00180,477003654.96680,   0.00033,275000585.89047,   0.00033,   0.00006,  -0.00032,  -0.00000,   2.00000
491054872.43481,323007102.38606,-113693422.10820,   0.00194,   0.00058,  -0.00180,476998638.88679,   0.00034,275008260.10513,   0.00033,   0.00007,  -0.00033,  -0.00000,   2.00000
490785387.42037,323393417.91196,-113876079.59000,   0.00194,   0.00058,  -0.00181,477001775.88643,   0.00034,275015915.37904,   0.00034,   0.00007,  -0.00033,   0.00000,   2.00000
490516600.18971,323767594.10378,-114059474.65601,   0.00195,   0.00059,  -0.00182,476984899.25102,   0.00035,275023475.01829,   0.00035,   0.00007,  -0.00034,   0.00000,   2.00000
490243486.56172,324152868.41857,-114243220.53883,   0.00195,   0.00059,  -0.00183,476987972.65333,   0.00036,275031015.98204,   0.00035,   0.00007,  -0.00035,  -0.00000,   2.00000
489963684.53538,324521608.11952,-114435838.12010,   0.00196,   0.00059,  -0.00184,476978310.53357,   0.00036,275038489.61230,   0.00036,   0.00007,  -0.00035,  -0.00000,   2.00000
489683195.62964,324903694.14430,-114624710.98341,   0.00196,   0.00060,  -0.00185,476977703.17787,   0.00037,275045930.86806,   0.00037,   0.00007,  -0.00036,   0.00000,   2.00000
489402667.18208,325286427.46352,-114812107.88611,   0.00197,   0.00060,  -0.00186,476968854.12546,   0.00038,275053308.26118,   0.00037,   0.00008,  -0.00037,   0.00000,   2.00000
489114692.75470,325665317.18946,-115006132.32539,   0.00197,   0.00061,  -0.00187,476967315.18971,   0.00038,275060650.17846,   0.00038,   0.00008,  -0.00038,  -0.00000,   2.00000
488822949.61340,326042636.11998,-115202714.95740,   0.00198,   0.00061,  -0.00188,476962090.54518,   0.00039,275067942.66671,   0.00039,   0.00008,  -0.00038,   0.00000,   2.00000
488535309.12979,326419969.04115,-115394112.80986,   0.00198,   0.00061,  -0.00189,476966613.43504,   0.00040,275075223.29336,   0.00039,   0.00008,  -0.00039,   0.00000,   2.00000
488238931.52428,326809052.14158,-115589519.92624,   0.00198,   0.00062,  -0.00190,476956162.64154,   0.00040,275082434.67626,   0.00040,   0.00008,  -0.00040,   0.00000,   2.00000
487943654.59792,327183261.54192,-115786072.30098,   0.00199,   0.00062,  -0.00191,476956032.33520,   0.00041,275089616.75900,   0.00041,   0.00008,  -0.00040,   0.00000,   2.00000
487639545.32772,327569235.10929,-115986616.78493,   0.00199,   0.00062,  -0.00192,476945571.65464,   0.00042,275096730.05096,   0.00041,   0.00009,  -0.00041,   0.00000,   2.00000
487336543.05589,327940382.64406,-116188303.85407,   0.00200,   0.00063,  -0.00193,476945345.16268,   0.00042,275103814.14768,   0.00042,   0.00009,  -0.00042,   0.00000,   2.00000
487028904.25820,328322573.19839,-116390244.38846,   0.00200,   0.00063,  -0.00194,476948299.84288,   0.00043,275110881.32448,   0.00042,   0.00009,  -0.00042,   0.00000,   2.00000
486721052.07309,328705545.74487,-116590731.23302,   0.00200,   0.00064,  -0.00194,476939207.49858,   0.00044,275117885.49340,   0.00043,   0.00009,  -0.00043,   0.00000,   2.00000
486409235.83539,329087000.79852,-116793796.02896,   0.00201,   0.00064,  -0.00195,476933797.53909,   0.00044,275124841.05899,   0.00044,   0.00009,  -0.00044,   0.00000,   2.00000
486093431.53639,329466952.45772,-116999433.99528,   0.00201,   0.00064,  -0.00196,476928362.74200,   0.00045,275131748.16280,   0.00044,   0.00009,  -0.00044,  -0.00000,   2.00000
485773614.64689,329845414.38792,-117207640.46967,   0.00202,   0.00065,  -0.00197,476922903.54616,   0.00046,275138606.94678,   0.00045,   0.00009,  -0.00045,   0.00000,   2.00000
485448993.41665,330234843.27498,-117416060.29927,   0.00202,   0.00065,  -0.00198,476925816.99993,   0.00046,275145449.63805,   0.00045,   0.00010,  -0.00046,  -0.00000,   2.00000
485125486.13139,330609540.98026,-117625651.57851,   0.00202,   0.00066,  -0.00199,476925314.18626,   0.00047,275152263.30249,   0.00046,   0.00010,  -0.00046,   0.00000,   2.00000
484796430.47267,330998340.49389,-117835202.17148,   0.00203,   0.00066,  -0.00200,476911107.95796,   0.00047,275158995.55551,   0.00047,   0.00010,  -0.00047,   0.00000,   2.00000
484468485.25648,331372456.49684,-118045944.78281,   0.00203,   0.00066,  -0.00201,476910483.68331,   0.00048,275165698.79961,   0.00047,   0.00010,  -0.00047,   0.00000,   2.00000
484131869.13717,331755162.66559,-118260874.08846,   0.00203,   0.00067,  -0.00202,476917140.64633,   0.00049,275172401.02180,   0.00048,   0.00010,  -0.00048,   0.00000,   2.00000
483798595.54571,332141157.50122,-118470394.66792,   0.00204,   0.00067,  -0.00203,476904031.19434,   0.00049,275179026.55163,   0.00048,   0.00010,  -0.00049,   0.00000,   2.00000
483457359.70744,332523297.98985,-118686486.01697,   0.00204,   0.00068,  -0.00204,476902235.55912,   0.00050,275185619.06178,   0.00049,   0.00011,  -0.00049,   0.00000,   2.00000
483111897.55234,332903985.05230,-118905144.29767,   0.00204,   0.00068,  -0.00205,476896645.23675,   0.00050,275192164.20341,   0.00049,   0.00011,  -0.00050,   0.00000,   2.00000
482770518.71277,333284836.07496,-119118624.82246,   0.00205,   0.00068,  -0.00206,476900499.35931,   0.00051,275198698.27629,   0.00050,   0.00011,  -0.00051,   0.00000,   2.00000
482421098.85399,333661849.93445,-119338665.72525,   0.00205,   0.00069,  -0.00206,476898687.60954,   0.00052,275205199.72049,   0.00051,   0.00011,  -0.00051,   0.00000,   2.00000
482065723.83852,334052979.30341,-119558662.25361,   0.00205,   0.00069,  -0.00207,476884488.17278,   0.00052,275211621.25178,   0.00051,   0.00011,  -0.00052,  -0.00000,   2.00000
481711452.76606,334429536.49952,-119779881.59673,   0.00206,   0.00070,  -0.00208,476883557.35828,   0.00053,275218014.01061,   0.00052,   0.00011,  -0.00053,   0.00000,   2.00000
481360441.79678,334818587.24862,-119993498.58746,   0.00206,   0.00070,  -0.00209,476895793.42046,   0.00053,275224428.37459,   0.00052,   0.00012,  -0.00053,   0.00000,   2.00000
480996573.74582,335204576.97399,-120217464.00845,   0.00206,   0.00070,  -0.00210,476880753.61690,   0.00054,275230760.06188,   0.00053,   0.00012,  -0.00054,   0.00000,   2.00000
480637608.60495,335578519.78011,-120438719.57743,   0.00207,   0.00071,  -0.00211,476875860.41120,   0.00055,275237048.23734,   0.00053,   0.00012,  -0.00054,  -0.00000,   2.00000
480273370.44329,335963331.75115,-120660110.29953,   0.00207,   0.00071,  -0.00212,476878678.68980,   0.00055,275243322.52573,   0.00054,   0.00012,  -0.00055,   0.00000,   2.00000
479900860.62580,336344262.76145,-120888035.34342,   0.00207,   0.00072,  -0.00213,476876827.48754,   0.00056,275249565.20099,   0.00054,   0.00012,  -0.00056,   0.00000,   2.00000
479530597.69915,336740937.51557,-121108177.32908,   0.00207,   0.00072,  -0.00214,476871957.63496,   0.00056,275255764.76237,   0.00055,   0.00012,  -0.00056,   0.00000,   2.00000
479157633.83826,337120649.45377,-121333540.11572,   0.00208,   0.00073,  -0.00215,476874658.23660,   0.00057,275261950.41720,   0.00055,   0.00013,  -0.00057,   0.00000,   2.00000
478775290.13910,337499837.89278,-121565309.41872,   0.00208,   0.00073,  -0.00215,476855753.27007,   0.00057,275268039.71930,   0.00056,   0.00013,  -0.00057,   0.00000,   2.00000
478396147.21409,337891443.57033,-121789411.73713,   0.00208,   0.00073,  -0.00216,476867835.21807,   0.00058,275274151.37003,   0.00056,   0.00013,  -0.00058,   0.00000,   2.00000
478013236.92925,338269501.48212,-122018635.85010,   0.00208,   0.00074,  -0.00217,476853420.86595,   0.00059,275280184.14277,   0.00057,   0.00013,  -0.00059,  -0.00000,   2.00000
477629709.23579,338657461.40541,-122244117.80750,   0.00209,   0.00074,  -0.00218,476869364.04900,   0.00059,275286254.27654,   0.00057,   0.00013,  -0.00059,   0.00000,   2.00000
477241504.61265,339044023.82111,-122472209.69107,   0.00209,   0.00075,  -0.00219,476863591.71809,   0.00060,275292278.70362,   0.00058,   0.00013,  -0.00060,  -0.00000,   2.00000
476853288.80964,339419654.28964,-122701542.41913,   0.00209,   0.00075,  -0.00220,476845185.50061,   0.00060,275298209.40976,   0.00058,   0.00014,  -0.00060,  -0.00000,   2.00000
476455632.88041,339803491.73610,-122934851.06337,   0.00209,   0.00075,  -0.00221,476851933.31981,   0.00061,275304142.84681,   0.00059,   0.00014,  -0.00061,   0.00000,   2.00000
476062031.87385,340187630.09151,-123163023.67923,   0.00210,   0.00076,  -0.00222,476855233.22429,   0.00061,275310065.81478,   0.00059,   0.00014,  -0.00062,  -0.00000,   2.00000
475657725.21171,340583326.64795,-123395092.87490,   0.00210,   0.00076,  -0.00223,476845064.23661,   0.00062,275315926.91870,   0.00060,   0.00014,  -0.00062,   0.00000,   2.00000
475254499.83318,340964697.18992,-123628499.04003,   0.00210,   0.00077,  -0.00224,476843541.51846,   0.00062,275321759.48762,   0.00060,   0.00014,  -0.00063,  -0.00000,   2.00000
474851489.35635,341343836.99765,-123860676.62013,   0.00210,   0.00077,  -0.00224,476850695.93921,   0.00063,275327596.77686,   0.00061,   0.00014,  -0.00063,   0.00000,   2.00000
474446550.35491,341736222.56984,-124089007.10746,   0.00211,   0.00078,  -0.00225,476849620.06205,   0.00063,275333407.28918,   0.00061,   0.00015,  -0.00064,   0.00000,   2.00000
474033736.93099,342112658.77642,-124326450.73742,   0.00211,   0.00078,  -0.00226,476838976.82821,   0.00064,275339154.72170,   0.00062,   0.00015,  -0.00065,   0.00000,   2.00000
473618925.13738,342502337.42822,-124560028.90379,   0.00211,   0.00078,  -0.00227,476837883.91145,   0.00064,275344875.73111,   0.00062,   0.00015,  -0.00065,  -0.00000,   2.00000
473204297.39931,342889743.40872,-124792376.13645,   0.00211,   0.00079,  -0.00228,476844977.77672,   0.00065,275350601.68497,   0.00063,   0.00015,  -0.00066,  -0.00000,   2.00000
472788514.80127,343278414.37141,-125023495.82602,   0.00211,   0.00079,  -0.00229,476835104.38021,   0.00066,275356267.79608,   0.00063,   0.00015,  -0.00066,   0.00000,   2.00000
472363821.75760,343663107.41819,-125261124.37796,   0.00212,   0.00080,  -0.00230,476833203.35696,   0.00066,275361904.79456,   0.00064,   0.00015,  -0.00067,   0.00000,   2.00000
471943167.71691,344048182.61343,-125493656.80030,   0.00212,   0.00080,  -0.00231,476836222.32276,   0.00067,275367531.55404,   0.00064,   0.00016,  -0.00067,   0.00000,   2.00000
471517411.73611,344431929.54314,-125728842.93346,   0.00212,   0.00080,  -0.00231,476830307.01741,   0.00067,275373114.04605,   0.00065,   0.00016,  -0.00068,   0.00000,   2.00000
471086516.93580,344814352.19922,-125966677.38572,   0.00212,   0.00081,  -0.00232,476824380.44556,   0.00068,275378652.43305,   0.00065,   0.00016,  -0.00069,   0.00000,   2.00000
470655786.18492,345194536.73980,-126203278.70472,   0.00212,   0.00081,  -0.00233,476831333.12327,   0.00068,275384196.05179,   0.00065,   0.00016,  -0.00069,   0.00000,   2.00000
470218940.36916,345585241.16125,-126439854.12803,   0.00212,   0.00082,  -0.00234,476834289.89435,   0.00069,275389729.61147,   0.00066,   0.00016,  -0.00070,   0.00000,   2.00000
469787053.63588,345964528.09250,-126674043.90508,   0.00213,   0.00082,  -0.00235,476828316.37604,   0.00069,275395219.10180,   0.00066,   0.00016,  -0.00070,  -0.00000,   2.00000
469343569.46503,346355249.84404,-126912097.82643,   0.00213,   0.00083,  -0.00236,476818417.49884,   0.00070,275400649.71775,   0.00067,   0.00017,  -0.00071,   0.00000,   2.00000
468905664.30100,346742761.31692,-127145026.46768,   0.00213,   0.00083,  -0.00237,476838152.05748,   0.00070,275406134.76140,   0.00067,   0.00017,  -0.00071,   0.00000,   2.00000
468456971.56412,347129871.26769,-127384518.69255,   0.00213,   0.00083,  -0.00238,476819428.91508,   0.00071,275411527.31864,   0.00068,   0.00017,  -0.00072,   0.00000,   2.00000
468013234.56032,347505681.23497,-127621677.11473,   0.00213,   0.00084,  -0.00238,476813269.19413,   0.00071,275416875.72073,   0.00068,   0.00017,  -0.00073,   0.00000,   2.00000
467564817.87262,347888302.78856,-127858703.88645,   0.00213,   0.00084,  -0.00239,476833104.07551,   0.00072,275422279.32079,   0.00069,   0.00017,  -0.00073,   0.00000,   2.00000
467113952.71732,348284059.29815,-128091856.36371,   0.00214,   0.00085,  -0.00240,476832062.46969,   0.00072,275427658.19555,   0.00069,   0.00017,  -0.00074,   0.00000,   2.00000
466658572.03672,348666750.26324,-128330434.67657,   0.00214,   0.00085,  -0.00241,476817184.24326,   0.00073,275432959.72490,   0.00069,   0.00018,  -0.00074,   0.00000,   2.00000
466203320.30770,349047197.07451,-128567785.22840,   0.00214,   0.00086,  -0.00242,476823973.18338,   0.00073,275438266.89368,   0.00070,   0.00018,  -0.00075,   0.00000,   2.00000
465746469.19041,349429113.22633,-128804028.49153,   0.00214,   0.00086,  -0.00243,476813900.78602,   0.00074,275443515.34426,   0.00070,   0.00018,  -0.00075,  -0.00000,   2.00000
465288797.94409,349820449.24330,-129036285.80151,   0.00214,   0.00086,  -0.00244,476829652.68055,   0.00074,275448803.80195,   0.00071,   0.00018,  -0.00076,   0.00000,   2.00000
464822595.54157,350196039.91771,-129277809.36219,   0.00214,   0.00087,  -0.00244,476818839.36046,   0.00075,275454030.85638,   0.00071,   0.00018,  -0.00076,   0.00000,   2.00000
464357665.86361,350587543.84506,-129511664.67915,   0.00214,   0.00087,  -0.00245,476813640.16364,   0.00075,275459218.09210,   0.00071,   0.00018,  -0.00077,   0.00000,   2.00000
463888924.87599,350973975.41081,-129748083.36279,   0.00214,   0.00088,  -0.00246,476824504.06749,   0.00075,275464426.99160,   0.00072,   0.00019,  -0.00078,  -0.00000,   2.00000
463421252.85936,351346554.17136,-129986087.63850,   0.00215,   0.00088,  -0.00247,476822171.62376,   0.00076,275469607.17444,   0.00072,   0.00019,  -0.00078,   0.00000,   2.00000
462950869.44070,351732265.73490,-130220217.02600,   0.00215,   0.00089,  -0.00248,476821118.60155,   0.00076,275474763.58844,   0.00073,   0.00019,  -0.00079,   0.00000,   2.00000
462474756.88310,352116673.44329,-130457061.33178,   0.00215,   0.00089,  -0.00249,476815171.36089,   0.00077,275479877.68112,   0.00073,   0.00019,  -0.00079,  -0.00000,   2.00000
461998745.41826,352498824.07607,-130692687.64691,   0.00215,   0.00089,  -0.00250,476821832.86473,   0.00077,275484997.73560,   0.00073,   0.00019,  -0.00080,   0.00000,   2.00000
461526771.54232,352881569.34138,-130923350.50816,   0.00215,   0.00090,  -0.00250,476824298.94140,   0.00078,275490107.70051,   0.00074,   0.00019,  -0.00080,  -0.00000,   2.00000
461045064.14163,353260189.82275,-131160501.13236,   0.00215,   0.00090,  -0.00251,476822537.39597,   0.00078,275495191.54175,   0.00074,   0.00020,  -0.00081,   0.00000,   2.00000
460561439.46603,353640386.57416,-131396625.64483,   0.00215,   0.00091,  -0.00252,476812397.34625,   0.00079,275500217.39003,   0.00075,   0.00020,  -0.00081,  -0.00000,   2.00000
460082939.65654,354028860.03404,-131624737.25769,   0.00215,   0.00091,  -0.00253,476840690.80582,   0.00079,275505332.06975,   0.00075,   0.00020,  -0.00082,   0.00000,   2.00000
459593491.80129,354405526.38798,-131862409.28979,   0.00215,   0.00092,  -0.00254,476813099.37608,   0.00080,275510322.08065,   0.00075,   0.00020,  -0.00082,   0.00000,   2.00000
459107113.37384,354794285.68233,-132092252.38800,   0.00215,   0.00092,  -0.00255,476824613.47240,   0.00080,275515337.06596,   0.00076,   0.00020,  -0.00083,   0.00000,   2.00000
458621792.48322,355169356.78774,-132323800.02970,   0.00216,   0.00093,  -0.00256,476822001.98036,   0.00081,275520323.07708,   0.00076,   0.00020,  -0.00083,   0.00000,   2.00000
458129521.49656,355554588.48354,-132555199.79926,   0.00216,   0.00093,  -0.00256,476825240.39809,   0.00081,275525302.53601,   0.00077,   0.00021,  -0.00084,   0.00000,   2.00000
457638308.00489,355926172.68817,-132788317.28322,   0.00216,   0.00093,  -0.00257,476822582.66878,   0.00082,275530253.01770,   0.00077,   0.00021,  -0.00085,   0.00000,   2.00000
457140083.42747,356307892.44554,-133021268.23712,   0.00216,   0.00094,  -0.00258,476825855.52613,   0.00082,275535197.25345,   0.00077,   0.00021,  -0.00085,   0.00000,   2.00000
456645896.26850,356690286.16490,-133249311.69334,   0.00216,   0.00094,  -0.00259,476828130.03861,   0.00082,275540131.43736,   0.00078,   0.00021,  -0.00086,   0.00000,   2.00000
456151811.70695,357070440.57406,-133476176.14929,   0.00216,   0.00095,  -0.00260,476834635.30651,   0.00083,275545071.76369,   0.00078,   0.00021,  -0.00086,  -0.00000,   2.00000
455651589.30875,357449327.14738,-133705816.96465,   0.00216,   0.00095,  -0.00261,476828724.92238,   0.00083,275549970.85082,   0.00078,   0.00021,  -0.00087,  -0.00000,   2.00000
455151468.15257,357825981.15885,-133934273.89130,   0.00216,   0.00096,  -0.00261,476835209.70943,   0.00084,275554876.17573,   0.00079,   0.00022,  -0.00087,   0.00000,   2.00000
454649097.75947,358204338.72288,-134161817.94252,   0.00216,   0.00096,  -0.00262,476825015.65919,   0.00084,275559724.05203,   0.00079,   0.00022,  -0.00088,   0.00000,   2.00000
454146823.29985,358580475.36531,-134388190.66664,   0.00216,   0.00097,  -0.00263,476831448.26418,   0.00085,275564578.17420,   0.00079,   0.00022,  -0.00088,  -0.00000,   2.00000
453638284.87057,358955362.29070,-134617353.15315,   0.00216,   0.00097,  -0.00264,476825528.99605,   0.00085,275569391.39603,   0.00080,   0.00022,  -0.00089,   0.00000,   2.00000
453136242.38711,359327073.65015,-134841381.89252,   0.00216,   0.00097,  -0.00265,476844275.27594,   0.00086,275574258.02177,   0.00080,   0.00022,  -0.00089,   0.00000,   2.00000
452626937.57291,359708774.28849,-135065209.99534,   0.00216,   0.00098,  -0.00265,476847724.77114,   0.00086,275579119.43830,   0.00081,   0.00022,  -0.00090,   0.00000,   2.00000
452116200.51363,360080989.30918,-135291174.46926,   0.00216,   0.00098,  -0.00266,476828203.57489,   0.00087,275583888.00812,   0.00081,   0.00023,  -0.00090,   0.00000,   2.00000
451605563.62085,360451010.13096,-135515979.46905,   0.00216,   0.00099,  -0.00267,476834563.03033,   0.00087,275588662.90546,   0.00081,   0.00023,  -0.00091,  -0.00000,   2.00000
451094077.48690,360830015.95312,-135736600.46903,   0.00217,   0.00099,  -0.00268,476850299.02433,   0.00087,275593479.87667,   0.00082,   0.00023,  -0.00091,   0.00000,   2.00000
450581076.80576,361199631.91168,-135959417.72694,   0.00217,   0.00100,  -0.00269,476830714.82249,   0.00088,275598203.93470,   0.00082,   0.00023,  -0.00092,   0.00000,   2.00000
450073803.35465,361577251.56137,-136174081.19943,   0.00217,   0.00100,  -0.00270,476858661.40263,   0.00088,275603016.88233,   0.00082,   0.00023,  -0.00093,   0.00000,   2.00000
449554402.51494,361943461.75548,-136398603.52788,   0.00217,   0.00100,  -0.00270,476831179.63112,   0.00089,275607706.79994,   0.00083,   0.00023,  -0.00093,   0.00000,   2.00000
449040788.16201,362317648.26612,-136614946.96728,   0.00217,   0.00101,  -0.00271,476859100.28876,   0.00089,275612485.68603,   0.00083,   0.00024,  -0.00094,   0.00000,   2.00000
448520636.14450,362690590.11106,-136834124.73156,   0.00217,   0.00101,  -0.00272,476853269.26812,   0.00090,275617224.32593,   0.00083,   0.00024,  -0.00094,   0.00000,   2.00000
448005525.13625,363053334.93709,-137051611.79670,   0.00217,   0.00102,  -0.00273,476845771.65774,   0.00090,275621916.52489,   0.00084,   0.00024,  -0.00095,   0.00000,   2.00000
447489591.89273,363424997.83933,-137264891.46419,   0.00217,   0.00102,  -0.00274,476861485.46809,   0.00090,275626651.08900,   0.00084,   0.00024,  -0.00095,   0.00000,   2.00000
446967035.41022,363795432.66770,-137481023.36451,   0.00217,   0.00103,  -0.00274,476855651.51687,   0.00091,275631345.57562,   0.00084,   0.00024,  -0.00096,   0.00000,   2.00000
446448569.43048,364166784.43212,-137692411.51184,   0.00217,   0.00103,  -0.00275,476857534.45027,   0.00091,275636029.59634,   0.00085,   0.00025,  -0.00096,   0.00000,   2.00000
445930235.20940,364535963.96488,-137902693.81930,   0.00217,   0.00104,  -0.00276,476863790.60941,   0.00092,275640719.90572,   0.00085,   0.00025,  -0.00097,  -0.00000,   2.00000
445412044.15047,364902981.24308,-138111875.20105,   0.00217,   0.00104,  -0.00277,476870044.42814,   0.00092,275645416.47845,   0.00085,   0.00025,  -0.00097,   0.00000,   2.00000
444887125.18814,365268794.73609,-138323930.87817,   0.00217,   0.00105,  -0.00278,476864222.48307,   0.00093,275650073.17966,   0.00086,   0.00025,  -0.00098,  -0.00000,   2.00000
444366313.87876,365635587.41735,-138531279.83465,   0.00217,   0.00105,  -0.00278,476866025.83705,   0.00093,275654719.27708,   0.00086,   0.00025,  -0.00098,   0.00000,   2.00000
443841681.80574,365997089.21268,-138741137.59422,   0.00217,   0.00105,  -0.00279,476876669.89354,   0.00093,275659388.62904,   0.00086,   0.00025,  -0.00099,   0.00000,   2.00000
443314207.70929,366360551.15536,-138950278.21225,   0.00217,   0.00106,  -0.00280,476866431.50608,   0.00094,275664001.34357,   0.00087,   0.00026,  -0.00099,   0.00000,   2.00000
442797848.17959,366724092.21346,-139150767.89432,   0.00217,   0.00106,  -0.00281,476880172.92192,   0.00094,275668649.24153,   0.00087,   0.00026,  -0.00100,   0.00000,   2.00000
442270662.75550,367083292.24829,-139357755.96782,   0.00217,   0.00107,  -0.00282,476878807.42769,   0.00095,275673274.50475,   0.00087,   0.00026,  -0.00100,   0.00000,   2.00000
441747611.46830,367443550.32528,-139560082.46876,   0.00217,   0.00107,  -0.00282,476880524.07550,   0.00095,275677888.97953,   0.00088,   0.00026,  -0.00101,   0.00000,   2.00000
441224731.71471,367801700.36473,-139761346.46433,   0.00217,   0.00108,  -0.00283,476886673.93163,   0.00096,275682509.66042,   0.00088,   0.00026,  -0.00101,   0.00000,   2.00000
440698880.22095,368161884.91471,-139961954.36876,   0.00217,   0.00108,  -0.00284,476876400.47044,   0.00096,275687073.73880,   0.00088,   0.00027,  -0.00102,  -0.00000,   2.00000
440179407.11466,368529853.85174,-140154328.65354,   0.00217,   0.00109,  -0.00285,476904061.48867,   0.00096,275691726.41140,   0.00089,   0.00027,  -0.00102,   0.00000,   2.00000
439649912.17631,368882608.54366,-140356416.76209,   0.00217,   0.00109,  -0.00285,476893170.81910,   0.00097,275696320.03192,   0.00089,   0.00027,  -0.00103,   0.00000,   2.00000
439128542.44687,369239719.43264,-140550329.10847,   0.00217,   0.00109,  -0.00286,476890304.96230,   0.00097,275700885.46035,   0.00089,   0.00027,  -0.00104,   0.00000,   2.00000
438603394.21763,369591531.53412,-140746771.19627,   0.00217,   0.00110,  -0.00287,476900875.66118,   0.00098,275705474.21964,   0.00090,   0.00027,  -0.00104,   0.00000,   2.00000
438081489.57664,369955272.70342,-140935387.36544,   0.00217,   0.00110,  -0.00288,476912139.89701,   0.00098,275710088.81844,   0.00090,   0.00027,  -0.00105,  -0.00000,   2.00000
437560716.44457,370306170.64433,-141126234.66863,   0.00217,   0.00111,  -0.00289,476908569.50738,   0.00099,275714672.46345,   0.00090,   0.00028,  -0.00105,   0.00000,   2.00000
437032833.55565,370655950.56267,-141320041.49406,   0.00217,   0.00111,  -0.00289,476902803.22373,   0.00099,275719216.90024,   0.00090,   0.00028,  -0.00106,   0.00000,   2.00000
436509122.55661,371006943.28496,-141509287.87908,   0.00217,   0.00112,  -0.00290,476904322.58337,   0.00099,275723750.12521,   0.00091,   0.00028,  -0.00106,   0.00000,   2.00000
435992089.63583,371365670.94441,-141690289.84828,   0.00217,   0.00112,  -0.00291,476931857.93808,   0.00100,275728371.65636,   0.00091,   0.00028,  -0.00107,   0.00000,   2.00000
435468796.53569,371712578.57232,-141877557.04831,   0.00217,   0.00113,  -0.00292,476916425.02502,   0.00100,275732916.83364,   0.00091,   0.00028,  -0.00107,   0.00000,   2.00000
434949697.46011,372060754.23491,-142060304.34654,   0.00217,   0.00113,  -0.00292,476917890.64673,   0.00101,275737450.57998,   0.00092,   0.00029,  -0.00108,   0.00000,   2.00000
434425954.93359,372414272.18426,-142242303.52393,   0.00217,   0.00114,  -0.00293,476938182.54874,   0.00101,275742044.97535,   0.00092,   0.00029,  -0.00108,   0.00000,   2.00000
433907331.66364,372758414.12440,-142423101.42237,   0.00217,   0.00114,  -0.00294,476929918.86826,   0.00102,275746590.52947,   0.00092,   0.00029,  -0.00109,   0.00000,   2.00000
433385389.03877,373104785.84129,-142603384.58812,   0.00217,   0.00114,  -0.00295,476919619.01761,   0.00102,275751079.63499,   0.00093,   0.00029,  -0.00109,   0.00000,   2.00000
432871241.74064,373448260.11221,-142778740.88905,   0.00217,   0.00115,  -0.00295,476937248.72779,   0.00102,275755619.38442,   0.00093,   0.00029,  -0.00110,   0.00000,   2.00000
432352495.08251,373797020.43511,-142953335.95788,   0.00217,   0.00115,  -0.00296,476957571.87654,   0.00103,275760219.89566,   0.00093,   0.00030,  -0.00110,  -0.00000,   2.00000
431835225.11367,374140772.69820,-143127266.94115,   0.00217,   0.00116,  -0.00297,476932958.94655,   0.00103,275764708.93497,   0.00094,   0.00030,  -0.00111,  -0.00000,   2.00000
431321899.46282,374478324.54587,-143299802.39344,   0.00217,   0.00116,  -0.00298,476955090.58827,   0.00104,275769265.88223,   0.00094,   0.00030,  -0.00111,  -0.00000,   2.00000
430804249.44046,374828708.59143,-143468522.60975,   0.00217,   0.00117,  -0.00298,476954645.74182,   0.00104,275773804.01435,   0.00094,   0.00030,  -0.00112,   0.00000,   2.00000
430295467.04607,375165689.94278,-143635713.61237,   0.00217,   0.00117,  -0.00299,476962362.82039,   0.00104,275778354.66933,   0.00094,   0.00030,  -0.00112,  -0.00000,   2.00000
429783208.54199,375505005.59922,-143802468.44275,   0.00217,   0.00118,  -0.00300,476952066.11725,   0.00105,275782848.82433,   0.00095,   0.00031,  -0.00113,  -0.00000,   2.00000
429267279.13190,375839026.17142,-143971806.85636,   0.00217,   0.00118,  -0.00301,476962535.14972,   0.00105,275787366.24573,   0.00095,   0.00031,  -0.00113,   0.00000,   2.00000
428763390.24821,376173620.75087,-144132793.43419,   0.00217,   0.00118,  -0.00301,476975381.21385,   0.00106,275791915.90474,   0.00095,   0.00031,  -0.00114,  -0.00000,   2.00000
428255955.67699,376510592.31143,-144293377.86733,   0.00217,   0.00119,  -0.00302,476965082.58111,   0.00106,275796409.03622,   0.00096,   0.00031,  -0.00115,   0.00000,   2.00000
427743991.41330,376852707.83850,-144453167.13505,   0.00217,   0.00119,  -0.00303,476985440.42231,   0.00107,275800963.27738,   0.00096,   0.00031,  -0.00115,   0.00000,   2.00000
427237167.08918,377185863.27752,-144611998.19422,   0.00217,   0.00120,  -0.00304,476976808.88941,   0.00107,275805467.36161,   0.00096,   0.00032,  -0.00116,  -0.00000,   2.00000
426742507.15231,377519671.23720,-144762541.78616,   0.00217,   0.00120,  -0.00304,476989506.72553,   0.00107,275810003.14387,   0.00096,   0.00032,  -0.00116,   0.00000,   2.00000
426236311.71405,377849085.42738,-144919668.81040,   0.00217,   0.00121,  -0.00305,476988460.73303,   0.00108,275814517.90499,   0.00097,   0.00032,  -0.00117,  -0.00000,   2.00000
425742348.33458,378179188.81431,-145068526.04448,   0.00217,   0.00121,  -0.00306,477001114.52659,   0.00108,275819064.16912,   0.00097,   0.00032,  -0.00117,  -0.00000,   2.00000
425240755.98685,378508323.36071,-145220505.37807,   0.00217,   0.00122,  -0.00306,476995460.12508,   0.00109,275823571.69350,   0.00097,   0.00032,  -0.00118,  -0.00000,   2.00000
424743445.71315,378839048.44925,-145368190.58599,   0.00217,   0.00122,  -0.00307,476996599.70151,   0.00109,275828066.63744,   0.00098,   0.00033,  -0.00118,   0.00000,   2.00000
424250572.75362,379163636.70960,-145514567.88898,   0.00217,   0.00123,  -0.00308,477018442.23164,   0.00109,275832628.39677,   0.00098,   0.00033,  -0.00119,  -0.00000,   2.00000
423758746.42207,379483862.16068,-145660625.20755,   0.00217,   0.00123,  -0.00309,476993514.85180,   0.00110,275837077.47562,   0.00098,   0.00033,  -0.00119,  -0.00000,   2.00000
423270567.26189,379808303.98454,-145801936.00471,   0.00217,   0.00123,  -0.00309,477025252.38554,   0.00110,275841631.46541,   0.00098,   0.00033,  -0.00120,   0.00000,   2.00000
422786702.86513,380134415.62150,-145939012.43512,   0.00217,   0.00124,  -0.00310,477026350.77418,   0.00111,275846172.50211,   0.00099,   0.00033,  -0.00120,  -0.00000,   2.00000
422295077.00841,380459593.42562,-146079252.22823,   0.00217,   0.00124,  -0.00311,477020723.49780,   0.00111,275850674.88189,   0.00099,   0.00034,  -0.00121,  -0.00000,   2.00000
421812835.04458,380771885.66721,-146218251.45180,   0.00217,   0.00125,  -0.00311,477027761.45916,   0.00112,275855187.31776,   0.00099,   0.00034,  -0.00121,   0.00000,   2.00000
421334072.63669,381096174.91226,-146349565.64359,   0.00217,   0.00125,  -0.00312,477038804.93709,   0.00112,275859725.07403,   0.00100,   0.00034,  -0.00122,  -0.00000,   2.00000
420856543.05062,381408489.60057,-146483624.97308,   0.00217,   0.00126,  -0.00313,477034452.80557,   0.00112,275864229.06142,   0.00100,   0.00034,  -0.00122,   0.00000,   2.00000
420382499.10220,381732800.17809,-146610012.60623,   0.00217,   0.00126,  -0.00314,477045478.54920,   0.00113,275868758.31921,   0.00100,   0.00034,  -0.00123,   0.00000,   2.00000
419905763.85651,382041680.91421,-146742606.90667,   0.00217,   0.00127,  -0.00314,477045769.69666,   0.00113,275873271.65083,   0.00100,   0.00035,  -0.00124,   0.00000,   2.00000
419440823.06698,382361723.16866,-146863605.55692,   0.00217,   0.00127,  -0.00315,477068081.14316,   0.00114,275877853.48341,   0.00101,   0.00035,  -0.00124,  -0.00000,   2.00000
418972735.01238,382674244.37709,-146987920.35758,   0.00217,   0.00127,  -0.00316,477047703.33238,   0.00114,275882339.87090,   0.00101,   0.00035,  -0.00125,  -0.00000,   2.00000
418505054.03420,382985096.35497,-147111533.49299,   0.00217,   0.00128,  -0.00316,477053290.82462,   0.00115,275886830.76740,   0.00101,   0.00035,  -0.00125,   0.00000,   2.00000
418046154.86433,383293462.40078,-147230530.70535,   0.00217,   0.00128,  -0.00317,477070109.05279,   0.00115,275891369.21159,   0.00102,   0.00035,  -0.00126,   0.00000,   2.00000
417587688.90286,383600191.20936,-147348851.06982,   0.00217,   0.00129,  -0.00318,477075706.46711,   0.00115,275895911.98504,   0.00102,   0.00036,  -0.00126,   0.00000,   2.00000
417133571.83246,383908829.29251,-147463085.72709,   0.00217,   0.00129,  -0.00318,477076585.33043,   0.00116,275900440.94760,   0.00102,   0.00036,  -0.00127,   0.00000,   2.00000
416679889.52033,384215844.37697,-147576663.24362,   0.00217,   0.00130,  -0.00319,477082153.52135,   0.00116,275904974.14546,   0.00102,   0.00036,  -0.00127,  -0.00000,   2.00000
416226647.49155,384521243.81279,-147689587.05224,   0.00217,   0.00130,  -0.00320,477087720.49491,   0.00117,275909511.56169,   0.00103,   0.00036,  -0.00128,   0.00000,   2.00000
415786242.94824,384827781.28202,-147794548.55323,   0.00217,   0.00131,  -0.00321,477099719.40848,   0.00117,275914077.80843,   0.00103,   0.00036,  -0.00128,  -0.00000,   2.00000
415338588.57003,385123503.97415,-147906364.31315,   0.00217,   0.00131,  -0.00321,477083942.67782,   0.00117,275918566.26519,   0.00103,   0.00037,  -0.00129,   0.00000,   2.00000
414903010.77828,385430467.06696,-148006673.65476,   0.00217,   0.00131,  -0.00322,477106012.14284,   0.00118,275923122.36707,   0.00103,   0.00037,  -0.00129,   0.00000,   2.00000
414464792.92324,385722275.09446,-148113361.69803,   0.00217,   0.00132,  -0.00323,477106072.25680,   0.00118,275927661.46182,   0.00104,   0.00037,  -0.00130,  -0.00000,   2.00000
414034032.68310,386029721.57121,-148209066.32409,   0.00217,   0.00132,  -0.00323,477112291.66097,   0.00119,275932207.16872,   0.00104,   0.00037,  -0.00131,  -0.00000,   2.00000
413609234.37597,386321245.46191,-148307280.12392,   0.00217,   0.00133,  -0.00324,477123402.98691,   0.00119,275936778.27093,   0.00104,   0.00038,  -0.00131,   0.00000,   2.00000
413180179.53693,386615668.47158,-148405423.49584,   0.00217,   0.00133,  -0.00325,477113053.29808,   0.00120,275941292.31236,   0.00104,   0.00038,  -0.00132,   0.00000,   2.00000
412760236.12272,386907801.17879,-148499103.01370,   0.00217,   0.00134,  -0.00325,477129555.21130,   0.00120,275945852.54252,   0.00105,   0.00038,  -0.00132,   0.00000,   2.00000
412344654.93462,387202060.43498,-148588841.42762,   0.00217,   0.00134,  -0.00326,477130251.28900,   0.00120,275950398.09692,   0.00105,   0.00038,  -0.00133,  -0.00000,   2.00000
411929545.10798,387494848.97314,-148678041.97538,   0.00217,   0.00134,  -0.00327,477135673.73136,   0.00121,275954947.17599,   0.00105,   0.00038,  -0.00133,  -0.00000,   2.00000
411523623.21742,387785388.07115,-148762824.59403,   0.00217,   0.00135,  -0.00327,477152122.19389,   0.00121,275959542.06345,   0.00106,   0.00039,  -0.00134,   0.00000,   2.00000
411113332.48837,388078885.58260,-148847590.46028,   0.00217,   0.00135,  -0.00328,477141781.94365,   0.00122,275964079.76021,   0.00106,   0.00039,  -0.00134,   0.00000,   2.00000
410709176.21894,388356645.99880,-148934968.30421,   0.00217,   0.00136,  -0.00328,477152654.28161,   0.00122,275968641.94596,   0.00106,   0.00039,  -0.00135,   0.00000,   2.00000
410312482.60020,388650147.19548,-149011446.28397,   0.00217,   0.00136,  -0.00329,477158794.80055,   0.00123,275973210.28060,   0.00106,   0.00039,  -0.00135,  -0.00000,   2.00000
409925838.57567,388931591.46809,-149087204.97569,   0.00217,   0.00137,  -0.00330,477164848.35794,   0.00123,275977784.41344,   0.00107,   0.00040,  -0.00136,   0.00000,   2.00000
409530867.84849,389212450.18658,-149166370.09540,   0.00217,   0.00137,  -0.00330,477159224.62119,   0.00123,275982319.52557,   0.00107,   0.00040,  -0.00137,   0.00000,   2.00000
409144447.58361,389500993.84236,-149237542.48542,   0.00217,   0.00137,  -0.00331,477185824.78152,   0.00124,275986939.41645,   0.00107,   0.00040,  -0.00137,   0.00000,   2.00000
408772008.58233,389781209.02295,-149304670.59936,   0.00217,   0.00138,  -0.00332,477187051.40812,   0.00124,275991546.32852,   0.00107,   0.00040,  -0.00138,   0.00000,   2.00000
408391955.66731,390051064.01860,-149378889.35918,   0.00217,   0.00138,  -0.00332,477171110.71772,   0.00125,275996074.46878,   0.00108,   0.00040,  -0.00138,   0.00000,   2.00000
408024380.84704,390332302.70184,-149441773.36022,   0.00217,   0.00139,  -0.00333,477192855.62254,   0.00125,276000668.73772,   0.00108,   0.00041,  -0.00139,  -0.00000,   2.00000
407653439.39004,390608557.90421,-149507614.59552,   0.00218,   0.00139,  -0.00334,477202941.41383,   0.00126,276005284.14696,   0.00108,   0.00041,  -0.00139,   0.00000,   2.00000
407291464.47264,390881074.70684,-149569970.24979,   0.00218,   0.00140,  -0.00334,477188332.26006,   0.00126,276009825.78706,   0.00108,   0.00041,  -0.00140,  -0.00000,   2.00000
406934314.70845,391157637.33620,-149627768.20409,   0.00218,   0.00140,  -0.00335,477219600.75398,   0.00126,276014470.04740,   0.00109,   0.00041,  -0.00140,  -0.00000,   2.00000
406582268.54493,391426852.77130,-149685492.28739,   0.00218,   0.00140,  -0.00336,477209745.31735,   0.00127,276019058.65247,   0.00109,   0.00042,  -0.00141,  -0.00000,   2.00000
406234557.67802,391698504.02528,-149739476.23580,   0.00218,   0.00141,  -0.00336,477210194.93141,   0.00127,276023631.35853,   0.00109,   0.00042,  -0.00141,   0.00000,   2.00000
405896333.95913,391968158.11382,-149789252.55609,   0.00218,   0.00141,  -0.00337,477226258.60871,   0.00128,276028248.14651,   0.00109,   0.00042,  -0.00142,   0.00000,   2.00000
405550329.11496,392227651.15146,-149846217.09409,   0.00218,   0.00142,  -0.00337,477210238.82569,   0.00128,276032785.73309,   0.00110,   0.00042,  -0.00143,  -0.00000,   2.00000
405222140.26896,392494133.70534,-149891446.93992,   0.00218,   0.00142,  -0.00338,477247472.93403,   0.00128,276037448.79095,   0.00110,   0.00043,  -0.00143,   0.00000,   2.00000
404889219.89895,392763861.95081,-149936830.35922,   0.00218,   0.00143,  -0.00339,477237108.73299,   0.00129,276042054.09779,   0.00110,   0.00043,  -0.00144,   0.00000,   2.00000
404570433.40087,393025675.51040,-149978396.83932,   0.00218,   0.00143,  -0.00339,477237887.26563,   0.00129,276046644.63594,   0.00111,   0.00043,  -0.00144,   0.00000,   2.00000
404248293.37754,393282632.12708,-150023019.84898,   0.00218,   0.00143,  -0.00340,477247831.21825,   0.00130,276051255.67830,   0.00111,   0.00043,  -0.00145,   0.00000,   2.00000
403939570.91765,393541405.18131,-150060147.79239,   0.00218,   0.00144,  -0.00340,477258987.46578,   0.00130,276055891.74421,   0.00111,   0.00043,  -0.00145,   0.00000,   2.00000
403635146.93635,393802756.73121,-150093638.47122,   0.00218,   0.00144,  -0.00341,477259351.95840,   0.00131,276060511.28283,   0.00111,   0.00044,  -0.00146,   0.00000,   2.00000
403331933.86730,394053373.90460,-150130577.95366,   0.00218,   0.00145,  -0.00342,477254021.97100,   0.00131,276065092.53353,   0.00112,   0.00044,  -0.00146,  -0.00000,   2.00000
403028446.96883,394312497.84321,-150163525.23464,   0.00218,   0.00145,  -0.00342,477269587.20414,   0.00131,276069715.82742,   0.00112,   0.00044,  -0.00147,   0.00000,   2.00000
402739152.92472,394563900.81171,-150192760.12605,   0.00218,   0.00145,  -0.00343,477270185.02700,   0.00132,276074323.52264,   0.00112,   0.00044,  -0.00148,   0.00000,   2.00000
402459498.11043,394813494.18609,-150217938.87495,   0.00218,   0.00146,  -0.00343,477286007.81487,   0.00132,276078974.09241,   0.00112,   0.00045,  -0.00148,   0.00000,   2.00000
402171104.03146,395062776.34670,-150246706.81102,   0.00218,   0.00146,  -0.00344,477280380.23005,   0.00133,276083585.06698,   0.00113,   0.00045,  -0.00149,   0.00000,   2.00000
401905396.28564,395313250.53178,-150264264.68285,   0.00219,   0.00147,  -0.00345,477302100.06451,   0.00133,276088261.48059,   0.00113,   0.00045,  -0.00149,   0.00000,   2.00000
401630906.73282,395563425.28451,-150285435.34260,   0.00219,   0.00147,  -0.00345,477296488.86387,   0.00134,276092898.21088,   0.00113,   0.00045,  -0.00150,   0.00000,   2.00000
401370641.66221,395806037.46559,-150302982.02846,   0.00219,   0.00147,  -0.00346,477296939.68289,   0.00134,276097518.65679,   0.00113,   0.00046,  -0.00150,  -0.00000,   2.00000
401110070.70238,396057160.34625,-150316598.22582,   0.00219,   0.00148,  -0.00346,477312500.08816,   0.00135,276102180.83756,   0.00114,   0.00046,  -0.00151,   0.00000,   2.00000
400859933.04461,396297019.93593,-150329982.29740,   0.00219,   0.00148,  -0.00347,477317724.48308,   0.00135,276106844.92658,   0.00114,   0.00046,  -0.00152,   0.00000,   2.00000
400614017.41587,396539651.38472,-150339847.59517,   0.00219,   0.00149,  -0.00348,477317963.91715,   0.00135,276111491.76352,   0.00114,   0.00046,  -0.00152,   0.00000,   2.00000
400369257.59237,396771837.00509,-150353309.20444,   0.00219,   0.00149,  -0.00348,477312431.29455,   0.00136,276116099.30389,   0.00114,   0.00047,  -0.00153,   0.00000,   2.00000
400137268.10435,397015563.28345,-150355712.20328,   0.00219,   0.00149,  -0.00349,477333824.36448,   0.00136,276120770.92331,   0.00115,   0.00047,  -0.00153,   0.00000,   2.00000
399915726.78633,397248138.40823,-150357955.47126,   0.00219,   0.00150,  -0.00349,477338936.31664,   0.00137,276125443.90559,   0.00115,   0.00047,  -0.00154,   0.00000,   2.00000
399685256.58698,397480540.29495,-150363867.21827,   0.00219,   0.00150,  -0.00350,477333282.60523,   0.00137,276130076.97955,   0.00115,   0.00047,  -0.00154,  -0.00000,   2.00000
399468303.63820,397715047.10796,-150362512.20864,   0.00220,   0.00151,  -0.00350,477344089.52955,   0.00138,276134733.39082,   0.00115,   0.00048,  -0.00155,   0.00000,   2.00000
399261077.23617,397947902.73585,-150357269.43858,   0.00220,   0.00151,  -0.00351,477359701.21170,   0.00138,276139431.44476,   0.00116,   0.00048,  -0.00155,  -0.00000,   2.00000
399058738.05274,398174223.81060,-150352353.79798,   0.00220,   0.00151,  -0.00351,477349291.90357,   0.00138,276144071.18246,   0.00116,   0.00048,  -0.00156,  -0.00000,   2.00000
398856762.18967,398399683.11084,-150347352.29153,   0.00220,   0.00152,  -0.00352,477354217.92147,   0.00139,276148711.65160,   0.00116,   0.00048,  -0.00157,   0.00000,   2.00000
398667554.54941,398636689.67351,-150331367.48293,   0.00220,   0.00152,  -0.00353,477375569.14559,   0.00139,276153415.74572,   0.00116,   0.00049,  -0.00157,   0.00000,   2.00000
398489551.25647,398853324.77425,-150319107.38352,   0.00220,   0.00153,  -0.00353,477369918.56776,   0.00140,276158079.70814,   0.00117,   0.00049,  -0.00158,   0.00000,   2.00000
398301743.79728,399079254.21747,-150306788.08696,   0.00220,   0.00153,  -0.00354,477374847.58388,   0.00140,276162744.26465,   0.00117,   0.00049,  -0.00158,   0.00000,   2.00000
398128186.14839,399298023.34008,-150291070.70434,   0.00220,   0.00153,  -0.00354,477374934.20790,   0.00141,276167390.82433,   0.00117,   0.00049,  -0.00159,   0.00000,   2.00000
397963614.80936,399524575.81568,-150267767.77773,   0.00220,   0.00154,  -0.00355,477401054.86837,   0.00141,276172119.19090,   0.00117,   0.00050,  -0.00159,   0.00000,   2.00000
397800091.84174,399740968.11106,-150248228.87829,   0.00221,   0.00154,  -0.00355,477395367.97468,   0.00141,276176807.15398,   0.00118,   0.00050,  -0.00160,  -0.00000,   2.00000
397650805.02823,399950290.75350,-150225337.51946,   0.00221,   0.00155,  -0.00356,477395401.02734,   0.00142,276181476.77383,   0.00118,   0.00050,  -0.00161,  -0.00000,   2.00000
397504805.66466,400171946.60684,-150195297.40242,   0.00221,   0.00155,  -0.00356,477406128.85667,   0.00142,276186169.05010,   0.00118,   0.00050,  -0.00161,  -0.00000,   2.00000
397359822.10996,400383512.62606,-150169053.26267,   0.00221,   0.00155,  -0.00357,477400358.69673,   0.00143,276190820.71225,   0.00118,   0.00051,  -0.00162,  -0.00000,   2.00000
397224558.34577,400593572.94242,-150139059.21648,   0.00221,   0.00156,  -0.00357,477415773.59692,   0.00143,276195513.05613,   0.00119,   0.00051,  -0.00162,  -0.00000,   2.00000
397102750.97701,400805921.43033,-150101975.62130,   0.00221,   0.00156,  -0.00358,477426413.85061,   0.00144,276200227.56769,   0.00119,   0.00051,  -0.00163,   0.00000,   2.00000
396981923.39864,401008261.42149,-150068723.83758,   0.00221,   0.00156,  -0.00358,477420611.11504,   0.00144,276204901.21212,   0.00119,   0.00051,  -0.00163,   0.00000,   2.00000
396864309.16088,401222936.70599,-150028352.26242,   0.00222,   0.00157,  -0.00359,477431343.39300,   0.00145,276209597.42232,   0.00119,   0.00052,  -0.00164,   0.00000,   2.00000
396757139.74103,401426860.46271,-149988081.37624,   0.00222,   0.00157,  -0.00359,477436060.75007,   0.00145,276214293.07488,   0.00120,   0.00052,  -0.00164,  -0.00000,   2.00000
396659647.82720,401629317.69745,-149944125.43972,   0.00222,   0.00158,  -0.00360,477451454.25441,   0.00145,276219029.01419,   0.00120,   0.00052,  -0.00165,   0.00000,   2.00000
396566833.32434,401825649.95727,-149900674.82789,   0.00222,   0.00158,  -0.00360,477440824.15911,   0.00146,276223705.46414,   0.00120,   0.00052,  -0.00166,   0.00000,   2.00000
396474189.28874,402021315.76537,-149857294.03857,   0.00222,   0.00158,  -0.00361,477445630.23515,   0.00146,276228381.75260,   0.00120,   0.00053,  -0.00166,  -0.00000,   2.00000
396394171.23698,402228545.47859,-149803086.88865,   0.00222,   0.00159,  -0.00361,477466910.64505,   0.00147,276233120.83447,   0.00121,   0.00053,  -0.00167,   0.00000,   2.00000
396315828.00728,402416684.21130,-149756579.11849,   0.00223,   0.00159,  -0.00362,477450319.13321,   0.00147,276237777.60839,   0.00121,   0.00053,  -0.00167,   0.00000,   2.00000
396250080.33253,402616401.51993,-149699259.13502,   0.00223,   0.00159,  -0.00362,477471571.70425,   0.00148,276242497.10379,   0.00121,   0.00053,  -0.00168,   0.00000,   2.00000
396194716.92858,402805497.42905,-149642126.17138,   0.00223,   0.00160,  -0.00363,477476194.68531,   0.00148,276247215.45146,   0.00121,   0.00054,  -0.00168,  -0.00000,   2.00000
396129932.14367,402994744.10261,-149588835.88467,   0.00223,   0.00160,  -0.00363,477470482.21898,   0.00148,276251893.16458,   0.00122,   0.00054,  -0.00169,  -0.00000,   2.00000
396087996.52254,403185596.87616,-149524835.10610,   0.00223,   0.00160,  -0.00364,477491537.20793,   0.00149,276256632.67268,   0.00122,   0.00054,  -0.00170,   0.00000,   2.00000
396050613.87667,403370470.93696,-149461404.89583,   0.00224,   0.00161,  -0.00364,477480833.37951,   0.00149,276261312.30869,   0.00122,   0.00054,  -0.00170,   0.00000,   2.00000
396008768.37503,403560075.62132,-149397680.07965,   0.00224,   0.00161,  -0.00365,477501139.35024,   0.00150,276266050.85058,   0.00122,   0.00055,  -0.00171,   0.00000,   2.00000
395985501.62079,403737606.86478,-149331237.60372,   0.00224,   0.00161,  -0.00365,477485405.09394,   0.00150,276270710.29617,   0.00122,   0.00055,  -0.00171,  -0.00000,   2.00000
395967254.62441,403919086.51251,-149260799.41471,   0.00224,   0.00162,  -0.00366,477516205.89733,   0.00151,276275468.74985,   0.00123,   0.00055,  -0.00172,   0.00000,   2.00000
395957219.27596,404098462.44128,-149187574.26865,   0.00224,   0.00162,  -0.00366,477500722.24677,   0.00151,276280148.95722,   0.00123,   0.00056,  -0.00172,  -0.00000,   2.00000
395943447.78800,404273457.23097,-149117894.86155,   0.00225,   0.00163,  -0.00367,477510241.12443,   0.00152,276284846.77381,   0.00123,   0.00056,  -0.00173,   0.00000,   2.00000
395942887.57321,404450879.66257,-149041286.75773,   0.00225,   0.00163,  -0.00367,477520762.24279,   0.00152,276289565.89423,   0.00123,   0.00056,  -0.00174,   0.00000,   2.00000
395955497.03290,404630714.65927,-148957769.22325,   0.00225,   0.00163,  -0.00368,477531306.72131,   0.00152,276294306.25870,   0.00124,   0.00056,  -0.00174,  -0.00000,   2.00000
395968828.17062,404800887.22762,-148878254.11516,   0.00225,   0.00164,  -0.00368,477525315.59894,   0.00153,276299004.69167,   0.00124,   0.00057,  -0.00175,   0.00000,   2.00000
395991590.17005,404969691.81576,-148795224.59084,   0.00225,   0.00164,  -0.00369,477540592.43163,   0.00153,276303742.50584,   0.00124,   0.00057,  -0.00175,  -0.00000,   2.00000
396018758.93974,405132691.25533,-148712812.45398,   0.00226,   0.00164,  -0.00369,477529825.25101,   0.00154,276308420.16810,   0.00124,   0.00057,  -0.00176,   0.00000,   2.00000
396058187.70560,405307191.22416,-148619705.87085,   0.00226,   0.00165,  -0.00370,477551139.77493,   0.00154,276313160.22737,   0.00125,   0.00057,  -0.00176,   0.00000,   2.00000
396094584.99847,405468278.48278,-148534018.22234,   0.00226,   0.00165,  -0.00370,477549872.24816,   0.00155,276317876.35259,   0.00125,   0.00058,  -0.00177,   0.00000,   2.00000
396148568.50600,405626571.73047,-148441860.02260,   0.00226,   0.00165,  -0.00370,477544848.12599,   0.00155,276322554.26870,   0.00125,   0.00058,  -0.00178,  -0.00000,   2.00000
396197814.87526,405789585.30204,-148349518.35224,   0.00227,   0.00166,  -0.00371,477565148.07453,   0.00155,276327290.67497,   0.00125,   0.00058,  -0.00178,   0.00000,   2.00000
396264603.40893,405949795.83770,-148250717.60317,   0.00227,   0.00166,  -0.00371,477560153.27338,   0.00156,276331988.86230,   0.00126,   0.00058,  -0.00179,  -0.00000,   2.00000
396336964.15760,406104834.02517,-148151865.35861,   0.00227,   0.00166,  -0.00372,477580168.27872,   0.00156,276336744.28572,   0.00126,   0.00059,  -0.00179,   0.00000,   2.00000
396413607.71950,406254154.58112,-148053656.39131,   0.00227,   0.00166,  -0.00372,477569404.48973,   0.00157,276341439.45660,   0.00126,   0.00059,  -0.00180,  -0.00000,   2.00000
396503163.95348,406405920.50521,-147948597.11558,   0.00228,   0.00167,  -0.00373,477579950.45548,   0.00157,276346155.73390,   0.00126,   0.00059,  -0.00180,   0.00000,   2.00000
396592404.86435,406557185.43510,-147843795.51125,   0.00228,   0.00167,  -0.00373,477584724.57617,   0.00158,276350871.05193,   0.00127,   0.00059,  -0.00181,  -0.00000,   2.00000
396685012.53664,406711743.95867,-147735843.10070,   0.00228,   0.00167,  -0.00374,477584775.70478,   0.00158,276355567.41166,   0.00127,   0.00060,  -0.00181,   0.00000,   2.00000
396797145.40713,406855051.37367,-147624583.01387,   0.00228,   0.00168,  -0.00374,477599747.62779,   0.00159,276360301.64366,   0.00127,   0.00060,  -0.00182,  -0.00000,   2.00000
396899410.48622,406998763.51612,-147517278.13217,   0.00229,   0.00168,  -0.00374,477594005.71215,   0.00159,276364994.81213,   0.00127,   0.00060,  -0.00183,  -0.00000,   2.00000
397024843.52323,407135038.56107,-147403253.66603,   0.00229,   0.00168,  -0.00375,477604263.25840,   0.00159,276369707.89003,   0.00128,   0.00061,  -0.00183,   0.00000,   2.00000
397152622.69223,407283592.22225,-147282299.09647,   0.00229,   0.00169,  -0.00375,477615202.91708,   0.00160,276374443.32754,   0.00128,   0.00061,  -0.00184,   0.00000,   2.00000
397278093.40938,407409949.16100,-147172638.99584,   0.00229,   0.00169,  -0.00376,477602974.36192,   0.00160,276379113.04618,   0.00128,   0.00061,  -0.00184,   0.00000,   2.00000
397419032.87742,407551479.80000,-147048936.92082,   0.00230,   0.00169,  -0.00376,477619730.25073,   0.00161,276383827.36943,   0.00128,   0.00061,  -0.00185,   0.00000,   2.00000
397569852.22419,407682659.86243,-146925646.48726,   0.00230,   0.00170,  -0.00376,477624202.18747,   0.00161,276388539.43110,   0.00129,   0.00062,  -0.00185,   0.00000,   2.00000
397720153.57996,407813375.20560,-146802654.09187,   0.00230,   0.00170,  -0.00377,477628995.27359,   0.00162,276393250.46307,   0.00129,   0.00062,  -0.00186,   0.00000,   2.00000
397883041.65615,407946474.17230,-146672857.39318,   0.00231,   0.00170,  -0.00377,477639663.04007,   0.00162,276397982.71847,   0.00129,   0.00062,  -0.00187,  -0.00000,   2.00000
398046302.50085,408070171.76688,-146547154.52503,   0.00231,   0.00170,  -0.00378,477633599.88845,   0.00163,276402672.62674,   0.00129,   0.00062,  -0.00187,   0.00000,   2.00000
398222089.38026,408196251.06266,-146414648.03955,   0.00231,   0.00171,  -0.00378,477644270.74593,   0.00163,276407383.82005,   0.00130,   0.00063,  -0.00188,   0.00000,   2.00000
398398220.05621,408312955.34086,-146286234.63329,   0.00232,   0.00171,  -0.00378,477638188.31656,   0.00163,276412052.68025,   0.00130,   0.00063,  -0.00188,   0.00000,   2.00000
398586814.37099,408432037.45642,-146151017.55500,   0.00232,   0.00171,  -0.00379,477648864.66516,   0.00164,276416742.89586,   0.00130,   0.00063,  -0.00189,   0.00000,   2.00000
398784148.36725,408549696.52036,-146012454.32665,   0.00232,   0.00172,  -0.00379,477664252.80282,   0.00164,276421472.20584,   0.00130,   0.00063,  -0.00189,   0.00000,   2.00000
398985426.41483,408661770.76891,-145874541.75386,   0.00232,   0.00172,  -0.00380,477653536.37306,   0.00165,276426141.50089,   0.00131,   0.00064,  -0.00190,  -0.00000,   2.00000
399194397.68162,408781304.44407,-145729519.67774,   0.00233,   0.00172,  -0.00380,477679830.67043,   0.00165,276430891.22017,   0.00131,   0.00064,  -0.00190,   0.00000,   2.00000
399408265.60365,408886358.01481,-145588916.88282,   0.00233,   0.00172,  -0.00380,477658245.81743,   0.00166,276435539.68693,   0.00131,   0.00064,  -0.00191,   0.00000,   2.00000
399629746.18704,408998856.99566,-145441213.68149,   0.00233,   0.00173,  -0.00381,477684547.95153,   0.00166,276440268.61795,   0.00131,   0.00065,  -0.00192,  -0.00000,   2.00000
399851445.62787,409102015.07686,-145297614.37429,   0.00234,   0.00173,  -0.00381,477678509.73542,   0.00166,276444955.26920,   0.00132,   0.00065,  -0.00192,  -0.00000,   2.00000
400086366.44994,409198611.11430,-145150983.55157,   0.00234,   0.00173,  -0.00381,477678407.87857,   0.00167,276449622.26648,   0.00132,   0.00065,  -0.00193,   0.00000,   2.00000
400332410.21438,409306368.40135,-144993807.73904,   0.00234,   0.00173,  -0.00382,477700145.16851,   0.00167,276454352.22248,   0.00132,   0.00065,  -0.00193,   0.00000,   2.00000
400579626.56310,409395926.94908,-144844494.48960,   0.00235,   0.00174,  -0.00382,477683214.31520,   0.00168,276458998.69565,   0.00132,   0.00066,  -0.00194,  -0.00000,   2.00000
400828581.60437,409497664.06154,-144688292.66296,   0.00235,   0.00174,  -0.00382,477694329.48252,   0.00168,276463668.02507,   0.00133,   0.00066,  -0.00194,   0.00000,   2.00000
401086976.38228,409589039.10336,-144532534.19253,   0.00235,   0.00174,  -0.00383,477698907.42945,   0.00169,276468335.40556,   0.00133,   0.00066,  -0.00195,  -0.00000,   2.00000
401357363.99230,409682654.22629,-144369990.66983,   0.00236,   0.00175,  -0.00383,477709810.22512,   0.00169,276473024.68150,   0.00133,   0.00066,  -0.00195,   0.00000,   2.00000
401637090.06349,409765894.67884,-144207895.20752,   0.00236,   0.00175,  -0.00383,477714449.58531,   0.00170,276477712.10320,   0.00133,   0.00067,  -0.00196,   0.00000,   2.00000
401906553.29386,409849761.30842,-144049804.35886,   0.00237,   0.00175,  -0.00384,477708682.74981,   0.00170,276482358.43189,   0.00134,   0.00067,  -0.00197,  -0.00000,   2.00000
402197152.64271,409934759.32796,-143881272.34063,   0.00237,   0.00175,  -0.00384,477730301.79543,   0.00170,276487067.10600,   0.00134,   0.00067,  -0.00197,   0.00000,   2.00000
402491413.19680,410014181.76407,-143713344.67902,   0.00237,   0.00176,  -0.00384,477719728.61673,   0.00171,276491716.41526,   0.00134,   0.00067,  -0.00198,  -0.00000,   2.00000
402793795.60113,410092046.10156,-143542128.52675,   0.00238,   0.00176,  -0.00385,477735324.33987,   0.00171,276496405.27649,   0.00134,   0.00068,  -0.00198,  -0.00000,   2.00000
403098697.14487,410173162.19010,-143367779.01405,   0.00238,   0.00176,  -0.00385,477735693.58308,   0.00172,276501076.09171,   0.00135,   0.00068,  -0.00199,   0.00000,   2.00000
403403583.21529,410244975.94448,-143197519.69867,   0.00238,   0.00176,  -0.00385,477729697.37327,   0.00172,276505704.99218,   0.00135,   0.00068,  -0.00199,   0.00000,   2.00000
403730425.92904,410308977.98309,-143020538.30536,   0.00239,   0.00176,  -0.00386,477740537.30873,   0.00173,276510355.52463,   0.00135,   0.00069,  -0.00200,  -0.00000,   2.00000
404054904.47416,410381331.18635,-142840209.53648,   0.00239,   0.00177,  -0.00386,477756430.78062,   0.00173,276515046.59003,   0.00135,   0.00069,  -0.00200,   0.00000,   2.00000
404379301.59053,410444384.04993,-142663966.42474,   0.00240,   0.00177,  -0.00386,477750488.01873,   0.00173,276519695.85446,   0.00136,   0.00069,  -0.00201,   0.00000,   2.00000
404716382.81706,410500714.42817,-142484632.04260,   0.00240,   0.00177,  -0.00387,477750701.74842,   0.00174,276524326.64484,   0.00136,   0.00069,  -0.00201,  -0.00000,   2.00000
405055828.61537,410560283.29045,-142302138.26739,   0.00240,   0.00177,  -0.00387,477751112.87964,   0.00174,276528939.76385,   0.00136,   0.00070,  -0.00202,   0.00000,   2.00000
405403064.93290,410618202.31521,-142116372.14062,   0.00241,   0.00178,  -0.00387,477766834.24351,   0.00175,276533592.81899,   0.00136,   0.00070,  -0.00203,   0.00000,   2.00000
405762848.52930,410669336.10714,-141927504.04981,   0.00241,   0.00178,  -0.00388,477767146.94918,   0.00175,276538227.70082,   0.00137,   0.00070,  -0.00203,   0.00000,   2.00000
406121246.64217,410719983.05880,-141739008.45097,   0.00242,   0.00178,  -0.00388,477772159.81021,   0.00176,276542862.15126,   0.00137,   0.00070,  -0.00204,   0.00000,   2.00000
406490917.18635,410772619.18935,-141543711.53821,   0.00242,   0.00178,  -0.00388,477783452.84519,   0.00176,276547519.69704,   0.00137,   0.00071,  -0.00204,   0.00000,   2.00000
406860360.17608,410815944.05143,-141352477.32608,   0.00242,   0.00178,  -0.00389,477777571.98554,   0.00176,276552135.81023,   0.00137,   0.00071,  -0.00205,   0.00000,   2.00000
407240985.25677,410861228.95496,-141154433.33756,   0.00243,   0.00179,  -0.00389,477788906.54587,   0.00177,276556775.21194,   0.00138,   0.00071,  -0.00205,  -0.00000,   2.00000
407621351.17047,410897205.12260,-140960440.50222,   0.00243,   0.00179,  -0.00389,477783033.95020,   0.00177,276561373.30160,   0.00138,   0.00071,  -0.00206,   0.00000,   2.00000
408012807.15333,410935110.78684,-140759629.04595,   0.00244,   0.00179,  -0.00389,477794412.27843,   0.00178,276565994.88002,   0.00138,   0.00072,  -0.00206,   0.00000,   2.00000
408412896.63526,410962450.98998,-140559224.44291,   0.00244,   0.00179,  -0.00390,477799409.99694,   0.00178,276570615.93486,   0.00138,   0.00072,  -0.00207,  -0.00000,   2.00000
408815022.39551,410992940.60085,-140355630.22213,   0.00245,   0.00180,  -0.00390,477800025.57432,   0.00179,276575220.03247,   0.00139,   0.00072,  -0.00207,   0.00000,   2.00000
409215546.50677,411022912.35610,-140152412.72099,   0.00245,   0.00180,  -0.00390,477805116.19405,   0.00179,276579824.00902,   0.00139,   0.00072,  -0.00208,   0.00000,   2.00000
409628253.90745,411045932.16594,-139946017.52226,   0.00245,   0.00180,  -0.00390,477805687.68448,   0.00180,276584410.93007,   0.00139,   0.00073,  -0.00209,   0.00000,   2.00000
410051773.73485,411070767.28989,-139732792.81734,   0.00246,   0.00180,  -0.00391,477817234.48658,   0.00180,276589021.87444,   0.00139,   0.00073,  -0.00209,   0.00000,   2.00000
410474882.37229,411086259.45020,-139523587.18420,   0.00246,   0.00180,  -0.00391,477811453.95118,   0.00180,276593591.98048,   0.00140,   0.00073,  -0.00210,   0.00000,   2.00000
410905081.42345,411099906.04173,-139311125.15596,   0.00247,   0.00180,  -0.00391,477827503.10246,   0.00181,276598202.99550,   0.00140,   0.00074,  -0.00210,   0.00000,   2.00000
411338474.99358,411107846.33383,-139099077.28870,   0.00247,   0.00181,  -0.00391,477817300.76255,   0.00181,276602756.67073,   0.00140,   0.00074,  -0.00211,   0.00000,   2.00000
411778860.32240,411113915.14918,-138883771.35163,   0.00248,   0.00181,  -0.00392,477833390.51283,   0.00182,276607351.42195,   0.00141,   0.00074,  -0.00211,   0.00000,   2.00000
412221050.79969,411123051.96147,-138665243.87307,   0.00248,   0.00181,  -0.00392,477834155.54244,   0.00182,276611929.83822,   0.00141,   0.00074,  -0.00212,   0.00000,   2.00000
412675111.60904,411125078.44294,-138443478.67003,   0.00249,   0.00181,  -0.00392,477834969.10117,   0.00183,276616492.15413,   0.00141,   0.00075,  -0.00212,   0.00000,   2.00000
413127284.65913,411126537.62936,-138222087.93668,   0.00249,   0.00181,  -0.00392,477840176.49054,   0.00183,276621054.83448,   0.00141,   0.00075,  -0.00213,   0.00000,   2.00000
413591246.49150,411120846.02526,-137997437.36401,   0.00250,   0.00181,  -0.00393,477841051.19590,   0.00183,276625601.70620,   0.00142,   0.00075,  -0.00213,   0.00000,   2.00000
414053264.25306,411114581.22542,-137773157.51770,   0.00250,   0.00182,  -0.00393,477846277.44141,   0.00184,276630149.06061,   0.00142,   0.00075,  -0.00214,   0.00000,   2.00000
414525577.42863,411109918.45154,-137542011.46006,   0.00251,   0.00182,  -0.00393,477858144.19719,   0.00184,276634721.57245,   0.00142,   0.00076,  -0.00214,   0.00000,   2.00000
414997305.24054,411095856.47720,-137314826.22227,   0.00251,   0.00182,  -0.00393,477852500.68306,   0.00185,276639253.98293,   0.00142,   0.00076,  -0.00215,   0.00000,   2.00000
415480653.96000,411074557.33943,-137084335.38034,   0.00252,   0.00182,  -0.00394,477853505.48800,   0.00185,276643771.19306,   0.00143,   0.00076,  -0.00215,  -0.00000,   2.00000
415970486.73656,411051227.27753,-136850590.77545,   0.00252,   0.00182,  -0.00394,477869853.03056,   0.00185,276648330.30725,   0.00143,   0.00076,  -0.00216,   0.00000,   2.00000
416453301.73297,411032307.99917,-136617195.11203,   0.00253,   0.00182,  -0.00394,477859729.02407,   0.00186,276652832.74001,   0.00143,   0.00077,  -0.00216,   0.00000,   2.00000
416952507.95205,411001053.26274,-136380492.40321,   0.00253,   0.00183,  -0.00394,477876284.36159,   0.00186,276657377.85770,   0.00143,   0.00077,  -0.00217,   0.00000,   2.00000
417453153.18446,410972733.32623,-136140509.54190,   0.00254,   0.00183,  -0.00394,477877292.94536,   0.00187,276661907.70439,   0.00144,   0.00077,  -0.00217,   0.00000,   2.00000
417953107.91443,410934979.62042,-135904438.20218,   0.00254,   0.00183,  -0.00395,477871729.81785,   0.00187,276666397.99446,   0.00144,   0.00077,  -0.00218,   0.00000,   2.00000
418462917.82430,410898657.59712,-135661455.49306,   0.00255,   0.00183,  -0.00395,477883860.82105,   0.00188,276670914.51068,   0.00144,   0.00078,  -0.00218,   0.00000,   2.00000
418974095.28841,410865225.94539,-135415179.04619,   0.00255,   0.00183,  -0.00395,477884911.35301,   0.00188,276675416.01838,   0.00145,   0.00078,  -0.00219,   0.00000,   2.00000
419492909.42476,410820803.24897,-135169185.77116,   0.00256,   0.00183,  -0.00395,477890557.49278,   0.00188,276679919.63032,   0.00145,   0.00078,  -0.00219,   0.00000,   2.00000
420014565.40267,410770427.51260,-134923398.14094,   0.00256,   0.00183,  -0.00395,477880747.55689,   0.00189,276684368.08333,   0.00145,   0.00078,  -0.00220,  -0.00000,   2.00000
420542224.38682,410717866.50016,-134674354.67337,   0.00257,   0.00184,  -0.00396,477897322.94633,   0.00189,276688859.32161,   0.00145,   0.00079,  -0.00220,   0.00000,   2.00000
421067524.18258,410664654.32890,-134425670.63339,   0.00257,   0.00184,  -0.00396,477902752.82009,   0.00190,276693351.89875,   0.00146,   0.00079,  -0.00221,  -0.00000,   2.00000
421607497.51568,410607373.13125,-134169864.18529,   0.00258,   0.00184,  -0.00396,477899959.54467,   0.00190,276697815.34041,   0.00146,   0.00079,  -0.00221,   0.00000,   2.00000
422145032.96683,410549407.74723,-133914415.76789,   0.00258,   0.00184,  -0.00396,477905417.17643,   0.00191,276702280.30037,   0.00146,   0.00079,  -0.00222,   0.00000,   2.00000
422689927.42555,410480331.48688,-133659203.48264,   0.00259,   0.00184,  -0.00396,477911260.41629,   0.00191,276706748.20652,   0.00146,   0.00080,  -0.00222,   0.00000,   2.00000
423235938.00299,410414051.03158,-133400641.49012,   0.00259,   0.00184,  -0.00396,477912489.69412,   0.00191,276711201.98018,   0.00147,   0.00080,  -0.00223,   0.00000,   2.00000
423789211.61245,410336617.21693,-133142299.47528,   0.00260,   0.00184,  -0.00397,477918403.40401,   0.00192,276715658.99469,   0.00147,   0.00080,  -0.00223,   0.00000,   2.00000
424343536.70098,410261953.59715,-132880593.52436,   0.00260,   0.00184,  -0.00397,477919681.30650,   0.00192,276720102.10619,   0.00147,   0.00080,  -0.00224,   0.00000,   2.00000
424900543.81491,410181178.01365,-132618972.09001,   0.00261,   0.00184,  -0.00397,477910091.01330,   0.00193,276724491.29961,   0.00147,   0.00081,  -0.00224,   0.00000,   2.00000
425463041.04221,410098054.06356,-132354094.74113,   0.00261,   0.00185,  -0.00397,477926929.03451,   0.00193,276728924.24990,   0.00148,   0.00081,  -0.00225,   0.00000,   2.00000
426026514.06800,410017650.40931,-132085839.34220,   0.00262,   0.00185,  -0.00397,477928260.94747,   0.00193,276733343.58955,   0.00148,   0.00081,  -0.00225,   0.00000,   2.00000
426597025.97691,409925972.29127,-131817770.27785,   0.00262,   0.00185,  -0.00397,477934338.53721,   0.00194,276737766.87421,   0.00148,   0.00081,  -0.00226,   0.00000,   2.00000
427170134.54583,409828107.33731,-131549726.20286,   0.00263,   0.00185,  -0.00397,477924867.72009,   0.00194,276742136.85365,   0.00149,   0.00082,  -0.00226,   0.00000,   2.00000
427748484.92503,409727824.01005,-131278423.95934,   0.00264,   0.00185,  -0.00398,477941843.27743,   0.00195,276746551.07665,   0.00149,   0.00082,  -0.00227,   0.00000,   2.00000
428327677.77899,409630206.13257,-131003714.97002,   0.00264,   0.00185,  -0.00398,477943281.03944,   0.00195,276750952.16968,   0.00149,   0.00082,  -0.00227,   0.00000,   2.00000
428917288.19258,409524610.46233,-130725405.92029,   0.00265,   0.00185,  -0.00398,477945342.53889,   0.00196,276755342.47268,   0.00149,   0.00082,  -0.00228,   0.00000,   2.00000
429505805.81400,409409340.87928,-130450821.47305,   0.00265,   0.00185,  -0.00398,477940165.81793,   0.00196,276759695.47980,   0.00150,   0.00083,  -0.00228,   0.00000,   2.00000
430091509.89884,409293326.07743,-130176561.27411,   0.00266,   0.00185,  -0.00398,477945791.33114,   0.00196,276764051.04610,   0.00150,   0.00083,  -0.00229,   0.00000,   2.00000
430685757.84679,409178184.70560,-129895277.58427,   0.00266,   0.00185,  -0.00398,477958776.96737,   0.00197,276768436.13311,   0.00150,   0.00083,  -0.00229,   0.00000,   2.00000
431282469.00366,409056702.14725,-129613919.08507,   0.00267,   0.00185,  -0.00398,477949511.61226,   0.00197,276772768.97773,   0.00151,   0.00083,  -0.00230,  -0.00000,   2.00000
431876292.12611,408934445.92425,-129332886.91064,   0.00268,   0.00185,  -0.00398,477955173.46074,   0.00198,276777104.57349,   0.00151,   0.00084,  -0.00230,   0.00000,   2.00000
432480272.95589,408804035.65040,-129048165.91193,   0.00268,   0.00185,  -0.00399,477957465.82649,   0.00198,276781430.54465,   0.00151,   0.00084,  -0.00231,  -0.00000,   2.00000
433092509.13560,408674368.92532,-128756401.82459,   0.00269,   0.00186,  -0.00399,477970641.50138,   0.00198,276785786.76492,   0.00151,   0.00084,  -0.00231,  -0.00000,   2.00000
433695919.37548,408536735.98802,-128471871.56791,   0.00269,   0.00186,  -0.00399,477954019.19576,   0.00199,276790064.04726,   0.00152,   0.00084,  -0.00232,   0.00000,   2.00000
434311522.28540,408394676.99390,-128180512.21726,   0.00270,   0.00186,  -0.00399,477982927.13285,   0.00199,276794429.35628,   0.00152,   0.00084,  -0.00232,   0.00000,   2.00000
434921906.46114,408247974.64733,-127892552.67597,   0.00271,   0.00186,  -0.00399,477962238.42688,   0.00200,276798700.89048,   0.00152,   0.00085,  -0.00233,   0.00000,   2.00000
435540341.02282,408101930.20856,-127597523.10720,   0.00271,   0.00186,  -0.00399,477975532.34084,   0.00200,276803003.29633,   0.00153,   0.00085,  -0.00233,   0.00000,   2.00000
436157534.67442,407946068.10119,-127306106.44578,   0.00272,   0.00186,  -0.00399,477970545.60258,   0.00200,276807269.66407,   0.00153,   0.00085,  -0.00234,   0.00000,   2.00000
436782638.24554,407790810.13892,-127007609.58150,   0.00272,   0.00186,  -0.00399,477983940.43370,   0.00201,276811567.26378,   0.00153,   0.00085,  -0.00234,   0.00000,   2.00000
437410012.14785,407628972.08508,-126708874.70413,   0.00273,   0.00186,  -0.00399,477974966.62813,   0.00201,276815814.29850,   0.00153,   0.00086,  -0.00235,  -0.00000,   2.00000
438034210.66870,407466288.28883,-126410445.89157,   0.00274,   0.00186,  -0.00399,477980772.11338,   0.00202,276820064.94572,   0.00154,   0.00086,  -0.00235,   0.00000,   2.00000
438664478.77412,407291843.54845,-126112024.74190,   0.00274,   0.00186,  -0.00399,477987574.32864,   0.00202,276824322.84190,   0.00154,   0.00086,  -0.00235,   0.00000,   2.00000
439295073.13708,407119805.71925,-125810058.34128,   0.00275,   0.00186,  -0.00399,477989408.18777,   0.00202,276828569.82558,   0.00154,   0.00086,  -0.00236,   0.00000,   2.00000
439927905.19716,406941105.52373,-125507782.65734,   0.00275,   0.00186,  -0.00400,477980515.43043,   0.00203,276832766.87645,   0.00155,   0.00087,  -0.00236,   0.00000,   2.00000
440564721.38315,406759619.77674,-125202251.60967,   0.00276,   0.00186,  -0.00400,477998144.36306,   0.00203,276837010.80754,   0.00155,   0.00087,  -0.00237,  -0.00000,   2.00000
441201777.60663,406580483.93606,-124893162.22541,   0.00277,   0.00186,  -0.00400,478000055.07994,   0.00204,276841244.16850,   0.00155,   0.00087,  -0.00237,   0.00000,   2.00000
441841016.69395,406394598.34548,-124583721.77085,   0.00277,   0.00186,  -0.00400,477991261.26895,   0.00204,276845428.07545,   0.00155,   0.00087,  -0.00238,  -0.00000,   2.00000
442486017.53556,406196780.43220,-124274234.34145,   0.00278,   0.00186,  -0.00400,477998291.09745,   0.00204,276849620.32303,   0.00156,   0.00087,  -0.00238,  -0.00000,   2.00000
443131169.38527,406001263.89934,-123961155.46200,   0.00278,   0.00186,  -0.00400,478000257.87839,   0.00205,276853802.45462,   0.00156,   0.00088,  -0.00239,   0.00000,   2.00000
443774911.84190,405795742.25238,-123651550.06732,   0.00279,   0.00186,  -0.00400,477995491.19907,   0.00205,276857950.09492,   0.00156,   0.00088,  -0.00239,   0.00000,   2.00000
444425812.39983,405590514.20705,-123334798.95180,   0.00280,   0.00186,  -0.00400,478009371.29513,   0.00206,276862131.08329,   0.00157,   0.00088,  -0.00240,   0.00000,   2.00000
445073246.16473,405384375.30338,-123018342.22197,   0.00280,   0.00186,  -0.00400,478015348.14236,   0.00206,276866316.59210,   0.00157,   0.00088,  -0.00240,  -0.00000,   2.00000
445724781.14024,405162195.78674,-122704575.23217,   0.00281,   0.00186,  -0.00400,477996070.23062,   0.00206,276870415.02134,   0.00157,   0.00089,  -0.00240,   0.00000,   2.00000
446377723.44574,404946249.87050,-122384411.05546,   0.00282,   0.00186,  -0.00400,478024636.20232,   0.00207,276874600.23142,   0.00157,   0.00089,  -0.00241,   0.00000,   2.00000
447036212.47534,404726471.80650,-122059839.84008,   0.00282,   0.00186,  -0.00400,478012219.53414,   0.00207,276878723.26799,   0.00158,   0.00089,  -0.00241,   0.00000,   2.00000
447689668.01568,404493455.08096,-121742593.25550,   0.00283,   0.00186,  -0.00400,478011474.57722,   0.00208,276882826.77124,   0.00158,   0.00089,  -0.00242,  -0.00000,   2.00000
448346621.10248,404265744.49966,-121417760.75010,   0.00283,   0.00186,  -0.00400,478009701.18641,   0.00208,276886907.06779,   0.00158,   0.00089,  -0.00242,   0.00000,   2.00000
449008827.67095,404025826.81653,-121092788.58550,   0.00284,   0.00186,  -0.00400,478017120.97906,   0.00208,276890997.56211,   0.00159,   0.00090,  -0.00243,  -0.00000,   2.00000
449660694.11710,403787038.90781,-120771596.90438,   0.00285,   0.00186,  -0.00400,478011083.46945,   0.00209,276895049.55445,   0.00159,   0.00090,  -0.00243,   0.00000,   2.00000
450325877.10513,403546253.78033,-120439714.05982,   0.00285,   0.00186,  -0.00400,478037390.66001,   0.00209,276899180.13451,   0.00159,   0.00090,  -0.00243,  -0.00000,   2.00000
450986316.34226,403300414.24817,-120110737.56349,   0.00286,   0.00186,  -0.00400,478016961.16013,   0.00209,276903220.04968,   0.00159,   0.00090,  -0.00244,   0.00000,   2.00000
451651818.20481,403042268.79033,-119781583.48520,   0.00287,   0.00186,  -0.00400,478024531.02820,   0.00210,276907270.89601,   0.00160,   0.00090,  -0.00244,  -0.00000,   2.00000
452317110.86132,402786212.00928,-119448727.14472,   0.00287,   0.00186,  -0.00400,478026795.90083,   0.00210,276911313.45501,   0.00160,   0.00091,  -0.00245,   0.00000,   2.00000
452984298.78780,402522934.43723,-119115202.09336,   0.00288,   0.00186,  -0.00400,478018503.81583,   0.00211,276915309.67605,   0.00160,   0.00091,  -0.00245,   0.00000,   2.00000
453647759.28726,402258683.43409,-118781932.18351,   0.00289,   0.00186,  -0.00400,478024565.42316,   0.00211,276919311.57221,   0.00161,   0.00091,  -0.00246,   0.00000,   2.00000
454316085.05124,401982025.80111,-118448447.42514,   0.00289,   0.00186,  -0.00400,478032292.62125,   0.00211,276923325.15070,   0.00161,   0.00091,  -0.00246,  -0.00000,   2.00000
454981181.51589,401712540.97505,-118110723.99678,   0.00290,   0.00186,  -0.00400,478018630.67040,   0.00212,276927273.23647,   0.00161,   0.00091,  -0.00246,  -0.00000,   2.00000
455648906.63003,401439924.71711,-117769776.88833,   0.00291,   0.00185,  -0.00400,478036932.48427,   0.00212,276931271.29599,   0.00161,   0.00092,  -0.00247,   0.00000,   2.00000
456321318.25128,401154806.30962,-117428600.66171,   0.00291,   0.00185,  -0.00400,478044814.71050,   0.00212,276935281.60323,   0.00162,   0.00092,  -0.00247,  -0.00000,   2.00000
456989205.42181,400864454.58156,-117090117.14671,   0.00292,   0.00185,  -0.00400,478024451.96191,   0.00213,276939202.45482,   0.00162,   0.00092,  -0.00248,   0.00000,   2.00000
457662996.34308,400573901.59215,-116744395.12986,   0.00293,   0.00185,  -0.00400,478039130.87587,   0.00213,276943160.32593,   0.00162,   0.00092,  -0.00248,  -0.00000,   2.00000
458328862.08642,400275113.44542,-116405335.28874,   0.00293,   0.00185,  -0.00400,478022473.73779,   0.00214,276947042.39493,   0.00163,   0.00092,  -0.00248,   0.00000,   2.00000
459000540.83102,399976089.97698,-116059025.99937,   0.00294,   0.00185,  -0.00400,478037196.70312,   0.00214,276950961.80351,   0.00163,   0.00093,  -0.00249,   0.00000,   2.00000
459676648.46749,399664427.34243,-115712431.23920,   0.00294,   0.00185,  -0.00400,478045265.66740,   0.00214,276954894.49912,   0.00163,   0.00093,  -0.00249,   0.00000,   2.00000
460349589.14832,399359771.42388,-115361456.29631,   0.00295,   0.00185,  -0.00400,478031717.70303,   0.00215,276958762.74562,   0.00164,   0.00093,  -0.00250,   0.00000,   2.00000
461017369.29156,399041720.04811,-115017664.38844,   0.00296,   0.00185,  -0.00399,478031088.36791,   0.00215,276962613.29105,   0.00164,   0.00093,  -0.00250,   0.00000,   2.00000
461694140.65922,398726231.42250,-114662561.52027,   0.00296,   0.00185,  -0.00399,478042328.39174,   0.00215,276966488.77224,   0.00164,   0.00093,  -0.00250,  -0.00000,   2.00000
462369127.96597,398400194.89851,-114310577.12508,   0.00297,   0.00185,  -0.00399,478038119.82919,   0.00216,276970333.69224,   0.00164,   0.00094,  -0.00251,   0.00000,   2.00000
463040110.72133,398073128.70598,-113958821.95748,   0.00298,   0.00185,  -0.00399,478044314.50737,   0.00216,276974185.51657,   0.00165,   0.00094,  -0.00251,   0.00000,   2.00000
463712765.69064,397738359.61731,-113606087.98729,   0.00298,   0.00185,  -0.00399,478036479.82151,   0.00216,276977993.93626,   0.00165,   0.00094,  -0.00251,   0.00000,   2.00000
464384830.29307,397405400.52701,-113249504.21171,   0.00299,   0.00184,  -0.00399,478039045.45377,   0.00217,276981796.40912,   0.00165,   0.00094,  -0.00252,   0.00000,   2.00000
465055123.46596,397061830.26329,-112895979.30038,   0.00300,   0.00184,  -0.00399,478034854.31594,   0.00217,276985568.80039,   0.00166,   0.00094,  -0.00252,   0.00000,   2.00000
465730581.72826,396717794.62128,-112535172.29304,   0.00300,   0.00184,  -0.00399,478049995.17485,   0.00218,276989380.45230,   0.00166,   0.00095,  -0.00253,   0.00000,   2.00000
466407603.93568,396365899.39437,-112173310.72229,   0.00301,   0.00184,  -0.00399,478042320.69356,   0.00218,276993149.54052,   0.00166,   0.00095,  -0.00253,   0.00000,   2.00000
467074809.38579,396015203.95222,-111815072.11072,   0.00302,   0.00184,  -0.00399,478035962.82913,   0.00218,276996880.99359,   0.00167,   0.00095,  -0.00253,  -0.00000,   2.00000
467749297.72359,395654335.97151,-111452330.10919,   0.00302,   0.00184,  -0.00399,478040865.27484,   0.00219,277000615.26408,   0.00167,   0.00095,  -0.00254,  -0.00000,   2.00000
468419651.95104,395292404.39745,-111089801.36572,   0.00303,   0.00184,  -0.00398,478047103.25759,   0.00219,277004357.13307,   0.00167,   0.00095,  -0.00254,   0.00000,   2.00000
469091554.42967,394922495.96258,-110726133.33916,   0.00304,   0.00184,  -0.00398,478039501.60271,   0.00219,277008057.11953,   0.00167,   0.00095,  -0.00254,   0.00000,   2.00000
469762693.63044,394554266.64934,-110358550.78236,   0.00305,   0.00184,  -0.00398,478042207.26621,   0.00220,277011752.23038,   0.00168,   0.00096,  -0.00255,   0.00000,   2.00000
470431970.92968,394175243.60099,-109993915.30907,   0.00305,   0.00183,  -0.00398,478038164.40978,   0.00220,277015418.42674,   0.00168,   0.00096,  -0.00255,   0.00000,   2.00000
471100463.87777,393797876.77805,-109625347.22944,   0.00306,   0.00183,  -0.00398,478040884.43476,   0.00220,277019079.97695,   0.00168,   0.00096,  -0.00255,   0.00000,   2.00000
471775864.00828,393410083.38196,-109252189.20281,   0.00307,   0.00183,  -0.00398,478046122.61139,   0.00221,277022745.90116,   0.00169,   0.00096,  -0.00256,   0.00000,   2.00000
472441634.09268,393023492.55897,-108882596.79841,   0.00307,   0.00183,  -0.00398,478039658.37559,   0.00221,277026374.45191,   0.00169,   0.00096,  -0.00256,   0.00000,   2.00000
473114215.26741,392626403.89920,-108508383.13448,   0.00308,   0.00183,  -0.00398,478044980.23610,   0.00221,277030007.84464,   0.00169,   0.00096,  -0.00257,  -0.00000,   2.00000
473779549.74656,392220705.97758,-108140387.23363,   0.00309,   0.00183,  -0.00397,478028258.65413,   0.00222,277033567.50798,   0.00169,   0.00097,  -0.00257,   0.00000,   2.00000
474449265.41172,391814272.78336,-107765060.27709,   0.00309,   0.00183,  -0.00397,478043853.49356,   0.00222,277037168.94615,   0.00170,   0.00097,  -0.00257,   0.00000,   2.00000
475112825.29584,391411700.68903,-107389093.32471,   0.00310,   0.00182,  -0.00397,478033867.58065,   0.00222,277040720.82368,   0.00170,   0.00097,  -0.00258,   0.00000,   2.00000
475779643.86723,390995829.92012,-107012621.54445,   0.00311,   0.00182,  -0.00397,478042787.53357,   0.00223,277044290.74231,   0.00170,   0.00097,  -0.00258,   0.00000,   2.00000
476440363.00310,390583801.93491,-106635479.92256,   0.00311,   0.00182,  -0.00397,478032780.21440,   0.00223,277047811.22063,   0.00171,   0.00097,  -0.00258,   0.00000,   2.00000
477107566.95258,390161031.51303,-106253625.23398,   0.00312,   0.00182,  -0.00397,478038373.91270,   0.00223,277051338.02969,   0.00171,   0.00097,  -0.00259,   0.00000,   2.00000
477772760.91790,389727189.65000,-105874548.56665,   0.00313,   0.00182,  -0.00397,478034545.48645,   0.00224,277054837.65110,   0.00171,   0.00098,  -0.00259,   0.00000,   2.00000
478431916.70129,389297142.17963,-105494746.05441,   0.00313,   0.00182,  -0.00396,478024510.70002,   0.00224,277058288.11962,   0.00172,   0.00098,  -0.00259,   0.00000,   2.00000
479091745.43588,388863648.60449,-105111815.54980,   0.00314,   0.00181,  -0.00396,478043694.52233,   0.00224,277061793.59579,   0.00172,   0.00098,  -0.00260,  -0.00000,   2.00000
479747944.60143,388423925.36908,-104730705.70901,   0.00315,   0.00181,  -0.00396,478023565.91615,   0.00225,277065214.06775,   0.00172,   0.00098,  -0.00260,   0.00000,   2.00000
480408001.91509,387983291.20598,-104342255.15684,   0.00315,   0.00181,  -0.00396,478039459.45640,   0.00225,277068677.95739,   0.00172,   0.00098,  -0.00260,  -0.00000,   2.00000
481066015.62188,387531467.25706,-103956517.48345,   0.00316,   0.00181,  -0.00396,478035709.20870,   0.00225,277072115.30452,   0.00173,   0.00098,  -0.00260,   0.00000,   2.00000
481720460.23391,387073293.13460,-103572504.61777,   0.00317,   0.00181,  -0.00395,478015603.84917,   0.00226,277075468.12991,   0.00173,   0.00098,  -0.00261,   0.00000,   2.00000
482375307.54187,386611644.29607,-103185374.65614,   0.00317,   0.00180,  -0.00395,478034892.13799,   0.00226,277078876.75270,   0.00173,   0.00099,  -0.00261,  -0.00000,   2.00000
483027549.65363,386156186.75548,-102793177.04741,   0.00318,   0.00180,  -0.00395,478021528.97293,   0.00226,277082224.95114,   0.00174,   0.00099,  -0.00261,  -0.00000,   2.00000
483674513.75037,385686956.10876,-102407873.96165,   0.00319,   0.00180,  -0.00395,478021034.64879,   0.00227,277085558.73802,   0.00174,   0.00099,  -0.00262,  -0.00000,   2.00000
484330580.87613,385209017.86547,-102013426.25575,   0.00319,   0.00180,  -0.00395,478023896.93413,   0.00227,277088890.08705,   0.00174,   0.00099,  -0.00262,  -0.00000,   2.00000
484977575.01208,384732247.93672,-101622363.61454,   0.00320,   0.00180,  -0.00394,478017054.40599,   0.00227,277092184.58654,   0.00174,   0.00099,  -0.00262,  -0.00000,   2.00000
485623395.68249,384256767.42385,-101227178.37389,   0.00321,   0.00179,  -0.00394,478020050.32833,   0.00228,277095477.29934,   0.00175,   0.00099,  -0.00263,  -0.00000,   2.00000
486273998.35799,383757306.66091,-100833776.01724,   0.00321,   0.00179,  -0.00394,478019629.19544,   0.00228,277098756.17454,   0.00175,   0.00099,  -0.00263,   0.00000,   2.00000
486916489.79732,383271692.45889,-100437025.53197,   0.00322,   0.00179,  -0.00394,478019432.92788,   0.00228,277102022.04478,   0.00175,   0.00100,  -0.00263,   0.00000,   2.00000
487560094.64097,382777027.83093,-100038535.75982,   0.00323,   0.00179,  -0.00394,478012586.68671,   0.00228,277105251.40336,   0.00176,   0.00100,  -0.00263,   0.00000,   2.00000
488197189.17656,382273212.33905,-99645767.85932,   0.00323,   0.00179,  -0.00393,477995699.25442,   0.00229,277108408.84155,   0.00176,   0.00100,  -0.00264,   0.00000,   2.00000
488837405.73648,381768262.83546,-99245624.47883,   0.00324,   0.00178,  -0.00393,478011970.35716,   0.00229,277111612.19692,   0.00176,   0.00100,  -0.00264,   0.00000,   2.00000
489476309.57525,381264488.71698,-98841309.24384,   0.00325,   0.00178,  -0.00393,478015073.69134,   0.00229,277114814.61159,   0.00176,   0.00100,  -0.00264,  -0.00000,   2.00000
490113044.91263,380749139.24577,-98439482.14959,   0.00325,   0.00178,  -0.00393,478011513.10773,   0.00230,277117992.51753,   0.00177,   0.00100,  -0.00265,   0.00000,   2.00000
490746544.45448,380226856.80468,-98038963.22121,   0.00326,   0.00178,  -0.00392,477991500.87624,   0.00230,277121087.74646,   0.00177,   0.00100,  -0.00265,   0.00000,   2.00000
491375558.30648,379703377.06154,-97638552.90967,   0.00327,   0.00177,  -0.00392,477997691.62193,   0.00230,277124193.47729,   0.00177,   0.00100,  -0.00265,   0.00000,   2.00000
492005580.08835,379170556.55336,-97236231.15184,   0.00327,   0.00177,  -0.00392,477991000.60429,   0.00231,277127264.06216,   0.00178,   0.00101,  -0.00265,  -0.00000,   2.00000
492634229.78615,378638822.35889,-96829675.94923,   0.00328,   0.00177,  -0.00392,477994112.83294,   0.00231,277130334.36128,   0.00178,   0.00101,  -0.00266,   0.00000,   2.00000
493258352.89140,378105879.71723,-96423234.65768,   0.00329,   0.00177,  -0.00391,478000326.80249,   0.00231,277133415.37934,   0.00178,   0.00101,  -0.00266,   0.00000,   2.00000
493886531.71476,377565728.03924,-96010477.79168,   0.00329,   0.00176,  -0.00391,477990687.02693,   0.00231,277136450.94536,   0.00178,   0.00101,  -0.00266,   0.00000,   2.00000
494509334.75804,377011522.73630,-95604435.86193,   0.00330,   0.00176,  -0.00391,477990270.52125,   0.00232,277139473.95261,   0.00179,   0.00101,  -0.00266,   0.00000,   2.00000
495129843.86200,376462888.37267,-95192873.31115,   0.00331,   0.00176,  -0.00390,477976947.77855,   0.00232,277142438.74613,   0.00179,   0.00101,  -0.00267,   0.00000,   2.00000
495748123.48433,375902395.90685,-94783627.60835,   0.00331,   0.00176,  -0.00390,477973444.43706,   0.00232,277145380.35116,   0.00179,   0.00101,  -0.00267,   0.00000,   2.00000
496361846.56526,375340667.97747,-94374465.25708,   0.00332,   0.00175,  -0.00390,477979614.46138,   0.00233,277148333.11329,   0.00179,   0.00101,  -0.00267,   0.00000,   2.00000
496977182.90788,374782108.48012,-93956634.07599,   0.00333,   0.00175,  -0.00390,477979787.97816,   0.00233,277151275.75204,   0.00180,   0.00102,  -0.00267,   0.00000,   2.00000
497590231.23727,374211599.76283,-93541084.10965,   0.00333,   0.00175,  -0.00389,477976368.47504,   0.00233,277154195.63427,   0.00180,   0.00102,  -0.00268,   0.00000,   2.00000
498200971.71902,373629116.65604,-93127789.10683,   0.00334,   0.00175,  -0.00389,477972970.23355,   0.00233,277157092.96432,   0.00180,   0.00102,  -0.00268,   0.00000,   2.00000
498806446.34889,373049825.72667,-92713224.38545,   0.00335,   0.00174,  -0.00389,477962624.28902,   0.00234,277159943.24750,   0.00180,   0.00102,  -0.00268,  -0.00000,   2.00000
499412678.81079,372460640.97991,-92296467.72775,   0.00335,   0.00174,  -0.00388,477956250.72996,   0.00234,277162760.74085,   0.00181,   0.00102,  -0.00268,  -0.00000,   2.00000
500017329.15700,371872304.08800,-91875362.21062,   0.00336,   0.00174,  -0.00388,477959471.23684,   0.00234,277165579.51248,   0.00181,   0.00102,  -0.00269,   0.00000,   2.00000
500613769.59342,371284957.16091,-91457351.98570,   0.00337,   0.00173,  -0.00388,477951988.86952,   0.00234,277168361.71268,   0.00181,   0.00102,  -0.00269,   0.00000,   2.00000
501214477.68904,370685318.72449,-91034070.77520,   0.00337,   0.00173,  -0.00387,477959328.95850,   0.00235,277171159.93865,   0.00182,   0.00102,  -0.00269,   0.00000,   2.00000
501809280.77691,370075758.78424,-90615944.77625,   0.00338,   0.00173,  -0.00387,477942344.67989,   0.00235,277173888.12482,   0.00182,   0.00102,  -0.00269,   0.00000,   2.00000
502405451.60463,369469048.25155,-90188993.59856,   0.00339,   0.00173,  -0.00387,477942697.80946,   0.00235,277176607.84679,   0.00182,   0.00102,  -0.00270,   0.00000,   2.00000
502993974.72473,368858967.41971,-89766537.05770,   0.00339,   0.00172,  -0.00386,477951701.28931,   0.00235,277179349.76905,   0.00182,   0.00103,  -0.00270,   0.00000,   2.00000
503582677.00827,368242955.53189,-89340265.31366,   0.00340,   0.00172,  -0.00386,477928955.04510,   0.00236,277182001.50932,   0.00183,   0.00103,  -0.00270,   0.00000,   2.00000
504168974.43303,367614614.57379,-88916059.14740,   0.00341,   0.00172,  -0.00386,477925626.51274,   0.00236,277184632.12445,   0.00183,   0.00103,  -0.00270,   0.00000,   2.00000
504753566.15678,366986960.54662,-88487421.32551,   0.00341,   0.00171,  -0.00385,477928889.48447,   0.00236,277187265.01113,   0.00183,   0.00103,  -0.00270,  -0.00000,   2.00000
505333481.85538,366357977.07204,-88058819.98547,   0.00342,   0.00171,  -0.00385,477934992.39554,   0.00236,277189910.22526,   0.00183,   0.00103,  -0.00271,  -0.00000,   2.00000
505910644.78415,365720781.89083,-87630711.57438,   0.00342,   0.00171,  -0.00385,477915136.26584,   0.00237,277192475.91355,   0.00184,   0.00103,  -0.00271,   0.00000,   2.00000
506488276.60411,365073096.38151,-87200118.64986,   0.00343,   0.00170,  -0.00384,477909072.85650,   0.00237,277195011.18080,   0.00184,   0.00103,  -0.00271,   0.00000,   2.00000
507064113.65262,364425999.31533,-86765052.56317,   0.00344,   0.00170,  -0.00384,477912375.83305,   0.00237,277197549.27636,   0.00184,   0.00103,  -0.00271,  -0.00000,   2.00000
507632112.52236,363779711.17795,-86332906.05328,   0.00344,   0.00170,  -0.00384,477904591.47885,   0.00237,277200050.97799,   0.00184,   0.00103,  -0.00271,   0.00000,   2.00000
508197634.75765,363120862.46589,-85902704.06292,   0.00345,   0.00169,  -0.00383,477901332.53884,   0.00238,277202532.46487,   0.00185,   0.00103,  -0.00272,   0.00000,   2.00000
508766402.65810,362453244.20201,-85465420.48783,   0.00346,   0.00169,  -0.00383,477892653.06281,   0.00238,277204974.63804,   0.00185,   0.00103,  -0.00272,   0.00000,   2.00000
509330411.32202,361784215.15099,-85028128.60303,   0.00346,   0.00169,  -0.00382,477898715.89831,   0.00238,277207429.82314,   0.00185,   0.00103,  -0.00272,   0.00000,   2.00000
509886708.88011,361115938.70390,-84593695.72208,   0.00347,   0.00168,  -0.00382,477890834.17050,   0.00238,277209848.63733,   0.00185,   0.00104,  -0.00272,   0.00000,   2.00000
510446152.96631,360438702.78565,-84152098.37473,   0.00347,   0.00168,  -0.00382,477882267.18011,   0.00239,277212228.79283,   0.00185,   0.00104,  -0.00272,   0.00000,   2.00000
510997945.49379,359762160.99231,-83713321.65574,   0.00348,   0.00168,  -0.00381,477874315.02756,   0.00239,277214572.61400,   0.00186,   0.00104,  -0.00272,   0.00000,   2.00000
511552831.11587,359072553.59706,-83269019.48951,   0.00349,   0.00167,  -0.00381,477882469.48729,   0.00239,277216937.27384,   0.00186,   0.00104,  -0.00273,   0.00000,   2.00000
512100092.86007,358383608.86979,-82827512.95109,   0.00349,   0.00167,  -0.00380,477874515.78020,   0.00239,277219265.68096,   0.00186,   0.00104,  -0.00273,   0.00000,   2.00000
512644725.54556,357685694.84076,-82386061.49991,   0.00350,   0.00167,  -0.00380,477854741.21220,   0.00239,277221516.12075,   0.00186,   0.00104,  -0.00273,   0.00000,   2.00000
513189483.54931,356976643.92040,-81941820.46950,   0.00351,   0.00166,  -0.00380,477848987.40653,   0.00240,277223738.53693,   0.00187,   0.00104,  -0.00273,  -0.00000,   2.00000
513727378.45503,356277624.48132,-81495738.75269,   0.00351,   0.00166,  -0.00379,477864000.98424,   0.00240,277226006.58168,   0.00187,   0.00104,  -0.00273,  -0.00000,   2.00000
514264724.54393,355557899.89991,-81051382.57173,   0.00352,   0.00166,  -0.00379,477835229.11706,   0.00240,277228165.02214,   0.00187,   0.00104,  -0.00273,   0.00000,   2.00000
514797991.06912,354850010.25345,-80600635.76472,   0.00352,   0.00165,  -0.00378,477847581.35053,   0.00240,277230359.92419,   0.00187,   0.00104,  -0.00274,   0.00000,   2.00000
515328512.09426,354129038.37157,-80151592.26824,   0.00353,   0.00165,  -0.00378,477844527.07009,   0.00240,277232536.60167,   0.00187,   0.00104,  -0.00274,   0.00000,   2.00000
515856410.96918,353398684.43277,-79702379.78893,   0.00354,   0.00164,  -0.00378,477824830.33388,   0.00241,277234636.14469,   0.00188,   0.00104,  -0.00274,   0.00000,   2.00000
516382216.09115,352668524.42932,-79248511.11086,   0.00354,   0.00164,  -0.00377,477828200.65701,   0.00241,277236740.58879,   0.00188,   0.00104,  -0.00274,   0.00000,   2.00000
516905177.14937,351925137.47214,-78796276.03169,   0.00355,   0.00164,  -0.00377,477825208.74114,   0.00241,277238827.39110,   0.00188,   0.00104,  -0.00274,   0.00000,   2.00000
517423512.19800,351183874.08240,-78342062.55643,   0.00355,   0.00163,  -0.00376,477814458.35386,   0.00241,277240869.09296,   0.00188,   0.00104,  -0.00274,  -0.00000,   2.00000
517939235.38784,350432927.89698,-77887519.32621,   0.00356,   0.00163,  -0.00376,477794778.80989,   0.00241,277242834.18327,   0.00189,   0.00105,  -0.00275,   0.00000,   2.00000
518450120.35428,349680400.15631,-77432869.79158,   0.00356,   0.00163,  -0.00375,477800615.47845,   0.00242,277244813.46030,   0.00189,   0.00105,  -0.00275,   0.00000,   2.00000
518958827.34559,348927955.59979,-76973515.71466,   0.00357,   0.00162,  -0.00375,477804001.28259,   0.00242,277246798.18436,   0.00189,   0.00105,  -0.00275,   0.00000,   2.00000
519467232.81340,348163711.81321,-76511088.67442,   0.00358,   0.00162,  -0.00374,477798630.16668,   0.00242,277248757.27355,   0.00189,   0.00105,  -0.00275,  -0.00000,   2.00000
519968440.03869,347399765.99216,-76051189.05959,   0.00358,   0.00161,  -0.00374,477790261.21903,   0.00242,277250680.17454,   0.00189,   0.00105,  -0.00275,   0.00000,   2.00000
520467040.28994,346625786.78576,-75590775.04544,   0.00359,   0.00161,  -0.00373,477770637.93201,   0.00242,277252527.04660,   0.00190,   0.00105,  -0.00275,   0.00000,   2.00000
520965233.80901,345839803.17706,-75127188.13196,   0.00359,   0.00161,  -0.00373,477765306.59494,   0.00243,277254348.92358,   0.00190,   0.00105,  -0.00275,   0.00000,   2.00000
521456638.18286,345064153.36728,-74661891.41448,   0.00360,   0.00160,  -0.00372,477779839.53772,   0.00243,277256216.47129,   0.00190,   0.00105,  -0.00275,   0.00000,   2.00000
521947249.58400,344266226.89786,-74197531.50756,   0.00360,   0.00160,  -0.00372,477751599.70796,   0.00243,277257977.53651,   0.00190,   0.00105,  -0.00276,   0.00000,   2.00000
522435469.13609,343468156.77665,-73728370.41593,   0.00361,   0.00159,  -0.00371,477755049.72551,   0.00243,277259745.13324,   0.00190,   0.00105,  -0.00276,   0.00000,   2.00000
522916637.87742,342670194.67315,-73261610.32149,   0.00362,   0.00159,  -0.00371,477746503.41213,   0.00243,277261476.58047,   0.00190,   0.00105,  -0.00276,   0.00000,   2.00000
523395422.56851,341872072.24820,-72790044.15330,   0.00362,   0.00159,  -0.00370,477749933.28250,   0.00243,277263214.60358,   0.00191,   0.00105,  -0.00276,   0.00000,   2.00000
523871536.35439,341063371.02681,-72317692.29885,   0.00363,   0.00158,  -0.00370,477730422.36545,   0.00244,277264877.54993,   0.00191,   0.00105,  -0.00276,   0.00000,   2.00000
524344431.23947,340240750.66002,-71846660.62917,   0.00363,   0.00158,  -0.00369,477727615.49052,   0.00244,277266525.14387,   0.00191,   0.00105,  -0.00276,   0.00000,   2.00000
524812867.63033,339419586.99779,-71373270.33075,   0.00364,   0.00157,  -0.00369,477716672.70332,   0.00244,277268128.45509,   0.00191,   0.00105,  -0.00276,   0.00000,   2.00000
525280505.83587,338585866.57924,-70896476.65080,   0.00364,   0.00157,  -0.00368,477711629.38516,   0.00244,277269708.65254,   0.00191,   0.00105,  -0.00276,   0.00000,   2.00000
525741209.24150,337752043.11403,-70421953.42748,   0.00365,   0.00156,  -0.00368,477702928.33358,   0.00244,277271252.77507,   0.00191,   0.00105,  -0.00276,   0.00000,   2.00000
526199360.75793,336917871.28628,-69942545.40209,   0.00365,   0.00156,  -0.00367,477706391.59520,   0.00244,277272804.30309,   0.00192,   0.00105,  -0.00276,   0.00000,   2.00000
526654749.94169,336072615.42370,-69462101.57301,   0.00366,   0.00155,  -0.00367,477686975.42510,   0.00244,277274281.62480,   0.00192,   0.00105,  -0.00277,   0.00000,   2.00000
527105084.93639,335225531.01574,-68981446.23115,   0.00366,   0.00155,  -0.00366,477692669.64454,   0.00245,277275774.56236,   0.00192,   0.00105,  -0.00277,   0.00000,   2.00000
527552628.98705,334367197.92580,-68499672.25568,   0.00367,   0.00155,  -0.00366,477673284.23128,   0.00245,277277193.55917,   0.00192,   0.00105,  -0.00277,   0.93531,   1.00000
527997480.85886,333508376.53028,-68012960.06759,   0.00367,   0.00154,  -0.00365,477676790.55785,   0.00245,277278620.57969,   0.00192,   0.00105,  -0.00277,   0.94795,   1.00000
528437098.51216,332636756.93463,-67529759.70878,   0.00368,   0.00154,  -0.00365,477659615.86535,   0.00245,277279981.73901,   0.00192,   0.00105,  -0.00277,   0.86437,   1.00000
528873967.80202,331764591.18577,-67041596.43690,   0.00368,   0.00153,  -0.00364,477663134.60146,   0.00245,277281351.18406,   0.00193,   0.00105,  -0.00277,   0.87686,   1.00000
529306413.68572,330893384.31732,-66550816.81029,   0.00369,   0.00153,  -0.00364,477652108.58096,   0.00245,277282676.88728,   0.00193,   0.00105,  -0.00277,   0.82356,   1.00000
529735241.95429,330007667.79365,-66061111.69426,   0.00369,   0.00152,  -0.00363,477649510.22022,   0.00245,277283989.13892,   0.00193,   0.00105,  -0.00277,   0.80876,   1.00000
530161122.58801,329110164.24239,-65570033.69842,   0.00370,   0.00152,  -0.00362,477630260.85203,   0.00245,277285228.40024,   0.00193,   0.00105,  -0.00277,   0.72297,   1.00000
530581099.84012,328226099.22868,-65074952.56469,   0.00370,   0.00151,  -0.00362,477627384.18894,   0.00246,277286453.47987,   0.00193,   0.00106,  -0.00277,   0.70811,   1.00000
531001087.42595,327315930.12411,-64577403.72440,   0.00371,   0.00151,  -0.00361,477614591.47125,   0.00246,277287628.92455,   0.00193,   0.00106,  -0.00277,   0.65343,   1.00000
531414391.70078,326416474.59473,-64078308.44183,   0.00371,   0.00150,  -0.00361,477628384.69863,   0.00246,277288850.14124,   0.00193,   0.00106,  -0.00277,   0.70695,   1.00000
531822342.17938,325492254.15714,-63585937.48490,   0.00372,   0.00150,  -0.00360,477588472.56881,   0.00246,277289924.47393,   0.00193,   0.00106,  -0.00277,   0.54845,   1.00000
532229590.72065,324579886.97758,-63080261.84652,   0.00372,   0.00149,  -0.00360,477612767.90363,   0.00246,277291082.63284,   0.00194,   0.00106,  -0.00278,   0.63888,   1.00000
532630092.55179,323655312.33675,-62579958.26392,   0.00373,   0.00149,  -0.00359,477580971.38837,   0.00246,277292123.09264,   0.00194,   0.00106,  -0.00278,   0.51687,   1.00000
533028852.77261,322716970.31654,-62075764.93069,   0.00373,   0.00149,  -0.00358,477576518.87743,   0.00246,277293144.36618,   0.00194,   0.00106,  -0.00278,   0.49920,   1.00000
533422268.10594,321776508.17963,-61571245.39254,   0.00374,   0.00148,  -0.00358,477582126.35982,   0.00246,277294182.65362,   0.00194,   0.00106,  -0.00278,   0.51725,   1.00000
533811197.07679,320836381.73426,-61063798.21896,   0.00374,   0.00148,  -0.00357,477571047.28580,   0.00246,277295177.92819,   0.00194,   0.00106,  -0.00278,   0.47644,   1.00000
534196895.59722,319883537.53835,-60554550.86095,   0.00375,   0.00147,  -0.00357,477551997.71085,   0.00246,277296101.64477,   0.00194,   0.00106,  -0.00278,   0.41142,   1.00000
534577211.80344,318928518.77147,-60044955.69078,   0.00375,   0.00147,  -0.00356,477557560.39754,   0.00247,277297042.56266,   0.00194,   0.00106,  -0.00278,   0.42795,   1.00000
534953034.58651,317973661.26847,-59532346.95801,   0.00376,   0.00146,  -0.00355,477546445.21422,   0.00247,277297940.58804,   0.00194,   0.00106,  -0.00278,   0.39079,   1.00000
535327900.78485,316991542.61971,-59016820.54413,   0.00376,   0.00146,  -0.00355,477534410.78941,   0.00247,277298792.53858,   0.00194,   0.00106,  -0.00278,   0.35262,   1.00000
535697014.11024,316022534.90052,-58497100.19790,   0.00377,   0.00145,  -0.00354,477531174.03922,   0.00247,277299630.23477,   0.00195,   0.00106,  -0.00278,   0.34177,   1.00000
536060613.95377,315039222.67199,-57980172.77636,   0.00377,   0.00145,  -0.00353,477514121.37408,   0.00247,277300403.89228,   0.00195,   0.00106,  -0.00278,   0.29226,   1.00000
536420783.24748,314054711.13816,-57458044.76420,   0.00378,   0.00144,  -0.00353,477517816.98345,   0.00247,277301188.55214,   0.00195,   0.00106,  -0.00278,   0.30139,   1.00000
536775378.76682,313055727.95093,-56938633.24301,   0.00378,   0.00144,  -0.00352,477500803.47950,   0.00247,277301909.41422,   0.00195,   0.00106,  -0.00278,   0.25503,   1.00000
537125372.30015,312056494.19827,-56416014.56565,   0.00378,   0.00143,  -0.00351,477489669.73669,   0.00247,277302587.88023,   0.00195,   0.00106,  -0.00278,   0.22650,   1.00000
537472816.71095,311042636.84969,-55889188.61613,   0.00379,   0.00142,  -0.00351,477485722.12795,   0.00247,277303250.04427,   0.00195,   0.00106,  -0.00278,   0.21630,   1.00000
537812633.13776,310040721.35539,-55362913.41931,   0.00379,   0.00142,  -0.00350,477484031.05535,   0.00247,277303904.10504,   0.00195,   0.00106,  -0.00278,   0.21158,   1.00000
538150740.37925,309010693.74757,-54833400.10406,   0.00380,   0.00141,  -0.00350,477472552.79755,   0.00247,277304514.66562,   0.00195,   0.00106,  -0.00278,   0.18485,   1.00000
538484108.99165,307980135.50722,-54300558.82949,   0.00380,   0.00141,  -0.00349,477461485.76459,   0.00247,277305083.31880,   0.00195,   0.00106,  -0.00278,   0.16076,   1.00000
538812743.18552,306948982.20818,-53764358.52951,   0.00380,   0.00140,  -0.00348,477450388.32693,   0.00247,277305610.05335,   0.00195,   0.00106,  -0.00278,   0.13829,   1.00000
539135671.93328,305915369.65233,-53227712.68953,   0.00381,   0.00140,  -0.00347,477455903.48346,   0.00247,277306155.23051,   0.00195,   0.00106,  -0.00278,   0.14853,   1.00000
539454684.11435,304867538.53472,-52688613.12335,   0.00381,   0.00139,  -0.00347,477437319.12257,   0.00247,277306631.33706,   0.00195,   0.00106,  -0.00278,   0.11357,   1.00000
539768699.08594,303803625.63422,-52149986.50933,   0.00382,   0.00139,  -0.00346,477435406.88156,   0.00248,277307099.09774,   0.00195,   0.00106,  -0.00278,   0.10991,   1.00000
540076987.53082,302739597.86250,-51609738.37946,   0.00382,   0.00138,  -0.00345,477409385.46401,   0.00248,277307470.89771,   0.00195,   0.00106,  -0.00278,   0.06962,   1.00000
540381295.19579,301673900.71301,-51064128.70447,   0.00382,   0.00138,  -0.00345,477413234.89363,   0.00248,277307855.60739,   0.00195,   0.00106,  -0.00278,   0.07473,   1.00000
540682246.63716,300592834.64083,-50514052.21305,   0.00383,   0.00137,  -0.00344,477409797.57991,   0.00248,277308226.67934,   0.00195,   0.00106,  -0.00278,   0.06971,   1.00000
540976428.44237,299509803.26154,-49965284.81187,   0.00383,   0.00137,  -0.00343,477400388.31768,   0.00248,277308562.39178,   0.00195,   0.00106,  -0.00278,   0.05720,   1.00000
541263892.42362,298424775.35170,-49417803.96532,   0.00384,   0.00136,  -0.00343,477390908.54712,   0.00248,277308862.56727,   0.00196,   0.00106,  -0.00278,   0.04585,   1.00000
541548793.66277,297325614.18380,-48862656.45799,   0.00384,   0.00136,  -0.00342,477370991.48715,   0.00248,277309089.21208,   0.00196,   0.00106,  -0.00278,   0.02621,   1.00000
541827669.12652,296223741.53216,-48306980.21008,   0.00384,   0.00135,  -0.00341,477376521.02018,   0.00248,277309335.38487,   0.00196,   0.00106,  -0.00278,   0.03100,   1.00000
542102032.11684,295106647.59467,-47748434.90177,   0.00385,   0.00134,  -0.00341,477358300.27740,   0.00248,277309514.27617,   0.00196,   0.00106,  -0.00278,   0.01641,   1.00000
542369579.02515,293987276.66611,-47191051.07821,   0.00385,   0.00134,  -0.00340,477348790.28293,   0.00248,277309657.87924,   0.00196,   0.00106,  -0.00278,   0.01060,   1.00000
542632723.15059,292865941.39927,-46628216.33138,   0.00385,   0.00133,  -0.00339,477352807.89594,   0.00248,277309815.76795,   0.00196,   0.00106,  -0.00278,   0.01285,   1.00000
542891148.24121,291729057.91380,-46062379.56228,   0.00386,   0.00133,  -0.00338,477334715.74701,   0.00248,277309906.94988,   0.00196,   0.00106,  -0.00278,   0.00430,   1.00000
543144351.10921,290590488.02529,-45492709.41262,   0.00386,   0.00132,  -0.00338,477323733.14958,   0.00248,277309957.62025,   0.00196,   0.00106,  -0.00278,   0.00133,   1.00000
543391320.56407,289449064.56005,-44922468.34423,   0.00386,   0.00132,  -0.00337,477329279.79247,   0.00248,277310028.48846,   0.00196,   0.00106,  -0.00278,   0.00261,   1.00000
543631745.90188,288291021.70166,-44354014.88365,   0.00387,   0.00131,  -0.00336,477312740.67686,   0.00248,277310038.44404,   0.00196,   0.00106,  -0.00278,   0.00005,   1.00000
543849881.04928,287109033.57734,-43775703.09750,   0.00387,   0.00130,  -0.00335,477293424.49364,   0.00248,277310038.44404,   0.00196,   0.00106,  -0.00278,-16613.95040,   0.00000
544075625.56230,285944800.63944,-43197391.31136,   0.00387,   0.00130,  -0.00335,477289391.15369,   0.00248,277310038.44404,   0.00196,   0.00106,  -0.00278,-20647.29034,   0.00000
544276005.52329,284755203.14952,-42614006.61480,   0.00388,   0.00129,  -0.00334,477267568.63023,   0.00248,277310038.44404,   0.00196,   0.00106,  -0.00278,-42469.81380,   0.00000
544451020.93225,283540241.10757,-42030621.91825,   0.00388,   0.00129,  -0.00333,477229429.42742,   0.00248,277310038.44404,   0.00196,   0.00106,  -0.00278,-80609.01662,   0.00000
544608281.15480,282317669.70001,-41442164.31130,   0.00388,   0.00128,  -0.00332,477180536.73709,   0.00248,277310038.44404,   0.00196,   0.00106,  -0.00278,-129501.70695,   0.00000
544765541.37735,281095098.29246,-40848633.79394,   0.00389,   0.00128,  -0.00332,477136100.71434,   0.00248,277310038.44404,   0.00196,   0.00106,  -0.00278,-173937.72970,   0.00000
544905046.41348,279864917.51930,-40255103.27658,   0.00389,   0.00127,  -0.00331,477082273.63216,   0.00248,277310038.44404,   0.00196,   0.00106,  -0.00278,-227764.81188,   0.00000
545036942.08401,278616981.55972,-39656499.84881,   0.00389,   0.00126,  -0.00330,477026264.42212,   0.00248,277310038.44404,   0.00196,   0.00106,  -0.00278,-283774.02192,   0.00000
545125718.01609,277336071.68251,-39052823.51064,   0.00390,   0.00126,  -0.00329,476937825.05020,   0.00248,277310038.44404,   0.00196,   0.00106,  -0.00278,-372213.39384,   0.00000
545222103.31378,276072916.99171,-38449147.17247,   0.00390,   0.00125,  -0.00328,476861983.93549,   0.00248,277310038.44404,   0.00196,   0.00106,  -0.00278,-448054.50854,   0.00000
545310879.24586,274792007.11450,-37840397.92389,   0.00390,   0.00125,  -0.00328,476784247.15345,   0.00248,277310038.44404,   0.00196,   0.00106,  -0.00278,-525791.29058,   0.00000
545356535.43951,273478123.31966,-37226575.76491,   0.00390,   0.00124,  -0.00327,476674319.27728,   0.00248,277310038.44404,   0.00196,   0.00106,  -0.00278,-635719.16676,   0.00000
545409800.99876,272181994.71124,-36612753.60593,   0.00391,   0.00123,  -0.00326,476577006.24287,   0.00248,277310038.44404,   0.00196,   0.00106,  -0.00278,-733032.20117,   0.00000
545430092.64038,270842746.36437,-35993858.53655,   0.00391,   0.00123,  -0.00325,476456365.82214,   0.00248,277310038.44404,   0.00196,   0.00106,  -0.00278,-853672.62190,   0.00000
545440238.46119,269513643.83832,-35369890.55676,   0.00391,   0.00122,  -0.00324,476331984.29024,   0.00248,277310038.44404,   0.00196,   0.00106,  -0.00278,-978054.15379,   0.00000
545442774.91639,268166786.12584,-34745922.57697,   0.00392,   0.00121,  -0.00324,476207357.49444,   0.00248,277310038.44404,   0.00196,   0.00106,  -0.00278,-1102680.94960,   0.00000
545427556.18517,266812319.04776,-34116881.68678,   0.00392,   0.00121,  -0.00323,476072606.17635,   0.00248,277310038.44404,   0.00196,   0.00106,  -0.00278,-1237432.26768,   0.00000
545386972.90194,265432487.41766,-33487840.79658,   0.00392,   0.00120,  -0.00322,475922515.97184,   0.00248,277310038.44404,   0.00196,   0.00106,  -0.00278,-1387522.47220,   0.00000
545353998.98431,264070410.97397,-32853726.99598,   0.00392,   0.00120,  -0.00321,475783998.94766,   0.00248,277310038.44404,   0.00196,   0.00106,  -0.00278,-1526039.49637,   0.00000
545270295.96263,262657605.42624,-32214540.28498,   0.00393,   0.00119,  -0.00320,475607667.00836,   0.00248,277310038.44404,   0.00196,   0.00106,  -0.00278,-1702371.43568,   0.00000
545194202.30655,261262555.06492,-31570280.66357,   0.00393,   0.00118,  -0.00320,475443012.85230,   0.00248,277310038.44404,   0.00196,   0.00106,  -0.00278,-1867025.59174,   0.00000
545110499.28488,259849749.51719,-30926021.04216,   0.00393,   0.00118,  -0.00319,475278632.37146,   0.00248,277310038.44404,   0.00196,   0.00106,  -0.00278,-2031406.07258,   0.00000
544991285.89036,258421725.23824,-30276688.51035,   0.00393,   0.00117,  -0.00318,475089186.39915,   0.00248,277310038.44404,   0.00196,   0.00106,  -0.00278,-2220852.04489,   0.00000
544864463.13024,256975945.77287,-29627355.97853,   0.00393,   0.00117,  -0.00317,474900199.85675,   0.00248,277310038.44404,   0.00196,   0.00106,  -0.00278,-2409838.58728,   0.00000
544719885.18371,255522556.94190,-28972950.53632,   0.00394,   0.00116,  -0.00316,474701599.03857,   0.00248,277310038.44404,   0.00196,   0.00106,  -0.00278,-2608439.40547,   0.00000
544575307.23717,254069168.11092,-28313472.18369,   0.00394,   0.00115,  -0.00315,474508767.33189,   0.00248,277310038.44404,   0.00196,   0.00106,  -0.00278,-2801271.11215,   0.00000
544387609.55219,252582805.36232,-27653993.83107,   0.00394,   0.00115,  -0.00314,474286014.44476,   0.00248,277310038.44404,   0.00196,   0.00106,  -0.00278,-3024023.99928,   0.00000
544199911.86721,251096442.61372,-26989442.56804,   0.00394,   0.00114,  -0.00314,474069188.68388,   0.00248,277310038.44404,   0.00196,   0.00106,  -0.00278,-3240849.76016,   0.00000
543994458.99582,249602470.49950,-26319818.39461,   0.00394,   0.00113,  -0.00313,473843014.42059,   0.00248,277310038.44404,   0.00196,   0.00106,  -0.00278,-3467024.02345,   0.00000
543789006.12443,248108498.38529,-25650194.22118,   0.00395,   0.00113,  -0.00312,473623725.96354,   0.00248,277310038.44404,   0.00196,   0.00106,  -0.00278,-3686312.48050,   0.00000
543540433.51459,246581552.35345,-24975497.13734,   0.00395,   0.00112,  -0.00311,473374003.65371,   0.00248,277310038.44404,   0.00196,   0.00106,  -0.00278,-3936034.79033,   0.00000
543291860.90476,245054606.32161,-24300800.05350,   0.00395,   0.00111,  -0.00310,473131292.30982,   0.00248,277310038.44404,   0.00196,   0.00106,  -0.00278,-4178746.13421,   0.00000
543035678.92931,243509905.10335,-23621030.05926,   0.00395,   0.00111,  -0.00309,472889114.92340,   0.00248,277310038.44404,   0.00196,   0.00106,  -0.00278,-4420923.52064,   0.00000
542743986.58104,241949985.15387,-22936187.15461,   0.00395,   0.00110,  -0.00308,472622615.66050,   0.00248,277310038.44404,   0.00196,   0.00106,  -0.00278,-4687422.78353,   0.00000
542452294.23276,240390065.20440,-22251344.24997,   0.00396,   0.00109,  -0.00307,472363313.08566,   0.00248,277310038.44404,   0.00196,   0.00106,  -0.00278,-4946725.35837,   0.00000
542135237.33246,238804780.70290,-21556355.52451,   0.00396,   0.00109,  -0.00306,472088849.44689,   0.00248,277310038.44404,   0.00196,   0.00106,  -0.00278,-5221188.99715,   0.00000
541808034.61135,237229642.02221,-20866439.70946,   0.00396,   0.00108,  -0.00306,471812619.84631,   0.00248,277310038.44404,   0.00196,   0.00106,  -0.00278,-5497418.59772,   0.00000
541473222.52464,235636748.15511,-20171450.98400,   0.00396,   0.00107,  -0.00305,471537486.02625,   0.00248,277310038.44404,   0.00196,   0.00106,  -0.00278,-5772552.41779,   0.00000
541095290.69948,234010880.37037,-19471389.34814,   0.00396,   0.00107,  -0.00304,471232878.11597,   0.00248,277310038.44404,   0.00196,   0.00106,  -0.00278,-6077160.32806,   0.00000
540717358.87432,232385012.58564,-18766254.80187,   0.00396,   0.00106,  -0.00303,470935200.39708,   0.00248,277310038.44404,   0.00196,   0.00106,  -0.00278,-6374838.04696,   0.00000
540339427.04917,230759144.80090,-18061120.25561,   0.00397,   0.00105,  -0.00302,470645118.36378,   0.00248,277310038.44404,   0.00196,   0.00106,  -0.00278,-6664920.08026,   0.00000
539925984.85118,229118058.28495,-17350912.79894,   0.00397,   0.00105,  -0.00301,470331290.69620,   0.00248,277310038.44404,   0.00196,   0.00106,  -0.00278,-6978747.74783,   0.00000
539504933.28758,227459216.58258,-16640705.34226,   0.00397,   0.00104,  -0.00300,470019827.24650,   0.00248,277310038.44404,   0.00196,   0.00106,  -0.00278,-7290211.19754,   0.00000
539073735.90317,225810520.70103,-15925424.97519,   0.00397,   0.00103,  -0.00299,469705461.41305,   0.00248,277310038.44404,   0.00196,   0.00106,  -0.00278,-7604577.03098,   0.00000
538627319.78755,224126314.44663,-15205071.69771,   0.00397,   0.00103,  -0.00298,469387921.68173,   0.00248,277310038.44404,   0.00196,   0.00106,  -0.00278,-7922116.76231,   0.00000
538153002.66470,222444644.64745,-14484718.42023,   0.00397,   0.00102,  -0.00297,469052707.02640,   0.00248,277310038.44404,   0.00196,   0.00106,  -0.00278,-8257331.41763,   0.00000
537671076.17625,220745219.66184,-13759292.23234,   0.00397,   0.00101,  -0.00296,468719823.25472,   0.00248,277310038.44404,   0.00196,   0.00106,  -0.00278,-8590215.18931,   0.00000
537171394.50137,219038185.31063,-13033866.04446,   0.00397,   0.00101,  -0.00295,468379580.29205,   0.00248,277310038.44404,   0.00196,   0.00106,  -0.00278,-8930458.15199,   0.00000
536671712.82650,217331150.95941,-12298294.03576,   0.00397,   0.00100,  -0.00294,468046599.81470,   0.00248,277310038.44404,   0.00196,   0.00106,  -0.00278,-9263438.62934,   0.00000
536146666.59961,215598752.05618,-11567794.93747,   0.00398,   0.00099,  -0.00294,467701784.68255,   0.00248,277310038.44404,   0.00196,   0.00106,  -0.00278,-9608253.76149,   0.00000
535603865.18629,213858743.78733,-10827150.01837,   0.00398,   0.00099,  -0.00293,467349092.70584,   0.00248,277310038.44404,   0.00196,   0.00106,  -0.00278,-9960945.73820,   0.00000
535043308.58656,212111126.15288,-10086505.09927,   0.00398,   0.00098,  -0.00292,466989342.41757,   0.00248,277310038.44404,   0.00196,   0.00106,  -0.00278,-10320696.02647,   0.00000
534457387.43481,210338143.96641,-9345860.18017,   0.00398,   0.00097,  -0.00291,466617717.40497,   0.00248,277310038.44404,   0.00196,   0.00106,  -0.00278,-10692321.03907,   0.00000
533879075.64866,208582916.96635,-8600142.35067,   0.00398,   0.00097,  -0.00290,466259083.67014,   0.00248,277310038.44404,   0.00196,   0.00106,  -0.00278,-11050954.77389,   0.00000
533275399.31049,206802325.41427,-7849351.61076,   0.00398,   0.00096,  -0.00289,465888503.40506,   0.00248,277310038.44404,   0.00196,   0.00106,  -0.00278,-11421535.03897,   0.00000
532646358.42030,204996369.31016,-7098560.87085,   0.00398,   0.00095,  -0.00288,465506448.57577,   0.00248,277310038.44404,   0.00196,   0.00106,  -0.00278,-11803589.86827,   0.00000
532024926.89571,203208168.39247,-6342697.22053,   0.00398,   0.00095,  -0.00287,465137572.15504,   0.00248,277310038.44404,   0.00196,   0.00106,  -0.00278,-12172466.28899,   0.00000
531378130.81910,201394602.92276,-5581760.65982,   0.00398,   0.00094,  -0.00286,464757231.78586,   0.00248,277310038.44404,   0.00196,   0.00106,  -0.00278,-12552806.65818,   0.00000
530713579.55607,199573428.08744,-4820824.09910,   0.00398,   0.00093,  -0.00285,464370379.49703,   0.00248,277310038.44404,   0.00196,   0.00106,  -0.00278,-12939658.94701,   0.00000
530041418.92744,197734498.06570,-4054814.62797,   0.00398,   0.00092,  -0.00284,463987810.33909,   0.00248,277310038.44404,   0.00196,   0.00106,  -0.00278,-13322228.10495,   0.00000
529341357.29158,195898104.49916,-3288805.15685,   0.00398,   0.00092,  -0.00283,463587985.25986,   0.00248,277310038.44404,   0.00196,   0.00106,  -0.00278,-13722053.18418,   0.00000
528633686.29011,194043955.74621,-2517722.77532,   0.00398,   0.00091,  -0.00282,463192698.77427,   0.00248,277310038.44404,   0.00196,   0.00106,  -0.00278,-14117339.66977,   0.00000
527908260.10222,192182197.62765,-1746640.39379,   0.00398,   0.00090,  -0.00281,462791217.34850,   0.00248,277310038.44404,   0.00196,   0.00106,  -0.00278,-14518821.09553,   0.00000
527175224.54873,190302684.32268,-970485.10186,   0.00398,   0.00090,  -0.00280,462394630.39960,   0.00248,277310038.44404,   0.00196,   0.00106,  -0.00278,-14915408.04443,   0.00000
526432043.17443,188433316.83851,-189256.89952,   0.00398,   0.00089,  -0.00279,461996301.33222,   0.00248,277310038.44404,   0.00196,   0.00106,  -0.00278,-15313737.11181,   0.00000
525663497.24810,186538584.80232,591971.30282,   0.00398,   0.00088,  -0.00278,461587784.05665,   0.00248,277310038.44404,   0.00196,   0.00106,  -0.00278,-15722254.38739,   0.00000
524877196.13536,184636243.40052,1378272.41556,   0.00398,   0.00087,  -0.00277,461173458.21664,   0.00248,277310038.44404,   0.00196,   0.00106,  -0.00278,-16136580.22740,   0.00000
524090895.02262,182733901.99873,2169646.43871,   0.00398,   0.00087,  -0.00276,460768806.48847,   0.00248,277310038.44404,   0.00196,   0.00106,  -0.00278,-16541231.95557,   0.00000
523279229.35785,180806196.04491,2961020.46186,   0.00398,   0.00086,  -0.00275,460354437.80048,   0.00248,277310038.44404,   0.00196,   0.00106,  -0.00278,-16955600.64356,   0.00000
522467563.69308,178878490.09108,3752394.48500,   0.00398,   0.00085,  -0.00274,459949890.53893,   0.00248,277310038.44404,   0.00196,   0.00106,  -0.00278,-17360147.90510,   0.00000
521620387.65548,176935565.40605,4553914.32896,   0.00398,   0.00085,  -0.00273,459524797.27803,   0.00248,277310038.44404,   0.00196,   0.00106,  -0.00278,-17785241.16601,   0.00000
520773211.61788,174992640.72101,5350361.26251,   0.00398,   0.00084,  -0.00272,459109531.40232,   0.00248,277310038.44404,   0.00196,   0.00106,  -0.00278,-18200507.04172,   0.00000
519908280.39386,173042106.67037,6156954.01687,   0.00398,   0.00083,  -0.00270,458689318.42435,   0.00248,277310038.44404,   0.00196,   0.00106,  -0.00278,-18620720.01968,   0.00000
519035739.80424,171073817.43331,6963546.77124,   0.00398,   0.00082,  -0.00269,458275460.57324,   0.00248,277310038.44404,   0.00196,   0.00106,  -0.00278,-19034577.87080,   0.00000
518145444.02820,169097918.83064,7770139.52560,   0.00398,   0.00082,  -0.00268,457856545.53367,   0.00248,277310038.44404,   0.00196,   0.00106,  -0.00278,-19453492.91037,   0.00000
517237393.06574,167114410.86237,8581805.19037,   0.00398,   0.00081,  -0.00267,457432909.86343,   0.00248,277310038.44404,   0.00196,   0.00106,  -0.00278,-19877128.58060,   0.00000
516303977.55126,165105538.34207,9398543.76554,   0.00398,   0.00080,  -0.00266,457001080.67647,   0.00248,277310038.44404,   0.00196,   0.00106,  -0.00278,-20308957.76757,   0.00000
515378171.40238,163114421.00819,10215282.34071,   0.00398,   0.00080,  -0.00265,456583418.28218,   0.00248,277310038.44404,   0.00196,   0.00106,  -0.00278,-20726620.16185,   0.00000
514427000.70149,161097939.12228,11032020.91588,   0.00398,   0.00079,  -0.00264,456157507.72597,   0.00248,277310038.44404,   0.00196,   0.00106,  -0.00278,-21152530.71806,   0.00000
513458074.81417,159073847.87077,11858905.31186,   0.00398,   0.00078,  -0.00263,455727805.70519,   0.00248,277310038.44404,   0.00196,   0.00106,  -0.00278,-21582232.73885,   0.00000
512489148.92685,157049756.61926,12685789.70784,   0.00398,   0.00077,  -0.00262,455308956.08861,   0.00248,277310038.44404,   0.00196,   0.00106,  -0.00278,-22001082.35543,   0.00000
511502467.85312,155018056.00214,13512674.10382,   0.00398,   0.00077,  -0.00261,454885734.20579,   0.00248,277310038.44404,   0.00196,   0.00106,  -0.00278,-22424304.23825,   0.00000
510508177.41378,152968600.19860,14344631.41021,   0.00398,   0.00076,  -0.00260,454470654.62472,   0.00248,277310038.44404,   0.00196,   0.00106,  -0.00278,-22839383.81932,   0.00000
509478376.60161,150903925.66385,15176588.71660,   0.00398,   0.00075,  -0.00259,454036243.56494,   0.00248,277310038.44404,   0.00196,   0.00106,  -0.00278,-23273794.87910,   0.00000
508448575.78944,148839251.12910,16013618.93339,   0.00398,   0.00074,  -0.00258,453613579.61910,   0.00248,277310038.44404,   0.00196,   0.00106,  -0.00278,-23696458.82494,   0.00000
507418774.97726,146774576.59435,16855722.06058,   0.00398,   0.00074,  -0.00257,453202779.97726,   0.00248,277310038.44404,   0.00196,   0.00106,  -0.00278,-24107258.46678,   0.00000
506371218.97867,144702292.69399,17697825.18778,   0.00398,   0.00073,  -0.00255,452788170.81447,   0.00248,277310038.44404,   0.00196,   0.00106,  -0.00278,-24521867.62957,   0.00000
505298298.42806,142604644.24161,18545001.22538,   0.00398,   0.00072,  -0.00254,452367463.55335,   0.00248,277310038.44404,   0.00196,   0.00106,  -0.00278,-24942574.89069,   0.00000
504215232.05664,140517141.61004,19392177.26298,   0.00398,   0.00071,  -0.00253,451946184.60204,   0.00248,277310038.44404,   0.00196,   0.00106,  -0.00278,-25363853.84200,   0.00000
503124556.31961,138411883.79205,20244426.21098,   0.00398,   0.00071,  -0.00252,451534341.44289,   0.00248,277310038.44404,   0.00196,   0.00106,  -0.00278,-25775697.00115,   0.00000
502016125.39616,136299016.60845,21096675.15899,   0.00397,   0.00070,  -0.00251,451119182.67949,   0.00248,277310038.44404,   0.00196,   0.00106,  -0.00278,-26190855.76455,   0.00000
500907694.47271,134186149.42486,21953997.01740,   0.00397,   0.00069,  -0.00250,450716651.89560,   0.00248,277310038.44404,   0.00196,   0.00106,  -0.00278,-26593386.54844,   0.00000
499756143.81082,132040308.32363,22811318.87581,   0.00397,   0.00068,  -0.00249,450293193.14200,   0.00248,277310038.44404,   0.00196,   0.00106,  -0.00278,-27016845.30204,   0.00000
498629957.70096,129919831.77443,23673713.64462,   0.00397,   0.00068,  -0.00248,449900446.02794,   0.00248,277310038.44404,   0.00196,   0.00106,  -0.00278,-27409592.41610,   0.00000
497460651.85266,127766381.30759,24541181.32384,   0.00397,   0.00067,  -0.00247,449487941.71400,   0.00248,277310038.44404,   0.00196,   0.00106,  -0.00278,-27822096.73004,   0.00000
496291346.00435,125612930.84076,25403576.09266,   0.00397,   0.00066,  -0.00245,449086988.26128,   0.00248,277310038.44404,   0.00196,   0.00106,  -0.00278,-28223050.18275,   0.00000
495122040.15605,123459480.37392,26276116.68228,   0.00397,   0.00065,  -0.00244,448700201.76822,   0.00248,277310038.44404,   0.00196,   0.00106,  -0.00278,-28609836.67581,   0.00000
493917223.93491,121290811.17588,27148657.27191,   0.00397,   0.00065,  -0.00243,448295898.93894,   0.00248,277310038.44404,   0.00196,   0.00106,  -0.00278,-29014139.50510,   0.00000
492712407.71377,119122141.97783,28021197.86153,   0.00397,   0.00064,  -0.00242,447904238.23330,   0.00248,277310038.44404,   0.00196,   0.00106,  -0.00278,-29405800.21074,   0.00000
491499982.12702,116935717.59336,28898811.36156,   0.00396,   0.00063,  -0.00241,447523982.89603,   0.00248,277310038.44404,   0.00196,   0.00106,  -0.00278,-29786055.54801,   0.00000
490277410.71947,114759439.02970,29781497.77200,   0.00396,   0.00062,  -0.00240,447144854.06155,   0.00248,277310038.44404,   0.00196,   0.00106,  -0.00278,-30165184.38249,   0.00000
489029474.75989,112557795.91402,30664184.18243,   0.00396,   0.00062,  -0.00239,446761548.66294,   0.00248,277310038.44404,   0.00196,   0.00106,  -0.00278,-30548489.78109,   0.00000
487781538.80031,110356152.79834,31546870.59286,   0.00396,   0.00061,  -0.00237,446391343.06055,   0.00248,277310038.44404,   0.00196,   0.00106,  -0.00278,-30918695.38349,   0.00000
486515847.65431,108146900.31706,32434629.91370,   0.00396,   0.00060,  -0.00236,446020466.84088,   0.00248,277310038.44404,   0.00196,   0.00106,  -0.00278,-31289571.60315,   0.00000
485232401.32190,105930038.47016,33327462.14495,   0.00396,   0.00059,  -0.00235,445649109.28103,   0.00248,277310038.44404,   0.00196,   0.00106,  -0.00278,-31660929.16300,   0.00000
483948954.98949,103713176.62327,34220294.37619,   0.00396,   0.00059,  -0.00234,445291158.94751,   0.00248,277310038.44404,   0.00196,   0.00106,  -0.00278,-32018879.49653,   0.00000
482665508.65708,101496314.77637,35118199.51784,   0.00395,   0.00058,  -0.00233,444947849.27466,   0.00248,277310038.44404,   0.00196,   0.00106,  -0.00278,-32362189.16938,   0.00000
481338942.58622,99246479.01185,36016104.65949,   0.00395,   0.00057,  -0.00232,444586690.49785,   0.00248,277310038.44404,   0.00196,   0.00106,  -0.00278,-32723347.94618,   0.00000
480037741.06739,97022007.79935,36914009.80113,   0.00395,   0.00056,  -0.00230,444255793.15016,   0.00248,277310038.44404,   0.00196,   0.00106,  -0.00278,-33054245.29388,   0.00000
478693419.81012,94764562.66921,37816987.85319,   0.00395,   0.00056,  -0.00229,443908677.13678,   0.00248,277310038.44404,   0.00196,   0.00106,  -0.00278,-33401361.30726,   0.00000
477349098.55285,92507117.53908,38725038.81565,   0.00395,   0.00055,  -0.00228,443576854.00777,   0.00248,277310038.44404,   0.00196,   0.00106,  -0.00278,-33733184.43627,   0.00000
476004777.29558,90249672.40895,39633089.77810,   0.00395,   0.00054,  -0.00227,443259090.80153,   0.00248,277310038.44404,   0.00196,   0.00106,  -0.00278,-34050947.64251,   0.00000
474642700.85190,87984617.91321,40541140.74056,   0.00394,   0.00053,  -0.00226,442940720.70561,   0.00248,277310038.44404,   0.00196,   0.00106,  -0.00278,-34369317.73842,   0.00000
473262869.22179,85711954.05186,41454264.61342,   0.00394,   0.00053,  -0.00225,442623276.96831,   0.00248,277310038.44404,   0.00196,   0.00106,  -0.00278,-34686761.47573,   0.00000
471883037.59169,83439290.19051,42367388.48629,   0.00394,   0.00052,  -0.00223,442320152.63393,   0.00248,277310038.44404,   0.00196,   0.00106,  -0.00278,-34989885.81010,   0.00000
470485450.77517,81159016.96356,43285585.26955,   0.00394,   0.00051,  -0.00222,442018251.23112,   0.00248,277310038.44404,   0.00196,   0.00106,  -0.00278,-35291787.21292,   0.00000
469080254.59304,78860988.55019,44208854.96323,   0.00394,   0.00050,  -0.00221,441731226.82134,   0.00248,277310038.44404,   0.00196,   0.00106,  -0.00278,-35578811.62270,   0.00000
467664912.59010,76573105.95763,45132124.65690,   0.00394,   0.00049,  -0.00220,441445446.40037,   0.00248,277310038.44404,   0.00196,   0.00106,  -0.00278,-35864592.04367,   0.00000
466241961.22156,74267468.17865,46055394.35057,   0.00393,   0.00049,  -0.00219,441173334.71231,   0.00248,277310038.44404,   0.00196,   0.00106,  -0.00278,-36136703.73173,   0.00000
464808864.03221,71971976.22048,46983736.95465,   0.00393,   0.00048,  -0.00217,440904125.12185,   0.00248,277310038.44404,   0.00196,   0.00106,  -0.00278,-36405913.32218,   0.00000
463368157.47724,69658729.07589,47912079.55873,   0.00393,   0.00047,  -0.00216,440648899.98631,   0.00248,277310038.44404,   0.00196,   0.00106,  -0.00278,-36661138.45773,   0.00000
461909695.73587,67337872.56570,48845495.07321,   0.00393,   0.00046,  -0.00215,440395943.48154,   0.00248,277310038.44404,   0.00196,   0.00106,  -0.00278,-36914094.96250,   0.00000
460451233.99449,65017016.05551,49778910.58769,   0.00392,   0.00046,  -0.00214,440158159.99286,   0.00248,277310038.44404,   0.00196,   0.00106,  -0.00278,-37151878.45117,   0.00000
458975017.06669,62688550.17971,50712326.10217,   0.00392,   0.00045,  -0.00213,439921200.08300,   0.00248,277310038.44404,   0.00196,   0.00106,  -0.00278,-37388838.36104,   0.00000
457481044.95248,60352474.93830,51650814.52706,   0.00392,   0.00044,  -0.00211,439686973.13620,   0.00248,277310038.44404,   0.00196,   0.00106,  -0.00278,-37623065.30783,   0.00000
456004828.02469,58024009.06250,52594375.86235,   0.00392,   0.00043,  -0.00210,439484317.86892,   0.00248,277310038.44404,   0.00196,   0.00106,  -0.00278,-37825720.57512,   0.00000
454493100.72406,55680324.45549,53537937.19764,   0.00392,   0.00043,  -0.00209,439268580.69327,   0.00248,277310038.44404,   0.00196,   0.00106,  -0.00278,-38041457.75077,   0.00000
452981373.42343,53336639.84847,54481498.53293,   0.00391,   0.00042,  -0.00208,439068466.74947,   0.00248,277310038.44404,   0.00196,   0.00106,  -0.00278,-38241571.69456,   0.00000
451469646.12280,50992955.24146,55430132.77863,   0.00391,   0.00041,  -0.00206,438885919.41011,   0.00248,277310038.44404,   0.00196,   0.00106,  -0.00278,-38424119.03393,   0.00000
449940163.63576,48641661.26884,56378767.02432,   0.00391,   0.00040,  -0.00205,438704936.31403,   0.00248,277310038.44404,   0.00196,   0.00106,  -0.00278,-38605102.13001,   0.00000
448410681.14871,46290367.29621,57332474.18043,   0.00391,   0.00039,  -0.00204,438541765.09165,   0.00248,277310038.44404,   0.00196,   0.00106,  -0.00278,-38768273.35239,   0.00000
446873589.29606,43921318.13718,58286181.33653,   0.00390,   0.00039,  -0.00203,438394396.31348,   0.00248,277310038.44404,   0.00196,   0.00106,  -0.00278,-38915642.13056,   0.00000
445308596.43618,41554805.43334,59239888.49263,   0.00390,   0.00038,  -0.00201,438235015.71386,   0.00248,277310038.44404,   0.00196,   0.00106,  -0.00278,-39075022.73018,   0.00000
443761358.76272,39195902.09511,60198668.55913,   0.00390,   0.00037,  -0.00200,438107834.43030,   0.00248,277310038.44404,   0.00196,   0.00106,  -0.00278,-39202204.01374,   0.00000
442196365.90284,36829389.39128,61162521.53604,   0.00390,   0.00036,  -0.00199,437984896.90321,   0.00248,277310038.44404,   0.00196,   0.00106,  -0.00278,-39325141.54083,   0.00000
440606008.49094,34437512.13542,62126374.51295,   0.00389,   0.00036,  -0.00198,437864455.54124,   0.00248,277310038.44404,   0.00196,   0.00106,  -0.00278,-39445582.90280,   0.00000
439041015.63106,32070999.43158,63090227.48987,   0.00389,   0.00035,  -0.00196,437774152.57450,   0.00248,277310038.44404,   0.00196,   0.00106,  -0.00278,-39535885.86954,   0.00000
437432903.03274,29671512.81011,64054080.46678,   0.00389,   0.00034,  -0.00195,437672735.06071,   0.00248,277310038.44404,   0.00196,   0.00106,  -0.00278,-39637303.38333,   0.00000
435850154.98645,27297390.74067,65023006.35409,   0.00389,   0.00033,  -0.00194,437603595.99058,   0.00248,277310038.44404,   0.00196,   0.00106,  -0.00278,-39706442.45346,   0.00000
434249651.75373,24915659.30562,65997005.15181,   0.00388,   0.00032,  -0.00193,437539424.30051,   0.00248,277310038.44404,   0.00196,   0.00106,  -0.00278,-39770614.14353,   0.00000
432623783.96900,22508563.31855,66971003.94953,   0.00388,   0.00032,  -0.00191,437478662.51255,   0.00248,277310038.44404,   0.00196,   0.00106,  -0.00278,-39831375.93149,   0.00000
431005525.54987,20119222.51789,67945002.74725,   0.00388,   0.00031,  -0.00190,437434132.51510,   0.00248,277310038.44404,   0.00196,   0.00106,  -0.00278,-39875905.92894,   0.00000
429387267.13074,17729881.71723,68919001.54497,   0.00388,   0.00030,  -0.00189,437406303.96059,   0.00248,277310038.44404,   0.00196,   0.00106,  -0.00278,-39903734.48344,   0.00000
427743644.15959,15315176.36455,69898073.25310,   0.00387,   0.00029,  -0.00188,437384764.62992,   0.00248,277310038.44404,   0.00196,   0.00106,  -0.00278,-39925273.81412,   0.00000
426107630.55404,12918226.19828,70882217.87163,   0.00387,   0.00029,  -0.00186,437381875.54971,   0.00248,277310038.44404,   0.00196,   0.00106,  -0.00278,-39928162.89433,   0.00000
424471616.94850,10521276.03202,71866362.49016,   0.00387,   0.00028,  -0.00185,437395919.01073,   0.00248,277310038.44404,   0.00196,   0.00106,  -0.00278,-39914119.43331,   0.00000
422817848.15653,8116716.50015,72850507.10869,   0.00386,   0.00027,  -0.00184,437413431.84652,   0.00248,277310038.44404,   0.00196,   0.00106,  -0.00278,-39896606.59751,   0.00000
421156469.99896,5694401.78186,73834651.72722,   0.00386,   0.00026,  -0.00182,437449004.64794,   0.00248,277310038.44404,   0.00196,   0.00106,  -0.00278,-39861033.79610,   0.00000
419484946.02058,3282232.88438,74823869.25615,   0.00386,   0.00026,  -0.00181,437489862.66844,   0.00248,277310038.44404,   0.00196,   0.00106,  -0.00278,-39820175.77559,   0.00000
417813422.04220,870063.98690,75818159.69549,   0.00386,   0.00025,  -0.00180,437550532.23260,   0.00248,277310038.44404,   0.00196,   0.00106,  -0.00278,-39759506.21144,   0.00000
416141898.06383,-1542104.91058,76807377.22443,   0.00385,   0.00024,  -0.00179,437625766.45406,   0.00248,277310038.44404,   0.00196,   0.00106,  -0.00278,-39684271.98998,   0.00000
414452618.89903,-3961883.17366,77801667.66376,   0.00385,   0.00023,  -0.00177,437707643.48070,   0.00248,277310038.44404,   0.00196,   0.00106,  -0.00278,-39602394.96333,   0.00000
412763339.73423,-6381661.43675,78801031.01351,   0.00385,   0.00022,  -0.00176,437809574.57017,   0.00248,277310038.44404,   0.00196,   0.00106,  -0.00278,-39500463.87387,   0.00000
411074060.56944,-8801439.69984,79795321.45285,   0.00384,   0.00022,  -0.00175,437926103.52364,   0.00248,277310038.44404,   0.00196,   0.00106,  -0.00278,-39383934.92040,   0.00000
409384781.40464,-11221217.96292,80794684.80259,   0.00384,   0.00021,  -0.00173,438062728.51978,   0.00248,277310038.44404,   0.00196,   0.00106,  -0.00278,-39247309.92426,   0.00000
407677747.05343,-13648605.59162,81799121.06274,   0.00384,   0.00020,  -0.00172,438206516.69627,   0.00248,277310038.44404,   0.00196,   0.00106,  -0.00278,-39103521.74777,   0.00000
405970712.70222,-16075993.22031,82803557.32289,   0.00384,   0.00019,  -0.00171,438367798.62461,   0.00248,277310038.44404,   0.00196,   0.00106,  -0.00278,-38942239.81943,   0.00000
404253532.53019,-18493235.02819,83807993.58304,   0.00383,   0.00019,  -0.00170,438531883.96997,   0.00248,277310038.44404,   0.00196,   0.00106,  -0.00278,-38778154.47407,   0.00000
402528742.99256,-20928232.02249,84812429.84319,   0.00383,   0.00018,  -0.00168,438715214.60687,   0.00248,277310038.44404,   0.00196,   0.00106,  -0.00278,-38594823.83717,   0.00000
400811562.82054,-23345473.83038,85821939.01374,   0.00383,   0.00017,  -0.00167,438917157.94439,   0.00248,277310038.44404,   0.00196,   0.00106,  -0.00278,-38392880.49964,   0.00000
399086773.28291,-25780470.82468,86831448.18430,   0.00382,   0.00016,  -0.00166,439138510.47453,   0.00248,277310038.44404,   0.00196,   0.00106,  -0.00278,-38171527.96951,   0.00000
397351837.92447,-28205321.99817,87846030.26525,   0.00382,   0.00016,  -0.00164,439365718.87926,   0.00248,277310038.44404,   0.00196,   0.00106,  -0.00278,-37944319.56477,   0.00000
395616902.56603,-30630173.17166,88860612.34621,   0.00382,   0.00015,  -0.00163,439610487.38552,   0.00248,277310038.44404,   0.00196,   0.00106,  -0.00278,-37699551.05852,   0.00000
393874357.84199,-33072779.53157,89875194.42717,   0.00381,   0.00014,  -0.00162,439874970.90809,   0.00248,277310038.44404,   0.00196,   0.00106,  -0.00278,-37435067.53595,   0.00000
392139422.48355,-35497630.70506,90889776.50813,   0.00381,   0.00013,  -0.00160,440154840.11506,   0.00248,277310038.44404,   0.00196,   0.00106,  -0.00278,-37155198.32898,   0.00000
390386731.93869,-37930091.24416,91909431.49949,   0.00381,   0.00012,  -0.00159,440442876.49386,   0.00248,277310038.44404,   0.00196,   0.00106,  -0.00278,-36867161.95018,   0.00000
388641650.75944,-40344796.59684,92929086.49086,   0.00380,   0.00012,  -0.00158,440746127.62280,   0.00248,277310038.44404,   0.00196,   0.00106,  -0.00278,-36563910.82124,   0.00000
386888960.21459,-42777257.13594,93953814.39263,   0.00380,   0.00011,  -0.00156,441072519.56444,   0.00248,277310038.44404,   0.00196,   0.00106,  -0.00278,-36237518.87960,   0.00000
385136269.66973,-45209717.67503,94973469.38399,   0.00380,   0.00010,  -0.00155,441413237.75579,   0.00248,277310038.44404,   0.00196,   0.00106,  -0.00278,-35896800.68825,   0.00000
383373433.30407,-47632032.39332,95998197.28576,   0.00379,   0.00009,  -0.00154,441759909.12880,   0.00248,277310038.44404,   0.00196,   0.00106,  -0.00278,-35550129.31523,   0.00000
381628352.12482,-50046737.74600,97027998.09793,   0.00379,   0.00009,  -0.00152,442139600.58383,   0.00248,277310038.44404,   0.00196,   0.00106,  -0.00278,-35170437.86021,   0.00000
379857906.39354,-52486807.65071,98052725.99970,   0.00379,   0.00008,  -0.00151,442523936.21413,   0.00248,277310038.44404,   0.00196,   0.00106,  -0.00278,-34786102.22991,   0.00000
378095070.02788,-54909122.36900,99082526.81187,   0.00378,   0.00007,  -0.00150,442926408.70044,   0.00248,277310038.44404,   0.00196,   0.00106,  -0.00278,-34383629.74359,   0.00000
376314478.47580,-57339046.45289,100112327.62404,   0.00378,   0.00006,  -0.00148,443334299.08791,   0.00248,277310038.44404,   0.00196,   0.00106,  -0.00278,-33975739.35613,   0.00000
374559251.47574,-59743605.98477,101147201.34662,   0.00378,   0.00006,  -0.00147,443772149.51032,   0.00248,277310038.44404,   0.00196,   0.00106,  -0.00278,-33537888.93372,   0.00000
372778659.92366,-62173530.06866,102182075.06920,   0.00377,   0.00005,  -0.00146,444218382.95340,   0.00248,277310038.44404,   0.00196,   0.00106,  -0.00278,-33091655.49063,   0.00000
371005677.73718,-64585698.96614,103216948.79178,   0.00377,   0.00004,  -0.00144,444678987.57968,   0.00248,277310038.44404,   0.00196,   0.00106,  -0.00278,-32631050.86436,   0.00000
369225086.18510,-67015623.05004,104251822.51435,   0.00377,   0.00003,  -0.00143,445160010.21012,   0.00248,277310038.44404,   0.00196,   0.00106,  -0.00278,-32150028.23392,   0.00000
367452103.99862,-69427791.94752,105291769.14734,   0.00376,   0.00003,  -0.00142,445658754.21150,   0.00248,277310038.44404,   0.00196,   0.00106,  -0.00278,-31651284.23254,   0.00000
365661366.62573,-71847570.21060,106331715.78032,   0.00376,   0.00002,  -0.00140,446163076.06308,   0.00248,277310038.44404,   0.00196,   0.00106,  -0.00278,-31146962.38095,   0.00000
363895993.80486,-74241983.92166,107371662.41330,   0.00376,   0.00001,  -0.00139,446692901.97323,   0.00248,277310038.44404,   0.00196,   0.00106,  -0.00278,-30617136.47081,   0.00000
362105256.43197,-76661762.18475,108411609.04629,   0.00375,   0.00000,  -0.00138,447231596.04324,   0.00248,277310038.44404,   0.00196,   0.00106,  -0.00278,-30078442.40080,   0.00000
360322128.42469,-79063785.26142,109456628.58967,   0.00375,  -0.00000,  -0.00136,447787684.49536,   0.00248,277310038.44404,   0.00196,   0.00106,  -0.00278,-29522353.94867,   0.00000
358549146.23821,-81475954.15890,110501648.13306,   0.00375,  -0.00001,  -0.00135,448375732.94865,   0.00248,277310038.44404,   0.00196,   0.00106,  -0.00278,-28934305.49539,   0.00000
356766018.23093,-83877977.23557,111546667.67645,   0.00374,  -0.00002,  -0.00133,448965807.15489,   0.00248,277310038.44404,   0.00196,   0.00106,  -0.00278,-28344231.28915,   0.00000
354972744.40283,-86269854.49143,112591687.21983,   0.00374,  -0.00003,  -0.00132,449557836.28354,   0.00248,277310038.44404,   0.00196,   0.00106,  -0.00278,-27752202.16050,   0.00000
353189616.39555,-88671877.56810,113641779.67363,   0.00374,  -0.00003,  -0.00131,450185468.09799,   0.00248,277310038.44404,   0.00196,   0.00106,  -0.00278,-27124570.34605,   0.00000
351414097.75387,-91056145.45835,114691872.12742,   0.00373,  -0.00004,  -0.00129,450826107.85464,   0.00248,277310038.44404,   0.00196,   0.00106,  -0.00278,-26483930.58939,   0.00000
349613214.56017,-93465777.90063,115741964.58121,   0.00373,  -0.00005,  -0.00128,451476167.24720,   0.00248,277310038.44404,   0.00196,   0.00106,  -0.00278,-25833871.19683,   0.00000
347837695.91849,-95850045.79088,116792057.03500,   0.00373,  -0.00006,  -0.00127,452150093.24447,   0.00248,277310038.44404,   0.00196,   0.00106,  -0.00278,-25159945.19957,   0.00000
346052031.45600,-98224167.86032,117847222.39920,   0.00372,  -0.00006,  -0.00125,452829517.51674,   0.00248,277310038.44404,   0.00196,   0.00106,  -0.00278,-24480520.92730,   0.00000
344276512.81433,-100608435.75058,118902387.76340,   0.00372,  -0.00007,  -0.00124,453540328.40222,   0.00248,277310038.44404,   0.00196,   0.00106,  -0.00278,-23769710.04182,   0.00000
342490848.35184,-102982557.82002,119957553.12759,   0.00372,  -0.00008,  -0.00123,454252590.16346,   0.00248,277310038.44404,   0.00196,   0.00106,  -0.00278,-23057448.28057,   0.00000
340705183.88935,-105356679.88946,121012718.49179,   0.00371,  -0.00009,  -0.00121,454981157.22790,   0.00248,277310038.44404,   0.00196,   0.00106,  -0.00278,-22328881.21614,   0.00000
338937274.61328,-107723192.59330,122072956.76639,   0.00371,  -0.00009,  -0.00120,455740702.56677,   0.00248,277310038.44404,   0.00196,   0.00106,  -0.00278,-21569335.87727,   0.00000
337151610.15080,-110097314.66274,123128122.13059,   0.00371,  -0.00010,  -0.00118,456501607.02155,   0.00248,277310038.44404,   0.00196,   0.00106,  -0.00278,-20808431.42249,   0.00000
335373555.05392,-112453681.54577,124188360.40519,   0.00370,  -0.00011,  -0.00117,457278350.09105,   0.00248,277310038.44404,   0.00196,   0.00106,  -0.00278,-20031688.35299,   0.00000
333595499.95704,-114810048.42879,125248598.67979,   0.00370,  -0.00011,  -0.00116,458071014.94338,   0.00248,277310038.44404,   0.00196,   0.00106,  -0.00278,-19239023.50066,   0.00000
331817444.86016,-117166415.31182,126308836.95439,   0.00369,  -0.00012,  -0.00114,458879519.06906,   0.00248,277310038.44404,   0.00196,   0.00106,  -0.00278,-18430519.37498,   0.00000
330046999.12888,-119505027.00843,127374148.13940,   0.00369,  -0.00013,  -0.00113,459703458.22272,   0.00248,277310038.44404,   0.00196,   0.00106,  -0.00278,-17606580.22132,   0.00000
328276553.39761,-121843638.70504,128439459.32441,   0.00369,  -0.00014,  -0.00111,460543007.44409,   0.00248,277310038.44404,   0.00196,   0.00106,  -0.00278,-16767030.99994,   0.00000
326506107.66634,-124182250.40165,129499697.59901,   0.00368,  -0.00014,  -0.00110,461393810.00706,   0.00248,277310038.44404,   0.00196,   0.00106,  -0.00278,-15916228.43698,   0.00000
324753417.12148,-126513252.73265,130565008.78402,   0.00368,  -0.00015,  -0.00109,462274443.09789,   0.00248,277310038.44404,   0.00196,   0.00106,  -0.00278,-15035595.34615,   0.00000
322990580.75582,-128834109.24284,131635392.87943,   0.00368,  -0.00016,  -0.00107,463159774.48656,   0.00248,277310038.44404,   0.00196,   0.00106,  -0.00278,-14150263.95747,   0.00000
321227744.39015,-131154965.75304,132700704.06443,   0.00367,  -0.00016,  -0.00106,464055959.12526,   0.00248,277310038.44404,   0.00196,   0.00106,  -0.00278,-13254079.31877,   0.00000
319464908.02449,-133475822.26323,133771088.15984,   0.00367,  -0.00017,  -0.00105,464971586.17829,   0.00248,277310038.44404,   0.00196,   0.00106,  -0.00278,-12338452.26574,   0.00000
317702071.65882,-135796678.77342,134836399.34485,   0.00367,  -0.00018,  -0.00103,465897836.69572,   0.00248,277310038.44404,   0.00196,   0.00106,  -0.00278,-11412201.74832,   0.00000
315946844.65876,-138099780.09720,135906783.44026,   0.00366,  -0.00019,  -0.00102,466838418.55372,   0.00248,277310038.44404,   0.00196,   0.00106,  -0.00278,-10471619.89032,   0.00000
314209372.84512,-140395272.05537,136977167.53567,   0.00366,  -0.00019,  -0.00100,467803490.85962,   0.00248,277310038.44404,   0.00196,   0.00106,  -0.00278,-9506547.58442,   0.00000
312461755.21067,-142680618.19273,138047551.63109,   0.00366,  -0.00020,  -0.00099,468768304.39594,   0.00248,277310038.44404,   0.00196,   0.00106,  -0.00278,-8541734.04810,   0.00000
310724283.39703,-144976110.15089,139123008.63690,   0.00365,  -0.00021,  -0.00098,469766841.46495,   0.00248,277310038.44404,   0.00196,   0.00106,  -0.00278,-7543196.97909,   0.00000
308976665.76258,-147261456.28825,140193392.73231,   0.00365,  -0.00021,  -0.00096,470760482.99594,   0.00248,277310038.44404,   0.00196,   0.00106,  -0.00278,-6549555.44810,   0.00000
307254412.68015,-149521437.87359,141268849.73813,   0.00365,  -0.00022,  -0.00095,471777192.95357,   0.00248,277310038.44404,   0.00196,   0.00106,  -0.00278,-5532845.49047,   0.00000
305514404.41130,-151789028.82453,142344306.74394,   0.00364,  -0.00023,  -0.00093,472798477.47114,   0.00248,277310038.44404,   0.00196,   0.00106,  -0.00278,-4511560.97290,   0.00000
303792151.32888,-154049010.40987,143414690.83936,   0.00364,  -0.00023,  -0.00092,473838548.18432,   0.00248,277310038.44404,   0.00196,   0.00106,  -0.00278,-3471490.25971,   0.00000
302069898.24645,-156308991.99520,144495220.75558,   0.00364,  -0.00024,  -0.00091,474901644.73897,   0.00248,277310038.44404,   0.00196,   0.00106,  -0.00278,-2408393.70507,   0.00000
300355254.52963,-158551218.39412,145570677.76139,   0.00363,  -0.00025,  -0.00089,475968408.62215,   0.00248,277310038.44404,   0.00196,   0.00106,  -0.00278,-1341629.82189,   0.00000
298640610.81281,-160793444.79304,146646134.76721,   0.00363,  -0.00026,  -0.00088,477048703.39331,   0.00248,277310038.44404,   0.00196,   0.00106,  -0.00278,-261335.05073,   0.00000
298236437.57514,-161323846.30914,146903446.25786,   0.00363,  -0.00026,  -0.00087,477310038.51998,   0.00248,277310038.44404,   0.00196,   0.00106,  -0.00278,   0.07595,   0.00000
296452319.57924,-162706187.92616,147463657.74609,   0.00363,  -0.00026,  -0.00086,477310038.51998,   0.00248,277313836.78857,   0.00196,   0.00106,  -0.00278,   0.49414,   1.00000
294078963.18967,-164540632.83604,148199557.89802,   0.00362,  -0.00027,  -0.00085,478425455.32326,   0.00249,277318888.41896,   0.00196,   0.00105,  -0.00278,   0.83150,   1.00000
291736935.35877,-166324655.71179,148930427.39197,   0.00362,  -0.00028,  -0.00084,478441428.27763,   0.00249,277323990.30550,   0.00197,   0.00105,  -0.00277,   0.80703,   1.00000
289371571.57986,-168128895.95559,149653076.27469,   0.00362,  -0.00028,  -0.00082,478451391.80908,   0.00250,277329114.88967,   0.00197,   0.00105,  -0.00277,   0.77366,   1.00000
287024321.88818,-169896652.60711,150372606.76666,   0.00361,  -0.00029,  -0.00081,478477391.84921,   0.00250,277334334.92418,   0.00197,   0.00104,  -0.00276,   0.76256,   1.00000
284685593.87725,-171640729.94578,151088287.06293,   0.00361,  -0.00030,  -0.00079,478489574.06527,   0.00251,277339587.12721,   0.00198,   0.00104,  -0.00276,   0.73297,   1.00000
282333717.06675,-173392219.01103,151796483.89154,   0.00361,  -0.00030,  -0.00078,478513231.10028,   0.00251,277344923.49932,   0.00198,   0.00104,  -0.00275,   0.71758,   1.00000
280001558.70126,-175104560.02578,152502727.82948,   0.00360,  -0.00031,  -0.00077,478519459.63650,   0.00252,277350264.37139,   0.00199,   0.00103,  -0.00275,   0.68161,   1.00000
277669436.12175,-176813356.03655,153198725.02839,   0.00360,  -0.00032,  -0.00075,478551670.82232,   0.00252,277355727.84277,   0.00199,   0.00103,  -0.00274,   0.67582,   1.00000
275343752.25954,-178496705.19207,153894496.86257,   0.00360,  -0.00032,  -0.00074,478568372.07501,   0.00253,277361242.78936,   0.00199,   0.00103,  -0.00274,   0.65222,   1.00000
273019195.39105,-180173878.52916,154581174.88167,   0.00359,  -0.00033,  -0.00072,478581136.88494,   0.00253,277366791.04184,   0.00200,   0.00102,  -0.00273,   0.62482,   1.00000
270701362.64777,-181825658.03756,155267669.79806,   0.00359,  -0.00034,  -0.00071,478597676.84429,   0.00254,277372389.58075,   0.00200,   0.00102,  -0.00273,   0.60201,   1.00000
268384906.11443,-183471338.99377,155945125.60095,   0.00359,  -0.00034,  -0.00070,478610278.38415,   0.00254,277378020.23028,   0.00201,   0.00102,  -0.00272,   0.57591,   1.00000
266075449.24150,-185091684.40439,156622442.13728,   0.00358,  -0.00035,  -0.00068,478626658.11939,   0.00255,277383699.99145,   0.00201,   0.00101,  -0.00272,   0.55416,   1.00000
263780926.86023,-186695119.43823,157288089.10594,   0.00358,  -0.00036,  -0.00067,478647300.55500,   0.00255,277389447.99226,   0.00201,   0.00101,  -0.00271,   0.53671,   1.00000
261493740.85158,-188273335.60078,157953679.54670,   0.00358,  -0.00036,  -0.00065,478663432.06170,   0.00256,277395243.36339,   0.00202,   0.00100,  -0.00271,   0.51602,   1.00000
259205803.79715,-189843617.46469,158613772.84064,   0.00357,  -0.00037,  -0.00064,478680675.63932,   0.00256,277401090.91284,   0.00202,   0.00100,  -0.00270,   0.49682,   1.00000
256930757.93840,-191395069.26728,159265713.58477,   0.00357,  -0.00037,  -0.00063,478705928.54282,   0.00257,277407026.79756,   0.00203,   0.00100,  -0.00270,   0.48434,   1.00000
254652564.80584,-192934372.94142,159916947.35643,   0.00357,  -0.00038,  -0.00061,478708801.33358,   0.00258,277412948.76976,   0.00203,   0.00099,  -0.00269,   0.45620,   1.00000
252390263.82163,-194457033.82465,160556733.34932,   0.00356,  -0.00039,  -0.00060,478728690.59679,   0.00258,277418934.26504,   0.00204,   0.00099,  -0.00268,   0.44139,   1.00000
250135981.52870,-195954673.36011,161196607.43810,   0.00356,  -0.00039,  -0.00058,478744394.04905,   0.00259,277424963.91184,   0.00204,   0.00099,  -0.00268,   0.42468,   1.00000
247895370.58755,-197433676.84809,161828478.02408,   0.00356,  -0.00040,  -0.00057,478769068.33956,   0.00259,277431078.27637,   0.00204,   0.00098,  -0.00267,   0.41456,   1.00000
245665677.08679,-198889960.11856,162457187.88744,   0.00355,  -0.00041,  -0.00055,478779413.61498,   0.00260,277437211.74926,   0.00205,   0.00098,  -0.00267,   0.39664,   1.00000
243436154.77335,-200338581.52366,163080584.73361,   0.00355,  -0.00041,  -0.00054,478796111.91016,   0.00260,277443393.10693,   0.00205,   0.00097,  -0.00266,   0.38363,   1.00000
241215160.08572,-201762384.76114,163704181.29835,   0.00355,  -0.00042,  -0.00053,478811482.61278,   0.00261,277449616.05228,   0.00206,   0.00097,  -0.00265,   0.37107,   1.00000
239011138.24427,-203169998.28673,164316633.89041,   0.00354,  -0.00042,  -0.00051,478830409.06238,   0.00262,277455896.52885,   0.00206,   0.00097,  -0.00265,   0.36162,   1.00000
236793576.29208,-204580882.32017,164926416.39683,   0.00354,  -0.00043,  -0.00050,478839428.15462,   0.00262,277462189.17706,   0.00206,   0.00096,  -0.00264,   0.34812,   1.00000
234615675.59037,-205947729.19782,165528127.69140,   0.00354,  -0.00044,  -0.00048,478864148.49817,   0.00263,277468565.30985,   0.00207,   0.00096,  -0.00264,   0.34404,   1.00000
232435149.72609,-207303158.60412,166129530.47618,   0.00354,  -0.00044,  -0.00047,478866406.97153,   0.00263,277474922.35468,   0.00207,   0.00095,  -0.00263,   0.33025,   1.00000
230269684.16344,-208640423.01153,166723252.56882,   0.00353,  -0.00045,  -0.00046,478889941.74641,   0.00264,277481357.12075,   0.00208,   0.00095,  -0.00262,   0.32802,   1.00000
228115944.76315,-209955616.84393,167314210.43670,   0.00353,  -0.00045,  -0.00044,478899357.09145,   0.00265,277487805.00678,   0.00208,   0.00095,  -0.00262,   0.32060,   1.00000
225977601.69750,-211252809.85645,167897592.53044,   0.00353,  -0.00046,  -0.00043,478922568.79580,   0.00265,277494328.64755,   0.00209,   0.00094,  -0.00261,   0.32083,   1.00000
223834273.97614,-212536496.58363,168483995.90190,   0.00352,  -0.00047,  -0.00041,478929982.13215,   0.00266,277500855.82826,   0.00209,   0.00094,  -0.00260,   0.31538,   1.00000
221709104.97994,-213804670.22615,169059696.15142,   0.00352,  -0.00047,  -0.00040,478947631.63783,   0.00267,277507433.03598,   0.00209,   0.00093,  -0.00260,   0.31592,   1.00000
219610518.04418,-215040394.63216,169630369.74742,   0.00352,  -0.00048,  -0.00039,478963586.70408,   0.00267,277514052.29984,   0.00210,   0.00093,  -0.00259,   0.31718,   1.00000
217513374.21267,-216269172.37137,170196132.32718,   0.00351,  -0.00048,  -0.00037,478979232.01827,   0.00268,277520711.98251,   0.00210,   0.00092,  -0.00258,   0.31975,   1.00000
215428455.90778,-217476428.56654,170759452.12942,   0.00351,  -0.00049,  -0.00036,478987939.64413,   0.00268,277527380.33287,   0.00211,   0.00092,  -0.00258,   0.32075,   1.00000
213359806.88521,-218666144.50034,171315478.04537,   0.00351,  -0.00050,  -0.00034,479010283.56874,   0.00269,277534119.24905,   0.00211,   0.00092,  -0.00257,   0.32923,   1.00000
211303537.75764,-219834547.97107,171869181.87209,   0.00351,  -0.00050,  -0.00033,479018734.49790,   0.00270,277540865.23800,   0.00212,   0.00091,  -0.00256,   0.33302,   1.00000
209249033.27523,-220996250.79705,172418101.56843,   0.00350,  -0.00051,  -0.00031,479034067.38903,   0.00270,277547649.50633,   0.00212,   0.00091,  -0.00256,   0.34139,   1.00000
207221843.91725,-222126144.13025,172962391.35397,   0.00350,  -0.00051,  -0.00030,479048991.45651,   0.00271,277554469.98737,   0.00212,   0.00090,  -0.00255,   0.35102,   1.00000
205209585.01636,-223237594.43062,173501465.61565,   0.00350,  -0.00052,  -0.00029,479051533.86271,   0.00272,277561270.24187,   0.00213,   0.00090,  -0.00254,   0.35621,   1.00000
203196924.81431,-224340042.32679,174038951.11551,   0.00350,  -0.00052,  -0.00027,479072059.74713,   0.00272,277568132.01894,   0.00213,   0.00089,  -0.00253,   0.37147,   1.00000
201211882.61953,-225411046.16400,174572014.25099,   0.00349,  -0.00053,  -0.00026,479086443.06317,   0.00273,277575027.10360,   0.00214,   0.00089,  -0.00253,   0.38515,   1.00000
199243977.11475,-226465175.38947,175098157.22007,   0.00349,  -0.00053,  -0.00024,479107712.32321,   0.00274,277581986.57726,   0.00214,   0.00088,  -0.00252,   0.40389,   1.00000
197276119.57946,-227511923.61116,175621695.27763,   0.00349,  -0.00054,  -0.00023,479103334.50516,   0.00274,277588893.66707,   0.00215,   0.00088,  -0.00251,   0.41047,   1.00000
