# sigma_xx, sigma_yy, sigma_xy, epsilon_xx, epsilon_yy, epsilon_xy, vonMises, epsPlastic, hardening, epsilonP__xx, epsilonP__yy, epsilonP__xy, yieldValue, iteration
   0.00000,   0.00000,   0.00000,   0.00000,   0.00000,   0.00000,   0.00000,   0.00000,274640135.82653,   0.00000,   0.00000,   0.00000,-474640135.82653,   0.00000
   0.00000,   0.00000,   0.00000,   0.00000,   0.00000,   0.00000,   0.00000,   0.00000,274640135.82653,   0.00000,   0.00000,   0.00000,-474640135.82653,   0.00000
-1068421.68064,-858240.36642,337165.85823,  -0.00000,  -0.00000,   0.00000,1141131.56446,   0.00000,274640135.82653,   0.00000,   0.00000,   0.00000,-473499004.26207,   0.00000
-2136843.36128,-1716480.73283,674331.71647,  -0.00001,  -0.00000,   0.00001,2282263.12892,   0.00000,274640135.82653,   0.00000,   0.00000,   0.00000,-472357872.69761,   0.00000
-3218401.37406,-2605372.54091,1011497.57470,  -0.00001,  -0.00001,   0.00001,3439523.36040,   0.00000,274640135.82653,   0.00000,   0.00000,   0.00000,-471200612.46612,   0.00000
-4262739.77911,-3465802.29601,1353042.21032,  -0.00001,  -0.00001,   0.00002,4571771.24695,   0.00000,274640135.82653,   0.00000,   0.00000,   0.00000,-470068364.57958,   0.00000
-5335540.23713,-4363451.65885,1694586.84593,  -0.00002,  -0.00001,   0.00002,5730724.37287,   0.00000,274640135.82653,   0.00000,   0.00000,   0.00000,-468909411.45366,   0.00000
-6393014.97432,-5254532.85561,2036131.48155,  -0.00002,  -0.00001,   0.00003,6879385.36456,   0.00000,274640135.82653,   0.00000,   0.00000,   0.00000,-467760750.46197,   0.00000
-7441732.15676,-6154371.60713,2377676.11716,  -0.00002,  -0.00001,   0.00003,8025989.87244,   0.00000,274640135.82653,   0.00000,   0.00000,   0.00000,-466614145.95409,   0.00000
-8490449.33919,-7054210.35865,2723599.53016,  -0.00002,  -0.00002,   0.00004,9176610.55561,   0.00000,274640135.82653,   0.00000,   0.00000,   0.00000,-465463525.27092,   0.00000
-9536977.13293,-7978132.38577,3069522.94315,  -0.00003,  -0.00002,   0.00004,10333594.55213,   0.00000,274640135.82653,   0.00000,   0.00000,   0.00000,-464306541.27440,   0.00000
-10576936.76060,-8886728.69205,3415446.35615,  -0.00003,  -0.00002,   0.00004,11482464.54968,   0.00000,274640135.82653,   0.00000,   0.00000,   0.00000,-463157671.27685,   0.00000
-11630032.72041,-9825976.43999,3761369.76914,  -0.00003,  -0.00002,   0.00005,12648112.67307,   0.00000,274640135.82653,   0.00000,   0.00000,   0.00000,-461992023.15346,   0.00000
-12667802.95940,-10758656.02186,4111671.95951,  -0.00004,  -0.00002,   0.00005,13807639.75232,   0.00000,274640135.82653,   0.00000,   0.00000,   0.00000,-460832496.07421,   0.00000
-13696815.64362,-11700093.15849,4461974.14989,  -0.00004,  -0.00003,   0.00006,14965579.16121,   0.00000,274640135.82653,   0.00000,   0.00000,   0.00000,-459674556.66532,   0.00000
-14725828.32784,-12641530.29512,4812276.34026,  -0.00004,  -0.00003,   0.00006,16123749.99625,   0.00000,274640135.82653,   0.00000,   0.00000,   0.00000,-458516385.83028,   0.00000
-15761409.17814,-13598293.15258,5166957.30802,  -0.00005,  -0.00003,   0.00007,17294498.45791,   0.00000,274640135.82653,   0.00000,   0.00000,   0.00000,-457345637.36862,   0.00000
-16788232.47367,-14563813.56480,5517259.49839,  -0.00005,  -0.00003,   0.00007,18459934.57271,   0.00000,274640135.82653,   0.00000,   0.00000,   0.00000,-456180201.25382,   0.00000
-17815055.76920,-15529333.97701,5871940.46614,  -0.00005,  -0.00004,   0.00008,19629557.54683,   0.00000,274640135.82653,   0.00000,   0.00000,   0.00000,-455010578.27970,   0.00000
-18833121.50998,-16503611.94399,6226621.43390,  -0.00005,  -0.00004,   0.00008,20797922.66925,   0.00000,274640135.82653,   0.00000,   0.00000,   0.00000,-453842213.15728,   0.00000
-19857755.41682,-17493215.63180,6585681.17903,  -0.00006,  -0.00004,   0.00009,21979095.42362,   0.00000,274640135.82653,   0.00000,   0.00000,   0.00000,-452661040.40291,   0.00000
-20867063.60284,-18476251.15353,6944740.92416,  -0.00006,  -0.00004,   0.00009,23150580.37376,   0.00000,274640135.82653,   0.00000,   0.00000,   0.00000,-451489555.45277,   0.00000
-21882939.95492,-19474612.39610,7303800.66930,  -0.00006,  -0.00005,   0.00009,24331015.76158,   0.00000,274640135.82653,   0.00000,   0.00000,   0.00000,-450309120.06495,   0.00000
-22883490.58618,-20466405.47260,7662860.41443,  -0.00006,  -0.00005,   0.00010,25501831.04415,   0.00000,274640135.82653,   0.00000,   0.00000,   0.00000,-449138304.78238,   0.00000
-23890609.38350,-21473524.26992,8021920.15956,  -0.00007,  -0.00005,   0.00010,26681669.55056,   0.00000,274640135.82653,   0.00000,   0.00000,   0.00000,-447958466.27597,   0.00000
-24882402.46000,-22474074.90118,8385358.68208,  -0.00007,  -0.00005,   0.00011,27855910.30498,   0.00000,274640135.82653,   0.00000,   0.00000,   0.00000,-446784225.52155,   0.00000
-25887331.86863,-23505276.97409,8748797.20459,  -0.00007,  -0.00006,   0.00011,29048019.70521,   0.00000,274640135.82653,   0.00000,   0.00000,   0.00000,-445592116.12132,   0.00000
-26885693.11120,-24521153.32617,9112235.72710,  -0.00007,  -0.00006,   0.00012,30231734.50687,   0.00000,274640135.82653,   0.00000,   0.00000,   0.00000,-444408401.31966,   0.00000
-27881864.96507,-25561112.95385,9480053.02699,  -0.00008,  -0.00006,   0.00012,31427561.24515,   0.00000,274640135.82653,   0.00000,   0.00000,   0.00000,-443212574.58138,   0.00000
-28878036.81895,-26601072.58152,9847870.32689,  -0.00008,  -0.00006,   0.00013,32623809.85564,   0.00000,274640135.82653,   0.00000,   0.00000,   0.00000,-442016325.97089,   0.00000
-29858882.95200,-27634464.04312,10215687.62678,  -0.00008,  -0.00007,   0.00013,33810694.87382,   0.00000,274640135.82653,   0.00000,   0.00000,   0.00000,-440829440.95271,   0.00000
-30846297.25111,-28683181.22555,10583504.92667,  -0.00008,  -0.00007,   0.00014,35006866.96535,   0.00000,274640135.82653,   0.00000,   0.00000,   0.00000,-439633268.86118,   0.00000
-31824953.99547,-29740655.96275,10955701.00394,  -0.00009,  -0.00007,   0.00014,36206649.38326,   0.00000,274640135.82653,   0.00000,   0.00000,   0.00000,-438433486.44327,   0.00000
-32803610.73983,-30798130.69994,11327897.08122,  -0.00009,  -0.00008,   0.00015,37406892.38674,   0.00000,274640135.82653,   0.00000,   0.00000,   0.00000,-437233243.43979,   0.00000
-33773509.92943,-31864362.99189,11700093.15849,  -0.00009,  -0.00008,   0.00015,38606900.44127,   0.00000,274640135.82653,   0.00000,   0.00000,   0.00000,-436033235.38526,   0.00000
-34749977.28509,-32945921.00467,12072289.23576,  -0.00009,  -0.00008,   0.00016,39816392.70184,   0.00000,274640135.82653,   0.00000,   0.00000,   0.00000,-434823743.12469,   0.00000
-35726444.64076,-34027479.01745,12448864.09041,  -0.00010,  -0.00009,   0.00016,41030354.38545,   0.00000,274640135.82653,   0.00000,   0.00000,   0.00000,-433609781.44108,   0.00000
-36687586.27560,-35102468.86416,12825438.94506,  -0.00010,  -0.00009,   0.00017,42235211.66691,   0.00000,274640135.82653,   0.00000,   0.00000,   0.00000,-432404924.15962,   0.00000
-37655296.07651,-36192784.43169,13202013.79972,  -0.00010,  -0.00009,   0.00017,43449608.27238,   0.00000,274640135.82653,   0.00000,   0.00000,   0.00000,-431190527.55415,   0.00000
-38614248.32265,-37291857.55399,13582967.43175,  -0.00010,  -0.00009,   0.00018,44668073.36458,   0.00000,274640135.82653,   0.00000,   0.00000,   0.00000,-429972062.46195,   0.00000
-39573200.56880,-38390930.67629,13959542.28640,  -0.00011,  -0.00010,   0.00018,45883071.21708,   0.00000,274640135.82653,   0.00000,   0.00000,   0.00000,-428757064.60944,   0.00000
-40516827.09412,-39483435.63252,14344874.69581,  -0.00011,  -0.00010,   0.00019,47097109.49340,   0.00000,274640135.82653,   0.00000,   0.00000,   0.00000,-427543026.33313,   0.00000
-41473589.95158,-40606592.03041,14725828.32784,  -0.00011,  -0.00010,   0.00019,48326006.37771,   0.00000,274640135.82653,   0.00000,   0.00000,   0.00000,-426314129.44881,   0.00000
-42423784.64297,-41714422.70746,15106781.95988,  -0.00011,  -0.00011,   0.00020,49546255.79549,   0.00000,274640135.82653,   0.00000,   0.00000,   0.00000,-425093880.03104,   0.00000
-43371789.94567,-42846336.66011,15492114.36929,  -0.00011,  -0.00011,   0.00020,50780067.32579,   0.00000,274640135.82653,   0.00000,   0.00000,   0.00000,-423860068.50074,   0.00000
-44313227.08230,-43962924.89193,15877446.77870,  -0.00012,  -0.00011,   0.00021,52005208.72176,   0.00000,274640135.82653,   0.00000,   0.00000,   0.00000,-422634927.10477,   0.00000
-45267800.55107,-45110164.56540,16267157.96549,  -0.00012,  -0.00012,   0.00021,53253394.88050,   0.00000,274640135.82653,   0.00000,   0.00000,   0.00000,-421386740.94603,   0.00000
-46207048.29901,-46250836.07281,16652490.37490,  -0.00012,  -0.00012,   0.00022,54488832.25683,   0.00000,274640135.82653,   0.00000,   0.00000,   0.00000,-420151303.56970,   0.00000
-47130970.32612,-47384939.41414,17042201.56169,  -0.00012,  -0.00012,   0.00022,55719588.79908,   0.00000,274640135.82653,   0.00000,   0.00000,   0.00000,-418920547.02745,   0.00000
-48076786.24013,-48540936.64238,17431912.74848,  -0.00012,  -0.00013,   0.00023,56969486.71578,   0.00000,274640135.82653,   0.00000,   0.00000,   0.00000,-417670649.11075,   0.00000
-48991950.71248,-49683797.53847,17826002.71265,  -0.00013,  -0.00013,   0.00023,58205531.78504,   0.00000,274640135.82653,   0.00000,   0.00000,   0.00000,-416434604.04149,   0.00000
-49929009.07173,-50848552.32146,18220092.67682,  -0.00013,  -0.00013,   0.00024,59460732.60049,   0.00000,274640135.82653,   0.00000,   0.00000,   0.00000,-415179403.22604,   0.00000
-50850741.71015,-52006738.93839,18614182.64099,  -0.00013,  -0.00014,   0.00024,60707338.63967,   0.00000,274640135.82653,   0.00000,   0.00000,   0.00000,-413932797.18686,   0.00000
-51779042.51464,-53180251.27614,19008272.60516,  -0.00013,  -0.00014,   0.00025,61963934.34940,   0.00000,274640135.82653,   0.00000,   0.00000,   0.00000,-412676201.47713,   0.00000
-52692017.59831,-54347195.44782,19402362.56934,  -0.00013,  -0.00014,   0.00025,63212008.45160,   0.00000,274640135.82653,   0.00000,   0.00000,   0.00000,-411428127.37493,   0.00000
-53611560.84804,-55529465.34033,19800831.31089,  -0.00014,  -0.00015,   0.00026,64474168.69879,   0.00000,274640135.82653,   0.00000,   0.00000,   0.00000,-410165967.12774,   0.00000
-54515778.37694,-56705167.06678,20199300.05244,  -0.00014,  -0.00015,   0.00026,65727885.34024,   0.00000,274640135.82653,   0.00000,   0.00000,   0.00000,-408912250.48629,   0.00000
-55426564.07191,-57896194.51405,20602147.57137,  -0.00014,  -0.00016,   0.00027,66995758.54433,   0.00000,274640135.82653,   0.00000,   0.00000,   0.00000,-407644377.28220,   0.00000
-56337349.76688,-59087221.96132,21000616.31292,  -0.00014,  -0.00016,   0.00027,68260214.94283,   0.00000,274640135.82653,   0.00000,   0.00000,   0.00000,-406379920.88370,   0.00000
-57254703.62793,-60293575.12942,21403463.83185,  -0.00014,  -0.00016,   0.00028,69538840.27440,   0.00000,274640135.82653,   0.00000,   0.00000,   0.00000,-405101295.55213,   0.00000
-58156731.76814,-61493360.13145,21806311.35078,  -0.00014,  -0.00017,   0.00028,70809120.76634,   0.00000,274640135.82653,   0.00000,   0.00000,   0.00000,-403831015.06019,   0.00000
-59043434.18752,-62686576.96741,22213537.64709,  -0.00015,  -0.00017,   0.00029,72075148.52795,   0.00000,274640135.82653,   0.00000,   0.00000,   0.00000,-402564987.29858,   0.00000
-59952030.49381,-63901687.69027,22616385.16602,  -0.00015,  -0.00017,   0.00029,73356242.78080,   0.00000,274640135.82653,   0.00000,   0.00000,   0.00000,-401283893.04573,   0.00000
-60851869.24533,-65125555.96789,23023611.46233,  -0.00015,  -0.00018,   0.00030,74642724.15175,   0.00000,274640135.82653,   0.00000,   0.00000,   0.00000,-399997411.67478,   0.00000
-61729814.10995,-66327530.35861,23435216.53601,  -0.00015,  -0.00018,   0.00030,75915434.77042,   0.00000,274640135.82653,   0.00000,   0.00000,   0.00000,-398724701.05611,   0.00000
-62620895.30672,-67560156.19099,23842442.83232,  -0.00015,  -0.00019,   0.00031,77204015.48146,   0.00000,274640135.82653,   0.00000,   0.00000,   0.00000,-397436120.34506,   0.00000
-63505408.33741,-68777456.30254,24254047.90601,  -0.00015,  -0.00019,   0.00032,78487651.61558,   0.00000,274640135.82653,   0.00000,   0.00000,   0.00000,-396152484.21094,   0.00000
-64403057.70024,-70025407.85575,24665652.97970,  -0.00016,  -0.00019,   0.00032,79791255.87828,   0.00000,274640135.82653,   0.00000,   0.00000,   0.00000,-394848879.94825,   0.00000
-65278813.17618,-71251465.52205,25077258.05339,  -0.00016,  -0.00020,   0.00033,81077063.93807,   0.00000,274640135.82653,   0.00000,   0.00000,   0.00000,-393563071.88846,   0.00000
-66161136.81818,-72492848.90919,25493241.90446,  -0.00016,  -0.00020,   0.00033,82377278.55072,   0.00000,274640135.82653,   0.00000,   0.00000,   0.00000,-392262857.27581,   0.00000
-67028134.73936,-73727664.13026,25909225.75553,  -0.00016,  -0.00020,   0.00034,83669441.47748,   0.00000,274640135.82653,   0.00000,   0.00000,   0.00000,-390970694.34905,   0.00000
-67901700.82660,-74977805.07216,26325209.60660,  -0.00016,  -0.00021,   0.00034,84972005.52201,   0.00000,274640135.82653,   0.00000,   0.00000,   0.00000,-389668130.30452,   0.00000
-68775266.91385,-76227946.01405,26741193.45767,  -0.00016,  -0.00021,   0.00035,86275222.64128,   0.00000,274640135.82653,   0.00000,   0.00000,   0.00000,-388364913.18525,   0.00000
-69655401.16716,-77493412.67678,27161556.08612,  -0.00017,  -0.00022,   0.00035,87592919.57285,   0.00000,274640135.82653,   0.00000,   0.00000,   0.00000,-387047216.25368,   0.00000
-70520209.69965,-78752311.17344,27581918.71457,  -0.00017,  -0.00022,   0.00036,88902664.26204,   0.00000,274640135.82653,   0.00000,   0.00000,   0.00000,-385737471.56449,   0.00000
-71385018.23213,-80011209.67009,28002281.34301,  -0.00017,  -0.00022,   0.00036,90213059.59249,   0.00000,274640135.82653,   0.00000,   0.00000,   0.00000,-384427076.23403,   0.00000
-72241069.20986,-81278865.72151,28427022.74884,  -0.00017,  -0.00023,   0.00037,91529453.16543,   0.00000,274640135.82653,   0.00000,   0.00000,   0.00000,-383110682.66110,   0.00000
-73097120.18759,-82546521.77292,28851764.15467,  -0.00017,  -0.00023,   0.00038,92846524.42571,   0.00000,274640135.82653,   0.00000,   0.00000,   0.00000,-381793611.40082,   0.00000
-73959739.33138,-83829503.54517,29276505.56050,  -0.00017,  -0.00024,   0.00038,94174103.71019,   0.00000,274640135.82653,   0.00000,   0.00000,   0.00000,-380466032.11634,   0.00000
-74822358.47518,-85112485.31741,29701246.96633,  -0.00017,  -0.00024,   0.00039,95502334.06376,   0.00000,274640135.82653,   0.00000,   0.00000,   0.00000,-379137801.76277,   0.00000
-75669651.89815,-86388898.92359,30130367.14954,  -0.00018,  -0.00025,   0.00039,96826841.52600,   0.00000,274640135.82653,   0.00000,   0.00000,   0.00000,-377813294.30053,   0.00000
-76516945.32111,-87665312.52976,30559487.33274,  -0.00018,  -0.00025,   0.00040,98151998.52747,   0.00000,274640135.82653,   0.00000,   0.00000,   0.00000,-376488137.29905,   0.00000
-77355481.18932,-88950483.69070,30988607.51595,  -0.00018,  -0.00025,   0.00040,99479309.09620,   0.00000,274640135.82653,   0.00000,   0.00000,   0.00000,-375160826.73033,   0.00000
-78215910.94443,-90257548.73853,31417727.69916,  -0.00018,  -0.00026,   0.00041,100825583.44138,   0.00000,274640135.82653,   0.00000,   0.00000,   0.00000,-373814552.38515,   0.00000
-79054446.81263,-91542719.89946,31851226.65975,  -0.00018,  -0.00026,   0.00041,102158298.56286,   0.00000,274640135.82653,   0.00000,   0.00000,   0.00000,-372481837.26367,   0.00000
-79884225.12608,-92836648.61516,32284725.62034,  -0.00018,  -0.00027,   0.00042,103493282.57093,   0.00000,274640135.82653,   0.00000,   0.00000,   0.00000,-371146853.25560,   0.00000
-80735897.32643,-94152471.21775,32718224.58092,  -0.00018,  -0.00027,   0.00043,104847200.07435,   0.00000,274640135.82653,   0.00000,   0.00000,   0.00000,-369792935.75218,   0.00000
-81565675.63988,-95446399.93344,33156102.31889,  -0.00019,  -0.00028,   0.00043,106187597.99441,   0.00000,274640135.82653,   0.00000,   0.00000,   0.00000,-368452537.83212,   0.00000
-82402022.11939,-96755654.36997,33589601.27948,  -0.00019,  -0.00028,   0.00044,107534516.65720,   0.00000,274640135.82653,   0.00000,   0.00000,   0.00000,-367105619.16933,   0.00000
-83229611.04415,-98073666.36125,34027479.01745,  -0.00019,  -0.00028,   0.00044,108887956.48751,   0.00000,274640135.82653,   0.00000,   0.00000,   0.00000,-365752179.33902,   0.00000
-84065957.52367,-99382920.79777,34469735.53279,  -0.00019,  -0.00029,   0.00045,110244354.80062,   0.00000,274640135.82653,   0.00000,   0.00000,   0.00000,-364395781.02591,   0.00000
-84893546.44843,-100700932.78905,34907613.27076,  -0.00019,  -0.00029,   0.00045,111599091.26347,   0.00000,274640135.82653,   0.00000,   0.00000,   0.00000,-363041044.56306,   0.00000
-85712377.81843,-102027702.33509,35349869.78611,  -0.00019,  -0.00030,   0.00046,112960465.05862,   0.00000,274640135.82653,   0.00000,   0.00000,   0.00000,-361679670.76791,   0.00000
-86539966.74319,-103345714.32637,35792126.30145,  -0.00019,  -0.00030,   0.00047,114320587.59569,   0.00000,274640135.82653,   0.00000,   0.00000,   0.00000,-360319548.23084,   0.00000
-87358798.11318,-104672483.87242,36234382.81680,  -0.00019,  -0.00031,   0.00047,115683264.11166,   0.00000,274640135.82653,   0.00000,   0.00000,   0.00000,-358956871.71487,   0.00000
-88177629.48318,-105999253.41846,36681018.10953,  -0.00019,  -0.00031,   0.00048,117050691.76118,   0.00000,274640135.82653,   0.00000,   0.00000,   0.00000,-357589444.06535,   0.00000
-88987703.29842,-107334780.51926,37127653.40226,  -0.00020,  -0.00031,   0.00048,118420770.08055,   0.00000,274640135.82653,   0.00000,   0.00000,   0.00000,-356219365.74598,   0.00000
-89813102.83449,-108676875.78613,37574288.69498,  -0.00020,  -0.00032,   0.00049,119799544.50449,   0.00000,274640135.82653,   0.00000,   0.00000,   0.00000,-354840591.32204,   0.00000
-90623176.64973,-110012402.88693,38025302.76509,  -0.00020,  -0.00032,   0.00049,121175024.10023,   0.00000,274640135.82653,   0.00000,   0.00000,   0.00000,-353465111.72630,   0.00000
-91433250.46497,-111347929.98773,38471938.05782,  -0.00020,  -0.00033,   0.00050,122547001.94452,   0.00000,274640135.82653,   0.00000,   0.00000,   0.00000,-352093133.88200,   0.00000
-92234566.72545,-112692214.64329,38922952.12792,  -0.00020,  -0.00033,   0.00051,123925871.21478,   0.00000,274640135.82653,   0.00000,   0.00000,   0.00000,-350714264.61175,   0.00000
-93044640.54069,-114027741.74409,39378344.97541,  -0.00020,  -0.00034,   0.00051,125307313.98192,   0.00000,274640135.82653,   0.00000,   0.00000,   0.00000,-349332821.84461,   0.00000
-93852524.96724,-115387352.12048,39829359.04551,  -0.00020,  -0.00034,   0.00052,126697579.50427,   0.00000,274640135.82653,   0.00000,   0.00000,   0.00000,-347942556.32226,   0.00000
-94653841.22772,-116731636.77604,40284751.89300,  -0.00020,  -0.00035,   0.00052,128082436.63815,   0.00000,274640135.82653,   0.00000,   0.00000,   0.00000,-346557699.18838,   0.00000
-95446399.93344,-118084678.98636,40740144.74049,  -0.00020,  -0.00035,   0.00053,129470179.40610,   0.00000,274640135.82653,   0.00000,   0.00000,   0.00000,-345169956.42042,   0.00000
-96254284.35999,-119444289.36275,41195537.58797,  -0.00021,  -0.00036,   0.00054,130866412.33339,   0.00000,274640135.82653,   0.00000,   0.00000,   0.00000,-343773723.49314,   0.00000
-97046843.06571,-120797331.57306,41655309.21284,  -0.00021,  -0.00036,   0.00054,132259516.63724,   0.00000,274640135.82653,   0.00000,   0.00000,   0.00000,-342380619.18929,   0.00000
-97839401.77143,-122150373.78338,42110702.06032,  -0.00021,  -0.00036,   0.00055,133649079.83720,   0.00000,274640135.82653,   0.00000,   0.00000,   0.00000,-340991055.98933,   0.00000
-98638528.64322,-123518741.71453,42570473.68519,  -0.00021,  -0.00037,   0.00055,135053573.20116,   0.00000,274640135.82653,   0.00000,   0.00000,   0.00000,-339586562.62537,   0.00000
-99422329.79419,-124880541.47961,43034624.08744,  -0.00021,  -0.00037,   0.00056,136455016.51872,   0.00000,274640135.82653,   0.00000,   0.00000,   0.00000,-338185119.30781,   0.00000
-100206130.94515,-126242341.24469,43494395.71230,  -0.00021,  -0.00038,   0.00057,137852922.34655,   0.00000,274640135.82653,   0.00000,   0.00000,   0.00000,-336787213.47998,   0.00000
-100989932.09611,-127604141.00977,43958546.11455,  -0.00021,  -0.00038,   0.00057,139255559.96574,   0.00000,274640135.82653,   0.00000,   0.00000,   0.00000,-335384575.86079,   0.00000
-101773733.24707,-128965940.77485,44422696.51679,  -0.00021,  -0.00039,   0.00058,140658769.01949,   0.00000,274640135.82653,   0.00000,   0.00000,   0.00000,-333981366.80704,   0.00000
-102564102.56410,-130343066.26075,44891225.69642,  -0.00021,  -0.00039,   0.00058,142076939.98017,   0.00000,274640135.82653,   0.00000,   0.00000,   0.00000,-332563195.84636,   0.00000
-103339146.16030,-131713623.58059,45355376.09866,  -0.00021,  -0.00040,   0.00059,143483848.53539,   0.00000,274640135.82653,   0.00000,   0.00000,   0.00000,-331156287.29114,   0.00000
-104129515.47734,-133090749.06650,45823905.27829,  -0.00021,  -0.00040,   0.00060,144903137.13194,   0.00000,274640135.82653,   0.00000,   0.00000,   0.00000,-329736998.69459,   0.00000
-104911127.23961,-134476632.10717,46292434.45791,  -0.00022,  -0.00041,   0.00060,146325604.74484,   0.00000,274640135.82653,   0.00000,   0.00000,   0.00000,-328314531.08169,   0.00000
-105686170.83581,-135847189.42700,46765342.41492,  -0.00022,  -0.00041,   0.00061,147742505.95329,   0.00000,274640135.82653,   0.00000,   0.00000,   0.00000,-326897629.87324,   0.00000
-106452456.87725,-137226504.30160,47233871.59454,  -0.00022,  -0.00042,   0.00061,149158494.23981,   0.00000,274640135.82653,   0.00000,   0.00000,   0.00000,-325481641.58672,   0.00000
-107234068.63952,-138612387.34227,47706779.55155,  -0.00022,  -0.00042,   0.00062,150586784.24317,   0.00000,274640135.82653,   0.00000,   0.00000,   0.00000,-324053351.58336,   0.00000
-108000354.68097,-139991702.21687,48179687.50855,  -0.00022,  -0.00043,   0.00063,152008048.05747,   0.00000,274640135.82653,   0.00000,   0.00000,   0.00000,-322632087.76906,   0.00000
-108766640.72241,-141371017.09146,48656974.24294,  -0.00022,  -0.00043,   0.00063,153434022.98837,   0.00000,274640135.82653,   0.00000,   0.00000,   0.00000,-321206112.83815,   0.00000
-109539494.92992,-142765657.68689,49129882.19994,  -0.00022,  -0.00044,   0.00064,154866690.74676,   0.00000,274640135.82653,   0.00000,   0.00000,   0.00000,-319773445.07977,   0.00000
-110305780.97137,-144144972.56149,49607168.93433,  -0.00022,  -0.00044,   0.00064,156293724.40376,   0.00000,274640135.82653,   0.00000,   0.00000,   0.00000,-318346411.42276,   0.00000
-111063309.45805,-145533044.99084,50084455.66871,  -0.00022,  -0.00045,   0.00065,157724133.78676,   0.00000,274640135.82653,   0.00000,   0.00000,   0.00000,-316916002.03977,   0.00000
-111836163.66556,-146927685.58627,50566121.18047,  -0.00022,  -0.00045,   0.00066,159166709.57413,   0.00000,274640135.82653,   0.00000,   0.00000,   0.00000,-315473426.25240,   0.00000
-112593692.15225,-148315758.01563,51043407.91486,  -0.00022,  -0.00046,   0.00066,160598173.28841,   0.00000,274640135.82653,   0.00000,   0.00000,   0.00000,-314041962.53812,   0.00000
-113357788.80500,-149719156.16581,51525073.42662,  -0.00022,  -0.00046,   0.00067,162044688.57667,   0.00000,274640135.82653,   0.00000,   0.00000,   0.00000,-312595447.24986,   0.00000
-114115317.29168,-151107228.59517,52006738.93839,  -0.00022,  -0.00047,   0.00068,163481355.27670,   0.00000,274640135.82653,   0.00000,   0.00000,   0.00000,-311158780.54983,   0.00000
-114879413.94444,-152510626.74535,52492783.22753,  -0.00023,  -0.00047,   0.00068,164933066.63793,   0.00000,274640135.82653,   0.00000,   0.00000,   0.00000,-309707069.18860,   0.00000
-115621616.71029,-153892131.00864,52974448.73930,  -0.00023,  -0.00047,   0.00069,166363355.06525,   0.00000,274640135.82653,   0.00000,   0.00000,   0.00000,-308276780.76128,   0.00000
-116385713.36304,-155295529.15883,53460493.02844,  -0.00023,  -0.00048,   0.00069,167816053.02543,   0.00000,274640135.82653,   0.00000,   0.00000,   0.00000,-306824082.80110,   0.00000
-117134484.29497,-156692359.14294,53946537.31758,  -0.00023,  -0.00048,   0.00070,169261900.05235,   0.00000,274640135.82653,   0.00000,   0.00000,   0.00000,-305378235.77418,   0.00000
-117898580.94772,-158095757.29313,54436960.38411,  -0.00023,  -0.00049,   0.00071,170719730.53060,   0.00000,274640135.82653,   0.00000,   0.00000,   0.00000,-303920405.29593,   0.00000
-118647351.87964,-159492587.27724,54923004.67325,  -0.00023,  -0.00049,   0.00071,172166534.80446,   0.00000,274640135.82653,   0.00000,   0.00000,   0.00000,-302473601.02206,   0.00000
-119402690.97764,-160904742.98219,55413427.73977,  -0.00023,  -0.00050,   0.00072,173628406.50464,   0.00000,274640135.82653,   0.00000,   0.00000,   0.00000,-301011729.32189,   0.00000
-120136136.18873,-162295004.80023,55903850.80630,  -0.00023,  -0.00050,   0.00073,175073089.32829,   0.00000,274640135.82653,   0.00000,   0.00000,   0.00000,-299567046.49824,   0.00000
-120891475.28673,-163707160.50518,56394273.87282,  -0.00023,  -0.00051,   0.00073,176535904.07089,   0.00000,274640135.82653,   0.00000,   0.00000,   0.00000,-298104231.75564,   0.00000
-121640246.21865,-165103990.48930,56889075.71672,  -0.00023,  -0.00051,   0.00074,177992943.47960,   0.00000,274640135.82653,   0.00000,   0.00000,   0.00000,-296647192.34693,   0.00000
-122380259.59582,-166509578.02817,57379498.78325,  -0.00023,  -0.00052,   0.00075,179449443.49714,   0.00000,274640135.82653,   0.00000,   0.00000,   0.00000,-295190692.32939,   0.00000
-123135598.69381,-167921733.73312,57874300.62715,  -0.00023,  -0.00052,   0.00075,180917785.54895,   0.00000,274640135.82653,   0.00000,   0.00000,   0.00000,-293722350.27758,   0.00000
-123875612.07098,-169327321.27199,58373481.24843,  -0.00023,  -0.00053,   0.00076,182383588.54728,   0.00000,274640135.82653,   0.00000,   0.00000,   0.00000,-292256547.27925,   0.00000
-124615625.44814,-170732908.81087,58868283.09234,  -0.00023,  -0.00053,   0.00077,183845631.72271,   0.00000,274640135.82653,   0.00000,   0.00000,   0.00000,-290794504.10382,   0.00000
-125355638.82531,-172138496.34974,59367463.71362,  -0.00023,  -0.00054,   0.00077,185312315.23529,   0.00000,274640135.82653,   0.00000,   0.00000,   0.00000,-289327820.59124,   0.00000
-126095652.20247,-173544083.88862,59862265.55752,  -0.00024,  -0.00054,   0.00078,186775214.16486,   0.00000,274640135.82653,   0.00000,   0.00000,   0.00000,-287864921.66167,   0.00000
-126835665.57964,-174949671.42749,60365824.95618,  -0.00024,  -0.00055,   0.00078,188246949.63025,   0.00000,274640135.82653,   0.00000,   0.00000,   0.00000,-286393186.19628,   0.00000
-127566921.40204,-176364016.52113,60865005.57747,  -0.00024,  -0.00055,   0.00079,189718259.10438,   0.00000,274640135.82653,   0.00000,   0.00000,   0.00000,-284921876.72215,   0.00000
-128306934.77921,-177769604.06000,61364186.19875,  -0.00024,  -0.00056,   0.00080,191186606.98317,   0.00000,274640135.82653,   0.00000,   0.00000,   0.00000,-283453528.84336,   0.00000
-129046948.15637,-179175191.59888,61867745.59741,  -0.00024,  -0.00056,   0.00080,192659560.59256,   0.00000,274640135.82653,   0.00000,   0.00000,   0.00000,-281980575.23397,   0.00000
-129778203.97878,-180589536.69251,62371304.99608,  -0.00024,  -0.00057,   0.00081,194136334.36892,   0.00000,274640135.82653,   0.00000,   0.00000,   0.00000,-280503801.45761,   0.00000
-130518217.35594,-181995124.23139,62874864.39474,  -0.00024,  -0.00057,   0.00082,195610063.24212,   0.00000,274640135.82653,   0.00000,   0.00000,   0.00000,-279030072.58441,   0.00000
-131249473.17835,-183409469.32502,63382802.57078,  -0.00024,  -0.00058,   0.00082,197091857.79232,   0.00000,274640135.82653,   0.00000,   0.00000,   0.00000,-277548278.03420,   0.00000
-131980729.00075,-184823814.41866,63886361.96944,  -0.00024,  -0.00058,   0.00083,198569824.43773,   0.00000,274640135.82653,   0.00000,   0.00000,   0.00000,-276070311.38880,   0.00000
-132720742.37792,-186229401.95753,64394300.14548,  -0.00024,  -0.00059,   0.00084,200048891.03438,   0.00000,274640135.82653,   0.00000,   0.00000,   0.00000,-274591244.79215,   0.00000
-133451998.20032,-187643747.05117,64902238.32153,  -0.00024,  -0.00059,   0.00084,201531834.34564,   0.00000,274640135.82653,   0.00000,   0.00000,   0.00000,-273108301.48089,   0.00000
-134183254.02273,-189058092.14480,65414555.27495,  -0.00024,  -0.00060,   0.00085,203019383.28076,   0.00000,274640135.82653,   0.00000,   0.00000,   0.00000,-271620752.54577,   0.00000
-134907941.67906,-190457111.51761,65922493.45099,  -0.00024,  -0.00060,   0.00086,204492573.43757,   0.00000,274640135.82653,   0.00000,   0.00000,   0.00000,-270147562.38896,   0.00000
-135639197.50147,-191871456.61124,66434810.40441,  -0.00024,  -0.00061,   0.00086,205980847.32127,   0.00000,274640135.82653,   0.00000,   0.00000,   0.00000,-268659288.50526,   0.00000
-136370453.32388,-193285801.70488,66947127.35783,  -0.00024,  -0.00061,   0.00087,207469474.53853,   0.00000,274640135.82653,   0.00000,   0.00000,   0.00000,-267170661.28800,   0.00000
-137101709.14628,-194700146.79851,67459444.31126,  -0.00024,  -0.00062,   0.00088,208958447.53787,   0.00000,274640135.82653,   0.00000,   0.00000,   0.00000,-265681688.28866,   0.00000
-137832964.96869,-196114491.89215,67971761.26468,  -0.00024,  -0.00062,   0.00088,210447758.97980,   0.00000,274640135.82653,   0.00000,   0.00000,   0.00000,-264192376.84673,   0.00000
-138542326.90419,-197506943.09888,68484078.21810,  -0.00025,  -0.00063,   0.00089,211920042.34567,   0.00000,274640135.82653,   0.00000,   0.00000,   0.00000,-262720093.48086,   0.00000
-139273582.72660,-198921288.19252,69000773.94890,  -0.00025,  -0.00063,   0.00090,213414267.73099,   0.00000,274640135.82653,   0.00000,   0.00000,   0.00000,-261225868.09554,   0.00000
-140004838.54900,-200335633.28615,69517469.67970,  -0.00025,  -0.00064,   0.00090,214908814.52249,   0.00000,274640135.82653,   0.00000,   0.00000,   0.00000,-259731321.30404,   0.00000
-140736094.37141,-201749978.37979,70034165.41050,  -0.00025,  -0.00064,   0.00091,216403676.06100,   0.00000,274640135.82653,   0.00000,   0.00000,   0.00000,-258236459.76553,   0.00000
-141452024.47299,-203157755.30735,70550861.14131,  -0.00025,  -0.00065,   0.00092,217892048.99848,   0.00000,274640135.82653,   0.00000,   0.00000,   0.00000,-256748086.82805,   0.00000
-142176712.12932,-204556774.68016,71071935.64949,  -0.00025,  -0.00065,   0.00092,219381270.81076,   0.00000,274640135.82653,   0.00000,   0.00000,   0.00000,-255258865.01577,   0.00000
-142907967.95173,-205971119.77379,71593010.15767,  -0.00025,  -0.00066,   0.00093,220881308.87799,   0.00000,274640135.82653,   0.00000,   0.00000,   0.00000,-253758826.94854,   0.00000
-143639223.77413,-207385464.86743,72109705.88847,  -0.00025,  -0.00066,   0.00094,222377380.81712,   0.00000,274640135.82653,   0.00000,   0.00000,   0.00000,-252262755.00940,   0.00000
-144348585.70964,-208777916.07416,72630780.39665,  -0.00025,  -0.00067,   0.00094,223860729.71160,   0.00000,274640135.82653,   0.00000,   0.00000,   0.00000,-250779406.11492,   0.00000
-145079841.53205,-210192261.16780,73156233.68221,  -0.00025,  -0.00067,   0.00095,225365904.05829,   0.00000,274640135.82653,   0.00000,   0.00000,   0.00000,-249274231.76824,   0.00000
-145811097.35445,-211606606.26143,73677308.19039,  -0.00025,  -0.00068,   0.00096,226867092.55709,   0.00000,274640135.82653,   0.00000,   0.00000,   0.00000,-247773043.26944,   0.00000
-146520459.28996,-212999057.46817,74202761.47595,  -0.00025,  -0.00068,   0.00096,228355584.94654,   0.00000,274640135.82653,   0.00000,   0.00000,   0.00000,-246284550.87999,   0.00000
-147251715.11236,-214413402.56180,74723835.98414,  -0.00025,  -0.00069,   0.00097,229857322.10202,   0.00000,274640135.82653,   0.00000,   0.00000,   0.00000,-244782813.72451,   0.00000
-147976402.76870,-215812421.93461,75249289.26970,  -0.00025,  -0.00069,   0.00098,231353059.14067,   0.00000,274640135.82653,   0.00000,   0.00000,   0.00000,-243287076.68586,   0.00000
-148692332.87028,-217220198.86217,75774742.55526,  -0.00025,  -0.00070,   0.00099,232852917.87030,   0.00000,274640135.82653,   0.00000,   0.00000,   0.00000,-241787217.95623,   0.00000
-149417020.52661,-218619218.23498,76304574.61820,  -0.00025,  -0.00070,   0.00099,234353452.52244,   0.00000,274640135.82653,   0.00000,   0.00000,   0.00000,-240286683.30409,   0.00000
-150141708.18295,-220018237.60779,76830027.90376,  -0.00025,  -0.00071,   0.00100,235849958.56131,   0.00000,274640135.82653,   0.00000,   0.00000,   0.00000,-238790177.26522,   0.00000
-150872964.00536,-221432582.70142,77359859.96670,  -0.00025,  -0.00071,   0.00101,237361525.25685,   0.00000,274640135.82653,   0.00000,   0.00000,   0.00000,-237278610.56967,   0.00000
-151597651.66169,-222831602.07423,77885313.25226,  -0.00026,  -0.00072,   0.00101,238858513.23126,   0.00000,274640135.82653,   0.00000,   0.00000,   0.00000,-235781622.59527,   0.00000
-152307013.59720,-224224053.28096,78415145.31520,  -0.00026,  -0.00072,   0.00102,240353409.73902,   0.00000,274640135.82653,   0.00000,   0.00000,   0.00000,-234286726.08751,   0.00000
-153031701.25353,-225623072.65377,78949356.15552,  -0.00026,  -0.00073,   0.00103,241859447.53955,   0.00000,274640135.82653,   0.00000,   0.00000,   0.00000,-232780688.28698,   0.00000
-153756388.90987,-227022092.02657,79479188.21846,  -0.00026,  -0.00073,   0.00103,243361427.52201,   0.00000,274640135.82653,   0.00000,   0.00000,   0.00000,-231278708.30452,   0.00000
-154481076.56621,-228421111.39938,80009020.28140,  -0.00026,  -0.00074,   0.00104,244863631.29245,   0.00000,274640135.82653,   0.00000,   0.00000,   0.00000,-229776504.53408,   0.00000
-155205764.22254,-229820130.77219,80543231.12172,  -0.00026,  -0.00074,   0.00105,246370349.19894,   0.00000,274640135.82653,   0.00000,   0.00000,   0.00000,-228269786.62759,   0.00000
-155923883.71281,-231203824.42416,81077441.96204,  -0.00026,  -0.00075,   0.00105,247866743.41731,   0.00000,274640135.82653,   0.00000,   0.00000,   0.00000,-226773392.40922,   0.00000
-156663897.08997,-232609411.96304,81607274.02498,  -0.00026,  -0.00075,   0.00106,249376141.05731,   0.00000,274640135.82653,   0.00000,   0.00000,   0.00000,-225263994.76921,   0.00000
-157382016.58024,-233993105.61502,82141484.86530,  -0.00026,  -0.00076,   0.00107,250872948.71765,   0.00000,274640135.82653,   0.00000,   0.00000,   0.00000,-223767187.10888,   0.00000
-158106704.23658,-235392124.98782,82680074.48300,  -0.00026,  -0.00076,   0.00107,252384812.33091,   0.00000,274640135.82653,   0.00000,   0.00000,   0.00000,-222255323.49562,   0.00000
-158840149.44767,-236782386.80587,83214285.32332,  -0.00026,  -0.00077,   0.00108,253888546.24980,   0.00000,274640135.82653,   0.00000,   0.00000,   0.00000,-220751589.57673,   0.00000
-159558268.93794,-238166080.45784,83748496.16364,  -0.00026,  -0.00077,   0.00109,255385957.67691,   0.00000,274640135.82653,   0.00000,   0.00000,   0.00000,-219254178.14962,   0.00000
-160276388.42820,-239549774.10982,84287085.78134,  -0.00026,  -0.00078,   0.00110,256887875.94800,   0.00000,274640135.82653,   0.00000,   0.00000,   0.00000,-217752259.87853,   0.00000
-161009833.63930,-240940035.92787,84825675.39904,  -0.00026,  -0.00078,   0.00110,258396474.35752,   0.00000,274640135.82653,   0.00000,   0.00000,   0.00000,-216243661.46901,   0.00000
-161743278.85040,-242330297.74591,85364265.01674,  -0.00026,  -0.00079,   0.00111,259905247.66197,   0.00000,274640135.82653,   0.00000,   0.00000,   0.00000,-214734888.16456,   0.00000
-162476724.06149,-243720559.56396,85902854.63444,  -0.00026,  -0.00079,   0.00112,261414192.83309,   0.00000,274640135.82653,   0.00000,   0.00000,   0.00000,-213225942.99344,   0.00000
-163188275.38569,-245088927.49511,86441444.25214,  -0.00026,  -0.00080,   0.00112,262906306.62499,   0.00000,274640135.82653,   0.00000,   0.00000,   0.00000,-211733829.20154,   0.00000
-163921720.59678,-246479189.31316,86980033.86984,  -0.00027,  -0.00080,   0.00113,264415595.83422,   0.00000,274640135.82653,   0.00000,   0.00000,   0.00000,-210224539.99231,   0.00000
-164648597.64181,-247854125.41037,87518623.48754,  -0.00027,  -0.00081,   0.00114,265914502.03263,   0.00000,274640135.82653,   0.00000,   0.00000,   0.00000,-208725633.79390,   0.00000
-165390800.40766,-249235629.67366,88061591.88262,  -0.00027,  -0.00081,   0.00114,267424321.20356,   0.00000,274640135.82653,   0.00000,   0.00000,   0.00000,-207215814.62297,   0.00000
-166117677.45269,-250610565.77088,88604560.27770,  -0.00027,  -0.00082,   0.00115,268927866.93336,   0.00000,274640135.82653,   0.00000,   0.00000,   0.00000,-205712268.89317,   0.00000
-166844554.49772,-251985501.86810,89143149.89540,  -0.00027,  -0.00082,   0.00116,270427242.04121,   0.00000,274640135.82653,   0.00000,   0.00000,   0.00000,-204212893.78532,   0.00000
-167586757.26357,-253367006.13138,89686118.29048,  -0.00027,  -0.00083,   0.00117,271937502.91750,   0.00000,274640135.82653,   0.00000,   0.00000,   0.00000,-202702632.90903,   0.00000
-168307066.14253,-254726616.50777,90229086.68556,  -0.00027,  -0.00083,   0.00117,273430964.65195,   0.00000,274640135.82653,   0.00000,   0.00000,   0.00000,-201209171.17458,   0.00000
-169049268.90838,-256108120.77106,90772055.08064,  -0.00027,  -0.00084,   0.00118,274941506.89953,   0.00000,274640135.82653,   0.00000,   0.00000,   0.00000,-199698628.92700,   0.00000
-169784903.50817,-257474299.31352,91319402.25310,  -0.00027,  -0.00084,   0.00119,276445978.24001,   0.00000,274640135.82653,   0.00000,   0.00000,   0.00000,-198194157.58652,   0.00000
-170520538.10795,-258840477.85598,91862370.64818,  -0.00027,  -0.00085,   0.00119,277946244.35046,   0.00000,274640135.82653,   0.00000,   0.00000,   0.00000,-196693891.47607,   0.00000
-171256172.70774,-260206656.39843,92405339.04326,  -0.00027,  -0.00085,   0.00120,279446640.14402,   0.00000,274640135.82653,   0.00000,   0.00000,   0.00000,-195193495.68251,   0.00000
-171991807.30752,-261572834.94089,92952686.21572,  -0.00027,  -0.00085,   0.00121,280951509.62406,   0.00000,274640135.82653,   0.00000,   0.00000,   0.00000,-193688626.20247,   0.00000
-172736199.46207,-262930255.92859,93495654.61080,  -0.00027,  -0.00086,   0.00122,282447965.55806,   0.00000,274640135.82653,   0.00000,   0.00000,   0.00000,-192192170.26847,   0.00000
-173471834.06185,-264296434.47105,94043001.78326,  -0.00027,  -0.00086,   0.00122,283953083.82972,   0.00000,274640135.82653,   0.00000,   0.00000,   0.00000,-190687051.99681,   0.00000
-174216226.21640,-265653855.45875,94590348.95572,  -0.00027,  -0.00087,   0.00123,285454119.89672,   0.00000,274640135.82653,   0.00000,   0.00000,   0.00000,-189186015.92981,   0.00000
-174960618.37094,-267011276.44645,95137696.12818,  -0.00028,  -0.00087,   0.00124,286955267.18454,   0.00000,274640135.82653,   0.00000,   0.00000,   0.00000,-187684868.64199,   0.00000
-175705010.52549,-268368697.43415,95685043.30063,  -0.00028,  -0.00088,   0.00124,288456523.95676,   0.00000,274640135.82653,   0.00000,   0.00000,   0.00000,-186183611.86977,   0.00000
-176442834.51396,-269710792.70102,96232390.47309,  -0.00028,  -0.00088,   0.00125,289947353.35239,   0.00000,274640135.82653,   0.00000,   0.00000,   0.00000,-184692782.47414,   0.00000
-177187226.66851,-271068213.68871,96779737.64555,  -0.00028,  -0.00089,   0.00126,291448825.01325,   0.00000,274640135.82653,   0.00000,   0.00000,   0.00000,-183191310.81328,   0.00000
-177940376.37781,-272416877.12165,97327084.81801,  -0.00028,  -0.00089,   0.00127,292946164.26404,   0.00000,274640135.82653,   0.00000,   0.00000,   0.00000,-181693971.56249,   0.00000
-178678200.36628,-273758972.38852,97874431.99047,  -0.00028,  -0.00090,   0.00127,294437305.79059,   0.00000,274640135.82653,   0.00000,   0.00000,   0.00000,-180202830.03594,   0.00000
-179431350.07559,-275107635.82146,98426157.94031,  -0.00028,  -0.00090,   0.00128,295939202.98999,   0.00000,274640135.82653,   0.00000,   0.00000,   0.00000,-178700932.83654,   0.00000
-180184499.78489,-276456299.25440,98973505.11277,  -0.00028,  -0.00091,   0.00129,297436822.71964,   0.00000,274640135.82653,   0.00000,   0.00000,   0.00000,-177203313.10688,   0.00000
-180931081.32813,-277789636.96651,99520852.28523,  -0.00028,  -0.00091,   0.00129,298924002.57789,   0.00000,274640135.82653,   0.00000,   0.00000,   0.00000,-175716133.24863,   0.00000
-181677662.87136,-279122974.67862,100072578.23507,  -0.00028,  -0.00092,   0.00130,300415647.44595,   0.00000,274640135.82653,   0.00000,   0.00000,   0.00000,-174224488.38058,   0.00000
-182439570.13542,-280462880.55681,100624304.18491,  -0.00028,  -0.00092,   0.00131,301913644.16300,   0.00000,274640135.82653,   0.00000,   0.00000,   0.00000,-172726491.66353,   0.00000
-183201477.39949,-281802786.43499,101171651.35737,  -0.00028,  -0.00092,   0.00132,303407340.16966,   0.00000,274640135.82653,   0.00000,   0.00000,   0.00000,-171232795.65687,   0.00000
-183956816.49748,-283127366.59234,101723377.30721,  -0.00028,  -0.00093,   0.00132,304894971.26078,   0.00000,274640135.82653,   0.00000,   0.00000,   0.00000,-169745164.56575,   0.00000
-184718723.76154,-284467272.47052,102275103.25704,  -0.00029,  -0.00093,   0.00133,306393202.81453,   0.00000,274640135.82653,   0.00000,   0.00000,   0.00000,-168246933.01200,   0.00000
-185474062.85954,-285791852.62787,102822450.42950,  -0.00029,  -0.00094,   0.00134,307876605.02226,   0.00000,274640135.82653,   0.00000,   0.00000,   0.00000,-166763530.80427,   0.00000
-186244727.67836,-287123000.95129,103374176.37934,  -0.00029,  -0.00094,   0.00134,309370703.47274,   0.00000,274640135.82653,   0.00000,   0.00000,   0.00000,-165269432.35379,   0.00000
-186993498.61029,-288432255.38781,103925902.32918,  -0.00029,  -0.00095,   0.00135,310848126.01719,   0.00000,274640135.82653,   0.00000,   0.00000,   0.00000,-163792009.80934,   0.00000
-187764163.42911,-289763403.71123,104477628.27902,  -0.00029,  -0.00095,   0.00136,312342364.30681,   0.00000,274640135.82653,   0.00000,   0.00000,   0.00000,-162297771.51972,   0.00000
-188528260.08186,-291079226.31382,105029354.22886,  -0.00029,  -0.00096,   0.00137,313826156.50583,   0.00000,274640135.82653,   0.00000,   0.00000,   0.00000,-160813979.32070,   0.00000
-189307682.45544,-292401617.08249,105581080.17870,  -0.00029,  -0.00096,   0.00137,315316230.64488,   0.00000,274640135.82653,   0.00000,   0.00000,   0.00000,-159323905.18165,   0.00000
-190065210.94213,-293702113.96425,106132806.12854,  -0.00029,  -0.00097,   0.00138,316789645.54248,   0.00000,274640135.82653,   0.00000,   0.00000,   0.00000,-157850490.28404,   0.00000
-190844633.31571,-295024504.73291,106684532.07838,  -0.00029,  -0.00097,   0.00139,318279841.00120,   0.00000,274640135.82653,   0.00000,   0.00000,   0.00000,-156360294.82533,   0.00000
-191617487.52322,-296331569.78074,107236258.02821,  -0.00029,  -0.00097,   0.00139,319759589.38852,   0.00000,274640135.82653,   0.00000,   0.00000,   0.00000,-154880546.43801,   0.00000
-192390341.73073,-297638634.82858,107787983.97805,  -0.00029,  -0.00098,   0.00140,321239397.23687,   0.00000,274640135.82653,   0.00000,   0.00000,   0.00000,-153400738.58966,   0.00000
-193171953.49301,-298936942.32165,108339709.92789,  -0.00030,  -0.00098,   0.00141,322714958.16463,   0.00000,274640135.82653,   0.00000,   0.00000,   0.00000,-151925177.66189,   0.00000
-193960133.42135,-300250575.53555,108891435.87773,  -0.00030,  -0.00099,   0.00142,324201070.63069,   0.00000,274640135.82653,   0.00000,   0.00000,   0.00000,-150439065.19584,   0.00000
-194741745.18362,-301548883.02862,109443161.82757,  -0.00030,  -0.00099,   0.00142,325676737.64986,   0.00000,274640135.82653,   0.00000,   0.00000,   0.00000,-148963398.17667,   0.00000
-195523356.94589,-302847190.52170,109999266.55479,  -0.00030,  -0.00100,   0.00143,327156874.47097,   0.00000,274640135.82653,   0.00000,   0.00000,   0.00000,-147483261.35556,   0.00000
-196298400.54209,-304130172.29394,110550992.50463,  -0.00030,  -0.00100,   0.00144,328622158.72992,   0.00000,274640135.82653,   0.00000,   0.00000,   0.00000,-146017977.09661,   0.00000
-197095338.02519,-305435047.95309,111102718.45447,  -0.00030,  -0.00101,   0.00144,330104163.73053,   0.00000,274640135.82653,   0.00000,   0.00000,   0.00000,-144535972.09600,   0.00000
-197885707.34222,-306724597.89140,111654444.40431,  -0.00030,  -0.00101,   0.00145,331575727.36055,   0.00000,274640135.82653,   0.00000,   0.00000,   0.00000,-143064408.46598,   0.00000
-198669508.49319,-307998822.10888,112206170.35414,  -0.00030,  -0.00101,   0.00146,333036855.94415,   0.00000,274640135.82653,   0.00000,   0.00000,   0.00000,-141603279.88238,   0.00000
-199475203.53105,-309294940.21327,112757896.30398,  -0.00030,  -0.00102,   0.00147,334514686.15267,   0.00000,274640135.82653,   0.00000,   0.00000,   0.00000,-140125449.67386,   0.00000
-200274330.40284,-310575732.59682,113309622.25382,  -0.00031,  -0.00102,   0.00147,335982079.42846,   0.00000,274640135.82653,   0.00000,   0.00000,   0.00000,-138658056.39807,   0.00000
-201073457.27463,-311856524.98038,113861348.20366,  -0.00031,  -0.00103,   0.00148,337449518.57429,   0.00000,274640135.82653,   0.00000,   0.00000,   0.00000,-137190617.25224,   0.00000
-201866015.98035,-313121991.64310,114413074.15350,  -0.00031,  -0.00103,   0.00149,338906529.44619,   0.00000,274640135.82653,   0.00000,   0.00000,   0.00000,-135733606.38034,   0.00000
-202680468.57297,-314409352.19273,114964800.10334,  -0.00031,  -0.00104,   0.00149,340380219.82698,   0.00000,274640135.82653,   0.00000,   0.00000,   0.00000,-134259915.99955,   0.00000
-203473027.27869,-315674818.85545,115516526.05318,  -0.00031,  -0.00104,   0.00150,341837324.52058,   0.00000,274640135.82653,   0.00000,   0.00000,   0.00000,-132802811.30595,   0.00000
-204289669.26000,-316938096.12949,116068252.00302,  -0.00031,  -0.00104,   0.00151,343296321.38936,   0.00000,274640135.82653,   0.00000,   0.00000,   0.00000,-131343814.43717,   0.00000
-205097553.68655,-318210130.95828,116619977.95286,  -0.00031,  -0.00105,   0.00152,344759673.29148,   0.00000,274640135.82653,   0.00000,   0.00000,   0.00000,-129880462.53505,   0.00000
-205914195.66786,-319473408.23232,117171703.90269,  -0.00031,  -0.00105,   0.00152,346218759.22323,   0.00000,274640135.82653,   0.00000,   0.00000,   0.00000,-128421376.60330,   0.00000
-206724269.48310,-320721359.78553,117723429.85253,  -0.00032,  -0.00106,   0.00153,347667431.91654,   0.00000,274640135.82653,   0.00000,   0.00000,   0.00000,-126972703.90999,   0.00000
-207540911.46441,-321984637.05956,118270777.02499,  -0.00032,  -0.00106,   0.00154,349122158.38480,   0.00000,274640135.82653,   0.00000,   0.00000,   0.00000,-125517977.44173,   0.00000
-208366311.00047,-323239156.77884,118822502.97483,  -0.00032,  -0.00106,   0.00154,350577071.42045,   0.00000,274640135.82653,   0.00000,   0.00000,   0.00000,-124063064.40607,   0.00000
-209191710.53654,-324493676.49812,119374228.92467,  -0.00032,  -0.00107,   0.00155,352032030.06774,   0.00000,274640135.82653,   0.00000,   0.00000,   0.00000,-122608105.75879,   0.00000
-210010541.90654,-325732870.49656,119921576.09713,  -0.00032,  -0.00107,   0.00156,353472130.76127,   0.00000,274640135.82653,   0.00000,   0.00000,   0.00000,-121168005.06526,   0.00000
-210835941.44261,-326987390.21584,120473302.04697,  -0.00032,  -0.00108,   0.00157,354927179.61075,   0.00000,274640135.82653,   0.00000,   0.00000,   0.00000,-119712956.21578,   0.00000
-211663530.36737,-328217826.65953,121020649.21943,  -0.00032,  -0.00108,   0.00157,356363074.00865,   0.00000,274640135.82653,   0.00000,   0.00000,   0.00000,-118277061.81788,   0.00000
-212497687.45820,-329463588.82405,121572375.16927,  -0.00032,  -0.00108,   0.00158,357813918.15021,   0.00000,274640135.82653,   0.00000,   0.00000,   0.00000,-116826217.67632,   0.00000
-213340602.10378,-330700593.43380,122119722.34173,  -0.00033,  -0.00109,   0.00159,359256052.19494,   0.00000,274640135.82653,   0.00000,   0.00000,   0.00000,-115384083.63159,   0.00000
-214183516.74937,-331937598.04356,122667069.51419,  -0.00033,  -0.00109,   0.00159,360698233.40480,   0.00000,274640135.82653,   0.00000,   0.00000,   0.00000,-113941902.42173,   0.00000
-215026431.39496,-333174602.65332,123214416.68664,  -0.00033,  -0.00110,   0.00160,362140461.21631,   0.00000,274640135.82653,   0.00000,   0.00000,   0.00000,-112499674.61022,   0.00000
-215862777.87448,-334396281.54225,123761763.85910,  -0.00033,  -0.00110,   0.00161,363572309.61243,   0.00000,274640135.82653,   0.00000,   0.00000,   0.00000,-111067826.21410,   0.00000
-216714450.07482,-335624528.59725,124309111.03156,  -0.00033,  -0.00110,   0.00162,365010352.15067,   0.00000,274640135.82653,   0.00000,   0.00000,   0.00000,-109629783.67586,   0.00000
-217559554.10910,-336837449.93142,124856458.20402,  -0.00033,  -0.00111,   0.00162,366438026.56368,   0.00000,274640135.82653,   0.00000,   0.00000,   0.00000,-108202109.26285,   0.00000
-218404658.14338,-338050371.26559,125403805.37648,  -0.00033,  -0.00111,   0.00163,367865757.64636,   0.00000,274640135.82653,   0.00000,   0.00000,   0.00000,-106774378.18017,   0.00000
-219265087.89848,-339269860.76583,125951152.54894,  -0.00034,  -0.00112,   0.00164,369299688.38098,   0.00000,274640135.82653,   0.00000,   0.00000,   0.00000,-105340447.44555,   0.00000
-220125517.65359,-340489350.26607,126494120.94402,  -0.00034,  -0.00112,   0.00164,370729193.05636,   0.00000,274640135.82653,   0.00000,   0.00000,   0.00000,-103910942.77017,   0.00000
-220994704.96345,-341700082.21155,127041468.11648,  -0.00034,  -0.00112,   0.00165,372158972.50302,   0.00000,274640135.82653,   0.00000,   0.00000,   0.00000,-102481163.32351,   0.00000
-221848566.55249,-342904245.99096,127584436.51156,  -0.00034,  -0.00113,   0.00166,373578182.28864,   0.00000,274640135.82653,   0.00000,   0.00000,   0.00000,-101061953.53789,   0.00000
-222726511.41711,-344106220.38168,128131783.68402,  -0.00034,  -0.00113,   0.00167,375003831.63510,   0.00000,274640135.82653,   0.00000,   0.00000,   0.00000,-99636304.19143,   0.00000
-223589130.56091,-345301626.60633,128674752.07910,  -0.00034,  -0.00114,   0.00167,376418912.43086,   0.00000,274640135.82653,   0.00000,   0.00000,   0.00000,-98221223.39567,   0.00000
-224467075.42554,-346503600.99705,129217720.47418,  -0.00035,  -0.00114,   0.00168,377840206.12875,   0.00000,274640135.82653,   0.00000,   0.00000,   0.00000,-96799929.69778,   0.00000
-225338452.12409,-347690249.66694,129760688.86926,  -0.00035,  -0.00114,   0.00169,379251175.56578,   0.00000,274640135.82653,   0.00000,   0.00000,   0.00000,-95388960.26075,   0.00000
-226225154.54347,-348883466.50290,130299278.48696,  -0.00035,  -0.00115,   0.00169,380663872.12695,   0.00000,274640135.82653,   0.00000,   0.00000,   0.00000,-93976263.69958,   0.00000
-227111856.96286,-350076683.33886,130842246.88204,  -0.00035,  -0.00115,   0.00170,382081136.49536,   0.00000,274640135.82653,   0.00000,   0.00000,   0.00000,-92558999.33117,   0.00000
-227991991.21617,-351254574.45399,131380836.49974,  -0.00035,  -0.00115,   0.00171,383483594.01430,   0.00000,274640135.82653,   0.00000,   0.00000,   0.00000,-91156541.81222,   0.00000
-228887451.19032,-352439033.73520,131923804.89482,  -0.00035,  -0.00116,   0.00172,384896786.91144,   0.00000,274640135.82653,   0.00000,   0.00000,   0.00000,-89743348.91509,   0.00000
-229776342.99839,-353608167.29557,132462394.51252,  -0.00036,  -0.00116,   0.00172,386295185.22016,   0.00000,274640135.82653,   0.00000,   0.00000,   0.00000,-88344950.60637,   0.00000
-230671802.97253,-354792626.57677,133000984.13022,  -0.00036,  -0.00116,   0.00173,387704035.37342,   0.00000,274640135.82653,   0.00000,   0.00000,   0.00000,-86936100.45311,   0.00000
-231569452.33537,-355953002.58238,133539573.74792,  -0.00036,  -0.00117,   0.00174,389098397.20501,   0.00000,274640135.82653,   0.00000,   0.00000,   0.00000,-85541738.62152,   0.00000
-232473669.86427,-357128704.30883,134078163.36562,  -0.00036,  -0.00117,   0.00174,390503213.54812,   0.00000,274640135.82653,   0.00000,   0.00000,   0.00000,-84136922.27841,   0.00000
-233386644.94793,-358295648.48051,134612374.20594,  -0.00036,  -0.00118,   0.00175,391899416.08771,   0.00000,274640135.82653,   0.00000,   0.00000,   0.00000,-82740719.73882,   0.00000
-234293051.86552,-359447266.93136,135146585.04626,  -0.00037,  -0.00118,   0.00176,393285358.29829,   0.00000,274640135.82653,   0.00000,   0.00000,   0.00000,-81354777.52824,   0.00000
-235206026.94919,-360614211.10305,135685174.66396,  -0.00037,  -0.00118,   0.00176,394686265.75864,   0.00000,274640135.82653,   0.00000,   0.00000,   0.00000,-79953870.06789,   0.00000
-236121191.42154,-361757071.99914,136219385.50428,  -0.00037,  -0.00119,   0.00177,396068236.91834,   0.00000,274640135.82653,   0.00000,   0.00000,   0.00000,-78571898.90819,   0.00000
-237042924.05996,-362915258.61607,136753596.34460,  -0.00037,  -0.00119,   0.00178,397460660.98983,   0.00000,274640135.82653,   0.00000,   0.00000,   0.00000,-77179474.83670,   0.00000
-237958088.53231,-364058119.51216,137283428.40754,  -0.00037,  -0.00119,   0.00178,398838327.13630,   0.00000,274640135.82653,   0.00000,   0.00000,   0.00000,-75801808.69023,   0.00000
-238888578.72549,-365207548.57432,137817639.24786,  -0.00037,  -0.00120,   0.00179,400226809.97900,   0.00000,274640135.82653,   0.00000,   0.00000,   0.00000,-74413325.84753,   0.00000
-239812500.75260,-366341651.91566,138347471.31080,  -0.00038,  -0.00120,   0.00180,401600550.57738,   0.00000,274640135.82653,   0.00000,   0.00000,   0.00000,-73039585.24915,   0.00000
-240751748.50054,-367482323.42307,138877303.37374,  -0.00038,  -0.00120,   0.00181,402980603.38486,   0.00000,274640135.82653,   0.00000,   0.00000,   0.00000,-71659532.44167,   0.00000
-241684428.08241,-368607669.20964,139407135.43668,  -0.00038,  -0.00121,   0.00181,404350455.78056,   0.00000,274640135.82653,   0.00000,   0.00000,   0.00000,-70289680.04597,   0.00000
-242632433.38511,-369739583.16229,139936967.49962,  -0.00038,  -0.00121,   0.00182,405726640.63986,   0.00000,274640135.82653,   0.00000,   0.00000,   0.00000,-68913495.18667,   0.00000
-243580438.68781,-370871497.11493,140462420.78518,  -0.00039,  -0.00121,   0.00183,407098428.48881,   0.00000,274640135.82653,   0.00000,   0.00000,   0.00000,-67541707.33772,   0.00000
-244521875.82444,-371988085.34675,140987874.07074,  -0.00039,  -0.00122,   0.00183,408460035.85207,   0.00000,274640135.82653,   0.00000,   0.00000,   0.00000,-66180099.97446,   0.00000
-245478638.68190,-373111241.74464,141517706.13368,  -0.00039,  -0.00122,   0.00184,409832532.27748,   0.00000,274640135.82653,   0.00000,   0.00000,   0.00000,-64807603.54905,   0.00000
-246428833.37329,-374219072.42169,142038780.64186,  -0.00039,  -0.00122,   0.00185,411185797.73339,   0.00000,274640135.82653,   0.00000,   0.00000,   0.00000,-63454338.09314,   0.00000
-247394353.78551,-375333471.26482,142564233.92742,  -0.00039,  -0.00123,   0.00185,412549974.84542,   0.00000,274640135.82653,   0.00000,   0.00000,   0.00000,-62090160.98111,   0.00000
-248359874.19773,-376447870.10795,143085308.43561,  -0.00040,  -0.00123,   0.00186,413909768.94566,   0.00000,274640135.82653,   0.00000,   0.00000,   0.00000,-60730366.88087,   0.00000
-249318826.44387,-377546943.23025,143610761.72117,  -0.00040,  -0.00123,   0.00187,415263968.33173,   0.00000,274640135.82653,   0.00000,   0.00000,   0.00000,-59376167.49480,   0.00000
-250293104.41085,-378652584.51861,144127457.45197,  -0.00040,  -0.00123,   0.00187,416615480.96608,   0.00000,274640135.82653,   0.00000,   0.00000,   0.00000,-58024654.86045,   0.00000
-251260814.21176,-379742900.08615,144648531.96015,  -0.00040,  -0.00124,   0.00188,417961421.72705,   0.00000,274640135.82653,   0.00000,   0.00000,   0.00000,-56678714.09948,   0.00000
-252243849.73350,-380839783.81976,145169606.46833,  -0.00041,  -0.00124,   0.00189,419313786.31330,   0.00000,274640135.82653,   0.00000,   0.00000,   0.00000,-55326349.51323,   0.00000
-253226885.25523,-381936667.55337,145686302.19913,  -0.00041,  -0.00124,   0.00189,420661784.20901,   0.00000,274640135.82653,   0.00000,   0.00000,   0.00000,-53978351.61752,   0.00000
-254218678.33173,-383024793.73222,146202997.92993,  -0.00041,  -0.00125,   0.00190,422005950.20278,   0.00000,274640135.82653,   0.00000,   0.00000,   0.00000,-52634185.62375,   0.00000
-255210471.40823,-384112919.91107,146715314.88335,  -0.00041,  -0.00125,   0.00191,423345758.75812,   0.00000,274640135.82653,   0.00000,   0.00000,   0.00000,-51294377.06841,   0.00000
-256211022.03948,-385192288.53516,147232010.61416,  -0.00041,  -0.00125,   0.00191,424686321.75125,   0.00000,274640135.82653,   0.00000,   0.00000,   0.00000,-49953814.07528,   0.00000
-257196246.94991,-386265088.99318,147744327.56758,  -0.00042,  -0.00126,   0.00192,426016262.82150,   0.00000,274640135.82653,   0.00000,   0.00000,   0.00000,-48623873.00503,   0.00000
-258205555.13592,-387335700.06251,148256644.52100,  -0.00042,  -0.00126,   0.00193,427348712.08562,   0.00000,274640135.82653,   0.00000,   0.00000,   0.00000,-47291423.74091,   0.00000
-259214863.32194,-388406311.13184,148764582.69704,  -0.00042,  -0.00126,   0.00193,428676827.26701,   0.00000,274640135.82653,   0.00000,   0.00000,   0.00000,-45963308.55952,   0.00000
-260224171.50795,-389476922.20117,149276899.65046,  -0.00042,  -0.00126,   0.00194,430009722.29799,   0.00000,274640135.82653,   0.00000,   0.00000,   0.00000,-44630413.52854,   0.00000
-261242237.24873,-390538775.71574,149784837.82651,  -0.00043,  -0.00127,   0.00195,431334338.17405,   0.00000,274640135.82653,   0.00000,   0.00000,   0.00000,-43305797.65248,   0.00000
-262253734.82343,-391585303.50948,150288397.22517,  -0.00043,  -0.00127,   0.00195,432644392.11395,   0.00000,274640135.82653,   0.00000,   0.00000,   0.00000,-41995743.71258,   0.00000
-263280558.11896,-392638399.46929,150796335.40121,  -0.00043,  -0.00127,   0.00196,433965565.89358,   0.00000,274640135.82653,   0.00000,   0.00000,   0.00000,-40674569.93295,   0.00000
-264307381.41450,-393691495.42910,151299894.79987,  -0.00043,  -0.00128,   0.00197,435282427.51199,   0.00000,274640135.82653,   0.00000,   0.00000,   0.00000,-39357708.31454,   0.00000
-265334204.71003,-394744591.38892,151803454.19854,  -0.00044,  -0.00128,   0.00197,436599537.92917,   0.00000,274640135.82653,   0.00000,   0.00000,   0.00000,-38040597.89736,   0.00000
-266378543.11508,-395780172.23921,152302634.81982,  -0.00044,  -0.00128,   0.00198,437904561.53604,   0.00000,274640135.82653,   0.00000,   0.00000,   0.00000,-36735574.29049,   0.00000
-267414123.96538,-396824510.64426,152806194.21848,  -0.00044,  -0.00128,   0.00199,439218312.50178,   0.00000,274640135.82653,   0.00000,   0.00000,   0.00000,-35421823.32475,   0.00000
-268458462.37043,-397860091.49455,153300996.06238,  -0.00045,  -0.00129,   0.00199,440519325.57190,   0.00000,274640135.82653,   0.00000,   0.00000,   0.00000,-34120810.25463,   0.00000
-269511558.33024,-398886914.79009,153800176.68367,  -0.00045,  -0.00129,   0.00200,441821343.87726,   0.00000,274640135.82653,   0.00000,   0.00000,   0.00000,-32818791.94926,   0.00000
-270549328.56922,-399907169.91955,154294978.52757,  -0.00045,  -0.00129,   0.00201,443112726.77169,   0.00000,274640135.82653,   0.00000,   0.00000,   0.00000,-31527409.05484,   0.00000
-271617750.24986,-400940561.38115,154789780.37147,  -0.00045,  -0.00129,   0.00201,444417136.33422,   0.00000,274640135.82653,   0.00000,   0.00000,   0.00000,-30222999.49230,   0.00000
-272679603.76443,-401958627.12193,155284582.21538,  -0.00046,  -0.00130,   0.00202,445711666.29895,   0.00000,274640135.82653,   0.00000,   0.00000,   0.00000,-28928469.52758,   0.00000
-273741457.27901,-402976692.86270,155775005.28190,  -0.00046,  -0.00130,   0.00203,447001935.21037,   0.00000,274640135.82653,   0.00000,   0.00000,   0.00000,-27638200.61616,   0.00000
-274812068.34834,-403986001.04872,156265428.34842,  -0.00046,  -0.00130,   0.00203,448288730.29779,   0.00000,274640135.82653,   0.00000,   0.00000,   0.00000,-26351405.52874,   0.00000
-275882679.41767,-404995309.23473,156755851.41495,  -0.00047,  -0.00130,   0.00204,449575859.11614,   0.00000,274640135.82653,   0.00000,   0.00000,   0.00000,-25064276.71039,   0.00000
-276962048.04176,-405995859.86599,157241895.70409,  -0.00047,  -0.00131,   0.00204,450854977.49575,   0.00000,274640135.82653,   0.00000,   0.00000,   0.00000,-23785158.33077,   0.00000
-278041416.66585,-406996410.49724,157727939.99323,  -0.00047,  -0.00131,   0.00205,452134446.98469,   0.00000,274640135.82653,   0.00000,   0.00000,   0.00000,-22505688.84184,   0.00000
-279136111.01076,-408003529.29457,158213984.28238,  -0.00047,  -0.00131,   0.00206,453420692.52362,   0.00000,274640135.82653,   0.00000,   0.00000,   0.00000,-21219443.30291,   0.00000
-280224237.18961,-408995322.37106,158695649.79414,  -0.00048,  -0.00131,   0.00206,454692558.10395,   0.00000,274640135.82653,   0.00000,   0.00000,   0.00000,-19947577.72258,   0.00000
-281321120.92322,-409978357.89280,159177315.30591,  -0.00048,  -0.00132,   0.00207,455961082.70915,   0.00000,274640135.82653,   0.00000,   0.00000,   0.00000,-18679053.11738,   0.00000
-282433330.37766,-410967961.58061,159654602.04029,  -0.00048,  -0.00132,   0.00208,457231863.87667,   0.00000,274640135.82653,   0.00000,   0.00000,   0.00000,-17408271.94985,   0.00000
-283530214.11127,-411950997.10234,160131888.77468,  -0.00049,  -0.00132,   0.00208,458496583.76421,   0.00000,274640135.82653,   0.00000,   0.00000,   0.00000,-16143552.06232,   0.00000
-284651181.12046,-412931843.23539,160609175.50906,  -0.00049,  -0.00132,   0.00209,459764490.73950,   0.00000,274640135.82653,   0.00000,   0.00000,   0.00000,-14875645.08703,   0.00000
-285750254.24276,-413890795.48154,161082083.46607,  -0.00049,  -0.00133,   0.00209,461011617.19404,   0.00000,274640135.82653,   0.00000,   0.00000,   0.00000,-13628518.63249,   0.00000
-286879978.80672,-414862884.05983,161554991.42307,  -0.00050,  -0.00133,   0.00210,462272133.25586,   0.00000,274640135.82653,   0.00000,   0.00000,   0.00000,-12368002.57066,   0.00000
-287994377.64984,-415828404.47205,162027899.38007,  -0.00050,  -0.00133,   0.00211,463526592.01085,   0.00000,274640135.82653,   0.00000,   0.00000,   0.00000,-11113543.81568,   0.00000
-289132859.76856,-416791735.49557,162496428.55970,  -0.00050,  -0.00133,   0.00211,464779778.87124,   0.00000,274640135.82653,   0.00000,   0.00000,   0.00000,-9860356.95529,   0.00000
-290256016.16645,-417748498.35303,162964957.73932,  -0.00051,  -0.00133,   0.00212,466026909.37166,   0.00000,274640135.82653,   0.00000,   0.00000,   0.00000,-8613226.45487,   0.00000
-291403255.83992,-418703071.82180,163429108.14157,  -0.00051,  -0.00134,   0.00212,467272834.29696,   0.00000,274640135.82653,   0.00000,   0.00000,   0.00000,-7367301.52957,   0.00000
-292535169.79257,-419651077.12450,163893258.54382,  -0.00051,  -0.00134,   0.00213,468512703.76095,   0.00000,274640135.82653,   0.00000,   0.00000,   0.00000,-6127432.06557,   0.00000
-293691167.02080,-420596893.03851,164357408.94606,  -0.00052,  -0.00134,   0.00214,469756031.66354,   0.00000,274640135.82653,   0.00000,   0.00000,   0.00000,-4884104.16299,   0.00000
-294831838.52821,-421536140.78645,164817180.57093,  -0.00052,  -0.00134,   0.00214,470988709.67248,   0.00000,274640135.82653,   0.00000,   0.00000,   0.00000,-3651426.15405,   0.00000
-295996593.31120,-422473199.14570,165276952.19579,  -0.00052,  -0.00135,   0.00215,472224917.08636,   0.00000,274640135.82653,   0.00000,   0.00000,   0.00000,-2415218.74017,   0.00000
-297161348.09419,-423410257.50495,165732345.04328,  -0.00053,  -0.00135,   0.00215,473457052.56667,   0.00000,274640135.82653,   0.00000,   0.00000,   0.00000,-1183083.25986,   0.00000
-298282130.81135,-424302222.57853,166173030.87536,  -0.00053,  -0.00135,   0.00216,474640140.69465,   0.00000,274640135.82653,   0.00000,   0.00000,   0.00000,  -4.46131,   0.00000
-298297743.26882,-424298665.69144,166172527.92779,  -0.00053,  -0.00135,   0.00216,474640383.88322,   0.00000,274640386.75625,  -0.00000,  -0.00000,   0.00000,  -2.87303,   1.00000
-298794225.10104,-424193818.59815,166151694.31125,  -0.00053,  -0.00135,   0.00217,474648162.26067,   0.00001,274648169.08889,  -0.00000,  -0.00000,   0.00001,  -6.82822,   1.00000
-299288013.22623,-424081951.31126,166134518.66747,  -0.00054,  -0.00135,   0.00217,474655882.20777,   0.00001,274655889.24062,  -0.00000,  -0.00001,   0.00001,  -7.03285,   1.00000
-299791731.86097,-423970877.57390,166114574.04057,  -0.00054,  -0.00135,   0.00218,474663648.28426,   0.00002,274663653.21756,  -0.00000,  -0.00001,   0.00002,  -4.93330,   1.00000
-300296262.89816,-423863459.07586,166091804.32844,  -0.00054,  -0.00136,   0.00218,474671388.54792,   0.00003,274671389.82102,  -0.00000,  -0.00001,   0.00002,  -1.27309,   1.00000
-300809680.39715,-423749944.24532,166070123.17981,  -0.00055,  -0.00136,   0.00219,474679103.40637,   0.00004,274679106.68385,  -0.00001,  -0.00002,   0.00003,  -3.27748,   1.00000
-301334502.51286,-423634173.91968,166046910.01751,  -0.00055,  -0.00136,   0.00220,474686772.14648,   0.00004,274686774.85997,  -0.00001,  -0.00002,   0.00004,  -2.71349,   1.00000
-301857506.34645,-423518150.88811,166023454.50997,  -0.00056,  -0.00136,   0.00220,474694436.12929,   0.00005,274694445.26164,  -0.00001,  -0.00002,   0.00004,  -9.13234,   1.00000
-302380340.03341,-423398893.05662,166001021.49137,  -0.00056,  -0.00136,   0.00221,474702021.10018,   0.00006,274702024.95246,  -0.00001,  -0.00003,   0.00005,  -3.85228,   1.00000
-302912899.69748,-423280311.82370,165975766.38171,  -0.00056,  -0.00137,   0.00221,474709643.48676,   0.00006,274709649.37851,  -0.00001,  -0.00003,   0.00005,  -5.89175,   1.00000
-303454209.03189,-423155517.24272,165951540.21374,  -0.00057,  -0.00137,   0.00222,474717249.59990,   0.00007,274717255.09725,  -0.00001,  -0.00003,   0.00006,  -5.49735,   1.00000
-303996218.24099,-423034303.02082,165924451.53747,  -0.00057,  -0.00137,   0.00222,474724830.59834,   0.00008,274724834.16268,  -0.00001,  -0.00004,   0.00007,  -3.56434,   1.00000
-304550413.96642,-422917553.25671,165891915.39514,  -0.00057,  -0.00137,   0.00223,474732428.17630,   0.00008,274732429.19372,  -0.00001,  -0.00004,   0.00007,  -1.01742,   1.00000
-305101786.66553,-422793599.21584,165862978.73656,  -0.00058,  -0.00137,   0.00224,474739958.71316,   0.00009,274739963.34639,  -0.00001,  -0.00004,   0.00008,  -4.63323,   1.00000
-305661810.40379,-422663328.65453,165835028.07919,  -0.00058,  -0.00137,   0.00224,474747472.99474,   0.00010,274747479.58501,  -0.00002,  -0.00005,   0.00008,  -6.59026,   1.00000
-306222482.14596,-422536593.69781,165804199.10207,  -0.00059,  -0.00137,   0.00225,474754962.46524,   0.00010,274754969.52387,  -0.00002,  -0.00005,   0.00009,  -7.05864,   1.00000
-306794365.29681,-422407327.40316,165771727.25058,  -0.00059,  -0.00138,   0.00225,474762405.40012,   0.00011,274762412.88002,  -0.00002,  -0.00005,   0.00010,  -7.47991,   1.00000
-307364253.13427,-422277725.07418,165738982.11027,  -0.00059,  -0.00138,   0.00226,474769853.91745,   0.00012,274769859.13852,  -0.00002,  -0.00006,   0.00010,  -5.22107,   1.00000
-307942690.95797,-422141699.74539,165707178.40267,  -0.00060,  -0.00138,   0.00226,474777286.22557,   0.00012,274777288.30483,  -0.00002,  -0.00006,   0.00011,  -2.07926,   1.00000
-308521719.70675,-422009156.30596,165672476.41554,  -0.00060,  -0.00138,   0.00227,474784685.12194,   0.00013,274784691.59556,  -0.00002,  -0.00006,   0.00011,  -6.47361,   1.00000
-309112699.30377,-421880911.04953,165632254.18112,  -0.00061,  -0.00138,   0.00227,474792109.93334,   0.00014,274792112.16432,  -0.00002,  -0.00007,   0.00012,  -2.23098,   1.00000
-309711308.72860,-421739184.61588,165596773.30927,  -0.00061,  -0.00138,   0.00228,474799445.84704,   0.00015,274799453.30814,  -0.00002,  -0.00007,   0.00013,  -7.46110,   1.00000
-310308600.80562,-421604025.97474,165557159.99882,  -0.00061,  -0.00138,   0.00228,474806852.03401,   0.00015,274806860.81680,  -0.00002,  -0.00007,   0.00013,  -8.78280,   1.00000
-310904867.11578,-421458386.88038,165522303.68015,  -0.00062,  -0.00139,   0.00229,474814114.73015,   0.00016,274814116.82377,  -0.00003,  -0.00007,   0.00014,  -2.09363,   1.00000
-311513730.10322,-421323916.20198,165478042.71303,  -0.00062,  -0.00139,   0.00229,474821450.17809,   0.00017,274821453.92543,  -0.00003,  -0.00008,   0.00014,  -3.74734,   1.00000
-312130926.15627,-421182806.28269,165434648.28525,  -0.00063,  -0.00139,   0.00230,474828769.68968,   0.00017,274828775.38590,  -0.00003,  -0.00008,   0.00015,  -5.69623,   1.00000
-312745176.66721,-421034280.37255,165394766.80027,  -0.00063,  -0.00139,   0.00230,474836031.73530,   0.00018,274836037.75093,  -0.00003,  -0.00008,   0.00015,  -6.01563,   1.00000
-313370388.69269,-420882889.35436,165353093.75087,  -0.00064,  -0.00139,   0.00231,474843247.04954,   0.00019,274843256.24315,  -0.00003,  -0.00009,   0.00016,  -9.19361,   1.00000
-313996787.57201,-420741869.76086,165304668.72889,  -0.00064,  -0.00139,   0.00232,474850511.82889,   0.00019,274850512.34479,  -0.00003,  -0.00009,   0.00017,  -0.51590,   1.00000
-314630688.52315,-420587080.59986,165260868.08762,  -0.00064,  -0.00139,   0.00232,474857687.45827,   0.00020,274857691.22963,  -0.00003,  -0.00009,   0.00017,  -3.77136,   1.00000
-315265722.09153,-420442646.01167,165210307.88905,  -0.00065,  -0.00139,   0.00233,474864904.17447,   0.00020,274864907.87623,  -0.00003,  -0.00010,   0.00018,  -3.70176,   1.00000
-315908229.74447,-420284374.60176,165164344.79727,  -0.00065,  -0.00140,   0.00233,474872040.40868,   0.00021,274872047.82487,  -0.00004,  -0.00010,   0.00018,  -7.41619,   1.00000
-316562252.33465,-420130100.59811,165112716.85487,  -0.00066,  -0.00140,   0.00234,474879203.49752,   0.00022,274879207.58339,  -0.00004,  -0.00010,   0.00019,  -4.08587,   1.00000
-317213914.86606,-419975301.04412,165060744.99069,  -0.00066,  -0.00140,   0.00234,474886365.87202,   0.00022,274886371.72842,  -0.00004,  -0.00011,   0.00019,  -5.85640,   1.00000
-317876354.71283,-419817395.03144,165006896.92167,  -0.00067,  -0.00140,   0.00235,474893490.13650,   0.00023,274893493.65615,  -0.00004,  -0.00011,   0.00020,  -3.51965,   1.00000
-318536395.34037,-419658943.15757,164952696.74249,  -0.00067,  -0.00140,   0.00235,474900614.01378,   0.00024,274900620.14822,  -0.00004,  -0.00011,   0.00021,  -6.13444,   1.00000
-319196141.22892,-419496687.87556,164899322.93292,  -0.00068,  -0.00140,   0.00236,474907658.17894,   0.00024,274907660.21059,  -0.00004,  -0.00011,   0.00021,  -2.03165,   1.00000
-319877628.33767,-419331846.58948,164841288.68927,  -0.00068,  -0.00140,   0.00236,474914697.04757,   0.00025,274914703.73949,  -0.00004,  -0.00012,   0.00022,  -6.69192,   1.00000
-320556636.27067,-419166417.85704,164782885.13449,  -0.00069,  -0.00140,   0.00237,474921744.78553,   0.00026,274921752.18755,  -0.00004,  -0.00012,   0.00022,  -7.40202,   1.00000
-321235914.05480,-419004186.48036,164721490.67130,  -0.00069,  -0.00140,   0.00237,474928769.81376,   0.00026,274928776.86058,  -0.00005,  -0.00012,   0.00023,  -7.04682,   1.00000
-321922488.48465,-418827757.45369,164664543.06857,  -0.00069,  -0.00140,   0.00237,474935722.29497,   0.00027,274935727.62481,  -0.00005,  -0.00013,   0.00023,  -5.32984,   1.00000
-322609886.54482,-418661606.10077,164600801.51601,  -0.00070,  -0.00140,   0.00238,474942709.86471,   0.00028,274942716.89915,  -0.00005,  -0.00013,   0.00024,  -7.03444,   1.00000
-323307871.41939,-418492062.75895,164535072.76360,  -0.00070,  -0.00141,   0.00238,474949659.23289,   0.00028,274949666.06598,  -0.00005,  -0.00013,   0.00025,  -6.83309,   1.00000
-324013624.33957,-418315309.48961,164469963.34644,  -0.00071,  -0.00141,   0.00239,474956602.11869,   0.00029,274956604.10343,  -0.00005,  -0.00013,   0.00025,  -1.98474,   1.00000
-324716765.90526,-418137891.61267,164404452.31010,  -0.00071,  -0.00141,   0.00239,474963537.98318,   0.00030,274963547.73131,  -0.00005,  -0.00014,   0.00026,  -9.74813,   1.00000
-325433184.81878,-417960741.89297,164334269.26922,  -0.00072,  -0.00141,   0.00240,474970420.50039,   0.00030,274970423.64719,  -0.00005,  -0.00014,   0.00026,  -3.14680,   1.00000
-326146954.96125,-417782899.42960,164263683.60933,  -0.00072,  -0.00141,   0.00240,474977304.78537,   0.00031,274977305.26862,  -0.00005,  -0.00014,   0.00027,  -0.48325,   1.00000
-326868361.53505,-417597711.30359,164193657.55042,  -0.00073,  -0.00141,   0.00241,474984174.60307,   0.00031,274984176.84657,  -0.00006,  -0.00015,   0.00027,  -2.24350,   1.00000
-327600637.38334,-417416060.41823,164117776.66938,  -0.00073,  -0.00141,   0.00241,474991064.67247,   0.00032,274991071.74741,  -0.00006,  -0.00015,   0.00028,  -7.07493,   1.00000
-328332502.73565,-417230248.02088,164042596.55026,  -0.00074,  -0.00141,   0.00242,474997874.85352,   0.00033,274997882.82808,  -0.00006,  -0.00015,   0.00028,  -7.97456,   1.00000
-329061173.28912,-417036512.91011,163970742.14451,  -0.00074,  -0.00141,   0.00242,475004628.88512,   0.00033,275004638.72897,  -0.00006,  -0.00015,   0.00029,  -9.84385,   1.00000
-329800636.28937,-416846249.96175,163892997.73702,  -0.00075,  -0.00141,   0.00242,475011411.91924,   0.00034,275011418.58785,  -0.00006,  -0.00016,   0.00029,  -6.66861,   1.00000
-330547985.85518,-416655670.48593,163811996.02393,  -0.00075,  -0.00141,   0.00243,475018248.22923,   0.00035,275018250.97414,  -0.00006,  -0.00016,   0.00030,  -2.74490,   1.00000
-331297739.99161,-416464552.42025,163729009.16027,  -0.00076,  -0.00141,   0.00243,475024963.83297,   0.00035,275024972.07636,  -0.00006,  -0.00016,   0.00030,  -8.24339,   1.00000
-332052037.41332,-416262105.52071,163649122.95133,  -0.00076,  -0.00141,   0.00244,475031706.45230,   0.00036,275031713.36471,  -0.00006,  -0.00017,   0.00031,  -6.91241,   1.00000
-332809164.97748,-416066315.96956,163563493.11989,  -0.00077,  -0.00141,   0.00244,475038403.95187,   0.00036,275038404.84206,  -0.00007,  -0.00017,   0.00032,  -0.89019,   1.00000
-333573598.37107,-415862846.31538,163478285.25071,  -0.00077,  -0.00141,   0.00245,475045088.01484,   0.00037,275045088.83799,  -0.00007,  -0.00017,   0.00032,  -0.82315,   1.00000
-334345648.74573,-415658914.34384,163389752.57368,  -0.00078,  -0.00141,   0.00245,475051818.51428,   0.00038,275051826.59060,  -0.00007,  -0.00017,   0.00033,  -8.07631,   1.00000
-335120108.93191,-415454296.84996,163299175.58093,  -0.00078,  -0.00141,   0.00245,475058452.40483,   0.00038,275058454.22673,  -0.00007,  -0.00018,   0.00033,  -1.82189,   1.00000
-335891604.95069,-415248804.92751,163208128.94916,  -0.00079,  -0.00141,   0.00246,475065082.69328,   0.00039,275065089.07087,  -0.00007,  -0.00018,   0.00034,  -6.37759,   1.00000
-336670274.67548,-415035509.06122,163117449.38114,  -0.00080,  -0.00141,   0.00246,475071716.34805,   0.00039,275071717.45219,  -0.00007,  -0.00018,   0.00034,  -1.10415,   1.00000
-337459247.53825,-414825349.27392,163020743.60507,  -0.00080,  -0.00141,   0.00247,475078364.54651,   0.00040,275078372.35546,  -0.00007,  -0.00018,   0.00035,  -7.80895,   1.00000
-338258149.25990,-414610981.82597,162921709.99074,  -0.00081,  -0.00141,   0.00247,475084991.52790,   0.00041,275084993.43682,  -0.00008,  -0.00019,   0.00035,  -1.90892,   1.00000
-339046160.12778,-414391737.71897,162826114.20283,  -0.00081,  -0.00141,   0.00247,475091479.53213,   0.00041,275091486.56018,  -0.00008,  -0.00019,   0.00036,  -7.02805,   1.00000
-339851828.27216,-414172147.10079,162724214.03936,  -0.00082,  -0.00141,   0.00248,475098074.82938,   0.00042,275098082.32717,  -0.00008,  -0.00019,   0.00036,  -7.49779,   1.00000
-340656977.63538,-413947929.79722,162622832.65551,  -0.00082,  -0.00141,   0.00248,475104589.99534,   0.00042,275104597.88775,  -0.00008,  -0.00019,   0.00037,  -7.89241,   1.00000
-341458982.37789,-413722752.82054,162520945.34898,  -0.00083,  -0.00141,   0.00249,475111119.33384,   0.00043,275111121.47327,  -0.00008,  -0.00020,   0.00037,  -2.13943,   1.00000
-342281042.07102,-413493400.37013,162413704.06466,  -0.00083,  -0.00141,   0.00249,475117654.63589,   0.00044,275117660.81071,  -0.00008,  -0.00020,   0.00038,  -6.17482,   1.00000
-343092540.94050,-413266472.93036,162306204.41249,  -0.00084,  -0.00141,   0.00249,475124127.97761,   0.00044,275124132.77031,  -0.00008,  -0.00020,   0.00038,  -4.79270,   1.00000
-343923975.32089,-413035252.79494,162193307.47614,  -0.00085,  -0.00141,   0.00250,475130615.44501,   0.00045,275130621.30003,  -0.00009,  -0.00020,   0.00039,  -5.85502,   1.00000
-344741923.27027,-412802779.13423,162082826.72206,  -0.00085,  -0.00141,   0.00250,475137066.81927,   0.00045,275137070.33793,  -0.00009,  -0.00021,   0.00039,  -3.51865,   1.00000
-345579681.50197,-412565903.99259,161966898.94308,  -0.00086,  -0.00141,   0.00250,475143532.80204,   0.00046,275143536.82756,  -0.00009,  -0.00021,   0.00040,  -4.02551,   1.00000
-346413898.49059,-412320523.14508,161854077.21321,  -0.00086,  -0.00141,   0.00251,475149944.70729,   0.00047,275149952.60885,  -0.00009,  -0.00021,   0.00040,  -7.90157,   1.00000
-347247735.40198,-412077725.31266,161738027.91898,  -0.00087,  -0.00141,   0.00251,475156346.41831,   0.00047,275156349.65864,  -0.00009,  -0.00021,   0.00041,  -3.24033,   1.00000
-348091250.52721,-411837639.08094,161615779.69585,  -0.00087,  -0.00141,   0.00252,475162773.78978,   0.00048,275162776.57582,  -0.00009,  -0.00022,   0.00041,  -2.78605,   1.00000
-348944218.92162,-411592747.54030,161490956.76639,  -0.00088,  -0.00141,   0.00252,475169164.92373,   0.00048,275169174.25033,  -0.00009,  -0.00022,   0.00042,  -9.32660,   1.00000
-349793606.73331,-411339254.60409,161369208.88607,  -0.00089,  -0.00141,   0.00252,475175518.05657,   0.00049,275175521.90773,  -0.00010,  -0.00022,   0.00042,  -3.85115,   1.00000
-350652493.22686,-411088359.83591,161241210.36858,  -0.00089,  -0.00141,   0.00253,475181897.85509,   0.00050,275181900.39955,  -0.00010,  -0.00022,   0.00043,  -2.54446,   1.00000
-351507763.63012,-410828803.99284,161116260.74672,  -0.00090,  -0.00141,   0.00253,475188224.16711,   0.00050,275188229.37370,  -0.00010,  -0.00023,   0.00043,  -5.20659,   1.00000
-352375357.85891,-410567887.94847,160985953.55284,  -0.00090,  -0.00141,   0.00253,475194495.67876,   0.00051,275194503.18487,  -0.00010,  -0.00023,   0.00044,  -7.50611,   1.00000
-353249258.69375,-410305841.37890,160852044.25150,  -0.00091,  -0.00141,   0.00254,475200829.49441,   0.00051,275200836.20789,  -0.00010,  -0.00023,   0.00044,  -6.71348,   1.00000
-354119528.49883,-410042578.29430,160717542.84183,  -0.00092,  -0.00141,   0.00254,475207173.47258,   0.00052,275207179.33539,  -0.00010,  -0.00023,   0.00045,  -5.86281,   1.00000
-355001986.79315,-409777785.40766,160577623.38065,  -0.00092,  -0.00141,   0.00254,475213463.05530,   0.00052,275213468.46365,  -0.00011,  -0.00024,   0.00046,  -5.40836,   1.00000
-355880728.33501,-409504170.93343,160440691.90729,  -0.00093,  -0.00141,   0.00255,475219699.78441,   0.00053,275219709.30224,  -0.00011,  -0.00024,   0.00046,  -9.51783,   1.00000
-356758836.97156,-409232901.06002,160300448.48443,  -0.00093,  -0.00141,   0.00255,475225927.94118,   0.00054,275225933.29273,  -0.00011,  -0.00024,   0.00046,  -5.35155,   1.00000
-357652691.50421,-408952788.15045,160157089.54786,  -0.00094,  -0.00141,   0.00255,475232201.44830,   0.00054,275232208.78752,  -0.00011,  -0.00024,   0.00047,  -7.33922,   1.00000
-358545799.59389,-408674954.45294,160010395.58662,  -0.00095,  -0.00141,   0.00256,475238467.05898,   0.00055,275238467.93035,  -0.00011,  -0.00025,   0.00047,  -0.87137,   1.00000
-359438184.22027,-408391758.08914,159863929.97828,  -0.00095,  -0.00141,   0.00256,475244645.10073,   0.00055,275244652.52469,  -0.00011,  -0.00025,   0.00048,  -7.42395,   1.00000
-360339498.45761,-408103146.38604,159714617.99281,  -0.00096,  -0.00141,   0.00256,475250804.05288,   0.00056,275250812.84738,  -0.00012,  -0.00025,   0.00048,  -8.79450,   1.00000
-361246541.49146,-407813143.11904,159561594.97120,  -0.00097,  -0.00140,   0.00256,475257029.07261,   0.00056,275257034.64434,  -0.00012,  -0.00025,   0.00049,  -5.57174,   1.00000
-362152811.63167,-407517670.64260,159408752.92321,  -0.00097,  -0.00140,   0.00257,475263182.00708,   0.00057,275263182.78235,  -0.00012,  -0.00026,   0.00049,  -0.77527,   1.00000
-363058249.13486,-407224369.23279,159252531.80866,  -0.00098,  -0.00140,   0.00257,475269312.41730,   0.00058,275269315.50952,  -0.00012,  -0.00026,   0.00050,  -3.09221,   1.00000
-363981815.96967,-406933042.35069,159086760.34676,  -0.00098,  -0.00140,   0.00257,475275528.01863,   0.00058,275275533.86000,  -0.00012,  -0.00026,   0.00050,  -5.84137,   1.00000
-364892117.18304,-406625002.22320,158930491.76447,  -0.00099,  -0.00140,   0.00258,475281595.78512,   0.00059,275281597.80925,  -0.00012,  -0.00026,   0.00051,  -2.02413,   1.00000
-365820363.74135,-406318839.15547,158764612.16921,  -0.00100,  -0.00140,   0.00258,475287742.61220,   0.00059,275287748.43711,  -0.00012,  -0.00026,   0.00051,  -5.82490,   1.00000
-366747613.04218,-406014735.33929,158595319.59360,  -0.00100,  -0.00140,   0.00258,475293875.54451,   0.00060,275293884.46993,  -0.00013,  -0.00027,   0.00052,  -8.92542,   1.00000
-367670917.39038,-405701441.97457,158428871.32695,  -0.00101,  -0.00140,   0.00258,475299972.61449,   0.00060,275299975.15390,  -0.00013,  -0.00027,   0.00052,  -2.53941,   1.00000
-368602703.74259,-405382271.90974,158259376.73262,  -0.00102,  -0.00140,   0.00259,475306037.28671,   0.00061,275306045.27600,  -0.00013,  -0.00027,   0.00053,  -7.98929,   1.00000
-369542723.28919,-405064940.24701,158083316.43019,  -0.00102,  -0.00140,   0.00259,475312143.57111,   0.00061,275312152.54838,  -0.00013,  -0.00027,   0.00053,  -8.97727,   1.00000
-370481839.11449,-404741796.29271,157907301.86919,  -0.00103,  -0.00140,   0.00259,475318185.71742,   0.00062,275318188.77858,  -0.00013,  -0.00028,   0.00054,  -3.06115,   1.00000
-371416728.19770,-404417133.51806,157730586.86083,  -0.00104,  -0.00139,   0.00259,475324236.07897,   0.00063,275324237.89607,  -0.00014,  -0.00028,   0.00054,  -1.81710,   1.00000
-372369065.66256,-404086184.73669,157547601.94768,  -0.00104,  -0.00139,   0.00260,475330318.13499,   0.00063,275330319.51541,  -0.00014,  -0.00028,   0.00055,  -1.38042,   1.00000
-373311300.59382,-403749518.83404,157367753.30047,  -0.00105,  -0.00139,   0.00260,475336273.02807,   0.00064,275336279.54089,  -0.00014,  -0.00028,   0.00055,  -6.51282,   1.00000
-374270575.38517,-403414284.68043,157178111.13065,  -0.00106,  -0.00139,   0.00260,475342327.26870,   0.00064,275342329.96098,  -0.00014,  -0.00028,   0.00056,  -2.69228,   1.00000
-375225416.03921,-403077442.52379,156987745.35279,  -0.00106,  -0.00139,   0.00260,475348391.20288,   0.00065,275348393.96639,  -0.00014,  -0.00029,   0.00056,  -2.76351,   1.00000
-376179540.18618,-402726685.17932,156800776.37034,  -0.00107,  -0.00139,   0.00261,475354331.59883,   0.00065,275354332.18499,  -0.00014,  -0.00029,   0.00057,  -0.58617,   1.00000
-377141100.37346,-402385372.73453,156603680.06500,  -0.00108,  -0.00139,   0.00261,475360361.58270,   0.00066,275360366.54367,  -0.00015,  -0.00029,   0.00057,  -4.96098,   1.00000
-378110867.96360,-402029733.53447,156406754.93367,  -0.00108,  -0.00139,   0.00261,475366324.62842,   0.00066,275366328.15378,  -0.00015,  -0.00029,   0.00058,  -3.52536,   1.00000
-379076069.31984,-401672424.30105,156209073.19703,  -0.00109,  -0.00138,   0.00261,475372299.00770,   0.00067,275372304.10942,  -0.00015,  -0.00030,   0.00058,  -5.10172,   1.00000
-380039904.02370,-401316874.97454,156007859.12317,  -0.00110,  -0.00138,   0.00261,475378262.50875,   0.00068,275378268.18659,  -0.00015,  -0.00030,   0.00059,  -5.67784,   1.00000
-381011856.40222,-400946805.26808,155806720.74064,  -0.00110,  -0.00138,   0.00262,475384151.46476,   0.00068,275384161.14847,  -0.00015,  -0.00030,   0.00059,  -9.68372,   1.00000
-381987611.46164,-400582685.81810,155598215.75700,  -0.00111,  -0.00138,   0.00262,475390170.67999,   0.00069,275390177.29979,  -0.00015,  -0.00030,   0.00060,  -6.61981,   1.00000
-382965800.37999,-400207633.71220,155390133.13822,  -0.00112,  -0.00138,   0.00262,475396043.32554,   0.00069,275396044.80304,  -0.00016,  -0.00030,   0.00060,  -1.47751,   1.00000
-383947602.48142,-399838492.44896,155174677.62503,  -0.00113,  -0.00138,   0.00262,475402032.67090,   0.00070,275402035.85301,  -0.00016,  -0.00031,   0.00060,  -3.18211,   1.00000
-384928614.30576,-399454910.83393,154962394.30675,  -0.00113,  -0.00138,   0.00262,475407898.06607,   0.00070,275407905.05439,  -0.00016,  -0.00031,   0.00061,  -6.98831,   1.00000
-385913469.78673,-399069187.65389,154746100.76063,  -0.00114,  -0.00137,   0.00263,475413835.41810,   0.00071,275413842.64926,  -0.00016,  -0.00031,   0.00061,  -7.23116,   1.00000
-386905287.32074,-398684651.70074,154522980.49995,  -0.00115,  -0.00137,   0.00263,475419822.52490,   0.00071,275419823.10844,  -0.00016,  -0.00031,   0.00062,  -0.58354,   1.00000
-387899487.90990,-398288823.38859,154300123.54187,  -0.00115,  -0.00137,   0.00263,475425654.86043,   0.00072,275425657.61713,  -0.00017,  -0.00031,   0.00062,  -2.75670,   1.00000
-388888324.00285,-397899279.71290,154073124.77876,  -0.00116,  -0.00137,   0.00263,475431556.24083,   0.00072,275431563.03260,  -0.00017,  -0.00032,   0.00063,  -6.79178,   1.00000
-389881585.98224,-397491252.66248,153848752.81653,  -0.00117,  -0.00137,   0.00263,475437423.07343,   0.00073,275437427.83569,  -0.00017,  -0.00032,   0.00063,  -4.76226,   1.00000
-390884760.32161,-397087572.14203,153614647.44105,  -0.00118,  -0.00137,   0.00263,475443303.73161,   0.00074,275443311.58989,  -0.00017,  -0.00032,   0.00064,  -7.85828,   1.00000
-391882857.32175,-396682031.36495,153379734.76829,  -0.00118,  -0.00136,   0.00264,475449207.68024,   0.00074,275449211.58350,  -0.00017,  -0.00032,   0.00064,  -3.90326,   1.00000
-392879617.26958,-396269757.52274,153144477.88339,  -0.00119,  -0.00136,   0.00264,475455042.08127,   0.00075,275455047.94428,  -0.00018,  -0.00032,   0.00065,  -5.86301,   1.00000
-393880084.93888,-395846944.35907,152908435.56519,  -0.00120,  -0.00136,   0.00264,475460898.08091,   0.00075,275460900.27670,  -0.00018,  -0.00033,   0.00065,  -2.19579,   1.00000
-394890182.35940,-395428307.90595,152662593.97216,  -0.00121,  -0.00136,   0.00264,475466769.59918,   0.00076,275466773.02049,  -0.00018,  -0.00033,   0.00066,  -3.42131,   1.00000
-395895557.14437,-394999518.10634,152419201.79769,  -0.00121,  -0.00136,   0.00264,475472603.21533,   0.00076,275472608.47561,  -0.00018,  -0.00033,   0.00066,  -5.26028,   1.00000
-396907665.50824,-394563298.28866,152172098.53411,  -0.00122,  -0.00135,   0.00264,475478428.94654,   0.00077,275478436.18070,  -0.00018,  -0.00033,   0.00066,  -7.23416,   1.00000
-397917743.53189,-394128390.22866,151921286.89278,  -0.00123,  -0.00135,   0.00264,475484249.09095,   0.00077,275484256.18241,  -0.00019,  -0.00033,   0.00067,  -7.09147,   1.00000
-398930575.26805,-393690996.80751,151666350.55854,  -0.00123,  -0.00135,   0.00265,475490141.52972,   0.00078,275490148.00567,  -0.00019,  -0.00034,   0.00067,  -6.47595,   1.00000
-399945726.78257,-393241486.35823,151411300.18739,  -0.00124,  -0.00135,   0.00265,475495893.12167,   0.00078,275495900.15805,  -0.00019,  -0.00034,   0.00068,  -7.03638,   1.00000
-400962886.55888,-392797763.32887,151148870.85611,  -0.00125,  -0.00135,   0.00265,475501774.69576,   0.00079,275501778.36156,  -0.00019,  -0.00034,   0.00068,  -3.66580,   1.00000
-401979036.87863,-392338561.09395,150889147.57517,  -0.00126,  -0.00134,   0.00265,475507539.64594,   0.00079,275507542.74293,  -0.00019,  -0.00034,   0.00069,  -3.09699,   1.00000
-402997601.39551,-391876775.55746,150625253.74628,  -0.00127,  -0.00134,   0.00265,475513379.99890,   0.00080,275513380.18466,  -0.00020,  -0.00034,   0.00069,  -0.18576,   1.00000
-404025077.05452,-391418764.04704,150351402.28817,  -0.00127,  -0.00134,   0.00265,475519240.34931,   0.00081,275519241.62084,  -0.00020,  -0.00035,   0.00070,  -1.27152,   1.00000
-405048127.38807,-390941871.80507,150083059.67033,  -0.00128,  -0.00134,   0.00265,475525008.74173,   0.00081,275525015.48556,  -0.00020,  -0.00035,   0.00070,  -6.74382,   1.00000
-406068221.51480,-390474555.53133,149807765.79324,  -0.00129,  -0.00133,   0.00265,475530830.55264,   0.00082,275530836.29942,  -0.00020,  -0.00035,   0.00071,  -5.74679,   1.00000
-407091660.55186,-389987664.58464,149534620.78737,  -0.00130,  -0.00133,   0.00265,475536624.34204,   0.00082,275536625.52354,  -0.00020,  -0.00035,   0.00071,  -1.18150,   1.00000
-408116008.96009,-389505012.29543,149254761.33389,  -0.00130,  -0.00133,   0.00266,475542376.26874,   0.00083,275542385.03185,  -0.00021,  -0.00035,   0.00071,  -8.76312,   1.00000
-409142249.55376,-389019650.21517,148970702.64920,  -0.00131,  -0.00133,   0.00266,475548214.75554,   0.00083,275548219.01302,  -0.00021,  -0.00036,   0.00072,  -4.25748,   1.00000
-410166666.65539,-388526825.08870,148685984.64587,  -0.00132,  -0.00133,   0.00266,475553994.39623,   0.00084,275553995.46780,  -0.00021,  -0.00036,   0.00072,  -1.07158,   1.00000
-411196801.56258,-388025816.07322,148397238.65946,  -0.00133,  -0.00132,   0.00266,475559765.31538,   0.00084,275559770.70484,  -0.00021,  -0.00036,   0.00073,  -5.38945,   1.00000
-412231853.69857,-387525123.65391,148101328.68552,  -0.00134,  -0.00132,   0.00266,475565593.01884,   0.00085,275565597.32295,  -0.00022,  -0.00036,   0.00073,  -4.30411,   1.00000
-413261590.43860,-387013713.45789,147807635.00592,  -0.00134,  -0.00132,   0.00266,475571387.58475,   0.00085,275571391.73791,  -0.00022,  -0.00036,   0.00074,  -4.15316,   1.00000
-414289371.58558,-386494659.70268,147513191.79255,  -0.00135,  -0.00132,   0.00266,475577124.08876,   0.00086,275577130.30612,  -0.00022,  -0.00036,   0.00074,  -6.21737,   1.00000
-415321850.19505,-385975850.68770,147211549.58054,  -0.00136,  -0.00131,   0.00266,475582919.28434,   0.00086,275582921.21416,  -0.00022,  -0.00037,   0.00075,  -1.92982,   1.00000
-416352300.52056,-385449302.43577,146909123.24184,  -0.00137,  -0.00131,   0.00266,475588656.89676,   0.00087,275588657.00365,  -0.00022,  -0.00037,   0.00075,  -0.10689,   1.00000
-417383895.41386,-384919874.39869,146602438.85079,  -0.00137,  -0.00131,   0.00266,475594464.31830,   0.00087,275594469.57315,  -0.00023,  -0.00037,   0.00076,  -5.25486,   1.00000
-418420617.09112,-384381899.71540,146291575.78274,  -0.00138,  -0.00130,   0.00266,475600274.80349,   0.00088,275600284.26323,  -0.00023,  -0.00037,   0.00076,  -9.45974,   1.00000
-419447254.59908,-383845528.68352,145980208.26207,  -0.00139,  -0.00130,   0.00266,475606034.12626,   0.00089,275606039.32579,  -0.00023,  -0.00037,   0.00076,  -5.19953,   1.00000
-420486053.50501,-383299767.84937,145661257.00227,  -0.00140,  -0.00130,   0.00266,475611850.04968,   0.00089,275611854.06932,  -0.00023,  -0.00038,   0.00077,  -4.01964,   1.00000
-421522596.63976,-382746032.20745,145341423.09008,  -0.00141,  -0.00130,   0.00266,475617610.16217,   0.00090,275617615.72546,  -0.00024,  -0.00038,   0.00077,  -5.56329,   1.00000
-422552742.29897,-382190090.59042,145020682.35820,  -0.00142,  -0.00129,   0.00266,475623390.34822,   0.00090,275623398.56713,  -0.00024,  -0.00038,   0.00078,  -8.21891,   1.00000
-423587640.54970,-381625360.50724,144695659.48864,  -0.00142,  -0.00129,   0.00266,475629183.92600,   0.00091,275629185.83135,  -0.00024,  -0.00038,   0.00078,  -1.90535,   1.00000
-424619419.72763,-381061382.75759,144366725.73438,  -0.00143,  -0.00129,   0.00266,475634965.39848,   0.00091,275634971.37892,  -0.00024,  -0.00038,   0.00079,  -5.98044,   1.00000
-425655773.23809,-380488506.62491,144033471.29886,  -0.00144,  -0.00129,   0.00266,475640761.53347,   0.00092,275640762.29431,  -0.00025,  -0.00038,   0.00079,  -0.76084,   1.00000
-426686330.82613,-379904503.09507,143702255.84000,  -0.00145,  -0.00128,   0.00266,475646520.95473,   0.00092,275646525.05485,  -0.00025,  -0.00039,   0.00080,  -4.10013,   1.00000
-427720472.58835,-379320415.52359,143363727.62057,  -0.00146,  -0.00128,   0.00266,475652339.53575,   0.00093,275652344.17436,  -0.00025,  -0.00039,   0.00080,  -4.63862,   1.00000
-428752135.32640,-378728079.83132,143024194.30449,  -0.00146,  -0.00128,   0.00266,475658112.02298,   0.00093,275658112.72332,  -0.00025,  -0.00039,   0.00080,  -0.70034,   1.00000
-429780481.49866,-378136410.57353,142680718.68528,  -0.00147,  -0.00127,   0.00266,475663874.10001,   0.00094,275663880.67685,  -0.00026,  -0.00039,   0.00081,  -6.57684,   1.00000
-430809605.23493,-377532708.58586,142335860.65144,  -0.00148,  -0.00127,   0.00266,475669671.67128,   0.00094,275669679.11199,  -0.00026,  -0.00039,   0.00081,  -7.44071,   1.00000
-431846146.07195,-376922688.36624,141983498.80618,  -0.00149,  -0.00127,   0.00266,475675454.84723,   0.00095,275675463.37640,  -0.00026,  -0.00039,   0.00082,  -8.52917,   1.00000
-432875792.78957,-376310396.66664,141630228.96581,  -0.00150,  -0.00126,   0.00266,475681269.97107,   0.00095,275681270.42457,  -0.00026,  -0.00040,   0.00082,  -0.45349,   1.00000
-433899377.05471,-375686782.35630,141278915.45979,  -0.00151,  -0.00126,   0.00266,475687042.99581,   0.00096,275687051.40206,  -0.00027,  -0.00040,   0.00083,  -8.40625,   1.00000
-434929309.48367,-375065785.57069,140917179.49581,  -0.00152,  -0.00126,   0.00266,475692862.10291,   0.00097,275692868.48525,  -0.00027,  -0.00040,   0.00083,  -6.38234,   1.00000
-435959494.90159,-374432557.68326,140553990.53387,  -0.00152,  -0.00125,   0.00266,475698712.93789,   0.00097,275698718.25386,  -0.00027,  -0.00040,   0.00084,  -5.31598,   1.00000
-436986838.44832,-373790731.87135,140189640.30267,  -0.00153,  -0.00125,   0.00266,475704513.10957,   0.00098,275704520.75392,  -0.00027,  -0.00040,   0.00084,  -7.64435,   1.00000
-438010476.09138,-373149445.55359,139821303.08137,  -0.00154,  -0.00125,   0.00266,475710321.48642,   0.00098,275710324.56687,  -0.00028,  -0.00040,   0.00084,  -3.08046,   1.00000
-439031260.26719,-372499488.79378,139451773.56354,  -0.00155,  -0.00124,   0.00266,475716079.27361,   0.00099,275716081.71440,  -0.00028,  -0.00041,   0.00085,  -2.44079,   1.00000
-440057320.79883,-371845536.94023,139074557.37948,  -0.00156,  -0.00124,   0.00266,475721973.13661,   0.00099,275721979.68190,  -0.00028,  -0.00041,   0.00085,  -6.54529,   1.00000
-441077604.34650,-371186464.74832,138696410.70667,  -0.00157,  -0.00124,   0.00266,475727748.88596,   0.00100,275727751.22693,  -0.00028,  -0.00041,   0.00086,  -2.34097,   1.00000
-442094234.59266,-370512219.35064,138319842.53811,  -0.00158,  -0.00123,   0.00266,475733578.22048,   0.00100,275733579.74111,  -0.00029,  -0.00041,   0.00086,  -1.52062,   1.00000
-443116393.22010,-369840315.25620,137932747.60596,  -0.00158,  -0.00123,   0.00266,475739444.18334,   0.00101,275739447.83457,  -0.00029,  -0.00041,   0.00087,  -3.65123,   1.00000
-444135410.47616,-369159520.50457,137544371.86126,  -0.00159,  -0.00123,   0.00266,475745270.01289,   0.00101,275745271.36295,  -0.00029,  -0.00041,   0.00087,  -1.35005,   1.00000
-445146984.27084,-368476444.88666,137155113.07983,  -0.00160,  -0.00122,   0.00266,475751116.61185,   0.00102,275751119.42127,  -0.00029,  -0.00042,   0.00087,  -2.80942,   1.00000
-446161315.44711,-367783544.11679,136761149.11492,  -0.00161,  -0.00122,   0.00266,475756976.41060,   0.00102,275756982.60392,  -0.00030,  -0.00042,   0.00088,  -6.19332,   1.00000
-447169000.89019,-367078964.67001,136368994.70839,  -0.00162,  -0.00122,   0.00266,475762814.78734,   0.00103,275762823.81175,  -0.00030,  -0.00042,   0.00088,  -9.02441,   1.00000
-448175933.51866,-366377474.88671,135969658.28653,  -0.00163,  -0.00121,   0.00266,475768639.76705,   0.00104,275768647.28756,  -0.00030,  -0.00042,   0.00089,  -7.52051,   1.00000
-449181957.69811,-365663373.37932,135568723.44919,  -0.00164,  -0.00121,   0.00265,475774505.59331,   0.00104,275774508.59769,  -0.00031,  -0.00042,   0.00089,  -3.00438,   1.00000
-450189421.58689,-364948768.85628,135160366.38755,  -0.00165,  -0.00121,   0.00265,475780430.41329,   0.00105,275780433.42174,  -0.00031,  -0.00042,   0.00090,  -3.00845,   1.00000
-451193420.76764,-364225004.38057,134750611.74677,  -0.00165,  -0.00120,   0.00265,475786310.44077,   0.00105,275786316.43280,  -0.00031,  -0.00042,   0.00090,  -5.99203,   1.00000
-452189660.01215,-363498998.51319,134340011.39657,  -0.00166,  -0.00120,   0.00265,475792221.43248,   0.00106,275792224.84510,  -0.00031,  -0.00043,   0.00091,  -3.41262,   1.00000
-453182426.78303,-362763788.41667,133927986.09670,  -0.00167,  -0.00119,   0.00265,475798087.98213,   0.00106,275798091.99699,  -0.00032,  -0.00043,   0.00091,  -4.01486,   1.00000
-454177205.84817,-362018437.12115,133511123.73641,  -0.00168,  -0.00119,   0.00265,475803973.68513,   0.00107,275803978.14318,  -0.00032,  -0.00043,   0.00091,  -4.45805,   1.00000
-455172935.74904,-361272529.57984,133086835.79310,  -0.00169,  -0.00119,   0.00265,475809921.87778,   0.00107,275809929.35868,  -0.00032,  -0.00043,   0.00092,  -7.48091,   1.00000
-456161594.22848,-360514730.88424,132664283.72609,  -0.00170,  -0.00118,   0.00265,475815860.79098,   0.00108,275815861.28725,  -0.00033,  -0.00043,   0.00092,  -0.49626,   1.00000
-457149910.67716,-359750085.68953,132237003.38375,  -0.00171,  -0.00118,   0.00265,475821731.99470,   0.00108,275821733.39002,  -0.00033,  -0.00043,   0.00093,  -1.39532,   1.00000
-458130201.52925,-358983216.32238,131808894.92371,  -0.00172,  -0.00117,   0.00264,475827628.72497,   0.00109,275827631.89349,  -0.00033,  -0.00043,   0.00093,  -3.16852,   1.00000
-459108632.79245,-358203514.36481,131379112.28166,  -0.00173,  -0.00117,   0.00264,475833565.54380,   0.00110,275833572.13595,  -0.00034,  -0.00044,   0.00094,  -6.59215,   1.00000
-460090912.04118,-357425736.38718,130938671.86056,  -0.00174,  -0.00117,   0.00264,475839551.42385,   0.00110,275839558.66913,  -0.00034,  -0.00044,   0.00094,  -7.24528,   1.00000
-461065870.68192,-356635946.51292,130499921.80376,  -0.00174,  -0.00116,   0.00264,475845522.23359,   0.00111,275845527.54890,  -0.00034,  -0.00044,   0.00094,  -5.31531,   1.00000
-462035973.11062,-355846450.74084,130057127.27189,  -0.00175,  -0.00116,   0.00264,475851494.55452,   0.00111,275851503.20448,  -0.00035,  -0.00044,   0.00095,  -8.64995,   1.00000
-462998744.37537,-355044931.03037,129616011.91532,  -0.00176,  -0.00115,   0.00264,475857452.09477,   0.00112,275857461.59467,  -0.00035,  -0.00044,   0.00095,  -9.49990,   1.00000
-463962541.04575,-354232935.39867,129169928.61684,  -0.00177,  -0.00115,   0.00264,475863436.88264,   0.00112,275863443.73390,  -0.00035,  -0.00044,   0.00096,  -6.85126,   1.00000
-464924705.28126,-353423635.99829,128716516.80233,  -0.00178,  -0.00115,   0.00263,475869407.87401,   0.00113,275869413.59163,  -0.00035,  -0.00044,   0.00096,  -5.71763,   1.00000
-465880941.45584,-352598964.34697,128264688.94880,  -0.00179,  -0.00114,   0.00263,475875440.73782,   0.00113,275875447.60247,  -0.00036,  -0.00045,   0.00097,  -6.86465,   1.00000
-466835438.33057,-351776967.46564,127805527.00311,  -0.00180,  -0.00114,   0.00263,475881460.78285,   0.00114,275881469.88292,  -0.00036,  -0.00045,   0.00097,  -9.10006,   1.00000
-467782350.15356,-350942841.57385,127348007.03003,  -0.00181,  -0.00113,   0.00263,475887468.47306,   0.00115,275887476.50503,  -0.00036,  -0.00045,   0.00097,  -8.03198,   1.00000
-468729765.14795,-350098079.91203,126885464.31738,  -0.00182,  -0.00113,   0.00263,475893507.71254,   0.00115,275893509.29866,  -0.00037,  -0.00045,   0.00098,  -1.58612,   1.00000
-469671928.95550,-349253574.94996,126418874.00975,  -0.00183,  -0.00112,   0.00263,475899543.32867,   0.00116,275899550.79968,  -0.00037,  -0.00045,   0.00098,  -7.47101,   1.00000
-470606380.42423,-348396897.22756,125953902.92343,  -0.00184,  -0.00112,   0.00262,475905576.26847,   0.00116,275905577.57677,  -0.00037,  -0.00045,   0.00099,  -1.30830,   1.00000
-471540179.43585,-347539661.70599,125481567.22214,  -0.00185,  -0.00112,   0.00262,475911666.14905,   0.00117,275911674.36461,  -0.00038,  -0.00045,   0.00099,  -8.21557,   1.00000
-472469476.39069,-346672517.20546,125007504.49344,  -0.00186,  -0.00111,   0.00262,475917730.45599,   0.00117,275917737.99835,  -0.00038,  -0.00045,   0.00100,  -7.54236,   1.00000
-473390914.51664,-345793147.92590,124535034.76212,  -0.00186,  -0.00111,   0.00262,475923785.09461,   0.00118,275923787.94137,  -0.00038,  -0.00046,   0.00100,  -2.84675,   1.00000
-474311427.28806,-344913249.70158,124055219.58882,  -0.00187,  -0.00110,   0.00262,475929907.27723,   0.00119,275929908.76014,  -0.00039,  -0.00046,   0.00100,  -1.48291,   1.00000
-475227274.52172,-344023345.23547,123573629.19651,  -0.00188,  -0.00110,   0.00262,475935997.04859,   0.00119,275935997.74489,  -0.00039,  -0.00046,   0.00101,  -0.69630,   1.00000
-476137603.78034,-343133718.15630,123088012.91073,  -0.00189,  -0.00109,   0.00261,475942093.84883,   0.00120,275942096.80016,  -0.00040,  -0.00046,   0.00101,  -2.95133,   1.00000
-477044240.81713,-342231016.87179,122600683.22627,  -0.00190,  -0.00109,   0.00261,475948236.21993,   0.00120,275948244.71406,  -0.00040,  -0.00046,   0.00102,  -8.49414,   1.00000
-477946061.22503,-341318226.39488,122111536.76780,  -0.00191,  -0.00108,   0.00261,475954356.44135,   0.00121,275954362.02845,  -0.00040,  -0.00046,   0.00102,  -5.58710,   1.00000
-478842226.83272,-340405723.23507,121618369.18033,  -0.00192,  -0.00108,   0.00261,475960484.95130,   0.00121,275960490.13951,  -0.00041,  -0.00046,   0.00103,  -5.18822,   1.00000
-479733647.20948,-339490598.55342,121121331.58393,  -0.00193,  -0.00107,   0.00260,475966707.47826,   0.00122,275966708.85175,  -0.00041,  -0.00046,   0.00103,  -1.37349,   1.00000
-480620871.64901,-338554818.01806,120624600.73318,  -0.00194,  -0.00107,   0.00260,475972854.51715,   0.00122,275972857.52207,  -0.00041,  -0.00047,   0.00103,  -3.00492,   1.00000
-481501557.84657,-337629869.89868,120121732.53491,  -0.00195,  -0.00106,   0.00260,475979057.10892,   0.00123,275979057.90798,  -0.00042,  -0.00047,   0.00104,  -0.79906,   1.00000
-482382001.88943,-336683396.26431,119615861.50028,  -0.00196,  -0.00106,   0.00260,475985249.07961,   0.00124,275985251.14251,  -0.00042,  -0.00047,   0.00104,  -2.06291,   1.00000
-483249300.50886,-335735862.28671,119112674.43538,  -0.00197,  -0.00105,   0.00260,475991410.31678,   0.00124,275991412.33041,  -0.00042,  -0.00047,   0.00105,  -2.01363,   1.00000
-484114730.59029,-334787956.27556,118602264.70605,  -0.00198,  -0.00105,   0.00259,475997645.33521,   0.00125,275997647.16821,  -0.00043,  -0.00047,   0.00105,  -1.83300,   1.00000
-484975642.23311,-333826982.33710,118090178.51910,  -0.00199,  -0.00104,   0.00259,476003932.05315,   0.00125,276003933.98849,  -0.00043,  -0.00047,   0.00106,  -1.93534,   1.00000
-485827418.20250,-332856382.39716,117579402.64435,  -0.00200,  -0.00104,   0.00259,476010128.53321,   0.00126,276010131.71721,  -0.00044,  -0.00047,   0.00106,  -3.18400,   1.00000
-486677736.47676,-331874741.44735,117063464.59846,  -0.00201,  -0.00103,   0.00259,476016364.70070,   0.00127,276016364.89595,  -0.00044,  -0.00047,   0.00106,  -0.19526,   1.00000
-487525054.84357,-330903542.26018,116538332.94602,  -0.00202,  -0.00103,   0.00258,476022704.21666,   0.00127,276022712.13047,  -0.00044,  -0.00047,   0.00107,  -7.91381,   1.00000
-488360685.98025,-329909815.82695,116019956.46913,  -0.00203,  -0.00102,   0.00258,476028941.47153,   0.00128,276028949.62866,  -0.00045,  -0.00048,   0.00107,  -8.15713,   1.00000
-489190713.34535,-328913868.56643,115497921.54309,  -0.00204,  -0.00102,   0.00258,476035278.74287,   0.00128,276035279.71057,  -0.00045,  -0.00048,   0.00108,  -0.96770,   1.00000
-490018407.69061,-327909445.67005,114970414.99451,  -0.00205,  -0.00101,   0.00258,476041562.23313,   0.00129,276041567.66325,  -0.00046,  -0.00048,   0.00108,  -5.43012,   1.00000
-490836724.82881,-326903483.94870,114442477.22733,  -0.00206,  -0.00101,   0.00257,476047880.62100,   0.00129,276047886.24550,  -0.00046,  -0.00048,   0.00109,  -5.62450,   1.00000
-491649469.74565,-325887036.37349,113912549.08857,  -0.00206,  -0.00100,   0.00257,476054177.02929,   0.00130,276054180.42974,  -0.00046,  -0.00048,   0.00109,  -3.40045,   1.00000
-492456317.81531,-324868531.16176,113379062.60999,  -0.00207,  -0.00100,   0.00257,476060565.87412,   0.00131,276060567.77485,  -0.00047,  -0.00048,   0.00109,  -1.90073,   1.00000
-493257465.55430,-323839508.14483,112843576.03444,  -0.00208,  -0.00099,   0.00256,476066925.21471,   0.00131,276066931.51077,  -0.00047,  -0.00048,   0.00110,  -6.29607,   1.00000
-494052306.60243,-322810969.55086,112304191.80585,  -0.00209,  -0.00099,   0.00256,476073307.49567,   0.00132,276073309.50375,  -0.00048,  -0.00048,   0.00110,  -2.00807,   1.00000
-494844714.87508,-321771310.48842,111759658.00383,  -0.00210,  -0.00098,   0.00256,476079719.34437,   0.00132,276079727.24901,  -0.00048,  -0.00048,   0.00111,  -7.90465,   1.00000
-495624805.56342,-320719733.77842,111219769.25724,  -0.00211,  -0.00098,   0.00256,476086075.25457,   0.00133,276086076.46898,  -0.00048,  -0.00048,   0.00111,  -1.21441,   1.00000
-496398668.20756,-319666334.35633,110676441.00762,  -0.00212,  -0.00097,   0.00255,476092516.48825,   0.00134,276092519.65883,  -0.00049,  -0.00048,   0.00111,  -3.17058,   1.00000
-497166613.81701,-318602331.83901,110131066.66365,  -0.00213,  -0.00097,   0.00255,476098940.14411,   0.00134,276098941.16553,  -0.00049,  -0.00049,   0.00112,  -1.02142,   1.00000
-497931268.66818,-317538415.61533,109578739.67331,  -0.00214,  -0.00096,   0.00255,476105438.04492,   0.00135,276105440.79022,  -0.00050,  -0.00049,   0.00112,  -2.74530,   1.00000
-498686712.85977,-316464298.67283,109027436.73657,  -0.00215,  -0.00095,   0.00254,476111851.31099,   0.00135,276111856.79888,  -0.00050,  -0.00049,   0.00113,  -5.48788,   1.00000
-499436120.97479,-315377289.82644,108474573.76079,  -0.00216,  -0.00095,   0.00254,476118328.83844,   0.00136,276118331.22253,  -0.00051,  -0.00049,   0.00113,  -2.38409,   1.00000
-500178923.75293,-314290885.26609,107917867.89462,  -0.00217,  -0.00094,   0.00254,476124813.70224,   0.00137,276124821.78408,  -0.00051,  -0.00049,   0.00113,  -8.08184,   1.00000
-500912094.32998,-313203387.28336,107360956.27792,  -0.00218,  -0.00094,   0.00253,476131335.00663,   0.00137,276131344.07956,  -0.00051,  -0.00049,   0.00114,  -9.07293,   1.00000
-501639098.59079,-312105187.54395,106801960.43633,  -0.00219,  -0.00093,   0.00253,476137842.05931,   0.00138,276137846.85908,  -0.00052,  -0.00049,   0.00114,  -4.79977,   1.00000
-502362781.28007,-310995880.84184,106237831.42813,  -0.00220,  -0.00093,   0.00253,476144386.43057,   0.00138,276144393.81981,  -0.00052,  -0.00049,   0.00115,  -7.38924,   1.00000
-503073852.36466,-309885927.41865,105676558.96129,  -0.00221,  -0.00092,   0.00253,476150907.78737,   0.00139,276150909.90400,  -0.00053,  -0.00049,   0.00115,  -2.11663,   1.00000
-503781470.47439,-308764884.60885,105110160.78737,  -0.00222,  -0.00092,   0.00252,476157467.71840,   0.00140,276157470.91784,  -0.00053,  -0.00049,   0.00116,  -3.19945,   1.00000
-504479362.60236,-307642928.32359,104543639.03802,  -0.00223,  -0.00091,   0.00252,476164055.38357,   0.00140,276164064.27716,  -0.00054,  -0.00049,   0.00116,  -8.89359,   1.00000
-505170849.54681,-306510199.60387,103974995.20722,  -0.00224,  -0.00090,   0.00252,476170631.86365,   0.00141,276170640.14217,  -0.00054,  -0.00049,   0.00116,  -8.27852,   1.00000
-505858584.33069,-305366405.10145,103401242.54613,  -0.00225,  -0.00090,   0.00251,476177259.22089,   0.00141,276177262.36509,  -0.00055,  -0.00049,   0.00117,  -3.14420,   1.00000
-506533815.96931,-304222045.22338,102830372.52870,  -0.00226,  -0.00089,   0.00251,476183853.77342,   0.00142,276183854.13866,  -0.00055,  -0.00050,   0.00117,  -0.36523,   1.00000
-507204931.31030,-303078293.72646,102252825.07032,  -0.00227,  -0.00089,   0.00250,476190518.62362,   0.00143,276190526.97315,  -0.00055,  -0.00050,   0.00118,  -8.34952,   1.00000
-507866704.01774,-301910463.19218,101678392.09258,  -0.00228,  -0.00088,   0.00250,476197155.85088,   0.00143,276197164.89005,  -0.00056,  -0.00050,   0.00118,  -9.03916,   1.00000
-508521425.31992,-300755237.30432,101098691.32664,  -0.00229,  -0.00087,   0.00250,476203850.24991,   0.00144,276203854.76040,  -0.00056,  -0.00050,   0.00118,  -4.51049,   1.00000
-509169470.36793,-299589158.94450,100516840.96005,  -0.00230,  -0.00087,   0.00249,476210527.26063,   0.00145,276210529.40795,  -0.00057,  -0.00050,   0.00119,  -2.14733,   1.00000
-509807870.98208,-298410685.43110,99936532.10252,  -0.00231,  -0.00086,   0.00249,476217195.84959,   0.00145,276217203.90011,  -0.00057,  -0.00050,   0.00119,  -8.05052,   1.00000
-510439395.79705,-297233164.64821,99352543.60298,  -0.00232,  -0.00086,   0.00249,476223894.54511,   0.00146,276223897.12043,  -0.00058,  -0.00050,   0.00120,  -2.57531,   1.00000
-511061246.71080,-296043265.11054,98770099.81221,  -0.00233,  -0.00085,   0.00248,476230585.33648,   0.00146,276230590.68077,  -0.00058,  -0.00050,   0.00120,  -5.34430,   1.00000
-511678654.18110,-294842420.28633,98182607.00600,  -0.00234,  -0.00084,   0.00248,476237333.78721,   0.00147,276237334.35512,  -0.00059,  -0.00050,   0.00120,  -0.56791,   1.00000
-512286180.50729,-293653085.63152,97593765.43528,  -0.00235,  -0.00084,   0.00248,476244135.88287,   0.00148,276244144.01467,  -0.00059,  -0.00050,   0.00121,  -8.13180,   1.00000
-512884493.09607,-292440895.22397,97007007.11046,  -0.00236,  -0.00083,   0.00247,476250835.62750,   0.00148,276250844.80247,  -0.00060,  -0.00050,   0.00121,  -9.17497,   1.00000
-513478139.57946,-291229794.56331,96413797.90121,  -0.00237,  -0.00083,   0.00247,476257620.66565,   0.00149,276257629.08183,  -0.00060,  -0.00050,   0.00121,  -8.41618,   1.00000
-514061993.08716,-290018403.03292,95820756.76316,  -0.00238,  -0.00082,   0.00246,476264444.21082,   0.00150,276264446.95698,  -0.00061,  -0.00050,   0.00122,  -2.74616,   1.00000
-514636025.47174,-288794705.18762,95229291.13756,  -0.00239,  -0.00081,   0.00246,476271261.86072,   0.00150,276271266.74704,  -0.00061,  -0.00050,   0.00122,  -4.88632,   1.00000
-515202982.32077,-287560080.81270,94635609.70572,  -0.00240,  -0.00081,   0.00246,476278067.63616,   0.00151,276278075.29628,  -0.00062,  -0.00050,   0.00123,  -7.66012,   1.00000
-515762917.22179,-286326648.36104,94038348.99884,  -0.00241,  -0.00080,   0.00245,476284895.99508,   0.00152,276284904.36172,  -0.00062,  -0.00050,   0.00123,  -8.36663,   1.00000
-516312945.77523,-285080923.63361,93442660.37603,  -0.00242,  -0.00079,   0.00245,476291729.78726,   0.00152,276291736.34068,  -0.00063,  -0.00050,   0.00123,  -6.55342,   1.00000
-516858038.99568,-283836641.91738,92840693.28520,  -0.00243,  -0.00079,   0.00245,476298650.66142,   0.00153,276298653.01886,  -0.00063,  -0.00050,   0.00124,  -2.35743,   1.00000
-517391289.54914,-282592133.37868,92241731.97546,  -0.00244,  -0.00078,   0.00244,476305535.76155,   0.00153,276305539.88477,  -0.00064,  -0.00050,   0.00124,  -4.12322,   1.00000
-517917082.49975,-281324381.48559,91641826.54502,  -0.00245,  -0.00077,   0.00244,476312378.78704,   0.00154,276312386.77078,  -0.00064,  -0.00050,   0.00125,  -7.98375,   1.00000
-518435391.91550,-280069281.70361,91038270.27554,  -0.00246,  -0.00077,   0.00243,476319357.45395,   0.00155,276319362.32457,  -0.00065,  -0.00050,   0.00125,  -4.87063,   1.00000
-518944106.62571,-278790575.21913,90436412.58096,  -0.00247,  -0.00076,   0.00243,476326231.48568,   0.00155,276326235.06806,  -0.00065,  -0.00051,   0.00125,  -3.58238,   1.00000
-519445353.42417,-277524735.09199,89831002.10107,  -0.00248,  -0.00076,   0.00242,476333230.51565,   0.00156,276333236.34542,  -0.00066,  -0.00051,   0.00126,  -5.82977,   1.00000
-519937308.94558,-276247573.33574,89226002.42881,  -0.00249,  -0.00075,   0.00242,476340157.50596,   0.00157,276340165.42809,  -0.00066,  -0.00051,   0.00126,  -7.92213,   1.00000
-520421118.19657,-274958609.95707,88619983.84916,  -0.00250,  -0.00074,   0.00242,476347157.87453,   0.00157,276347163.60093,  -0.00067,  -0.00051,   0.00126,  -5.72640,   1.00000
-520895989.39083,-273670731.88861,88013124.72987,  -0.00251,  -0.00074,   0.00241,476354117.20234,   0.00158,276354119.88325,  -0.00068,  -0.00051,   0.00127,  -2.68091,   1.00000
-521362616.72129,-272371133.91226,87405283.07172,  -0.00252,  -0.00073,   0.00241,476361140.45315,   0.00159,276361145.90421,  -0.00068,  -0.00051,   0.00127,  -5.45106,   1.00000
-521820361.19130,-271072621.74042,86796593.87184,  -0.00253,  -0.00072,   0.00240,476368122.72511,   0.00159,276368130.31685,  -0.00069,  -0.00051,   0.00128,  -7.59174,   1.00000
-522269788.50868,-269762483.69945,86186963.66340,  -0.00254,  -0.00072,   0.00240,476375180.30210,   0.00160,276375185.01269,  -0.00069,  -0.00051,   0.00128,  -4.71059,   1.00000
-522710386.90827,-268453431.37951,85576478.70156,  -0.00255,  -0.00071,   0.00240,476382196.91637,   0.00161,276382198.38768,  -0.00070,  -0.00051,   0.00128,  -1.47131,   1.00000
-523142574.05605,-267132839.17727,84965090.77672,  -0.00256,  -0.00070,   0.00239,476389279.27368,   0.00161,276389282.70110,  -0.00070,  -0.00051,   0.00129,  -3.42743,   1.00000
-523565985.09221,-265813332.17394,84352840.74437,  -0.00257,  -0.00070,   0.00239,476396320.74737,   0.00162,276396325.98555,  -0.00071,  -0.00051,   0.00129,  -5.23818,   1.00000
-523980915.51331,-264482383.44697,83739730.86754,  -0.00258,  -0.00069,   0.00238,476403439.46867,   0.00163,276403440.75874,  -0.00071,  -0.00051,   0.00129,  -1.29007,   1.00000
-524384641.44404,-263151451.64391,83129666.25372,  -0.00259,  -0.00068,   0.00238,476410519.72357,   0.00163,276410526.57881,  -0.00072,  -0.00051,   0.00130,  -6.85523,   1.00000
-524782302.99727,-261810246.45043,82514857.16191,  -0.00260,  -0.00067,   0.00237,476417665.04021,   0.00164,276417672.74815,  -0.00073,  -0.00051,   0.00130,  -7.70794,   1.00000
-525171290.30439,-260470123.83448,81899170.81386,  -0.00261,  -0.00067,   0.00237,476424769.60210,   0.00165,276424778.48578,  -0.00073,  -0.00051,   0.00130,  -8.88368,   1.00000
-525550062.08242,-259117964.83716,81285130.14718,  -0.00262,  -0.00066,   0.00236,476431886.10595,   0.00165,276431892.53075,  -0.00074,  -0.00051,   0.00131,  -6.42480,   1.00000
-525920947.18022,-257767493.47067,80669313.99790,  -0.00263,  -0.00065,   0.00236,476439097.59527,   0.00166,276439106.67971,  -0.00074,  -0.00051,   0.00131,  -9.08444,   1.00000
-526282453.42071,-256405206.72752,80053612.48257,  -0.00264,  -0.00065,   0.00236,476446253.17409,   0.00167,276446253.84196,  -0.00075,  -0.00051,   0.00131,  -0.66787,   1.00000
-526634553.71040,-255043882.08244,79438578.88079,  -0.00265,  -0.00064,   0.00235,476453436.73457,   0.00167,276453436.85894,  -0.00075,  -0.00051,   0.00132,  -0.12437,   1.00000
-526979675.81877,-253684543.02624,78820279.98627,  -0.00266,  -0.00063,   0.00235,476460635.79653,   0.00168,276460644.45565,  -0.00076,  -0.00051,   0.00132,  -8.65912,   1.00000
-527314574.03680,-252313265.85514,78203663.19778,  -0.00267,  -0.00063,   0.00234,476467858.96062,   0.00169,276467861.42505,  -0.00077,  -0.00051,   0.00132,  -2.46443,   1.00000
-527640057.15062,-250929999.72725,77587059.33559,  -0.00268,  -0.00062,   0.00234,476475005.22606,   0.00169,276475012.89313,  -0.00077,  -0.00051,   0.00133,  -7.66707,   1.00000
-527957693.66734,-249548896.28740,76968878.10928,  -0.00269,  -0.00061,   0.00233,476482258.63287,   0.00170,276482265.08039,  -0.00078,  -0.00051,   0.00133,  -6.44753,   1.00000
-528266092.47323,-248169014.79580,76351473.55204,  -0.00270,  -0.00060,   0.00233,476489549.92030,   0.00171,276489553.24049,  -0.00078,  -0.00051,   0.00133,  -3.32019,   1.00000
-528565104.26733,-246777062.90374,75734038.32915,  -0.00271,  -0.00060,   0.00232,476496776.40562,   0.00171,276496776.60903,  -0.00079,  -0.00051,   0.00134,  -0.20341,   1.00000
-528856320.72318,-245387536.24650,75115143.51460,  -0.00272,  -0.00059,   0.00232,476504098.30242,   0.00172,276504100.82577,  -0.00079,  -0.00050,   0.00134,  -2.52336,   1.00000
-529138119.28052,-243985871.54472,74496181.28671,  -0.00273,  -0.00058,   0.00231,476511356.28428,   0.00173,276511360.96026,  -0.00080,  -0.00050,   0.00134,  -4.67598,   1.00000
-529410794.19271,-242585590.86820,73878049.14572,  -0.00274,  -0.00058,   0.00231,476518652.33180,   0.00173,276518657.43349,  -0.00081,  -0.00050,   0.00135,  -5.10168,   1.00000
-529675378.73843,-241174327.15871,73257593.04630,  -0.00275,  -0.00057,   0.00230,476525953.81489,   0.00174,276525955.24202,  -0.00081,  -0.00050,   0.00135,  -1.42713,   1.00000
-529928692.24211,-239763718.52609,72642027.77921,  -0.00276,  -0.00056,   0.00230,476533291.99216,   0.00175,276533299.81384,  -0.00082,  -0.00050,   0.00135,  -7.82168,   1.00000
-530177381.39186,-238356292.77337,72019295.97864,  -0.00277,  -0.00055,   0.00229,476540659.21296,   0.00175,276540660.40026,  -0.00082,  -0.00050,   0.00136,  -1.18730,   1.00000
-530412310.11460,-236934927.58189,71404465.33064,  -0.00278,  -0.00055,   0.00229,476547971.72085,   0.00176,276547978.53872,  -0.00083,  -0.00050,   0.00136,  -6.81787,   1.00000
-530639083.02071,-235502587.11986,70787281.07085,  -0.00279,  -0.00054,   0.00228,476555291.20463,   0.00177,276555299.41324,  -0.00084,  -0.00050,   0.00136,  -8.20862,   1.00000
-530860299.27863,-234074121.75842,70164859.10654,  -0.00280,  -0.00053,   0.00228,476562709.26022,   0.00177,276562712.12727,  -0.00084,  -0.00050,   0.00137,  -2.86705,   1.00000
-531069268.13028,-232645152.87136,69549551.19153,  -0.00281,  -0.00052,   0.00227,476570103.81511,   0.00178,276570106.46289,  -0.00085,  -0.00050,   0.00137,  -2.64778,   1.00000
-531268801.56689,-231203714.10365,68933968.64053,  -0.00282,  -0.00052,   0.00227,476577436.43776,   0.00179,276577439.51667,  -0.00086,  -0.00050,   0.00137,  -3.07891,   1.00000
-531462823.94054,-229766347.32168,68313224.55992,  -0.00283,  -0.00051,   0.00226,476584856.81738,   0.00180,276584864.81272,  -0.00086,  -0.00050,   0.00138,  -7.99535,   1.00000
-531646885.91659,-228329241.60449,67695529.22397,  -0.00284,  -0.00050,   0.00226,476592255.12434,   0.00180,276592261.89931,  -0.00087,  -0.00050,   0.00138,  -6.77497,   1.00000
-531821856.21203,-226882092.60129,67077536.42446,  -0.00285,  -0.00049,   0.00225,476599730.10671,   0.00181,276599737.92747,  -0.00087,  -0.00050,   0.00138,  -7.82076,   1.00000
-531986977.88420,-225435242.07197,66462587.53627,  -0.00286,  -0.00049,   0.00225,476607182.58751,   0.00182,276607185.79808,  -0.00088,  -0.00050,   0.00139,  -3.21057,   1.00000
-532142619.12213,-223975729.69655,65847257.82698,  -0.00287,  -0.00048,   0.00224,476614568.85910,   0.00182,276614573.94105,  -0.00089,  -0.00050,   0.00139,  -5.08194,   1.00000
-532290842.74028,-222519976.18162,65230999.29463,  -0.00288,  -0.00047,   0.00224,476622057.00501,   0.00183,276622064.19655,  -0.00089,  -0.00050,   0.00139,  -7.19154,   1.00000
-532429540.56321,-221051496.32742,64614326.10896,  -0.00289,  -0.00046,   0.00223,476629485.53155,   0.00184,276629495.42986,  -0.00090,  -0.00050,   0.00139,  -9.89831,   1.00000
-532559711.64863,-219585117.97891,63998724.85053,  -0.00290,  -0.00046,   0.00223,476636962.20854,   0.00184,276636963.90587,  -0.00091,  -0.00050,   0.00140,  -1.69733,   1.00000
-532681414.29853,-218120888.99072,63384217.09926,  -0.00291,  -0.00045,   0.00222,476644463.56736,   0.00185,276644469.55538,  -0.00091,  -0.00050,   0.00140,  -5.98802,   1.00000
-532792838.85986,-216645112.06134,62771449.44551,  -0.00292,  -0.00044,   0.00222,476651984.19457,   0.00186,276651990.84000,  -0.00092,  -0.00049,   0.00140,  -6.64543,   1.00000
-532896645.79477,-215170251.98158,62157561.17014,  -0.00293,  -0.00043,   0.00221,476659473.95724,   0.00187,276659475.50739,  -0.00092,  -0.00049,   0.00141,  -1.55015,   1.00000
-532992128.98926,-213697657.12912,61544802.99311,  -0.00294,  -0.00043,   0.00221,476666987.86480,   0.00187,276666997.39529,  -0.00093,  -0.00049,   0.00141,  -9.53049,   1.00000
-533079202.65945,-212214135.44812,60929661.33027,  -0.00295,  -0.00042,   0.00220,476674526.65707,   0.00188,276674526.98240,  -0.00094,  -0.00049,   0.00141,  -0.32533,   1.00000
-533154810.46461,-210717021.99317,60318073.37513,  -0.00296,  -0.00041,   0.00220,476682002.26550,   0.00189,276682008.32448,  -0.00094,  -0.00049,   0.00141,  -6.05898,   1.00000
-533224297.58937,-209236192.74332,59707073.57268,  -0.00297,  -0.00040,   0.00219,476689540.36291,   0.00189,276689547.63979,  -0.00095,  -0.00049,   0.00142,  -7.27688,   1.00000
-533283547.62730,-207743881.65311,59097815.87621,  -0.00298,  -0.00039,   0.00219,476697098.64068,   0.00190,276697103.84235,  -0.00096,  -0.00049,   0.00142,  -5.20167,   1.00000
-533335379.40468,-206252395.67857,58487367.32254,  -0.00299,  -0.00039,   0.00218,476704619.60683,   0.00191,276704623.96541,  -0.00096,  -0.00049,   0.00142,  -4.35858,   1.00000
-533378039.17412,-204751683.14071,57876909.23419,  -0.00300,  -0.00038,   0.00218,476712222.43457,   0.00191,276712226.90289,  -0.00097,  -0.00049,   0.00142,  -4.46832,   1.00000
-533411574.97572,-203251265.65470,57269403.95342,  -0.00301,  -0.00037,   0.00217,476719793.45017,   0.00192,276719802.11582,  -0.00098,  -0.00049,   0.00143,  -8.66565,   1.00000
-533433765.88806,-201737098.80646,56665339.80639,  -0.00302,  -0.00036,   0.00217,476727324.04890,   0.00193,276727330.00894,  -0.00098,  -0.00049,   0.00143,  -5.96005,   1.00000
-533452082.73981,-200240103.62661,56057825.44254,  -0.00303,  -0.00036,   0.00216,476734897.74950,   0.00194,276734906.98152,  -0.00099,  -0.00048,   0.00143,  -9.23202,   1.00000
-533460189.43511,-198731692.13392,55452055.11552,  -0.00304,  -0.00035,   0.00216,476742492.63899,   0.00194,276742502.12734,  -0.00100,  -0.00048,   0.00143,  -9.48835,   1.00000
-533458050.48387,-197211898.29859,54848023.52279,  -0.00305,  -0.00034,   0.00215,476750109.29318,   0.00195,276750115.93467,  -0.00100,  -0.00048,   0.00144,  -6.64149,   1.00000
-533448666.72145,-195692838.26047,54242712.49925,  -0.00306,  -0.00033,   0.00214,476757694.11115,   0.00196,276757694.53873,  -0.00101,  -0.00048,   0.00144,  -0.42759,   1.00000
-533430438.85867,-194173998.71545,53640283.76723,  -0.00306,  -0.00032,   0.00214,476765239.56373,   0.00196,276765245.51419,  -0.00102,  -0.00048,   0.00144,  -5.95046,   1.00000
-533405649.64304,-192660536.91504,53037534.02847,  -0.00307,  -0.00032,   0.00213,476772892.21308,   0.00197,276772899.44405,  -0.00102,  -0.00048,   0.00144,  -7.23097,   1.00000
-533369577.00723,-191133119.12411,52438109.25622,  -0.00308,  -0.00031,   0.00213,476780504.96092,   0.00198,276780507.25032,  -0.00103,  -0.00048,   0.00145,  -2.28941,   1.00000
-533326389.48002,-189606340.02199,51837341.45763,  -0.00309,  -0.00030,   0.00212,476788073.52331,   0.00199,276788080.10890,  -0.00104,  -0.00048,   0.00145,  -6.58560,   1.00000
-533276777.95028,-188085172.25981,51236339.16749,  -0.00310,  -0.00029,   0.00212,476795749.38956,   0.00199,276795756.06176,  -0.00104,  -0.00048,   0.00145,  -6.67220,   1.00000
-533214778.73860,-186547188.69794,50640125.16936,  -0.00311,  -0.00028,   0.00211,476803316.64324,   0.00200,276803321.04285,  -0.00105,  -0.00047,   0.00145,  -4.39961,   1.00000
-533146444.34024,-185014972.80568,50043714.31700,  -0.00312,  -0.00028,   0.00211,476810986.03304,   0.00201,276810989.32713,  -0.00106,  -0.00047,   0.00146,  -3.29409,   1.00000
-533069652.74387,-183482950.34241,49450130.89708,  -0.00313,  -0.00027,   0.00210,476818625.32475,   0.00201,276818629.69745,  -0.00106,  -0.00047,   0.00146,  -4.37270,   1.00000
-532983056.29403,-181937134.07610,48855518.12154,  -0.00314,  -0.00026,   0.00210,476826209.67378,   0.00202,276826218.33228,  -0.00107,  -0.00047,   0.00146,  -8.65850,   1.00000
-532889159.78535,-180394383.38104,48262238.70591,  -0.00315,  -0.00025,   0.00209,476833838.81281,   0.00203,276833844.83338,  -0.00108,  -0.00047,   0.00146,  -6.02057,   1.00000
-532788033.09954,-178854740.50777,47670310.58289,  -0.00316,  -0.00024,   0.00208,476841500.44194,   0.00204,276841509.08317,  -0.00108,  -0.00047,   0.00146,  -8.64123,   1.00000
-532678649.33993,-177315230.13559,47081161.95438,  -0.00317,  -0.00023,   0.00208,476849142.22167,   0.00204,276849145.26446,  -0.00109,  -0.00047,   0.00147,  -3.04279,   1.00000
-532560524.53070,-175764804.99752,46489494.48584,  -0.00318,  -0.00023,   0.00207,476856793.50656,   0.00205,276856796.30667,  -0.00110,  -0.00047,   0.00147,  -2.80011,   1.00000
-532434159.01755,-174214475.65068,45900578.03401,  -0.00319,  -0.00022,   0.00207,476864413.19812,   0.00206,276864419.60261,  -0.00110,  -0.00046,   0.00147,  -6.40450,   1.00000
-532300776.48703,-172667365.10348,45313037.45185,  -0.00319,  -0.00021,   0.00206,476872076.33836,   0.00206,276872080.56242,  -0.00111,  -0.00046,   0.00147,  -4.22406,   1.00000
-532156107.20797,-171105833.84094,44728542.25921,  -0.00320,  -0.00020,   0.00206,476879693.24944,   0.00207,276879697.91828,  -0.00112,  -0.00046,   0.00148,  -4.66884,   1.00000
-532007733.02711,-169562089.42646,44145113.11738,  -0.00321,  -0.00019,   0.00205,476887366.58108,   0.00208,276887368.43634,  -0.00112,  -0.00046,   0.00148,  -1.85526,   1.00000
-531849419.76054,-168004146.02066,43560444.63922,  -0.00322,  -0.00019,   0.00205,476894986.14768,   0.00209,276894989.33009,  -0.00113,  -0.00046,   0.00148,  -3.18241,   1.00000
-531679670.28669,-166434689.38431,42981713.43609,  -0.00323,  -0.00018,   0.00204,476902631.48803,   0.00209,276902638.98424,  -0.00114,  -0.00046,   0.00148,  -7.49620,   1.00000
-531506581.94359,-164880096.30063,42401101.10737,  -0.00324,  -0.00017,   0.00203,476910260.44272,   0.00210,276910269.63436,  -0.00114,  -0.00046,   0.00148,  -9.19165,   1.00000
-531322210.77041,-163310873.28221,41823419.52639,  -0.00325,  -0.00016,   0.00203,476917848.29009,   0.00211,276917857.42423,  -0.00115,  -0.00045,   0.00149,  -9.13415,   1.00000
-531132364.71846,-161748508.29433,41245902.23786,  -0.00326,  -0.00015,   0.00202,476925543.91756,   0.00212,276925548.60947,  -0.00116,  -0.00045,   0.00149,  -4.69191,   1.00000
-530934700.83451,-160182857.49034,40667972.20094,  -0.00327,  -0.00014,   0.00202,476933138.66029,   0.00212,276933140.22564,  -0.00116,  -0.00045,   0.00149,  -1.56535,   1.00000
-530729263.78416,-158620378.95494,40095715.84614,  -0.00328,  -0.00014,   0.00201,476940770.32731,   0.00213,276940775.03173,  -0.00117,  -0.00045,   0.00149,  -4.70442,   1.00000
-530514953.85632,-157046970.91377,39520858.71136,  -0.00328,  -0.00013,   0.00201,476948420.30415,   0.00214,276948427.79476,  -0.00118,  -0.00045,   0.00149,  -7.49061,   1.00000
-530291752.16204,-155473209.90498,38952858.25442,  -0.00329,  -0.00012,   0.00200,476956052.49650,   0.00214,276956057.94118,  -0.00118,  -0.00045,   0.00149,  -5.44468,   1.00000
-530062040.38058,-153899539.32313,38383139.84007,  -0.00330,  -0.00011,   0.00199,476963654.06705,   0.00215,276963654.41255,  -0.00119,  -0.00044,   0.00150,  -0.34549,   1.00000
-529825957.47450,-152329401.91115,37814840.33492,  -0.00331,  -0.00010,   0.00199,476971285.43545,   0.00216,276971288.37374,  -0.00120,  -0.00044,   0.00150,  -2.93829,   1.00000
-529579645.17696,-150744558.55253,37245021.31751,  -0.00332,  -0.00009,   0.00198,476978875.34688,   0.00217,276978875.62859,  -0.00120,  -0.00044,   0.00150,  -0.28171,   1.00000
-529329711.85741,-149177830.44715,36680696.71658,  -0.00333,  -0.00009,   0.00198,476986510.79533,   0.00217,276986518.64427,  -0.00121,  -0.00044,   0.00150,  -7.84895,   1.00000
-529068479.20524,-147596097.46150,36119089.96340,  -0.00334,  -0.00008,   0.00197,476994116.14105,   0.00218,276994120.21979,  -0.00122,  -0.00044,   0.00150,  -4.07874,   1.00000
-528800804.83981,-146014294.97790,35555674.17018,  -0.00335,  -0.00007,   0.00197,477001684.20225,   0.00219,277001688.42803,  -0.00122,  -0.00044,   0.00150,  -4.22579,   1.00000
-528526998.24598,-144436123.76366,34993688.81437,  -0.00335,  -0.00006,   0.00196,477009292.95161,   0.00219,277009293.99766,  -0.00123,  -0.00043,   0.00151,  -1.04604,   1.00000
-528240766.49852,-142842629.46434,34438639.93420,  -0.00336,  -0.00005,   0.00195,477016859.10236,   0.00220,277016863.82753,  -0.00124,  -0.00043,   0.00151,  -4.72517,   1.00000
-527952155.30109,-141263803.36554,33881533.31421,  -0.00337,  -0.00004,   0.00195,477024408.04917,   0.00221,277024412.38981,  -0.00124,  -0.00043,   0.00151,  -4.34064,   1.00000
-527653520.24050,-139673807.98705,33326031.85566,  -0.00338,  -0.00003,   0.00194,477031976.69314,   0.00222,277031986.33790,  -0.00125,  -0.00043,   0.00151,  -9.64476,   1.00000
-527347550.58565,-138083417.63394,32772930.40550,  -0.00339,  -0.00003,   0.00194,477039528.93916,   0.00222,277039531.73944,  -0.00126,  -0.00043,   0.00151,  -2.80029,   1.00000
-527036631.75206,-136496919.23278,32216957.16070,  -0.00340,  -0.00002,   0.00193,477047105.21886,   0.00223,277047109.86775,  -0.00126,  -0.00042,   0.00151,  -4.64889,   1.00000
-526716055.19203,-134905590.63171,31668597.78474,  -0.00341,  -0.00001,   0.00193,477054589.03234,   0.00224,277054598.02477,  -0.00127,  -0.00042,   0.00151,  -8.99243,   1.00000
-526389709.09701,-133317997.23125,31121652.92912,  -0.00341,  -0.00000,   0.00192,477062117.85485,   0.00224,277062123.14812,  -0.00128,  -0.00042,   0.00152,  -5.29327,   1.00000
-526058550.71855,-131734316.30789,30571829.04416,  -0.00342,   0.00001,   0.00191,477069675.78509,   0.00225,277069680.83290,  -0.00129,  -0.00042,   0.00152,  -5.04781,   1.00000
-525715012.82360,-130135013.28177,30028784.76489,  -0.00343,   0.00002,   0.00191,477077194.96650,   0.00226,277077203.28641,  -0.00129,  -0.00042,   0.00152,  -8.31991,   1.00000
-525369564.85369,-128550221.90567,29483581.91438,  -0.00344,   0.00002,   0.00190,477084698.86345,   0.00227,277084703.08646,  -0.00130,  -0.00041,   0.00152,  -4.22300,   1.00000
-525012591.64521,-126949834.82928,28940791.84645,  -0.00345,   0.00003,   0.00190,477092159.28859,   0.00227,277092163.64794,  -0.00131,  -0.00041,   0.00152,  -4.35936,   1.00000
-524649197.35145,-125353140.47742,28403736.94167,  -0.00345,   0.00004,   0.00189,477099656.66396,   0.00228,277099665.23180,  -0.00131,  -0.00041,   0.00152,  -8.56784,   1.00000
-524278010.50041,-123751381.67303,27865414.42597,  -0.00346,   0.00005,   0.00189,477107066.12189,   0.00229,277107067.95298,  -0.00132,  -0.00041,   0.00152,  -1.83110,   1.00000
-523901321.38838,-122153440.19764,27328497.94742,  -0.00347,   0.00006,   0.00188,477114503.20978,   0.00229,277114507.55724,  -0.00132,  -0.00041,   0.00152,  -4.34747,   1.00000
-523519213.23649,-120559349.18754,26793000.39836,  -0.00348,   0.00007,   0.00187,477121978.40841,   0.00230,277121983.82346,  -0.00133,  -0.00040,   0.00153,  -5.41505,   1.00000
-523128502.56888,-118959833.07541,26260461.14901,  -0.00349,   0.00008,   0.00187,477129362.12518,   0.00231,277129364.99389,  -0.00134,  -0.00040,   0.00153,  -2.86871,   1.00000
-522727770.55656,-117349137.94943,25729427.88381,  -0.00349,   0.00008,   0.00186,477136772.22485,   0.00231,277136773.78312,  -0.00134,  -0.00040,   0.00153,  -1.55827,   1.00000
-522324768.79309,-115752648.25795,25200436.93389,  -0.00350,   0.00009,   0.00186,477144161.12946,   0.00232,277144162.31845,  -0.00135,  -0.00040,   0.00153,  -1.18898,   1.00000
-521916545.63729,-114160036.41786,24672853.76075,  -0.00351,   0.00010,   0.00185,477151581.58173,   0.00233,277151587.14686,  -0.00136,  -0.00040,   0.00153,  -5.56513,   1.00000
-521494931.88747,-112546616.52778,24148177.98605,  -0.00352,   0.00011,   0.00184,477158902.52199,   0.00234,277158908.20573,  -0.00136,  -0.00039,   0.00153,  -5.68374,   1.00000
-521072981.61866,-110952173.70735,23624803.81631,  -0.00353,   0.00012,   0.00184,477166271.98354,   0.00234,277166273.95801,  -0.00137,  -0.00039,   0.00153,  -1.97447,   1.00000
-520639961.32083,-109341719.02104,23099250.32746,  -0.00353,   0.00013,   0.00183,477173593.75581,   0.00235,277173598.77108,  -0.00138,  -0.00039,   0.00153,  -5.01527,   1.00000
-520199384.91537,-107730156.78012,22580084.18521,  -0.00354,   0.00014,   0.00183,477180894.48109,   0.00236,277180897.49782,  -0.00138,  -0.00039,   0.00153,  -3.01673,   1.00000
-519756938.32255,-106132627.08508,22062863.35321,  -0.00355,   0.00014,   0.00182,477188170.40510,   0.00236,277188174.31533,  -0.00139,  -0.00039,   0.00153,  -3.91023,   1.00000
-519304505.28650,-104523884.70569,21547093.55693,  -0.00356,   0.00015,   0.00182,477195472.70418,   0.00237,277195479.58896,  -0.00140,  -0.00038,   0.00154,  -6.88478,   1.00000
-518844026.00628,-102908992.04756,21029582.40584,  -0.00356,   0.00016,   0.00181,477202680.45029,   0.00238,277202686.49085,  -0.00140,  -0.00038,   0.00154,  -6.04056,   1.00000
-518383100.91912,-101313088.48093,20517719.86297,  -0.00357,   0.00017,   0.00180,477209931.50893,   0.00238,277209939.48448,  -0.00141,  -0.00038,   0.00154,  -7.97555,   1.00000
-517910302.81900,-99700796.09604,20007867.52804,  -0.00358,   0.00018,   0.00180,477217146.90476,   0.00239,277217155.52333,  -0.00142,  -0.00038,   0.00154,  -8.61858,   1.00000
-517430740.03175,-98087240.00823,19499938.09810,  -0.00359,   0.00019,   0.00179,477224336.08796,   0.00240,277224341.75114,  -0.00142,  -0.00038,   0.00154,  -5.66318,   1.00000
-516950214.43475,-96487585.06351,18989512.91881,  -0.00359,   0.00020,   0.00179,477231500.73034,   0.00240,277231501.77007,  -0.00143,  -0.00037,   0.00154,  -1.03973,   1.00000
-516459119.23840,-94876626.82312,18484847.23249,  -0.00360,   0.00020,   0.00178,477238688.46530,   0.00241,277238693.78225,  -0.00144,  -0.00037,   0.00154,  -5.31695,   1.00000
-515959315.84630,-93258956.21699,17982567.89575,  -0.00361,   0.00021,   0.00177,477245785.23166,   0.00242,277245790.08870,  -0.00144,  -0.00037,   0.00154,  -4.85704,   1.00000
-515460182.54108,-91660409.42225,17481579.15064,  -0.00361,   0.00022,   0.00177,477252926.54624,   0.00242,277252927.81275,  -0.00145,  -0.00037,   0.00154,  -1.26650,   1.00000
-514947421.44511,-90039797.30758,16978600.20629,  -0.00362,   0.00023,   0.00176,477259959.66148,   0.00243,277259961.41940,  -0.00145,  -0.00036,   0.00154,  -1.75792,   1.00000
-514429503.24014,-88423080.91798,16481301.94725,  -0.00363,   0.00024,   0.00176,477267025.25207,   0.00244,277267033.14348,  -0.00146,  -0.00036,   0.00154,  -7.89141,   1.00000
-513910400.74388,-86820018.41795,15985751.90524,  -0.00364,   0.00025,   0.00175,477274070.03210,   0.00244,277274079.83391,  -0.00147,  -0.00036,   0.00154,  -9.80181,   1.00000
-513379133.28833,-85200123.81855,15492002.07163,  -0.00364,   0.00026,   0.00175,477281087.26107,   0.00245,277281090.91152,  -0.00147,  -0.00036,   0.00154,  -3.65044,   1.00000
-512846756.18932,-83593806.15866,14999961.61208,  -0.00365,   0.00026,   0.00174,477288072.32226,   0.00246,277288076.56847,  -0.00148,  -0.00036,   0.00155,  -4.24621,   1.00000
-512307753.27517,-81985774.98924,14509644.11813,  -0.00366,   0.00027,   0.00173,477295026.68526,   0.00246,277295031.54853,  -0.00149,  -0.00035,   0.00155,  -4.86327,   1.00000
-511756444.86586,-80360759.11189,14021054.69577,  -0.00366,   0.00028,   0.00173,477301942.17215,   0.00247,277301951.52572,  -0.00149,  -0.00035,   0.00155,  -9.35357,   1.00000
-511204167.72069,-78749206.27573,13534117.98845,  -0.00367,   0.00029,   0.00172,477308844.64924,   0.00248,277308845.33490,  -0.00150,  -0.00035,   0.00155,  -0.68566,   1.00000
-510645244.46276,-77135806.25501,13048839.99618,  -0.00368,   0.00030,   0.00172,477315705.09764,   0.00248,277315708.49093,  -0.00150,  -0.00035,   0.00155,  -3.39329,   1.00000
-510079680.32295,-75520515.66573,12565200.00506,  -0.00368,   0.00031,   0.00171,477322533.33535,   0.00249,277322540.93738,  -0.00151,  -0.00034,   0.00155,  -7.60203,   1.00000
-509507479.35169,-73903291.13522,12083177.41891,  -0.00369,   0.00032,   0.00171,477329339.03485,   0.00250,277329342.62134,  -0.00152,  -0.00034,   0.00155,  -3.58649,   1.00000
-508928623.90365,-72284088.25206,11602751.24401,  -0.00370,   0.00032,   0.00170,477336111.75768,   0.00250,277336113.59713,  -0.00152,  -0.00034,   0.00155,  -1.83945,   1.00000
-508351412.36863,-70684047.97352,11123573.62445,  -0.00370,   0.00033,   0.00169,477342915.67632,   0.00251,277342922.43027,  -0.00153,  -0.00034,   0.00155,  -6.75395,   1.00000
-507758961.85818,-69060692.61601,10650640.26719,  -0.00371,   0.00034,   0.00169,477349625.99575,   0.00252,277349633.13691,  -0.00153,  -0.00033,   0.00155,  -7.14116,   1.00000
-507166156.49874,-67450506.91516,10174858.66564,  -0.00372,   0.00035,   0.00168,477356313.54510,   0.00252,277356314.24617,  -0.00154,  -0.00033,   0.00155,  -0.70108,   1.00000
-506560396.90528,-65822857.37817,9704965.62789,  -0.00372,   0.00036,   0.00168,477362954.76383,   0.00253,277362963.13735,  -0.00155,  -0.00033,   0.00155,  -8.37352,   1.00000
-505954313.80290,-64208295.01384,9232185.93113,  -0.00373,   0.00037,   0.00167,477369572.48171,   0.00253,277369582.18926,  -0.00155,  -0.00033,   0.00155,  -9.70755,   1.00000
-505341347.72608,-62591453.41636,8765245.84305,  -0.00373,   0.00038,   0.00166,477376169.22181,   0.00254,277376171.32438,  -0.00156,  -0.00033,   0.00155,  -2.10257,   1.00000
-504721732.12341,-60972298.64201,8299751.95930,  -0.00374,   0.00038,   0.00166,477382720.19939,   0.00255,277382729.30253,  -0.00156,  -0.00032,   0.00155,  -9.10314,   1.00000
-504101907.03266,-59366073.57003,7831316.49371,  -0.00375,   0.00039,   0.00165,477389255.24091,   0.00255,277389256.58402,  -0.00157,  -0.00032,   0.00155,  -1.34310,   1.00000
-503468986.65125,-57742128.66887,7368669.74216,  -0.00375,   0.00040,   0.00165,477395742.35236,   0.00256,277395751.97681,  -0.00157,  -0.00032,   0.00155,  -9.62445,   1.00000
-502835681.05140,-56131026.89012,6907407.49872,  -0.00376,   0.00041,   0.00164,477402207.80681,   0.00257,277402217.48158,  -0.00158,  -0.00032,   0.00155,  -9.67478,   1.00000
-502195744.08479,-54517408.32696,6447516.09935,  -0.00376,   0.00042,   0.00164,477408644.80944,   0.00257,277408651.38585,  -0.00159,  -0.00031,   0.00155,  -6.57641,   1.00000
-501549156.96384,-52901230.96769,5988976.56137,  -0.00377,   0.00043,   0.00163,477415052.98388,   0.00258,277415053.72812,  -0.00159,  -0.00031,   0.00155,  -0.74424,   1.00000
-500892975.44261,-51276037.88950,5536287.57072,  -0.00378,   0.00043,   0.00162,477421353.90263,   0.00258,277421360.32344,  -0.00160,  -0.00031,   0.00155,  -6.42081,   1.00000
-500233022.35653,-49654632.68402,5080383.25277,  -0.00378,   0.00044,   0.00162,477427694.11020,   0.00259,277427699.76745,  -0.00160,  -0.00031,   0.00155,  -5.65725,   1.00000
-499569894.13035,-48039340.28060,4630267.29294,  -0.00379,   0.00045,   0.00161,477433940.27189,   0.00260,277433943.70716,  -0.00161,  -0.00030,   0.00155,  -3.43527,   1.00000
-498903044.82908,-46427795.79376,4176924.88275,  -0.00379,   0.00046,   0.00161,477440215.92259,   0.00260,277440220.24066,  -0.00161,  -0.00030,   0.00155,  -4.31807,   1.00000
-498226514.62777,-44806879.74812,3729311.38259,  -0.00380,   0.00047,   0.00160,477446399.20394,   0.00261,277446400.54170,  -0.00162,  -0.00030,   0.00155,  -1.33776,   1.00000
-497543239.78002,-43183098.14149,3282916.23330,  -0.00380,   0.00048,   0.00160,477452541.59950,   0.00261,277452549.18174,  -0.00162,  -0.00030,   0.00155,  -7.58224,   1.00000
-496859853.25698,-41571700.64110,2837722.41496,  -0.00381,   0.00048,   0.00159,477458656.84693,   0.00262,277458665.61739,  -0.00163,  -0.00030,   0.00155,  -8.77046,   1.00000
-496169751.75451,-39957321.17653,2393712.18901,  -0.00381,   0.00049,   0.00158,477464747.93112,   0.00262,277464749.96051,  -0.00163,  -0.00029,   0.00155,  -2.02938,   1.00000
-495469865.35890,-38333193.85623,1950921.05276,  -0.00382,   0.00050,   0.00158,477470729.06109,   0.00263,277470737.56570,  -0.00164,  -0.00029,   0.00155,  -8.50461,   1.00000
-494766225.09136,-36712745.69139,1509225.44467,  -0.00382,   0.00051,   0.00157,477476753.22806,   0.00264,277476758.13740,  -0.00164,  -0.00029,   0.00155,  -4.90934,   1.00000
-494059453.63423,-35097680.75376,1073058.87057,  -0.00383,   0.00052,   0.00157,477482674.35441,   0.00264,277482680.95220,  -0.00165,  -0.00029,   0.00155,  -6.59779,   1.00000
-493345909.93551,-33479415.12654,633616.21341,  -0.00383,   0.00053,   0.00156,477488565.28310,   0.00265,277488571.46083,  -0.00165,  -0.00028,   0.00155,  -6.17773,   1.00000
-492625515.76973,-31857910.73248,199627.40237,  -0.00384,   0.00053,   0.00156,477494424.16744,   0.00265,277494429.99894,  -0.00166,  -0.00028,   0.00155,  -5.83150,   1.00000
-491905184.30324,-30248410.11251,-233302.99332,  -0.00384,   0.00054,   0.00155,477500251.51651,   0.00266,277500254.51814,  -0.00166,  -0.00028,   0.00155,  -3.00163,   1.00000
-491178026.73563,-28635556.62961,-665191.56998,  -0.00385,   0.00055,   0.00154,477506042.15137,   0.00266,277506046.64174,  -0.00167,  -0.00028,   0.00155,  -4.49038,   1.00000
-490440748.15543,-27012319.46184,-1096084.10515,  -0.00385,   0.00056,   0.00154,477511732.72370,   0.00267,277511741.90880,  -0.00167,  -0.00027,   0.00155,  -9.18510,   1.00000
-489696547.45801,-25385629.85932,-1525978.65131,  -0.00386,   0.00057,   0.00153,477517402.12376,   0.00267,277517405.04111,  -0.00168,  -0.00027,   0.00155,  -2.91735,   1.00000
-488952491.66488,-23770720.76891,-1950524.90512,  -0.00386,   0.00058,   0.00153,477523032.70602,   0.00268,277523033.14176,  -0.00168,  -0.00027,   0.00155,  -0.43573,   1.00000
-488201445.27877,-22152250.31596,-2378483.95773,  -0.00387,   0.00058,   0.00152,477528621.44977,   0.00269,277528629.17115,  -0.00169,  -0.00027,   0.00155,  -7.72138,   1.00000
-487450646.91115,-20545440.84010,-2801128.39011,  -0.00387,   0.00059,   0.00152,477534186.04913,   0.00269,277534189.29237,  -0.00169,  -0.00027,   0.00155,  -3.24324,   1.00000
-486689469.43905,-18927778.02907,-3222935.26553,  -0.00388,   0.00060,   0.00151,477539644.56633,   0.00270,277539652.42297,  -0.00170,  -0.00026,   0.00155,  -7.85664,   1.00000
-485921286.89668,-17306380.89436,-3643844.75486,  -0.00388,   0.00061,   0.00151,477545078.30892,   0.00270,277545083.07109,  -0.00170,  -0.00026,   0.00155,  -4.76217,   1.00000
-485153300.65375,-15696468.24432,-4063878.10711,  -0.00388,   0.00062,   0.00150,477550475.01708,   0.00271,277550477.57631,  -0.00171,  -0.00026,   0.00155,  -2.55923,   1.00000
-484371115.35404,-14067454.94714,-4478669.91680,  -0.00389,   0.00062,   0.00149,477555836.82721,   0.00271,277555842.81191,  -0.00171,  -0.00026,   0.00155,  -5.98471,   1.00000
-483592753.74147,-12457773.06598,-4897132.98627,  -0.00389,   0.00063,   0.00149,477561100.31389,   0.00272,277561103.91432,  -0.00172,  -0.00025,   0.00155,  -3.60043,   1.00000
-482807429.84727,-10844109.95858,-5310403.20029,  -0.00390,   0.00064,   0.00148,477566323.48280,   0.00272,277566331.56730,  -0.00172,  -0.00025,   0.00155,  -8.08450,   1.00000
-482014994.87138,-9226437.21901,-5722872.46687,  -0.00390,   0.00065,   0.00148,477571518.35471,   0.00273,277571526.48559,  -0.00173,  -0.00025,   0.00155,  -8.13087,   1.00000
-481211708.36632,-7597287.03013,-6134716.49413,  -0.00391,   0.00066,   0.00147,477576619.82944,   0.00273,277576624.82601,  -0.00173,  -0.00025,   0.00155,  -4.99657,   1.00000
-480412371.19434,-5986731.37393,-6545638.91347,  -0.00391,   0.00066,   0.00147,477581745.56867,   0.00274,277581749.76665,  -0.00173,  -0.00025,   0.00155,  -4.19798,   1.00000
-479605992.69639,-4372222.90345,-6951817.24915,  -0.00391,   0.00067,   0.00146,477586707.88319,   0.00274,277586707.89094,  -0.00174,  -0.00024,   0.00155,  -0.00775,   1.00000
-478788632.17625,-2745775.75151,-7357073.66405,  -0.00392,   0.00068,   0.00146,477591694.82734,   0.00275,277591702.52645,  -0.00174,  -0.00024,   0.00155,  -7.69911,   1.00000
-477975075.05210,-1137946.75525,-7766224.56064,  -0.00392,   0.00069,   0.00145,477596586.92238,   0.00275,277596590.66293,  -0.00175,  -0.00024,   0.00155,  -3.74055,   1.00000
-477146822.95709,489469.34186,-8170296.64080,  -0.00392,   0.00069,   0.00145,477601444.95309,   0.00275,277601450.64313,  -0.00175,  -0.00024,   0.00155,  -5.69003,   1.00000
-476326701.89534,2090880.89721,-8569372.58414,  -0.00393,   0.00070,   0.00144,477606264.15773,   0.00276,277606264.71668,  -0.00176,  -0.00024,   0.00155,  -0.55895,   1.00000
-475487413.62419,3719610.60173,-8972377.89832,  -0.00393,   0.00071,   0.00143,477610986.82737,   0.00276,277610989.57679,  -0.00176,  -0.00023,   0.00155,  -2.74942,   1.00000
-474648616.30136,5337670.52858,-9370407.08708,  -0.00393,   0.00072,   0.00143,477615673.11078,   0.00277,277615674.15592,  -0.00176,  -0.00023,   0.00155,  -1.04514,   1.00000
-473809871.40575,6945087.14437,-9772215.83227,  -0.00394,   0.00073,   0.00142,477620317.75310,   0.00277,277620320.67510,  -0.00177,  -0.00023,   0.00155,  -2.92201,   1.00000
-472959869.51640,8564939.42317,-10169317.51106,  -0.00394,   0.00073,   0.00142,477624867.49354,   0.00278,277624869.32422,  -0.00177,  -0.00023,   0.00155,  -1.83069,   1.00000
-472114534.11835,10166523.44575,-10561237.37262,  -0.00394,   0.00074,   0.00141,477629431.89200,   0.00278,277629439.96683,  -0.00178,  -0.00023,   0.00155,  -8.07483,   1.00000
-471253173.38000,11788506.96290,-10957524.73303,  -0.00395,   0.00075,   0.00141,477633851.05919,   0.00279,277633852.24839,  -0.00178,  -0.00022,   0.00155,  -1.18920,   1.00000
-470384473.28487,13415320.69465,-11348908.33309,  -0.00395,   0.00076,   0.00140,477638226.33535,   0.00279,277638230.29197,  -0.00178,  -0.00022,   0.00155,  -3.95662,   1.00000
-469515738.53197,15031793.11666,-11744171.75671,  -0.00395,   0.00076,   0.00140,477642568.96858,   0.00279,277642569.68225,  -0.00179,  -0.00022,   0.00155,  -0.71367,   1.00000
-468647589.22057,16638070.86627,-12134597.81896,  -0.00395,   0.00077,   0.00139,477646862.73213,   0.00280,277646866.62440,  -0.00179,  -0.00022,   0.00155,  -3.89227,   1.00000
-467767808.22405,18257338.81743,-12520491.04053,  -0.00396,   0.00078,   0.00139,477651061.21702,   0.00280,277651065.56878,  -0.00179,  -0.00022,   0.00155,  -4.35176,   1.00000
-466887979.45160,19866469.17312,-12910326.18490,  -0.00396,   0.00079,   0.00138,477655217.88366,   0.00281,277655225.18515,  -0.00180,  -0.00021,   0.00155,  -7.30149,   1.00000
-465996361.33854,21488775.70305,-13295681.88594,  -0.00396,   0.00079,   0.00138,477659285.49507,   0.00281,277659286.91351,  -0.00180,  -0.00021,   0.00155,  -1.41844,   1.00000
-465104976.55590,23101119.38387,-13680655.73093,  -0.00396,   0.00080,   0.00137,477663299.35110,   0.00281,277663307.18604,  -0.00180,  -0.00021,   0.00155,  -7.83494,   1.00000
-464205766.86726,24718658.75690,-14065213.97807,  -0.00397,   0.00081,   0.00136,477667290.86310,   0.00282,277667294.45945,  -0.00181,  -0.00021,   0.00155,  -3.59635,   1.00000
-463302296.78327,26334497.79195,-14449785.74575,  -0.00397,   0.00082,   0.00136,477671169.54507,   0.00282,277671177.07256,  -0.00181,  -0.00021,   0.00155,  -7.52750,   1.00000
-462399440.53890,27940638.30400,-14829671.46112,  -0.00397,   0.00082,   0.00135,477675009.67345,   0.00282,277675015.23323,  -0.00181,  -0.00021,   0.00155,  -5.55978,   1.00000
-461483684.26962,29560305.93538,-15213936.83491,  -0.00397,   0.00083,   0.00135,477678755.07218,   0.00283,277678759.93643,  -0.00182,  -0.00020,   0.00155,  -4.86426,   1.00000
-460568899.07094,31170471.92077,-15589196.41053,  -0.00398,   0.00084,   0.00134,477682455.38373,   0.00283,277682457.55328,  -0.00182,  -0.00020,   0.00155,  -2.16955,   1.00000
-459645684.81739,32786058.53724,-15968489.93055,  -0.00398,   0.00085,   0.00134,477686120.32009,   0.00283,277686124.49312,  -0.00182,  -0.00020,   0.00155,  -4.17303,   1.00000
-458717966.24415,34400443.97367,-16347939.17580,  -0.00398,   0.00085,   0.00133,477689679.75469,   0.00284,277689686.04586,  -0.00183,  -0.00020,   0.00155,  -6.29117,   1.00000
-457786096.74451,36013821.80166,-16723220.60888,  -0.00398,   0.00086,   0.00133,477693134.72916,   0.00284,277693139.57309,  -0.00183,  -0.00020,   0.00155,  -4.84393,   1.00000
-456850813.97070,37624500.50867,-17097803.69809,  -0.00398,   0.00087,   0.00132,477696616.71477,   0.00284,277696622.47175,  -0.00183,  -0.00020,   0.00154,  -5.75698,   1.00000
-455906059.30828,39242680.44544,-17473062.37177,  -0.00398,   0.00087,   0.00132,477699929.25168,   0.00285,277699937.32303,  -0.00183,  -0.00019,   0.00154,  -8.07135,   1.00000
-454957860.78908,40858205.41350,-17847635.85881,  -0.00399,   0.00088,   0.00131,477703280.38569,   0.00285,277703281.56744,  -0.00184,  -0.00019,   0.00154,  -1.18176,   1.00000
-454000410.94869,42481564.94467,-18218600.07902,  -0.00399,   0.00089,   0.00131,477706454.43710,   0.00285,277706455.21429,  -0.00184,  -0.00019,   0.00154,  -0.77719,   1.00000
-453047970.53978,44087364.98440,-18588983.35472,  -0.00399,   0.00089,   0.00130,477709641.41474,   0.00286,277709646.73996,  -0.00184,  -0.00019,   0.00154,  -5.32522,   1.00000
-452090674.74577,45692682.03396,-18959722.65216,  -0.00399,   0.00090,   0.00130,477712725.47878,   0.00286,277712731.73449,  -0.00184,  -0.00019,   0.00154,  -6.25571,   1.00000
-451120367.36814,47312650.53142,-19326405.31361,  -0.00399,   0.00091,   0.00129,477715713.44326,   0.00286,277715719.23415,  -0.00185,  -0.00019,   0.00154,  -5.79089,   1.00000
-450149604.60927,48923662.81879,-19697374.65978,  -0.00399,   0.00092,   0.00129,477718660.39843,   0.00287,277718664.92307,  -0.00185,  -0.00019,   0.00154,  -4.52464,   1.00000
-449170753.21847,50540877.51452,-20063841.04827,  -0.00399,   0.00092,   0.00128,477721574.79136,   0.00287,277721575.03571,  -0.00185,  -0.00018,   0.00154,  -0.24435,   1.00000
-448186744.09907,52157983.60893,-20430770.04401,  -0.00399,   0.00093,   0.00128,477724375.33216,   0.00287,277724378.59685,  -0.00185,  -0.00018,   0.00154,  -3.26469,   1.00000
-447198009.88204,53775206.34047,-20793843.70463,  -0.00400,   0.00094,   0.00127,477727066.35056,   0.00287,277727072.39354,  -0.00186,  -0.00018,   0.00154,  -6.04298,   1.00000
-446208715.02654,55383749.90251,-21161279.90641,  -0.00400,   0.00094,   0.00127,477729723.06324,   0.00288,277729723.76946,  -0.00186,  -0.00018,   0.00154,  -0.70622,   1.00000
-445211146.61254,56998740.64304,-21524280.14510,  -0.00400,   0.00095,   0.00126,477732331.00492,   0.00288,277732339.50827,  -0.00186,  -0.00018,   0.00154,  -8.50335,   1.00000
-444216942.81886,58599203.19896,-21887969.35899,  -0.00400,   0.00096,   0.00126,477734829.59434,   0.00288,277734834.67784,  -0.00186,  -0.00018,   0.00154,  -5.08350,   1.00000
-443209049.83835,60215048.00618,-22247799.42217,  -0.00400,   0.00096,   0.00125,477737230.92844,   0.00288,277737232.72703,  -0.00186,  -0.00018,   0.00154,  -1.79858,   1.00000
-442191638.43762,61837281.23543,-22611940.75051,  -0.00400,   0.00097,   0.00125,477739597.22245,   0.00289,277739601.84911,  -0.00187,  -0.00018,   0.00154,  -4.62665,   1.00000
-441183418.44771,63436602.60215,-22971962.53827,  -0.00400,   0.00097,   0.00124,477741898.56262,   0.00289,277741907.36923,  -0.00187,  -0.00017,   0.00154,  -8.80661,   1.00000
-440161270.94110,65051558.30308,-23328193.46833,  -0.00400,   0.00098,   0.00124,477744115.69900,   0.00289,277744115.89258,  -0.00187,  -0.00017,   0.00154,  -0.19358,   1.00000
-439132790.15359,66667191.24686,-23689477.68412,  -0.00400,   0.00099,   0.00123,477746214.57380,   0.00289,277746220.50922,  -0.00187,  -0.00017,   0.00154,  -5.93542,   1.00000
-438095680.25543,68289694.93290,-24046442.18170,  -0.00400,   0.00099,   0.00123,477748283.08781,   0.00289,277748289.50504,  -0.00187,  -0.00017,   0.00154,  -6.41723,   1.00000
-437067225.47942,69889508.50844,-24403726.82992,  -0.00400,   0.00100,   0.00122,477750292.73806,   0.00290,277750296.69049,  -0.00188,  -0.00017,   0.00154,  -3.95243,   1.00000
-436018196.44237,71514138.23733,-24762239.07611,  -0.00400,   0.00101,   0.00122,477752143.50460,   0.00290,277752150.57833,  -0.00188,  -0.00017,   0.00154,  -7.07372,   1.00000
-434974474.51783,73121955.70037,-25120374.58499,  -0.00400,   0.00101,   0.00121,477754013.90450,   0.00290,277754017.78920,  -0.00188,  -0.00017,   0.00154,  -3.88470,   1.00000
-433925249.82845,74731223.57452,-25475004.45112,  -0.00400,   0.00102,   0.00121,477755764.62304,   0.00290,277755773.35539,  -0.00188,  -0.00017,   0.00154,  -8.73235,   1.00000
-432869849.80333,76341906.14016,-25830499.83753,  -0.00400,   0.00103,   0.00120,477757414.50241,   0.00290,277757420.88677,  -0.00188,  -0.00017,   0.00154,  -6.38436,   1.00000
-431804918.03969,77959658.18683,-26186107.05020,  -0.00400,   0.00103,   0.00120,477759035.46555,   0.00290,277759036.57092,  -0.00188,  -0.00017,   0.00154,  -1.10537,   1.00000
-430743350.26953,79564536.80147,-26538457.37436,  -0.00400,   0.00104,   0.00119,477760519.11161,   0.00291,277760524.26879,  -0.00188,  -0.00016,   0.00154,  -5.15718,   1.00000
-429666233.08745,81185757.70005,-26891582.32950,  -0.00400,   0.00104,   0.00119,477761917.06830,   0.00291,277761920.11053,  -0.00188,  -0.00016,   0.00154,  -3.04223,   1.00000
-428588521.99904,82799611.64478,-27245038.79628,  -0.00400,   0.00105,   0.00118,477763264.04592,   0.00291,277763267.91598,  -0.00189,  -0.00016,   0.00154,  -3.87007,   1.00000
-427510220.30133,84406165.62125,-27598842.67034,  -0.00400,   0.00105,   0.00118,477764561.33406,   0.00291,277764567.36477,  -0.00189,  -0.00016,   0.00154,  -6.03070,   1.00000
-426425927.34543,86014901.99075,-27949329.54062,  -0.00400,   0.00106,   0.00117,477765752.52850,   0.00291,277765754.30462,  -0.00189,  -0.00016,   0.00154,  -1.77612,   1.00000
-425325640.84406,87640282.64753,-28300669.24749,  -0.00399,   0.00107,   0.00117,477766849.96171,   0.00291,277766850.25870,  -0.00189,  -0.00016,   0.00154,  -0.29699,   1.00000
-424233872.42243,89244046.89076,-28652605.85334,  -0.00399,   0.00107,   0.00116,477767874.06192,   0.00291,277767880.21350,  -0.00189,  -0.00016,   0.00154,  -6.15158,   1.00000
-423126586.42070,90864820.26981,-29001107.83365,  -0.00399,   0.00108,   0.00116,477768811.97074,   0.00291,277768815.05184,  -0.00189,  -0.00016,   0.00154,  -3.08111,   1.00000
-422027139.65921,92463962.05605,-29354582.36042,  -0.00399,   0.00108,   0.00115,477769679.69177,   0.00291,277769687.41906,  -0.00189,  -0.00016,   0.00154,  -7.72729,   1.00000
-420912661.51520,94080490.23592,-29700337.73486,  -0.00399,   0.00109,   0.00115,477770454.29096,   0.00292,277770460.42053,  -0.00189,  -0.00016,   0.00154,  -6.12957,   1.00000
-419796630.98726,95690013.05025,-30050897.36134,  -0.00399,   0.00109,   0.00115,477771184.12489,   0.00292,277771188.59134,  -0.00189,  -0.00016,   0.00154,  -4.46645,   1.00000
-418673346.39180,97302203.97633,-30402643.48049,  -0.00399,   0.00110,   0.00114,477771798.47647,   0.00292,277771808.38565,  -0.00189,  -0.00016,   0.00154,  -9.90919,   1.00000
-417543408.32673,98917396.25125,-30751280.78488,  -0.00399,   0.00111,   0.00114,477772309.47546,   0.00292,277772315.16904,  -0.00189,  -0.00016,   0.00154,  -5.69358,   1.00000
-416413162.76711,100526250.04230,-31096131.02050,  -0.00398,   0.00111,   0.00113,477772760.72191,   0.00292,277772767.63608,  -0.00189,  -0.00016,   0.00154,  -6.91417,   1.00000
-415274707.44520,102137850.14330,-31446568.34731,  -0.00398,   0.00112,   0.00113,477773114.45434,   0.00292,277773116.18398,  -0.00189,  -0.00016,   0.00154,  -1.72964,   1.00000
-414135874.12741,103743263.26205,-31793256.21989,  -0.00398,   0.00112,   0.00112,477773405.86368,   0.00292,277773410.04441,  -0.00189,  -0.00016,   0.00154,  -4.18073,   1.00000
-412989369.24095,105351845.03025,-32141257.68476,  -0.00398,   0.00113,   0.00112,477773590.43945,   0.00292,277773595.22859,  -0.00189,  -0.00016,   0.00154,  -4.78914,   1.00000
-411825523.35258,106978000.58630,-32490347.70506,  -0.00398,   0.00113,   0.00111,477773684.34722,   0.00292,277773691.82593,  -0.00189,  -0.00016,   0.00154,  -7.47871,   1.00000
-410670697.23211,108583898.90112,-32835997.89379,  -0.00397,   0.00114,   0.00111,477773710.46199,   0.00292,277773713.38716,  -0.00189,  -0.00016,   0.00154,  -2.92516,   1.00000
-409494995.50567,110188720.81077,-33181921.30678,  -0.00397,   0.00114,   0.00110,477757841.35492,   0.00292,277773713.38716,  -0.00189,  -0.00016,   0.00154,-15872.03224,   0.00000
-408303968.05839,111800110.88649,-33527844.71978,  -0.00397,   0.00115,   0.00110,477736510.16585,   0.00292,277773713.38716,  -0.00189,  -0.00016,   0.00154,-37203.22131,   0.00000
-407095425.50160,113393985.85270,-33873768.13277,  -0.00397,   0.00115,   0.00110,477691690.22965,   0.00292,277773713.38716,  -0.00189,  -0.00016,   0.00154,-82023.15751,   0.00000
-405878125.39005,114979103.26414,-34215312.76838,  -0.00396,   0.00116,   0.00109,477636695.23285,   0.00292,277773713.38716,  -0.00189,  -0.00016,   0.00154,-137018.15430,   0.00000
-404630173.83685,116577357.00772,-34556857.40400,  -0.00396,   0.00116,   0.00109,477565810.29062,   0.00292,277773713.38716,  -0.00189,  -0.00016,   0.00154,-207903.09654,   0.00000
-403364707.17412,118158095.64178,-34898402.03961,  -0.00396,   0.00117,   0.00108,477471385.11424,   0.00292,277773713.38716,  -0.00189,  -0.00016,   0.00154,-302328.27292,   0.00000
-402083914.79057,119745402.44191,-35235567.89785,  -0.00396,   0.00117,   0.00108,477370686.01513,   0.00292,277773713.38716,  -0.00189,  -0.00016,   0.00154,-403027.37203,   0.00000
-400785607.29749,121315194.13253,-35572733.75608,  -0.00395,   0.00118,   0.00107,477246394.70581,   0.00292,277773713.38716,  -0.00189,  -0.00016,   0.00154,-527318.68135,   0.00000
-399463216.52883,122882796.43445,-35909899.61432,  -0.00395,   0.00118,   0.00107,477102465.73436,   0.00292,277773713.38716,  -0.00189,  -0.00016,   0.00154,-671247.65280,   0.00000
-398132068.20541,124441641.18161,-36247065.47255,  -0.00395,   0.00118,   0.00106,476949287.69641,   0.00292,277773713.38716,  -0.00189,  -0.00016,   0.00154,-824425.69074,   0.00000
-396770268.44033,126013622.26092,-36579852.55341,  -0.00394,   0.00119,   0.00106,476779607.87309,   0.00292,277773713.38716,  -0.00189,  -0.00016,   0.00154,-994105.51406,   0.00000
-395406279.28656,127561520.06463,-36912639.63426,  -0.00394,   0.00119,   0.00106,476596603.03410,   0.00292,277773713.38716,  -0.00189,  -0.00016,   0.00154,-1177110.35306,   0.00000
-394018206.85721,129107228.47966,-37245426.71512,  -0.00394,   0.00120,   0.00105,476394046.84788,   0.00292,277773713.38716,  -0.00189,  -0.00016,   0.00154,-1379666.53928,   0.00000
-392621376.87309,130644179.33992,-37573835.01859,  -0.00393,   0.00120,   0.00105,476181188.18369,   0.00292,277773713.38716,  -0.00189,  -0.00016,   0.00154,-1592525.20346,   0.00000
-391200463.61339,132178940.81150,-37902243.32207,  -0.00393,   0.00121,   0.00104,475948818.88424,   0.00292,277773713.38716,  -0.00189,  -0.00016,   0.00154,-1824894.50292,   0.00000
-389755467.07810,133711512.89438,-38230651.62555,  -0.00393,   0.00121,   0.00104,475696998.23604,   0.00292,277773713.38716,  -0.00189,  -0.00016,   0.00154,-2076715.15112,   0.00000
-388286387.26721,135241895.58858,-38559059.92902,  -0.00392,   0.00121,   0.00103,475425787.28179,   0.00292,277773713.38716,  -0.00189,  -0.00016,   0.00154,-2347926.10537,   0.00000
-386830443.78847,136741626.84112,-38883089.45512,  -0.00392,   0.00122,   0.00103,475150053.01986,   0.00292,277773713.38716,  -0.00189,  -0.00016,   0.00154,-2623660.36730,   0.00000
-385328523.14724,138261062.59186,-39207118.98121,  -0.00392,   0.00122,   0.00103,474849152.65122,   0.00292,277773713.38716,  -0.00189,  -0.00016,   0.00154,-2924560.73594,   0.00000
-383817844.95126,139771740.78785,-39526769.72993,  -0.00391,   0.00123,   0.00102,474537946.36048,   0.00292,277773713.38716,  -0.00189,  -0.00016,   0.00154,-3235767.02668,   0.00000
-382289651.64575,141264903.87432,-39850799.25602,  -0.00391,   0.00123,   0.00102,474204091.41842,   0.00292,277773713.38716,  -0.00189,  -0.00016,   0.00154,-3569621.96874,   0.00000
-380752700.78549,142749309.40603,-40170450.00474,  -0.00390,   0.00123,   0.00101,473859857.70447,   0.00292,277773713.38716,  -0.00189,  -0.00016,   0.00154,-3913855.68269,   0.00000
-379185098.48356,144246851.26988,-40490100.75346,  -0.00390,   0.00124,   0.00101,473500891.54620,   0.00292,277773713.38716,  -0.00189,  -0.00016,   0.00154,-4272821.84095,   0.00000
-377599981.07212,145726878.02421,-40805372.72479,  -0.00390,   0.00124,   0.00101,473117078.95363,   0.00292,277773713.38716,  -0.00189,  -0.00016,   0.00154,-4656634.43353,   0.00000
-376006106.10592,147198147.22378,-41120644.69613,  -0.00389,   0.00124,   0.00100,472724032.39030,   0.00292,277773713.38716,  -0.00189,  -0.00016,   0.00154,-5049680.99686,   0.00000
-374410041.75103,148645333.14776,-41435916.66747,  -0.00389,   0.00125,   0.00100,472317081.40907,   0.00292,277773713.38716,  -0.00189,  -0.00016,   0.00154,-5456631.97808,   0.00000
-372768000.23365,150112223.56995,-41751188.63880,  -0.00388,   0.00125,   0.00099,471885770.40674,   0.00292,277773713.38716,  -0.00189,  -0.00016,   0.00154,-5887942.98041,   0.00000
-371117201.16151,151570356.43738,-42062081.83276,  -0.00388,   0.00126,   0.00099,471444135.17714,   0.00292,277773713.38716,  -0.00189,  -0.00016,   0.00154,-6329578.21002,   0.00000
-369464212.70069,153004406.02923,-42372975.02672,  -0.00387,   0.00126,   0.00099,470988547.82475,   0.00292,277773713.38716,  -0.00189,  -0.00016,   0.00154,-6785165.56241,   0.00000
-367787140.96427,154436266.23238,-42683868.22067,  -0.00387,   0.00126,   0.00098,470513923.30527,   0.00292,277773713.38716,  -0.00189,  -0.00016,   0.00154,-7259790.08189,   0.00000
-366085985.95227,155865937.04684,-42990382.63725,  -0.00386,   0.00126,   0.00098,470019141.82317,   0.00292,277773713.38716,  -0.00189,  -0.00016,   0.00154,-7754571.56398,   0.00000
-364376073.38550,157286850.30655,-43301275.83121,  -0.00386,   0.00127,   0.00097,469516392.16421,   0.00292,277773713.38716,  -0.00189,  -0.00016,   0.00154,-8257321.22295,   0.00000
-362642077.54315,158705574.17756,-43603411.47041,  -0.00385,   0.00127,   0.00097,468992353.12833,   0.00292,277773713.38716,  -0.00189,  -0.00016,   0.00154,-8781360.25883,   0.00000
-360890566.59128,160106782.93906,-43909925.88698,  -0.00385,   0.00127,   0.00097,468445787.02541,   0.00292,277773713.38716,  -0.00189,  -0.00016,   0.00154,-9327926.36174,   0.00000
-359123729.91859,161514559.86662,-44212061.52618,  -0.00384,   0.00128,   0.00096,467893830.65840,   0.00292,277773713.38716,  -0.00189,  -0.00016,   0.00154,-9879882.72876,   0.00000
-357339378.13637,162904821.68467,-44514197.16538,  -0.00384,   0.00128,   0.00096,467318158.23810,   0.00292,277773713.38716,  -0.00189,  -0.00016,   0.00154,-10455555.14906,   0.00000
-355546268.79939,164286325.94796,-44816332.80458,  -0.00383,   0.00128,   0.00095,466733379.36595,   0.00292,277773713.38716,  -0.00189,  -0.00016,   0.00154,-11040334.02121,   0.00000
-353735644.35290,165650315.10172,-45118468.44377,  -0.00383,   0.00129,   0.00095,466124857.21421,   0.00292,277773713.38716,  -0.00189,  -0.00016,   0.00154,-11648856.17295,   0.00000
-351909694.18557,167020872.42156,-45416225.30559,  -0.00382,   0.00129,   0.00095,465511084.06326,   0.00292,277773713.38716,  -0.00189,  -0.00016,   0.00154,-12262629.32390,   0.00000
-350066228.90873,168373914.63188,-45713982.16741,  -0.00381,   0.00129,   0.00094,464873601.73431,   0.00292,277773713.38716,  -0.00189,  -0.00016,   0.00154,-12900111.65284,   0.00000
-348198680.35630,169724767.45351,-46007360.25185,  -0.00381,   0.00129,   0.00094,464216317.39108,   0.00292,277773713.38716,  -0.00189,  -0.00016,   0.00154,-13557395.99607,   0.00000
-346322374.24911,171066862.72038,-46305117.11366,  -0.00380,   0.00130,   0.00093,463551326.27567,   0.00292,277773713.38716,  -0.00189,  -0.00016,   0.00154,-14222387.11149,   0.00000
-344437310.58716,172400200.43249,-46598495.19810,  -0.00380,   0.00130,   0.00093,462876020.85171,   0.00292,277773713.38716,  -0.00189,  -0.00016,   0.00154,-14897692.53544,   0.00000
-342519406.09486,173722591.20115,-46887494.50516,  -0.00379,   0.00130,   0.00093,462166368.78035,   0.00292,277773713.38716,  -0.00189,  -0.00016,   0.00154,-15607344.60681,   0.00000
-340592744.04781,175036224.41506,-47180872.58960,  -0.00378,   0.00130,   0.00092,461449097.24880,   0.00292,277773713.38716,  -0.00189,  -0.00016,   0.00154,-16324616.13836,   0.00000
-338657324.44599,176341100.07420,-47469871.89666,  -0.00378,   0.00130,   0.00092,460721540.98863,   0.00292,277773713.38716,  -0.00189,  -0.00016,   0.00154,-17052172.39852,   0.00000
-336697821.56859,177643786.34465,-47758871.20372,  -0.00377,   0.00131,   0.00092,459975807.06956,   0.00292,277773713.38716,  -0.00189,  -0.00016,   0.00154,-17797906.31760,   0.00000
-334720803.58166,178928957.50559,-48043491.73339,  -0.00377,   0.00131,   0.00091,459205143.61067,   0.00292,277773713.38716,  -0.00189,  -0.00016,   0.00154,-18568569.77648,   0.00000
-332728459.87391,180220696.83259,-48332491.04045,  -0.00376,   0.00131,   0.00091,458432515.79914,   0.00292,277773713.38716,  -0.00189,  -0.00016,   0.00154,-19341197.58802,   0.00000
-330740494.94354,181473027.16318,-48617111.57013,  -0.00375,   0.00131,   0.00090,457638595.42043,   0.00292,277773713.38716,  -0.00189,  -0.00016,   0.00154,-20135117.96673,   0.00000
-328721878.57151,182738493.82590,-48897353.32243,  -0.00375,   0.00131,   0.00090,456830849.48473,   0.00292,277773713.38716,  -0.00189,  -0.00016,   0.00154,-20942863.90243,   0.00000
-326685747.08996,183986445.37911,-49181973.85211,  -0.00374,   0.00132,   0.00090,456001029.00546,   0.00292,277773713.38716,  -0.00189,  -0.00016,   0.00154,-21772684.38170,   0.00000
-324634289.88758,185240965.09839,-49462215.60441,  -0.00373,   0.00132,   0.00089,455166715.39305,   0.00292,277773713.38716,  -0.00189,  -0.00016,   0.00154,-22606997.99411,   0.00000
-322571885.74176,186462643.98731,-49742457.35671,  -0.00372,   0.00132,   0.00089,454303292.91869,   0.00292,277773713.38716,  -0.00189,  -0.00016,   0.00154,-23470420.46846,   0.00000
-320478830.15427,187697459.20838,-50022699.10901,  -0.00372,   0.00132,   0.00089,453427932.75097,   0.00292,277773713.38716,  -0.00189,  -0.00016,   0.00154,-24345780.63619,   0.00000
-318383585.17810,188908191.15386,-50298562.08393,  -0.00371,   0.00132,   0.00088,452536755.64322,   0.00292,277773713.38716,  -0.00189,  -0.00016,   0.00154,-25236957.74393,   0.00000
-316279582.64717,190110165.54458,-50574425.05885,  -0.00370,   0.00132,   0.00088,451636945.64149,   0.00292,277773713.38716,  -0.00189,  -0.00016,   0.00154,-26136767.74566,   0.00000
-314151496.84064,191309950.54661,-50850288.03377,  -0.00370,   0.00132,   0.00087,450719672.13496,   0.00292,277773713.38716,  -0.00189,  -0.00016,   0.00154,-27054041.25220,   0.00000
-312021221.64543,192485652.27306,-51121772.23131,  -0.00369,   0.00133,   0.00087,449786487.40014,   0.00292,277773713.38716,  -0.00189,  -0.00016,   0.00154,-27987225.98701,   0.00000
-309866863.17463,193659164.61081,-51397635.20622,  -0.00368,   0.00133,   0.00087,448837446.64276,   0.00292,277773713.38716,  -0.00189,  -0.00016,   0.00154,-28936266.74440,   0.00000
-307688421.42825,194830487.55987,-51664740.62639,  -0.00367,   0.00133,   0.00086,447868178.14977,   0.00292,277773713.38716,  -0.00189,  -0.00016,   0.00154,-29905535.23739,   0.00000
-305507790.29317,195977727.23335,-51936224.82392,  -0.00367,   0.00133,   0.00086,446886021.53344,   0.00292,277773713.38716,  -0.00189,  -0.00016,   0.00154,-30887691.85372,   0.00000
-303311833.43726,197131535.07289,-52207709.02146,  -0.00366,   0.00133,   0.00086,445901527.69231,   0.00292,277773713.38716,  -0.00189,  -0.00016,   0.00154,-31872185.69484,   0.00000
-301104929.63791,198252502.08209,-52474814.44162,  -0.00365,   0.00133,   0.00085,444886342.08758,   0.00292,277773713.38716,  -0.00189,  -0.00016,   0.00154,-32887371.29957,   0.00000
-298867374.39689,199386605.42342,-52741919.86178,  -0.00364,   0.00133,   0.00085,443860346.82780,   0.00292,277773713.38716,  -0.00189,  -0.00016,   0.00154,-33913366.55935,   0.00000
-296627629.76719,200496625.48917,-53004646.50457,  -0.00363,   0.00133,   0.00085,442818432.34247,   0.00292,277773713.38716,  -0.00189,  -0.00016,   0.00154,-34955281.04469,   0.00000
-294379127.58273,201597888.00016,-53271751.92473,  -0.00363,   0.00133,   0.00084,441769881.56040,   0.00292,277773713.38716,  -0.00189,  -0.00016,   0.00154,-36003831.82676,   0.00000
-292113110.28875,202681635.40163,-53534478.56751,  -0.00362,   0.00133,   0.00084,440696833.01983,   0.00292,277773713.38716,  -0.00189,  -0.00016,   0.00154,-37076880.36733,   0.00000
-289831767.27394,203771950.96917,-53792826.43291,  -0.00361,   0.00133,   0.00084,439620348.16428,   0.00292,277773713.38716,  -0.00189,  -0.00016,   0.00154,-38153365.22287,   0.00000
-287539477.31568,204829425.70636,-54055553.07569,  -0.00360,   0.00133,   0.00083,438516361.28154,   0.00292,277773713.38716,  -0.00189,  -0.00016,   0.00154,-39257352.10562,   0.00000
-285216535.91576,205900036.77569,-54313900.94109,  -0.00359,   0.00133,   0.00083,437400722.72965,   0.00292,277773713.38716,  -0.00189,  -0.00016,   0.00154,-40372990.65751,   0.00000
-282891405.12715,206946564.56943,-54572248.80649,  -0.00358,   0.00134,   0.00083,436270813.98895,   0.00292,277773713.38716,  -0.00189,  -0.00016,   0.00154,-41502899.39821,   0.00000
-280557516.78379,207984334.80841,-54830596.67189,  -0.00358,   0.00134,   0.00082,435133031.66680,   0.00292,277773713.38716,  -0.00189,  -0.00016,   0.00154,-42640681.72035,   0.00000
-278214870.88566,209013347.49264,-55084565.75991,  -0.00357,   0.00134,   0.00082,433985764.11320,   0.00292,277773713.38716,  -0.00189,  -0.00016,   0.00154,-43787949.27396,   0.00000
-275839384.15719,210031413.23341,-55338534.84793,  -0.00356,   0.00134,   0.00082,432807759.16607,   0.00292,277773713.38716,  -0.00189,  -0.00016,   0.00154,-44965954.22109,   0.00000
-273470465.59478,211034153.25335,-55592503.93595,  -0.00355,   0.00134,   0.00081,431630278.15503,   0.00292,277773713.38716,  -0.00189,  -0.00016,   0.00154,-46143435.23212,   0.00000
-271084031.92286,212019378.16378,-55846473.02397,  -0.00354,   0.00134,   0.00081,430430392.28960,   0.00292,277773713.38716,  -0.00189,  -0.00016,   0.00154,-47343321.09756,   0.00000
-268673514.97535,213002413.68552,-56096063.33462,  -0.00353,   0.00133,   0.00081,429213114.93606,   0.00292,277773713.38716,  -0.00189,  -0.00016,   0.00154,-48560598.45110,   0.00000
-266254240.47308,213976691.65250,-56350032.42264,  -0.00352,   0.00133,   0.00080,427990099.32172,   0.00292,277773713.38716,  -0.00189,  -0.00016,   0.00154,-49783614.06543,   0.00000
-263832776.58212,214926886.34388,-56595243.95590,  -0.00351,   0.00133,   0.00080,426749484.56214,   0.00292,277773713.38716,  -0.00189,  -0.00016,   0.00154,-51024228.82502,   0.00000
-261402555.13640,215868323.48051,-56844834.26654,  -0.00350,   0.00133,   0.00080,425503191.28453,   0.00292,277773713.38716,  -0.00189,  -0.00016,   0.00154,-52270522.10263,   0.00000
-258932924.69427,216814139.39452,-57094424.57718,  -0.00349,   0.00133,   0.00079,424233744.19535,   0.00292,277773713.38716,  -0.00189,  -0.00016,   0.00154,-53539969.19180,   0.00000
-256476430.58427,217729303.86688,-57339636.11044,  -0.00349,   0.00133,   0.00079,422956434.52347,   0.00292,277773713.38716,  -0.00189,  -0.00016,   0.00154,-54817278.86368,   0.00000
-253995853.19868,218642278.95054,-57580468.86632,  -0.00348,   0.00133,   0.00079,421662309.15124,   0.00292,277773713.38716,  -0.00189,  -0.00016,   0.00154,-56111404.23592,   0.00000
-251506518.25834,219546496.47944,-57825680.39959,  -0.00347,   0.00133,   0.00078,420362933.31979,   0.00292,277773713.38716,  -0.00189,  -0.00016,   0.00154,-57410780.06737,   0.00000
-248999668.20848,220433198.89882,-58066513.15547,  -0.00346,   0.00133,   0.00078,419040073.48074,   0.00292,277773713.38716,  -0.00189,  -0.00016,   0.00154,-58733639.90642,   0.00000
-246484060.60385,221311143.76345,-58311724.68873,  -0.00345,   0.00133,   0.00078,417712168.32392,   0.00292,277773713.38716,  -0.00189,  -0.00016,   0.00154,-60061545.06324,   0.00000
-243966263.61054,222165005.35249,-58548178.66723,  -0.00344,   0.00133,   0.00077,416366738.96935,   0.00292,277773713.38716,  -0.00189,  -0.00016,   0.00154,-61406974.41781,   0.00000
-241424383.34164,223016677.55283,-58789011.42311,  -0.00343,   0.00133,   0.00077,415008769.52663,   0.00292,277773713.38716,  -0.00189,  -0.00016,   0.00154,-62764943.86052,   0.00000
-238873745.51798,223859592.19842,-59025465.40162,  -0.00342,   0.00133,   0.00077,413642332.54495,   0.00292,277773713.38716,  -0.00189,  -0.00016,   0.00154,-64131380.84220,   0.00000
-236320918.30563,224678423.56842,-59261919.38012,  -0.00341,   0.00133,   0.00077,412262182.46767,   0.00292,277773713.38716,  -0.00189,  -0.00016,   0.00154,-65511530.91949,   0.00000
-233744007.81769,225495065.54973,-59498373.35862,  -0.00340,   0.00132,   0.00076,410868075.46903,   0.00292,277773713.38716,  -0.00189,  -0.00016,   0.00154,-66905637.91812,   0.00000
-231158339.77499,226302949.97628,-59734827.33712,  -0.00339,   0.00132,   0.00076,409467661.98222,   0.00292,277773713.38716,  -0.00189,  -0.00016,   0.00154,-68306051.40494,   0.00000
-228555156.62278,227093319.29331,-59966902.53825,  -0.00338,   0.00132,   0.00076,408044449.35041,   0.00292,277773713.38716,  -0.00189,  -0.00016,   0.00154,-69729264.03675,   0.00000
-225958541.63663,227868362.88951,-60203356.51675,  -0.00337,   0.00132,   0.00075,406624382.83481,   0.00292,277773713.38716,  -0.00189,  -0.00016,   0.00154,-71149330.55235,   0.00000
-223344411.54097,228625891.37619,-60431052.94049,  -0.00336,   0.00132,   0.00075,405179683.62823,   0.00292,277773713.38716,  -0.00189,  -0.00016,   0.00154,-72594029.75892,   0.00000
-220699630.00364,229396556.19502,-60663128.14161,  -0.00335,   0.00132,   0.00075,403731206.50008,   0.00292,277773713.38716,  -0.00189,  -0.00016,   0.00154,-74042506.88708,   0.00000
-218074552.96453,230121243.85135,-60890824.56536,  -0.00333,   0.00131,   0.00074,402267277.38115,   0.00292,277773713.38716,  -0.00189,  -0.00016,   0.00154,-75506436.00600,   0.00000
-215418824.48376,230859067.83983,-61122899.76648,  -0.00332,   0.00131,   0.00074,400799943.59892,   0.00292,277773713.38716,  -0.00189,  -0.00016,   0.00154,-76973769.78823,   0.00000
-212760906.61429,231572808.55272,-61350596.19022,  -0.00331,   0.00131,   0.00074,399317538.68057,   0.00292,277773713.38716,  -0.00189,  -0.00016,   0.00154,-78456174.70658,   0.00000
-210085473.63531,232269034.15608,-61573913.83659,  -0.00330,   0.00131,   0.00074,397813022.79757,   0.00292,277773713.38716,  -0.00189,  -0.00016,   0.00154,-79960690.58959,   0.00000
-207416608.82240,232949934.03862,-61801610.26033,  -0.00329,   0.00131,   0.00073,396312154.51962,   0.00292,277773713.38716,  -0.00189,  -0.00016,   0.00154,-81461558.86753,   0.00000
-204723660.73390,233628644.53247,-62024927.90669,  -0.00328,   0.00130,   0.00073,394797045.60299,   0.00292,277773713.38716,  -0.00189,  -0.00016,   0.00154,-82976667.78417,   0.00000
-202021955.09064,234298597.47156,-62248245.55306,  -0.00327,   0.00130,   0.00073,393276869.48928,   0.00292,277773713.38716,  -0.00189,  -0.00016,   0.00154,-84496843.89787,   0.00000
-199302734.33787,234951035.30113,-62471563.19942,  -0.00326,   0.00130,   0.00072,391737209.49176,   0.00292,277773713.38716,  -0.00189,  -0.00016,   0.00154,-86036503.89540,   0.00000
-196596649.91723,235572821.68905,-62690502.06840,  -0.00325,   0.00130,   0.00072,390189597.22371,   0.00292,277773713.38716,  -0.00189,  -0.00016,   0.00154,-87584116.16345,   0.00000
-193859914.05493,236207744.40910,-62913819.71477,  -0.00324,   0.00129,   0.00072,388640481.62767,   0.00292,277773713.38716,  -0.00189,  -0.00016,   0.00154,-89133231.75949,   0.00000
-191127556.97002,236803258.13274,-63132758.58375,  -0.00323,   0.00129,   0.00072,387068973.08392,   0.00292,277773713.38716,  -0.00189,  -0.00016,   0.00154,-90704740.30324,   0.00000
-188364548.44344,237411908.18851,-63351697.45273,  -0.00321,   0.00129,   0.00071,385494379.79232,   0.00292,277773713.38716,  -0.00189,  -0.00016,   0.00154,-92279333.59484,   0.00000
-185614676.24901,237989906.80263,-63566257.54434,  -0.00320,   0.00129,   0.00071,383912008.89687,   0.00292,277773713.38716,  -0.00189,  -0.00016,   0.00154,-93861704.49029,   0.00000
-182840720.77898,238565716.02805,-63785196.41332,  -0.00319,   0.00128,   0.00071,382321214.89023,   0.00292,277773713.38716,  -0.00189,  -0.00016,   0.00154,-95452498.49693,   0.00000
-180079901.64110,239110873.81182,-63999756.50493,  -0.00318,   0.00128,   0.00070,380722668.20553,   0.00292,277773713.38716,  -0.00189,  -0.00016,   0.00154,-97051045.18162,   0.00000
-177294999.22763,239653842.20690,-64214316.59653,  -0.00317,   0.00128,   0.00070,379113893.14097,   0.00292,277773713.38716,  -0.00189,  -0.00016,   0.00154,-98659820.24618,   0.00000
-174486013.53856,240194621.21329,-64428876.68813,  -0.00316,   0.00128,   0.00070,377495254.75584,   0.00292,277773713.38716,  -0.00189,  -0.00016,   0.00154,-100278458.63132,   0.00000
-171690164.18164,240704748.77803,-64639058.00236,  -0.00314,   0.00127,   0.00070,375869059.45596,   0.00292,277773713.38716,  -0.00189,  -0.00016,   0.00154,-101904653.93119,   0.00000
-168885557.26996,241206118.78800,-64853618.09396,  -0.00313,   0.00127,   0.00069,374241804.61731,   0.00292,277773713.38716,  -0.00189,  -0.00016,   0.00154,-103531908.76984,   0.00000
-166056867.08269,241705299.40928,-65063799.40819,  -0.00312,   0.00127,   0.00069,372603077.85273,   0.00292,277773713.38716,  -0.00189,  -0.00016,   0.00154,-105170635.53443,   0.00000
-163241313.22756,242173828.58891,-65273980.72241,  -0.00311,   0.00126,   0.00069,370959217.54812,   0.00292,277773713.38716,  -0.00189,  -0.00016,   0.00154,-106814495.83903,   0.00000
-160401676.09684,242640168.37984,-65479783.25926,  -0.00310,   0.00126,   0.00068,369304271.23127,   0.00292,277773713.38716,  -0.00189,  -0.00016,   0.00154,-108469442.15589,   0.00000
-157553281.41137,243097750.61602,-65689964.57348,  -0.00308,   0.00126,   0.00068,367649174.46980,   0.00292,277773713.38716,  -0.00189,  -0.00016,   0.00154,-110124538.91735,   0.00000
-154702697.33720,243531249.57660,-65895767.11033,  -0.00307,   0.00125,   0.00068,365980999.02634,   0.00292,277773713.38716,  -0.00189,  -0.00016,   0.00154,-111792714.36081,   0.00000
-151843355.70827,243955990.98243,-66101569.64717,  -0.00306,   0.00125,   0.00068,364310690.28281,   0.00292,277773713.38716,  -0.00189,  -0.00016,   0.00154,-113463023.10435,   0.00000
-148981824.69065,244356649.11267,-66307372.18401,  -0.00305,   0.00124,   0.00067,362629919.24506,   0.00292,277773713.38716,  -0.00189,  -0.00016,   0.00154,-115143794.14210,   0.00000
-146096210.39745,244755117.85422,-66513174.72086,  -0.00304,   0.00124,   0.00067,360941785.93861,   0.00292,277773713.38716,  -0.00189,  -0.00016,   0.00154,-116831927.44854,   0.00000
-143217164.27031,245138260.87495,-66714598.48032,  -0.00302,   0.00124,   0.00067,359255400.25762,   0.00292,277773713.38716,  -0.00189,  -0.00016,   0.00154,-118518313.12954,   0.00000
-140335928.75449,245497320.62008,-66916022.23979,  -0.00301,   0.00123,   0.00067,357559035.57898,   0.00292,277773713.38716,  -0.00189,  -0.00016,   0.00154,-120214677.80818,   0.00000
-137445935.68390,245847622.81045,-67117445.99925,  -0.00300,   0.00123,   0.00066,355861560.30514,   0.00292,277773713.38716,  -0.00189,  -0.00016,   0.00154,-121912153.08202,   0.00000
-134531859.33773,246195735.61214,-67318869.75872,  -0.00299,   0.00122,   0.00066,354157905.68638,   0.00292,277773713.38716,  -0.00189,  -0.00016,   0.00154,-123615807.70078,   0.00000
-131630919.32370,246513196.97216,-67520293.51818,  -0.00297,   0.00122,   0.00066,352450257.56361,   0.00292,277773713.38716,  -0.00189,  -0.00016,   0.00154,-125323455.82355,   0.00000
-128705896.03407,246828468.94350,-67717338.50027,  -0.00296,   0.00122,   0.00066,350734506.16912,   0.00292,277773713.38716,  -0.00189,  -0.00016,   0.00154,-127039207.21803,   0.00000
-125787440.91052,247128415.19401,-67918762.25973,  -0.00295,   0.00121,   0.00065,349026445.43262,   0.00292,277773713.38716,  -0.00189,  -0.00016,   0.00154,-128747267.95454,   0.00000
-122866796.39828,247404278.16893,-68115807.24182,  -0.00294,   0.00121,   0.00065,347307050.28249,   0.00292,277773713.38716,  -0.00189,  -0.00016,   0.00154,-130466663.10467,   0.00000
-119922068.61045,247677951.75516,-68312852.22391,  -0.00292,   0.00120,   0.00065,345583072.48187,   0.00292,277773713.38716,  -0.00189,  -0.00016,   0.00154,-132190640.90528,   0.00000
-116983908.98869,247936299.62056,-68505518.42861,  -0.00291,   0.00120,   0.00065,343862209.76887,   0.00292,277773713.38716,  -0.00189,  -0.00016,   0.00154,-133911503.61829,   0.00000
-114043559.97824,248170564.21037,-68702563.41070,  -0.00290,   0.00119,   0.00064,342135855.75757,   0.00292,277773713.38716,  -0.00189,  -0.00016,   0.00154,-135637857.62959,   0.00000
-111094453.41303,248396071.24542,-68895229.61540,  -0.00288,   0.00119,   0.00064,340408092.65576,   0.00292,277773713.38716,  -0.00189,  -0.00016,   0.00154,-137365620.73140,   0.00000
-108136589.29306,248612820.72572,-69087895.82011,  -0.00287,   0.00118,   0.00064,338681873.01284,   0.00292,277773713.38716,  -0.00189,  -0.00016,   0.00154,-139091840.37431,   0.00000
-105169967.61833,248820812.65125,-69280562.02481,  -0.00286,   0.00118,   0.00064,336957541.13833,   0.00292,277773713.38716,  -0.00189,  -0.00016,   0.00154,-140816172.24883,   0.00000
-102201156.55491,249004721.30120,-69473228.22952,  -0.00284,   0.00117,   0.00063,335226172.09573,   0.00292,277773713.38716,  -0.00189,  -0.00016,   0.00154,-142547541.29143,   0.00000
-99223587.93673,249179872.39638,-69665894.43422,  -0.00283,   0.00117,   0.00063,333497317.43039,   0.00292,277773713.38716,  -0.00189,  -0.00016,   0.00154,-144276395.95677,   0.00000
-96243829.92986,249330940.21598,-69854181.86155,  -0.00282,   0.00116,   0.00063,331759215.88645,   0.00292,277773713.38716,  -0.00189,  -0.00016,   0.00154,-146014497.50070,   0.00000
