# sigma_xx, sigma_yy, sigma_xy, epsilon_xx, epsilon_yy, epsilon_xy, vonMises, epsPlastic, hardening, epsilonP__xx, epsilonP__yy, epsilonP__xy, yieldValue, iteration
   0.00000,   0.00000,   0.00000,   0.00000,   0.00000,   0.00000,   0.00000,   0.00000,274640135.82653,   0.00000,   0.00000,   0.00000,-474640135.82653,   0.00000
   0.00000,   0.00000,   0.00000,   0.00000,   0.00000,   0.00000,   0.00000,   0.00000,274640135.82653,   0.00000,   0.00000,   0.00000,-474640135.82653,   0.00000
-1511538.56622,-1377551.76810,-238663.98414,  -0.00000,  -0.00000,  -0.00000,1507002.51443,   0.00000,274640135.82653,   0.00000,   0.00000,   0.00000,-473133133.31210,   0.00000
-3023077.13243,-2755103.53620,-473140.88084,  -0.00001,  -0.00001,  -0.00001,3012023.77571,   0.00000,274640135.82653,   0.00000,   0.00000,   0.00000,-471628112.05082,   0.00000
-4540896.32981,-4147310.11035,-703430.69009,  -0.00001,  -0.00001,  -0.00001,4524583.91215,   0.00000,274640135.82653,   0.00000,   0.00000,   0.00000,-470115551.91438,   0.00000
-6052434.89602,-5524861.87845,-933720.49935,  -0.00002,  -0.00001,  -0.00001,6027661.40642,   0.00000,274640135.82653,   0.00000,   0.00000,   0.00000,-468612474.42011,   0.00000
-7555599.28736,-6910787.82144,-1164010.30861,  -0.00002,  -0.00002,  -0.00002,7529653.73447,   0.00000,274640135.82653,   0.00000,   0.00000,   0.00000,-467110482.09206,   0.00000
-9073418.48473,-8302994.39558,-1390113.03043,  -0.00003,  -0.00002,  -0.00002,9040317.40686,   0.00000,274640135.82653,   0.00000,   0.00000,   0.00000,-465599818.41967,   0.00000
-10576582.87607,-9688920.33857,-1612028.66480,  -0.00003,  -0.00002,  -0.00002,10538478.20937,   0.00000,274640135.82653,   0.00000,   0.00000,   0.00000,-464101657.61716,   0.00000
-12079747.26740,-11074846.28155,-1833944.29918,  -0.00003,  -0.00003,  -0.00002,12036661.71226,   0.00000,274640135.82653,   0.00000,   0.00000,   0.00000,-462603474.11427,   0.00000
-13582911.65874,-12460772.22454,-2051672.84611,  -0.00004,  -0.00003,  -0.00003,13532954.20955,   0.00000,274640135.82653,   0.00000,   0.00000,   0.00000,-461107181.61698,   0.00000
-15092356.68123,-13861352.97356,-2269401.39304,  -0.00004,  -0.00003,  -0.00003,15038829.78619,   0.00000,274640135.82653,   0.00000,   0.00000,   0.00000,-459601306.04034,   0.00000
-16580866.26652,-15240998.28539,-2487129.93998,  -0.00005,  -0.00004,  -0.00003,16524577.04633,   0.00000,274640135.82653,   0.00000,   0.00000,   0.00000,-458115558.78020,   0.00000
-18090311.28902,-16641579.03442,-2700671.39947,  -0.00005,  -0.00004,  -0.00004,18028617.48007,   0.00000,274640135.82653,   0.00000,   0.00000,   0.00000,-456611518.34646,   0.00000
-19585101.50547,-18035879.15228,-2910025.77152,  -0.00005,  -0.00004,  -0.00004,19520229.60444,   0.00000,274640135.82653,   0.00000,   0.00000,   0.00000,-455119906.22209,   0.00000
-21079891.72192,-19430179.27015,-3119380.14358,  -0.00006,  -0.00005,  -0.00004,21011882.91815,   0.00000,274640135.82653,   0.00000,   0.00000,   0.00000,-453628252.90838,   0.00000
-22574681.93837,-20824479.38802,-3324547.42819,  -0.00006,  -0.00005,  -0.00004,22501712.25686,   0.00000,274640135.82653,   0.00000,   0.00000,   0.00000,-452138423.56967,   0.00000
-24054817.34878,-22212498.87472,-3529714.71280,  -0.00007,  -0.00005,  -0.00005,23981000.78213,   0.00000,274640135.82653,   0.00000,   0.00000,   0.00000,-450659135.04440,   0.00000
-25555888.19639,-23621453.79863,-3730694.90997,  -0.00007,  -0.00006,  -0.00005,25478687.60920,   0.00000,274640135.82653,   0.00000,   0.00000,   0.00000,-449161448.21733,   0.00000
-27042304.23796,-25024128.09138,-3931675.10714,  -0.00007,  -0.00006,  -0.00005,26965854.84533,   0.00000,274640135.82653,   0.00000,   0.00000,   0.00000,-447674280.98120,   0.00000
-28522439.64837,-26412147.57808,-4128468.21687,  -0.00008,  -0.00006,  -0.00005,28441606.27241,   0.00000,274640135.82653,   0.00000,   0.00000,   0.00000,-446198529.55412,   0.00000
-30008855.68994,-27814821.87083,-4325261.32659,  -0.00008,  -0.00007,  -0.00006,29927051.58536,   0.00000,274640135.82653,   0.00000,   0.00000,   0.00000,-444713084.24117,   0.00000
-31486897.55663,-29225870.33846,-4517867.34888,  -0.00009,  -0.00007,  -0.00006,31409832.94413,   0.00000,274640135.82653,   0.00000,   0.00000,   0.00000,-443230302.88240,   0.00000
-32973313.59819,-30628544.63121,-4710473.37117,  -0.00009,  -0.00008,  -0.00006,32893589.44888,   0.00000,274640135.82653,   0.00000,   0.00000,   0.00000,-441746546.37765,   0.00000
-34445074.83372,-32024938.29280,-4903079.39346,  -0.00009,  -0.00008,  -0.00006,34366830.22237,   0.00000,274640135.82653,   0.00000,   0.00000,   0.00000,-440273305.60416,   0.00000
-35923116.70041,-33435986.76043,-5087311.24086,  -0.00010,  -0.00008,  -0.00007,35846239.36637,   0.00000,274640135.82653,   0.00000,   0.00000,   0.00000,-438793896.46016,   0.00000
-37386503.76105,-34840754.59690,-5275730.17571,  -0.00010,  -0.00009,  -0.00007,37316950.95050,   0.00000,274640135.82653,   0.00000,   0.00000,   0.00000,-437323184.87603,   0.00000
-38864545.62774,-36251803.06453,-5455774.93568,  -0.00011,  -0.00009,  -0.00007,38794751.17122,   0.00000,274640135.82653,   0.00000,   0.00000,   0.00000,-435845384.65531,   0.00000
-40327932.68838,-37656570.90100,-5640006.78308,  -0.00011,  -0.00009,  -0.00007,40263840.60059,   0.00000,274640135.82653,   0.00000,   0.00000,   0.00000,-434376295.22594,   0.00000
-41797600.38019,-39075993.54351,-5815864.45561,  -0.00011,  -0.00010,  -0.00008,41739223.09365,   0.00000,274640135.82653,   0.00000,   0.00000,   0.00000,-432900912.73288,   0.00000
-43260987.44083,-40480761.37998,-5991722.12813,  -0.00012,  -0.00010,  -0.00008,43204971.57488,   0.00000,274640135.82653,   0.00000,   0.00000,   0.00000,-431435164.25165,   0.00000
-44716000.32659,-41893903.39133,-6167579.80065,  -0.00012,  -0.00010,  -0.00008,44670002.80539,   0.00000,274640135.82653,   0.00000,   0.00000,   0.00000,-429970133.02114,   0.00000
-46171013.21235,-43307045.40268,-6339250.38574,  -0.00013,  -0.00011,  -0.00008,46133401.81961,   0.00000,274640135.82653,   0.00000,   0.00000,   0.00000,-428506734.00692,   0.00000
-47626026.09812,-44720187.41403,-6510920.97082,  -0.00013,  -0.00011,  -0.00008,47596901.02324,   0.00000,274640135.82653,   0.00000,   0.00000,   0.00000,-427043234.80329,   0.00000
-49081038.98388,-46133329.42539,-6678404.46846,  -0.00013,  -0.00011,  -0.00009,49058780.97097,   0.00000,274640135.82653,   0.00000,   0.00000,   0.00000,-425581354.85556,   0.00000
-50521397.06360,-47540190.80557,-6845887.96610,  -0.00014,  -0.00012,  -0.00009,50510226.61851,   0.00000,274640135.82653,   0.00000,   0.00000,   0.00000,-424129909.20802,   0.00000
-51982690.58052,-48967987.62297,-7009184.37630,  -0.00014,  -0.00012,  -0.00009,51980401.88129,   0.00000,274640135.82653,   0.00000,   0.00000,   0.00000,-422659733.94524,   0.00000
-53414674.48535,-50383223.17804,-7172480.78650,  -0.00014,  -0.00013,  -0.00009,53429641.62808,   0.00000,274640135.82653,   0.00000,   0.00000,   0.00000,-421210494.19845,   0.00000
-54861313.19623,-51804739.36427,-7331590.10926,  -0.00015,  -0.00013,  -0.00010,54887843.05740,   0.00000,274640135.82653,   0.00000,   0.00000,   0.00000,-419752292.76913,   0.00000
-56293297.10107,-53219974.91935,-7490699.43202,  -0.00015,  -0.00013,  -0.00010,56335645.04842,   0.00000,274640135.82653,   0.00000,   0.00000,   0.00000,-418304490.77811,   0.00000
-57725281.00591,-54635210.47442,-7645621.66734,  -0.00016,  -0.00014,  -0.00010,57781900.32685,   0.00000,274640135.82653,   0.00000,   0.00000,   0.00000,-416858235.49968,   0.00000
-59163545.54190,-56065100.83553,-7800543.90266,  -0.00016,  -0.00014,  -0.00010,59238129.28954,   0.00000,274640135.82653,   0.00000,   0.00000,   0.00000,-415402006.53698,   0.00000
-60601810.07790,-57494991.19665,-7951279.05054,  -0.00016,  -0.00014,  -0.00010,60692844.52149,   0.00000,274640135.82653,   0.00000,   0.00000,   0.00000,-413947291.30504,   0.00000
-62025419.80785,-58918600.92660,-8102014.19841,  -0.00017,  -0.00015,  -0.00011,62137196.45059,   0.00000,274640135.82653,   0.00000,   0.00000,   0.00000,-412502939.37594,   0.00000
-63449029.53781,-60342210.65656,-8248562.25885,  -0.00017,  -0.00015,  -0.00011,63580054.79629,   0.00000,274640135.82653,   0.00000,   0.00000,   0.00000,-411060081.03024,   0.00000
-64857984.46172,-61759539.75535,-8395110.31929,  -0.00017,  -0.00015,  -0.00011,65012562.33400,   0.00000,274640135.82653,   0.00000,   0.00000,   0.00000,-409627573.49253,   0.00000
-66287874.82283,-63197804.29135,-8537471.29228,  -0.00018,  -0.00016,  -0.00011,66463989.67886,   0.00000,274640135.82653,   0.00000,   0.00000,   0.00000,-408176146.14767,   0.00000
-67696829.74674,-64615133.39014,-8679832.26528,  -0.00018,  -0.00016,  -0.00011,67895176.56704,   0.00000,274640135.82653,   0.00000,   0.00000,   0.00000,-406744959.25949,   0.00000
-69112065.30182,-66047117.29497,-8818006.15083,  -0.00019,  -0.00017,  -0.00011,69334827.37557,   0.00000,274640135.82653,   0.00000,   0.00000,   0.00000,-405305308.45096,   0.00000
-70512646.05084,-67472820.56865,-8956180.03639,  -0.00019,  -0.00017,  -0.00012,70764165.62289,   0.00000,274640135.82653,   0.00000,   0.00000,   0.00000,-403875970.20364,   0.00000
-71913226.79987,-68898523.84232,-9090166.83450,  -0.00019,  -0.00017,  -0.00012,72192084.08412,   0.00000,274640135.82653,   0.00000,   0.00000,   0.00000,-402448051.74241,   0.00000
-73320088.18006,-70338881.92204,-9224153.63261,  -0.00020,  -0.00018,  -0.00012,73630127.30179,   0.00000,274640135.82653,   0.00000,   0.00000,   0.00000,-401010008.52474,   0.00000
-74712294.75421,-71772959.37060,-9358140.43073,  -0.00020,  -0.00018,  -0.00012,75057888.09538,   0.00000,274640135.82653,   0.00000,   0.00000,   0.00000,-399582247.73115,   0.00000
-76104501.32835,-73207036.81915,-9483753.05396,  -0.00020,  -0.00018,  -0.00012,76482710.77437,   0.00000,274640135.82653,   0.00000,   0.00000,   0.00000,-398157425.05216,   0.00000
-77496707.90250,-74641114.26771,-9613552.76463,  -0.00021,  -0.00019,  -0.00012,77909282.08631,   0.00000,274640135.82653,   0.00000,   0.00000,   0.00000,-396730853.74022,   0.00000
-78888914.47665,-76075191.71627,-9739165.38786,  -0.00021,  -0.00019,  -0.00013,79334484.02950,   0.00000,274640135.82653,   0.00000,   0.00000,   0.00000,-395305651.79703,   0.00000
-80266466.24475,-77502988.53366,-9860590.92365,  -0.00021,  -0.00020,  -0.00013,80747889.02600,   0.00000,274640135.82653,   0.00000,   0.00000,   0.00000,-393892246.80053,   0.00000
-81650298.64401,-78945440.15710,-9982016.45944,  -0.00022,  -0.00020,  -0.00013,82171509.55553,   0.00000,274640135.82653,   0.00000,   0.00000,   0.00000,-392468626.27100,   0.00000
-83019476.23723,-80381611.14938,-10099254.90779,  -0.00022,  -0.00020,  -0.00013,83583386.13639,   0.00000,274640135.82653,   0.00000,   0.00000,   0.00000,-391056749.69014,   0.00000
-84388653.83045,-81817782.14165,-10216493.35614,  -0.00022,  -0.00021,  -0.00013,84995482.73324,   0.00000,274640135.82653,   0.00000,   0.00000,   0.00000,-389644653.09329,   0.00000
-85757831.42367,-83253953.13393,-10333731.80449,  -0.00023,  -0.00021,  -0.00013,86407788.55939,   0.00000,274640135.82653,   0.00000,   0.00000,   0.00000,-388232347.26713,   0.00000
-87133289.64805,-84704778.93225,-10446783.16540,  -0.00023,  -0.00022,  -0.00014,87828865.05637,   0.00000,274640135.82653,   0.00000,   0.00000,   0.00000,-386811270.77016,   0.00000
-88487812.43523,-86134669.29337,-10555647.43886,  -0.00023,  -0.00022,  -0.00014,89228195.21771,   0.00000,274640135.82653,   0.00000,   0.00000,   0.00000,-385411940.60882,   0.00000
-89848615.85357,-87579214.46053,-10664511.71233,  -0.00024,  -0.00022,  -0.00014,90637833.21379,   0.00000,274640135.82653,   0.00000,   0.00000,   0.00000,-384002302.61274,   0.00000
-91201045.09703,-89032133.80257,-10773375.98580,  -0.00024,  -0.00023,  -0.00014,92047404.72501,   0.00000,274640135.82653,   0.00000,   0.00000,   0.00000,-382592731.10152,   0.00000
-92547193.70932,-90470398.33856,-10878053.17182,  -0.00024,  -0.00023,  -0.00014,93445656.30053,   0.00000,274640135.82653,   0.00000,   0.00000,   0.00000,-381194479.52600,   0.00000
-93893342.32161,-91908662.87456,-10982730.35785,  -0.00025,  -0.00024,  -0.00014,94844143.71194,   0.00000,274640135.82653,   0.00000,   0.00000,   0.00000,-379795992.11459,   0.00000
-95231116.75903,-93355301.58544,-11083220.45643,  -0.00025,  -0.00024,  -0.00014,96241163.93197,   0.00000,274640135.82653,   0.00000,   0.00000,   0.00000,-378398971.89456,   0.00000
-96568891.19644,-94801940.29632,-11179523.46758,  -0.00025,  -0.00024,  -0.00015,97637009.41783,   0.00000,274640135.82653,   0.00000,   0.00000,   0.00000,-377003126.40870,   0.00000
-97906665.63385,-96248579.00720,-11280013.56616,  -0.00026,  -0.00025,  -0.00015,99034553.62656,   0.00000,274640135.82653,   0.00000,   0.00000,   0.00000,-375605582.19997,   0.00000
-99236065.89638,-97703591.89296,-11372129.48987,  -0.00026,  -0.00025,  -0.00015,100429301.23912,   0.00000,274640135.82653,   0.00000,   0.00000,   0.00000,-374210834.58741,   0.00000
-100559185.52775,-99143949.97268,-11468432.50101,  -0.00026,  -0.00026,  -0.00015,101815581.23894,   0.00000,274640135.82653,   0.00000,   0.00000,   0.00000,-372824554.58759,   0.00000
-101873930.98424,-100592682.22728,-11560548.42471,  -0.00027,  -0.00026,  -0.00015,103200544.59526,   0.00000,274640135.82653,   0.00000,   0.00000,   0.00000,-371439591.23127,   0.00000
-103203331.24677,-102047695.11304,-11648477.26097,  -0.00027,  -0.00026,  -0.00015,104594735.25992,   0.00000,274640135.82653,   0.00000,   0.00000,   0.00000,-370045400.56661,   0.00000
-104503421.89721,-103490146.73648,-11736406.09724,  -0.00027,  -0.00027,  -0.00015,105968537.20513,   0.00000,274640135.82653,   0.00000,   0.00000,   0.00000,-368671598.62140,   0.00000
-105824447.98486,-104953533.79712,-11820147.84606,  -0.00028,  -0.00027,  -0.00015,107361799.32812,   0.00000,274640135.82653,   0.00000,   0.00000,   0.00000,-367278336.49841,   0.00000
-107124538.63530,-106395985.42056,-11903889.59488,  -0.00028,  -0.00028,  -0.00015,108734812.28693,   0.00000,274640135.82653,   0.00000,   0.00000,   0.00000,-365905323.53960,   0.00000
-108416255.11086,-107846811.21888,-11987631.34370,  -0.00028,  -0.00028,  -0.00016,110108045.02870,   0.00000,274640135.82653,   0.00000,   0.00000,   0.00000,-364532090.79783,   0.00000
-109722626.39247,-109303917.64836,-12067186.00508,  -0.00029,  -0.00028,  -0.00016,111490533.99558,   0.00000,274640135.82653,   0.00000,   0.00000,   0.00000,-363149601.83095,   0.00000
-110999688.06199,-110748462.81552,-12142553.57902,  -0.00029,  -0.00029,  -0.00016,112851374.65822,   0.00000,274640135.82653,   0.00000,   0.00000,   0.00000,-361788761.16831,   0.00000
-112297685.16871,-112213943.41989,-12222108.24040,  -0.00029,  -0.00029,  -0.00016,114234464.55386,   0.00000,274640135.82653,   0.00000,   0.00000,   0.00000,-360405671.27267,   0.00000
-113581027.46939,-113673143.39309,-12293288.72690,  -0.00030,  -0.00030,  -0.00016,115604912.31247,   0.00000,274640135.82653,   0.00000,   0.00000,   0.00000,-359035223.51406,   0.00000
-114864369.77007,-115132343.36629,-12368656.30083,  -0.00030,  -0.00030,  -0.00016,116977035.55328,   0.00000,274640135.82653,   0.00000,   0.00000,   0.00000,-357663100.27325,   0.00000
-116133057.26470,-116585262.70833,-12435649.69989,  -0.00030,  -0.00030,  -0.00016,118336569.28636,   0.00000,274640135.82653,   0.00000,   0.00000,   0.00000,-356303566.54017,   0.00000
-117401744.75934,-118038182.05037,-12506830.18639,  -0.00030,  -0.00031,  -0.00016,119697769.30792,   0.00000,274640135.82653,   0.00000,   0.00000,   0.00000,-354942366.51860,   0.00000
-118662058.07909,-119499475.56730,-12573823.58544,  -0.00031,  -0.00031,  -0.00016,121058077.37161,   0.00000,274640135.82653,   0.00000,   0.00000,   0.00000,-353582058.45492,   0.00000
-119916090.76768,-120946114.27818,-12636629.89706,  -0.00031,  -0.00032,  -0.00016,122407105.23364,   0.00000,274640135.82653,   0.00000,   0.00000,   0.00000,-352233030.59289,   0.00000
-121176404.08743,-122407407.79510,-12699436.20868,  -0.00031,  -0.00032,  -0.00017,123766844.99678,   0.00000,274640135.82653,   0.00000,   0.00000,   0.00000,-350873290.82975,   0.00000
-122428343.23231,-123877075.48691,-12762242.52029,  -0.00032,  -0.00032,  -0.00017,125127089.16902,   0.00000,274640135.82653,   0.00000,   0.00000,   0.00000,-349513046.65751,   0.00000
-123674001.74602,-125332088.37267,-12820861.74447,  -0.00032,  -0.00033,  -0.00017,126476059.61251,   0.00000,274640135.82653,   0.00000,   0.00000,   0.00000,-348164076.21402,   0.00000
-124911286.08484,-126795475.43331,-12875293.88120,  -0.00032,  -0.00033,  -0.00017,127824315.57883,   0.00000,274640135.82653,   0.00000,   0.00000,   0.00000,-346815820.24770,   0.00000
-126148570.42367,-128258862.49395,-12933913.10537,  -0.00032,  -0.00034,  -0.00017,129174238.16324,   0.00000,274640135.82653,   0.00000,   0.00000,   0.00000,-345465897.66329,   0.00000
-127385854.76250,-129722249.55460,-12984158.15467,  -0.00033,  -0.00034,  -0.00017,130522042.08795,   0.00000,274640135.82653,   0.00000,   0.00000,   0.00000,-344118093.73858,   0.00000
-128608484.29528,-131179355.98408,-13038590.29140,  -0.00033,  -0.00035,  -0.00017,131861298.47512,   0.00000,274640135.82653,   0.00000,   0.00000,   0.00000,-342778837.35141,   0.00000
-129837394.45923,-132651117.21961,-13088835.34069,  -0.00033,  -0.00035,  -0.00017,133210154.64070,   0.00000,274640135.82653,   0.00000,   0.00000,   0.00000,-341429981.18583,   0.00000
-131045369.18597,-134101943.01793,-13134893.30254,  -0.00033,  -0.00035,  -0.00017,134537569.25535,   0.00000,274640135.82653,   0.00000,   0.00000,   0.00000,-340102566.57118,   0.00000
-132259624.54387,-135567423.62229,-13180951.26440,  -0.00034,  -0.00036,  -0.00017,135875864.34724,   0.00000,274640135.82653,   0.00000,   0.00000,   0.00000,-338764271.47929,   0.00000
-133465505.72689,-137041278.40154,-13227009.22625,  -0.00034,  -0.00036,  -0.00017,137214908.07035,   0.00000,274640135.82653,   0.00000,   0.00000,   0.00000,-337425227.75618,   0.00000
-134665106.27875,-138500478.37474,-13268880.10066,  -0.00034,  -0.00037,  -0.00017,138542705.53329,   0.00000,274640135.82653,   0.00000,   0.00000,   0.00000,-336097430.29324,   0.00000
-135870987.46177,-139974333.15399,-13310750.97507,  -0.00035,  -0.00037,  -0.00017,139881437.60115,   0.00000,274640135.82653,   0.00000,   0.00000,   0.00000,-334758698.22538,   0.00000
-137055933.20758,-141427252.49603,-13348434.76204,  -0.00035,  -0.00038,  -0.00017,141198777.03414,   0.00000,274640135.82653,   0.00000,   0.00000,   0.00000,-333441358.79239,   0.00000
-138247159.58456,-142894826.64411,-13386118.54901,  -0.00035,  -0.00038,  -0.00017,142527082.41382,   0.00000,274640135.82653,   0.00000,   0.00000,   0.00000,-332113053.41271,   0.00000
-139430011.78665,-144370774.96708,-13423802.33598,  -0.00035,  -0.00038,  -0.00017,143856266.47310,   0.00000,274640135.82653,   0.00000,   0.00000,   0.00000,-330783869.35343,   0.00000
-140606583.35758,-145832068.48400,-13457299.03550,  -0.00036,  -0.00039,  -0.00017,145174210.10739,   0.00000,274640135.82653,   0.00000,   0.00000,   0.00000,-329465925.71914,   0.00000
-141774780.75363,-147301736.17581,-13486608.64759,  -0.00036,  -0.00039,  -0.00018,146491926.14487,   0.00000,274640135.82653,   0.00000,   0.00000,   0.00000,-328148209.68166,   0.00000
-142942978.14968,-148771403.86761,-13520105.34712,  -0.00036,  -0.00040,  -0.00018,147811291.26182,   0.00000,274640135.82653,   0.00000,   0.00000,   0.00000,-326828844.56471,   0.00000
-144111175.54573,-150241071.55942,-13545227.87177,  -0.00036,  -0.00040,  -0.00018,149128845.82505,   0.00000,274640135.82653,   0.00000,   0.00000,   0.00000,-325511290.00148,   0.00000
-145264718.13574,-151704458.62006,-13574537.48385,  -0.00037,  -0.00041,  -0.00018,150437960.24470,   0.00000,274640135.82653,   0.00000,   0.00000,   0.00000,-324202175.58183,   0.00000
-146409886.55087,-153176219.85559,-13599660.00850,  -0.00037,  -0.00041,  -0.00018,151746988.42079,   0.00000,274640135.82653,   0.00000,   0.00000,   0.00000,-322893147.40574,   0.00000
-147569709.77203,-154654261.72227,-13620595.44570,  -0.00037,  -0.00042,  -0.00018,153065467.21775,   0.00000,274640135.82653,   0.00000,   0.00000,   0.00000,-321574668.60878,   0.00000
-148700223.38111,-156119742.32664,-13645717.97035,  -0.00037,  -0.00042,  -0.00018,154365497.03977,   0.00000,274640135.82653,   0.00000,   0.00000,   0.00000,-320274638.78676,   0.00000
-149845391.79624,-157591503.56216,-13662466.32012,  -0.00037,  -0.00042,  -0.00018,155673863.57499,   0.00000,274640135.82653,   0.00000,   0.00000,   0.00000,-318966272.25153,   0.00000
-150967531.23044,-159065358.34141,-13683401.75732,  -0.00038,  -0.00043,  -0.00018,156974474.70198,   0.00000,274640135.82653,   0.00000,   0.00000,   0.00000,-317665661.12455,   0.00000
-152098044.83952,-160530838.94578,-13700150.10708,  -0.00038,  -0.00043,  -0.00018,158273880.01628,   0.00000,274640135.82653,   0.00000,   0.00000,   0.00000,-316366255.81025,   0.00000
-153220184.27372,-162004693.72502,-13712711.36941,  -0.00038,  -0.00044,  -0.00018,159573406.27861,   0.00000,274640135.82653,   0.00000,   0.00000,   0.00000,-315066729.54792,   0.00000
-154327668.90187,-163472267.87311,-13725272.63173,  -0.00038,  -0.00044,  -0.00018,160863504.39969,   0.00000,274640135.82653,   0.00000,   0.00000,   0.00000,-313776631.42684,   0.00000
-155441434.16119,-164954496.82723,-13737833.89405,  -0.00039,  -0.00045,  -0.00018,162164873.38432,   0.00000,274640135.82653,   0.00000,   0.00000,   0.00000,-312475262.44221,   0.00000
-156548918.78935,-166422070.97532,-13746208.06894,  -0.00039,  -0.00045,  -0.00018,163455036.98810,   0.00000,274640135.82653,   0.00000,   0.00000,   0.00000,-311185098.83843,   0.00000
-157648029.24262,-167898019.29829,-13754582.24382,  -0.00039,  -0.00046,  -0.00018,164746531.83106,   0.00000,274640135.82653,   0.00000,   0.00000,   0.00000,-309893603.99547,   0.00000
-158747139.69589,-169373967.62125,-13762956.41870,  -0.00039,  -0.00046,  -0.00018,166038607.79567,   0.00000,274640135.82653,   0.00000,   0.00000,   0.00000,-308601528.03086,   0.00000
-159831595.34312,-170843635.31306,-13767143.50614,  -0.00039,  -0.00047,  -0.00018,167320287.26834,   0.00000,274640135.82653,   0.00000,   0.00000,   0.00000,-307319848.55819,   0.00000
-160922331.62151,-172327957.81091,-13771330.59358,  -0.00040,  -0.00047,  -0.00018,168613326.05174,   0.00000,274640135.82653,   0.00000,   0.00000,   0.00000,-306026809.77479,   0.00000
-161992132.46270,-173791344.87155,-13771330.59358,  -0.00040,  -0.00047,  -0.00018,169885257.19357,   0.00000,274640135.82653,   0.00000,   0.00000,   0.00000,-304754878.63296,   0.00000
-163068213.93505,-175269386.73824,-13771330.59358,  -0.00040,  -0.00048,  -0.00018,171168580.96515,   0.00000,274640135.82653,   0.00000,   0.00000,   0.00000,-303471554.86138,   0.00000
-164129640.60135,-176741147.97376,-13767143.50614,  -0.00040,  -0.00048,  -0.00018,172441624.71852,   0.00000,274640135.82653,   0.00000,   0.00000,   0.00000,-302198511.10801,   0.00000
-165191067.26765,-178212909.20929,-13767143.50614,  -0.00040,  -0.00049,  -0.00018,173716296.76477,   0.00000,274640135.82653,   0.00000,   0.00000,   0.00000,-300923839.06176,   0.00000
-166258774.56512,-179699325.25086,-13758769.33126,  -0.00041,  -0.00049,  -0.00018,175000426.31278,   0.00000,274640135.82653,   0.00000,   0.00000,   0.00000,-299639709.51375,   0.00000
-167311827.05654,-181179460.66127,-13754582.24382,  -0.00041,  -0.00050,  -0.00018,176276326.96496,   0.00000,274640135.82653,   0.00000,   0.00000,   0.00000,-298363808.86157,   0.00000
-168343944.11076,-182638660.63447,-13746208.06894,  -0.00041,  -0.00050,  -0.00018,177531197.56153,   0.00000,274640135.82653,   0.00000,   0.00000,   0.00000,-297108938.26500,   0.00000
-169388622.42730,-184127170.21976,-13733646.80661,  -0.00041,  -0.00051,  -0.00018,178807470.95638,   0.00000,274640135.82653,   0.00000,   0.00000,   0.00000,-295832664.87014,   0.00000
-170427020.11267,-185601024.99901,-13725272.63173,  -0.00041,  -0.00051,  -0.00018,180074510.60929,   0.00000,274640135.82653,   0.00000,   0.00000,   0.00000,-294565625.21724,   0.00000
-171450762.99201,-187068599.14709,-13712711.36941,  -0.00042,  -0.00052,  -0.00018,181331426.45742,   0.00000,274640135.82653,   0.00000,   0.00000,   0.00000,-293308709.36911,   0.00000
-172480786.50250,-188550828.10122,-13695963.01964,  -0.00042,  -0.00052,  -0.00018,182598958.30121,   0.00000,274640135.82653,   0.00000,   0.00000,   0.00000,-292041177.52532,   0.00000
-173496155.20696,-190026776.42419,-13679214.66988,  -0.00042,  -0.00053,  -0.00018,183857388.41763,   0.00000,274640135.82653,   0.00000,   0.00000,   0.00000,-290782747.40890,   0.00000
-174496869.10537,-191496444.11599,-13662466.32012,  -0.00042,  -0.00053,  -0.00018,185106737.99578,   0.00000,274640135.82653,   0.00000,   0.00000,   0.00000,-289533397.83075,   0.00000
-175518518.44098,-192987047.24500,-13641530.88291,  -0.00042,  -0.00054,  -0.00018,186376565.59720,   0.00000,274640135.82653,   0.00000,   0.00000,   0.00000,-288263570.22933,   0.00000
-176504577.53334,-194450434.30564,-13620595.44570,  -0.00042,  -0.00054,  -0.00018,187616650.09927,   0.00000,274640135.82653,   0.00000,   0.00000,   0.00000,-287023485.72726,   0.00000
-177511572.06292,-195934756.80349,-13599660.00850,  -0.00043,  -0.00055,  -0.00018,188878142.44898,   0.00000,274640135.82653,   0.00000,   0.00000,   0.00000,-285761993.37754,   0.00000
-178503911.78644,-197412798.67018,-13574537.48385,  -0.00043,  -0.00055,  -0.00018,190129711.00336,   0.00000,274640135.82653,   0.00000,   0.00000,   0.00000,-284510424.82317,   0.00000
-179487877.33509,-198899214.71175,-13549414.95921,  -0.00043,  -0.00055,  -0.00018,191383274.63023,   0.00000,274640135.82653,   0.00000,   0.00000,   0.00000,-283256861.19630,   0.00000
-180465562.25257,-200370975.94728,-13524292.43456,  -0.00043,  -0.00056,  -0.00018,192626596.77559,   0.00000,274640135.82653,   0.00000,   0.00000,   0.00000,-282013539.05094,   0.00000
-181434872.99517,-201851111.35768,-13494982.82247,  -0.00043,  -0.00056,  -0.00018,193871084.03815,   0.00000,274640135.82653,   0.00000,   0.00000,   0.00000,-280769051.78838,   0.00000
-182404183.73777,-203331246.76809,-13465673.21039,  -0.00043,  -0.00057,  -0.00018,195116337.41750,   0.00000,274640135.82653,   0.00000,   0.00000,   0.00000,-279523798.40903,   0.00000
-183373494.48037,-204811382.17850,-13436363.59830,  -0.00043,  -0.00057,  -0.00017,196362342.33840,   0.00000,274640135.82653,   0.00000,   0.00000,   0.00000,-278277793.48813,   0.00000
-184328150.41693,-206285236.95775,-13402866.89877,  -0.00044,  -0.00058,  -0.00017,197598583.90034,   0.00000,274640135.82653,   0.00000,   0.00000,   0.00000,-277041551.92619,   0.00000
-185268151.54744,-207752811.10583,-13365183.11180,  -0.00044,  -0.00058,  -0.00017,198825107.98854,   0.00000,274640135.82653,   0.00000,   0.00000,   0.00000,-275815027.83799,   0.00000
-186229088.11516,-209241320.69112,-13331686.41227,  -0.00044,  -0.00059,  -0.00017,200073948.28971,   0.00000,274640135.82653,   0.00000,   0.00000,   0.00000,-274566187.53682,   0.00000
-187160715.07079,-210717269.01409,-13294002.62530,  -0.00044,  -0.00059,  -0.00017,201303495.98934,   0.00000,274640135.82653,   0.00000,   0.00000,   0.00000,-273336639.83719,   0.00000
-188092342.02642,-212193217.33705,-13256318.83833,  -0.00044,  -0.00060,  -0.00017,202533852.40304,   0.00000,274640135.82653,   0.00000,   0.00000,   0.00000,-272106283.42349,   0.00000
-189023968.98206,-213669165.66002,-13214447.96392,  -0.00044,  -0.00060,  -0.00017,203764188.13523,   0.00000,274640135.82653,   0.00000,   0.00000,   0.00000,-270875947.69130,   0.00000
-189947221.76281,-215153488.15787,-13172577.08951,  -0.00044,  -0.00061,  -0.00017,204996862.30594,   0.00000,274640135.82653,   0.00000,   0.00000,   0.00000,-269643273.52059,   0.00000
-190870474.54356,-216637810.65572,-13130706.21510,  -0.00045,  -0.00061,  -0.00017,206230365.54148,   0.00000,274640135.82653,   0.00000,   0.00000,   0.00000,-268409770.28505,   0.00000
-191772791.88710,-218101197.71636,-13084648.25325,  -0.00045,  -0.00062,  -0.00017,207443208.16366,   0.00000,274640135.82653,   0.00000,   0.00000,   0.00000,-267196927.66287,   0.00000
-192687670.49297,-219593894.38909,-13038590.29140,  -0.00045,  -0.00062,  -0.00017,208679168.48364,   0.00000,274640135.82653,   0.00000,   0.00000,   0.00000,-265960967.34289,   0.00000
-193581613.66163,-221065655.62462,-12992532.32955,  -0.00045,  -0.00063,  -0.00017,209895299.11984,   0.00000,274640135.82653,   0.00000,   0.00000,   0.00000,-264744836.70669,   0.00000
-194475556.83029,-222537416.86015,-12942287.28026,  -0.00045,  -0.00063,  -0.00017,211111497.66870,   0.00000,274640135.82653,   0.00000,   0.00000,   0.00000,-263528638.15783,   0.00000
-195375780.63011,-224023832.90171,-12892042.23096,  -0.00045,  -0.00064,  -0.00017,212339719.29560,   0.00000,274640135.82653,   0.00000,   0.00000,   0.00000,-262300416.53093,   0.00000
-196246694.81785,-225497687.68096,-12841797.18167,  -0.00045,  -0.00064,  -0.00017,213549834.33499,   0.00000,274640135.82653,   0.00000,   0.00000,   0.00000,-261090301.49154,   0.00000
-197132263.81163,-226977823.09137,-12791552.13238,  -0.00045,  -0.00065,  -0.00017,214770298.05731,   0.00000,274640135.82653,   0.00000,   0.00000,   0.00000,-259869837.76922,   0.00000
-198003177.99937,-228451677.87061,-12737119.99565,  -0.00046,  -0.00065,  -0.00017,215981416.00478,   0.00000,274640135.82653,   0.00000,   0.00000,   0.00000,-258658719.82175,   0.00000
-198865718.01222,-229933906.82474,-12678500.77147,  -0.00046,  -0.00066,  -0.00016,217194468.11000,   0.00000,274640135.82653,   0.00000,   0.00000,   0.00000,-257445667.71653,   0.00000
-199728258.02508,-231416135.77887,-12624068.63474,  -0.00046,  -0.00066,  -0.00016,218409167.85069,   0.00000,274640135.82653,   0.00000,   0.00000,   0.00000,-256230967.97584,   0.00000
-200584517.40677,-232883709.92696,-12565449.41056,  -0.00046,  -0.00067,  -0.00016,219612786.42584,   0.00000,274640135.82653,   0.00000,   0.00000,   0.00000,-255027349.40069,   0.00000
-201432402.61358,-234359658.24992,-12506830.18639,  -0.00046,  -0.00067,  -0.00016,220819146.82530,   0.00000,274640135.82653,   0.00000,   0.00000,   0.00000,-253820989.00123,   0.00000
-202286568.45155,-235850261.37893,-12444023.87477,  -0.00046,  -0.00068,  -0.00016,222036985.01884,   0.00000,274640135.82653,   0.00000,   0.00000,   0.00000,-252603150.80769,   0.00000
-203119798.85232,-237319929.07074,-12381217.56316,  -0.00046,  -0.00068,  -0.00016,223235097.61794,   0.00000,274640135.82653,   0.00000,   0.00000,   0.00000,-251405038.20859,   0.00000
-203959309.88425,-238804251.56859,-12318411.25154,  -0.00046,  -0.00069,  -0.00016,224445427.83408,   0.00000,274640135.82653,   0.00000,   0.00000,   0.00000,-250194707.99245,   0.00000
-204784166.11013,-240282293.43528,-12255604.93993,  -0.00046,  -0.00069,  -0.00016,225647348.07459,   0.00000,274640135.82653,   0.00000,   0.00000,   0.00000,-248992787.75194,   0.00000
-205609022.33602,-241760335.30196,-12188611.54087,  -0.00046,  -0.00070,  -0.00016,226849532.43088,   0.00000,274640135.82653,   0.00000,   0.00000,   0.00000,-247790603.39565,   0.00000
-206419223.75586,-243232096.53749,-12121618.14181,  -0.00046,  -0.00070,  -0.00016,228043349.03992,   0.00000,274640135.82653,   0.00000,   0.00000,   0.00000,-246596786.78661,   0.00000
-207229425.17570,-244703857.77301,-12050437.65531,  -0.00047,  -0.00071,  -0.00016,229237457.72915,   0.00000,274640135.82653,   0.00000,   0.00000,   0.00000,-245402678.09738,   0.00000
-208031252.42066,-246183993.18342,-11983444.25626,  -0.00047,  -0.00071,  -0.00016,230435250.91510,   0.00000,274640135.82653,   0.00000,   0.00000,   0.00000,-244204884.91143,   0.00000
-208833079.66562,-247664128.59383,-11908076.68232,  -0.00047,  -0.00072,  -0.00015,231632726.37655,   0.00000,274640135.82653,   0.00000,   0.00000,   0.00000,-243007409.44998,   0.00000
-209620252.10453,-249137983.37308,-11836896.19582,  -0.00047,  -0.00072,  -0.00015,232822581.17018,   0.00000,274640135.82653,   0.00000,   0.00000,   0.00000,-241817554.65635,   0.00000
-210407424.54345,-250611838.15232,-11765715.70932,  -0.00047,  -0.00073,  -0.00015,234013423.75561,   0.00000,274640135.82653,   0.00000,   0.00000,   0.00000,-240626712.07092,   0.00000
-211194596.98237,-252085692.93157,-11690348.13539,  -0.00047,  -0.00074,  -0.00015,235204614.68732,   0.00000,274640135.82653,   0.00000,   0.00000,   0.00000,-239435521.13921,   0.00000
-211973395.24640,-253567921.88570,-11610793.47401,  -0.00047,  -0.00074,  -0.00015,236398370.44557,   0.00000,274640135.82653,   0.00000,   0.00000,   0.00000,-238241765.38096,   0.00000
-212745912.87927,-255035496.03378,-11535425.90007,  -0.00047,  -0.00075,  -0.00015,237582336.07698,   0.00000,274640135.82653,   0.00000,   0.00000,   0.00000,-237057799.74955,   0.00000
-213510056.33726,-256511444.35675,-11455871.23869,  -0.00047,  -0.00075,  -0.00015,238768932.78833,   0.00000,274640135.82653,   0.00000,   0.00000,   0.00000,-235871203.03820,   0.00000
-214259544.98921,-257981112.04855,-11376316.57731,  -0.00047,  -0.00076,  -0.00015,239947395.99766,   0.00000,274640135.82653,   0.00000,   0.00000,   0.00000,-234692739.82887,   0.00000
-215023688.44720,-259457060.37152,-11296761.91593,  -0.00047,  -0.00076,  -0.00015,241136038.66837,   0.00000,274640135.82653,   0.00000,   0.00000,   0.00000,-233504097.15816,   0.00000
-215779457.73031,-260941382.86937,-11213020.16711,  -0.00047,  -0.00077,  -0.00015,242327433.52955,   0.00000,274640135.82653,   0.00000,   0.00000,   0.00000,-232312702.29698,   0.00000
-216514291.57621,-262404769.93001,-11129278.41829,  -0.00047,  -0.00077,  -0.00014,243499284.15807,   0.00000,274640135.82653,   0.00000,   0.00000,   0.00000,-231140851.66846,   0.00000
-217255406.05327,-263882811.79670,-11045536.66947,  -0.00047,  -0.00078,  -0.00014,244683661.15187,   0.00000,274640135.82653,   0.00000,   0.00000,   0.00000,-229956474.67466,   0.00000
-217981865.72429,-265354573.03223,-10957607.83320,  -0.00047,  -0.00078,  -0.00014,245859443.20689,   0.00000,274640135.82653,   0.00000,   0.00000,   0.00000,-228780692.61964,   0.00000
-218708325.39531,-266826334.26775,-10873866.08438,  -0.00047,  -0.00079,  -0.00014,247036852.32730,   0.00000,274640135.82653,   0.00000,   0.00000,   0.00000,-227603283.49923,   0.00000
-219441065.69750,-268312750.30932,-10785937.24812,  -0.00048,  -0.00079,  -0.00014,248226281.34801,   0.00000,274640135.82653,   0.00000,   0.00000,   0.00000,-226413854.47852,   0.00000
-220152870.56247,-269778230.91369,-10693821.32442,  -0.00048,  -0.00080,  -0.00014,249395673.14702,   0.00000,274640135.82653,   0.00000,   0.00000,   0.00000,-225244462.67951,   0.00000
-220856301.25257,-271252085.69293,-10605892.48816,  -0.00048,  -0.00080,  -0.00014,250569196.64826,   0.00000,274640135.82653,   0.00000,   0.00000,   0.00000,-224070939.17827,   0.00000
-221568106.11754,-272717566.29730,-10513776.56445,  -0.00048,  -0.00081,  -0.00014,251740740.52306,   0.00000,274640135.82653,   0.00000,   0.00000,   0.00000,-222899395.30347,   0.00000
-222256882.00160,-274185140.44538,-10421660.64075,  -0.00048,  -0.00081,  -0.00014,252906922.52902,   0.00000,274640135.82653,   0.00000,   0.00000,   0.00000,-221733213.29751,   0.00000
-222960312.69169,-275658995.22463,-10325357.62961,  -0.00048,  -0.00082,  -0.00013,254082675.40863,   0.00000,274640135.82653,   0.00000,   0.00000,   0.00000,-220557460.41790,   0.00000
-223640714.40086,-277134943.54759,-10233241.70590,  -0.00048,  -0.00082,  -0.00013,255253691.49116,   0.00000,274640135.82653,   0.00000,   0.00000,   0.00000,-219386444.33537,   0.00000
-224329490.28491,-278602517.69568,-10136938.69476,  -0.00048,  -0.00083,  -0.00013,256422687.89910,   0.00000,274640135.82653,   0.00000,   0.00000,   0.00000,-218217447.92743,   0.00000
-225009891.99408,-280078466.01865,-10040635.68362,  -0.00048,  -0.00084,  -0.00013,257595450.90823,   0.00000,274640135.82653,   0.00000,   0.00000,   0.00000,-217044684.91830,   0.00000
-225675638.89720,-281548133.71045,-9940145.58503,  -0.00048,  -0.00084,  -0.00013,258759946.89061,   0.00000,274640135.82653,   0.00000,   0.00000,   0.00000,-215880188.93592,   0.00000
-226341385.80033,-283017801.40226,-9843842.57389,  -0.00048,  -0.00085,  -0.00013,259926068.66355,   0.00000,274640135.82653,   0.00000,   0.00000,   0.00000,-214714067.16298,   0.00000
-227007132.70346,-284487469.09406,-9743352.47530,  -0.00048,  -0.00085,  -0.00013,261092842.63085,   0.00000,274640135.82653,   0.00000,   0.00000,   0.00000,-213547293.19568,   0.00000
-227658224.80054,-285950856.15470,-9642862.37672,  -0.00048,  -0.00086,  -0.00013,262251881.87507,   0.00000,274640135.82653,   0.00000,   0.00000,   0.00000,-212388253.95146,   0.00000
-228309316.89762,-287414243.21535,-9538185.19069,  -0.00048,  -0.00086,  -0.00012,263411603.35179,   0.00000,274640135.82653,   0.00000,   0.00000,   0.00000,-211228532.47474,   0.00000
-228952034.81982,-288886004.45087,-9437695.09211,  -0.00048,  -0.00087,  -0.00012,264575753.86208,   0.00000,274640135.82653,   0.00000,   0.00000,   0.00000,-210064381.96445,   0.00000
-229594752.74202,-290357765.68640,-9333017.90608,  -0.00048,  -0.00087,  -0.00012,265740623.22362,   0.00000,274640135.82653,   0.00000,   0.00000,   0.00000,-208899512.60291,   0.00000
-230237470.66422,-291829526.92193,-9228340.72005,  -0.00048,  -0.00088,  -0.00012,266906651.01310,   0.00000,274640135.82653,   0.00000,   0.00000,   0.00000,-207733484.81343,   0.00000
-230865533.78037,-293295007.52629,-9119476.44659,  -0.00048,  -0.00088,  -0.00012,268064623.20091,   0.00000,274640135.82653,   0.00000,   0.00000,   0.00000,-206575512.62562,   0.00000
-231493596.89653,-294760488.13065,-9014799.26056,  -0.00048,  -0.00089,  -0.00012,269224190.89654,   0.00000,274640135.82653,   0.00000,   0.00000,   0.00000,-205415944.92999,   0.00000
-232107005.20664,-296219688.10386,-8905934.98709,  -0.00048,  -0.00090,  -0.00012,270375753.03879,   0.00000,274640135.82653,   0.00000,   0.00000,   0.00000,-204264382.78774,   0.00000
-232726694.14792,-297693542.88310,-8797070.71363,  -0.00048,  -0.00090,  -0.00011,271540219.66988,   0.00000,274640135.82653,   0.00000,   0.00000,   0.00000,-203099916.15665,   0.00000
-233325447.65199,-299146462.22514,-8684019.35272,  -0.00048,  -0.00091,  -0.00011,272685028.46322,   0.00000,274640135.82653,   0.00000,   0.00000,   0.00000,-201955107.36331,   0.00000
-233930481.78722,-300614036.37323,-8575155.07925,  -0.00048,  -0.00091,  -0.00011,273843171.66385,   0.00000,274640135.82653,   0.00000,   0.00000,   0.00000,-200796964.16268,   0.00000
-234535515.92245,-302081610.52131,-8462103.71834,  -0.00048,  -0.00092,  -0.00011,275002114.29711,   0.00000,274640135.82653,   0.00000,   0.00000,   0.00000,-199638021.52942,   0.00000
-235125895.25163,-303542904.03824,-8349052.35743,  -0.00048,  -0.00092,  -0.00011,276153588.02011,   0.00000,274640135.82653,   0.00000,   0.00000,   0.00000,-198486547.80642,   0.00000
-235701619.77478,-304997916.92400,-8236000.99653,  -0.00048,  -0.00093,  -0.00011,277297628.88052,   0.00000,274640135.82653,   0.00000,   0.00000,   0.00000,-197342506.94601,   0.00000
-236298279.73512,-306473865.24697,-8118762.54818,  -0.00048,  -0.00093,  -0.00011,278462929.05790,   0.00000,274640135.82653,   0.00000,   0.00000,   0.00000,-196177206.76863,   0.00000
-236874004.25827,-307928878.13273,-8005711.18727,  -0.00048,  -0.00094,  -0.00010,279609398.49406,   0.00000,274640135.82653,   0.00000,   0.00000,   0.00000,-195030737.33247,   0.00000
-237441354.60653,-309392265.19337,-7888472.73892,  -0.00048,  -0.00094,  -0.00010,280759926.08104,   0.00000,274640135.82653,   0.00000,   0.00000,   0.00000,-193880209.74549,   0.00000
-238008704.95479,-310855652.25401,-7771234.29057,  -0.00048,  -0.00095,  -0.00010,281911697.52046,   0.00000,274640135.82653,   0.00000,   0.00000,   0.00000,-192728438.30607,   0.00000
-238576055.30305,-312319039.31466,-7653995.84222,  -0.00048,  -0.00096,  -0.00010,283064697.62887,   0.00000,274640135.82653,   0.00000,   0.00000,   0.00000,-191575438.19766,   0.00000
-239128750.84527,-313776145.74414,-7532570.30643,  -0.00048,  -0.00096,  -0.00010,284210045.89615,   0.00000,274640135.82653,   0.00000,   0.00000,   0.00000,-190430089.93038,   0.00000
-239681446.38749,-315233252.17362,-7411144.77064,  -0.00048,  -0.00097,  -0.00010,285356640.69439,   0.00000,274640135.82653,   0.00000,   0.00000,   0.00000,-189283495.13214,   0.00000
-240219487.12366,-316684077.97194,-7289719.23485,  -0.00048,  -0.00097,  -0.00009,286495969.36748,   0.00000,274640135.82653,   0.00000,   0.00000,   0.00000,-188144166.45905,   0.00000
-240763808.49099,-318149558.57631,-7168293.69906,  -0.00048,  -0.00098,  -0.00009,287648408.67367,   0.00000,274640135.82653,   0.00000,   0.00000,   0.00000,-186991727.15286,   0.00000
-241301849.22717,-319600384.37463,-7046868.16327,  -0.00047,  -0.00098,  -0.00009,288790234.29174,   0.00000,274640135.82653,   0.00000,   0.00000,   0.00000,-185849901.53478,   0.00000
-241831515.78846,-321059584.34783,-6921255.54004,  -0.00047,  -0.00099,  -0.00009,289936413.93183,   0.00000,274640135.82653,   0.00000,   0.00000,   0.00000,-184703721.89470,   0.00000
-242361182.34975,-322518784.32103,-6799830.00425,  -0.00047,  -0.00099,  -0.00009,291084159.85089,   0.00000,274640135.82653,   0.00000,   0.00000,   0.00000,-183555975.97564,   0.00000
-242876194.10500,-323971703.66307,-6674217.38102,  -0.00047,  -0.00100,  -0.00009,292224454.12188,   0.00000,274640135.82653,   0.00000,   0.00000,   0.00000,-182415681.70465,   0.00000
-243405860.66629,-325430903.63628,-6548604.75779,  -0.00047,  -0.00101,  -0.00009,293374418.67696,   0.00000,274640135.82653,   0.00000,   0.00000,   0.00000,-181265717.14957,   0.00000
-243912498.24666,-326892197.15320,-6418805.04712,  -0.00047,  -0.00101,  -0.00008,294520501.95240,   0.00000,274640135.82653,   0.00000,   0.00000,   0.00000,-180119633.87413,   0.00000
-244412855.19586,-328338835.86408,-6293192.42388,  -0.00047,  -0.00102,  -0.00008,295656245.30694,   0.00000,274640135.82653,   0.00000,   0.00000,   0.00000,-178983890.51959,   0.00000
-244913212.14507,-329785474.57496,-6163392.71321,  -0.00047,  -0.00102,  -0.00008,296792996.97958,   0.00000,274640135.82653,   0.00000,   0.00000,   0.00000,-177847138.84695,   0.00000
-245419849.72543,-331246768.09188,-6033593.00254,  -0.00047,  -0.00103,  -0.00008,297942955.44112,   0.00000,274640135.82653,   0.00000,   0.00000,   0.00000,-176697180.38541,   0.00000
-245911832.49975,-332701780.97764,-5903793.29187,  -0.00047,  -0.00103,  -0.00008,299085880.84134,   0.00000,274640135.82653,   0.00000,   0.00000,   0.00000,-175554254.98519,   0.00000
-246403815.27408,-334156793.86340,-5773993.58119,  -0.00047,  -0.00104,  -0.00008,300230097.03330,   0.00000,274640135.82653,   0.00000,   0.00000,   0.00000,-174410038.79323,   0.00000
-246881143.24235,-335605526.11800,-5644193.87052,  -0.00047,  -0.00105,  -0.00007,301367322.14438,   0.00000,274640135.82653,   0.00000,   0.00000,   0.00000,-173272813.68215,   0.00000
-247358471.21063,-337054258.37260,-5510207.07241,  -0.00047,  -0.00105,  -0.00007,302505615.56214,   0.00000,274640135.82653,   0.00000,   0.00000,   0.00000,-172134520.26439,   0.00000
-247835799.17891,-338502990.62720,-5376220.27430,  -0.00047,  -0.00106,  -0.00007,303645204.21864,   0.00000,274640135.82653,   0.00000,   0.00000,   0.00000,-170994931.60789,   0.00000
-248298472.34115,-339945442.25064,-5242233.47618,  -0.00047,  -0.00106,  -0.00007,304777860.28388,   0.00000,274640135.82653,   0.00000,   0.00000,   0.00000,-169862275.54265,   0.00000
-248767426.13454,-341402548.68013,-5108246.67807,  -0.00047,  -0.00107,  -0.00007,305923816.97464,   0.00000,274640135.82653,   0.00000,   0.00000,   0.00000,-168716318.85189,   0.00000
-249230099.29678,-342845000.30356,-4974259.87996,  -0.00047,  -0.00107,  -0.00006,307059070.77244,   0.00000,274640135.82653,   0.00000,   0.00000,   0.00000,-167581065.05409,   0.00000
-249684398.28413,-344295826.10188,-4840273.08184,  -0.00046,  -0.00108,  -0.00006,308199453.56250,   0.00000,274640135.82653,   0.00000,   0.00000,   0.00000,-166440682.26403,   0.00000
-250138697.27148,-345746651.90021,-4702099.19629,  -0.00046,  -0.00109,  -0.00006,309340956.37522,   0.00000,274640135.82653,   0.00000,   0.00000,   0.00000,-165299179.45131,   0.00000
-250578341.45279,-347191197.06736,-4563925.31073,  -0.00046,  -0.00109,  -0.00006,310475645.48750,   0.00000,274640135.82653,   0.00000,   0.00000,   0.00000,-164164490.33903,   0.00000
-251017985.63410,-348635742.23452,-4425751.42518,  -0.00046,  -0.00110,  -0.00006,311611665.32479,   0.00000,274640135.82653,   0.00000,   0.00000,   0.00000,-163028470.50174,   0.00000
-251457629.81541,-350080287.40168,-4287577.53963,  -0.00046,  -0.00110,  -0.00006,312749001.38606,   0.00000,274640135.82653,   0.00000,   0.00000,   0.00000,-161891134.44047,   0.00000
-251882619.19068,-351518551.93768,-4149403.65407,  -0.00046,  -0.00111,  -0.00005,313879571.33684,   0.00000,274640135.82653,   0.00000,   0.00000,   0.00000,-160760564.48969,   0.00000
-252307608.56594,-352956816.47368,-4011229.76852,  -0.00046,  -0.00111,  -0.00005,315011465.24649,   0.00000,274640135.82653,   0.00000,   0.00000,   0.00000,-159628670.58003,   0.00000
-252738878.57237,-354409735.81572,-3868868.79552,  -0.00046,  -0.00112,  -0.00005,316156585.94289,   0.00000,274640135.82653,   0.00000,   0.00000,   0.00000,-158483549.88364,   0.00000
-253149213.14159,-355841719.72055,-3730694.90997,  -0.00046,  -0.00113,  -0.00005,317283085.76288,   0.00000,274640135.82653,   0.00000,   0.00000,   0.00000,-157357050.06365,   0.00000
-253565828.34198,-357288358.43143,-3588333.93697,  -0.00046,  -0.00113,  -0.00005,318422848.16278,   0.00000,274640135.82653,   0.00000,   0.00000,   0.00000,-156217287.66375,   0.00000
-253982443.54236,-358734997.14231,-3445972.96398,  -0.00046,  -0.00114,  -0.00004,319563941.69725,   0.00000,274640135.82653,   0.00000,   0.00000,   0.00000,-155076194.12928,   0.00000
-254384403.93670,-360175355.22203,-3303611.99098,  -0.00046,  -0.00114,  -0.00004,320698394.10459,   0.00000,274640135.82653,   0.00000,   0.00000,   0.00000,-153941741.72194,   0.00000
-254780083.69988,-361601058.49571,-3157063.93054,  -0.00045,  -0.00115,  -0.00004,321821953.51439,   0.00000,274640135.82653,   0.00000,   0.00000,   0.00000,-152818182.31214,   0.00000
-255182044.09422,-363041416.57542,-3014702.95755,  -0.00045,  -0.00115,  -0.00004,322959069.08830,   0.00000,274640135.82653,   0.00000,   0.00000,   0.00000,-151681066.73823,   0.00000
-255575630.31368,-364490148.83002,-2872341.98455,  -0.00045,  -0.00116,  -0.00004,324101716.93380,   0.00000,274640135.82653,   0.00000,   0.00000,   0.00000,-150538418.89273,   0.00000
-255962935.90197,-365924226.27858,-2725793.92412,  -0.00045,  -0.00117,  -0.00004,325233476.92813,   0.00000,274640135.82653,   0.00000,   0.00000,   0.00000,-149406658.89840,   0.00000
-256335586.68422,-367352023.09597,-2579245.86368,  -0.00045,  -0.00117,  -0.00003,326358703.02657,   0.00000,274640135.82653,   0.00000,   0.00000,   0.00000,-148281432.79996,   0.00000
-256722892.27252,-368786100.54453,-2432697.80324,  -0.00045,  -0.00118,  -0.00003,327493131.32601,   0.00000,274640135.82653,   0.00000,   0.00000,   0.00000,-147147004.50051,   0.00000
-257101823.68593,-370228552.16797,-2286149.74281,  -0.00045,  -0.00118,  -0.00003,328633187.73669,   0.00000,274640135.82653,   0.00000,   0.00000,   0.00000,-146006948.08984,   0.00000
-257459819.66214,-371650068.35420,-2139601.68237,  -0.00045,  -0.00119,  -0.00003,329754615.06752,   0.00000,274640135.82653,   0.00000,   0.00000,   0.00000,-144885520.75901,   0.00000
-257838751.07556,-373092519.97764,-1993053.62194,  -0.00045,  -0.00119,  -0.00003,330897351.78907,   0.00000,274640135.82653,   0.00000,   0.00000,   0.00000,-143742784.03746,   0.00000
-258203027.68293,-374528690.96992,-1842318.47406,  -0.00044,  -0.00120,  -0.00002,332033559.01745,   0.00000,274640135.82653,   0.00000,   0.00000,   0.00000,-142606576.80908,   0.00000
-258546368.85309,-375943926.52499,-1695770.41362,  -0.00044,  -0.00121,  -0.00002,333151242.76314,   0.00000,274640135.82653,   0.00000,   0.00000,   0.00000,-141488893.06339,   0.00000
-258910645.46046,-377380097.51727,-1545035.26574,  -0.00044,  -0.00121,  -0.00002,334290139.10776,   0.00000,274640135.82653,   0.00000,   0.00000,   0.00000,-140349996.71877,   0.00000
-259260267.26179,-378809987.87838,-1394300.11787,  -0.00044,  -0.00122,  -0.00002,335422638.79581,   0.00000,274640135.82653,   0.00000,   0.00000,   0.00000,-139217497.03072,   0.00000
-259595234.25707,-380233597.60834,-1243564.96999,  -0.00044,  -0.00122,  -0.00002,336548783.85922,   0.00000,274640135.82653,   0.00000,   0.00000,   0.00000,-138091351.96731,   0.00000
-259944856.05840,-381663487.96945,-1092829.82211,  -0.00044,  -0.00123,  -0.00001,337683977.45277,   0.00000,274640135.82653,   0.00000,   0.00000,   0.00000,-136956158.37376,   0.00000
-260279823.05368,-383087097.69940,-942094.67423,  -0.00044,  -0.00124,  -0.00001,338812826.40477,   0.00000,274640135.82653,   0.00000,   0.00000,   0.00000,-135827309.42176,   0.00000
-260621070.68013,-384525362.23540,-791359.52636,  -0.00044,  -0.00124,  -0.00001,339955237.97254,   0.00000,274640135.82653,   0.00000,   0.00000,   0.00000,-134684897.85399,   0.00000
-260941382.86937,-385942691.33419,-640624.37848,  -0.00043,  -0.00125,  -0.00001,341079137.30067,   0.00000,274640135.82653,   0.00000,   0.00000,   0.00000,-133560998.52586,   0.00000
-261261695.05861,-387360020.43299,-485702.14316,  -0.00043,  -0.00125,  -0.00001,342204370.10389,   0.00000,274640135.82653,   0.00000,   0.00000,   0.00000,-132435765.72264,   0.00000
-261588287.87901,-388792004.33782,-334966.99528,  -0.00043,  -0.00126,  -0.00000,343343205.61994,   0.00000,274640135.82653,   0.00000,   0.00000,   0.00000,-131296930.20659,   0.00000
-261908600.06825,-390209333.43661,-180044.75996,  -0.00043,  -0.00126,  -0.00000,344471124.60286,   0.00000,274640135.82653,   0.00000,   0.00000,   0.00000,-130169011.22367,   0.00000
-262220538.08261,-391635036.71029,-29309.61209,  -0.00043,  -0.00127,  -0.00000,345605070.98477,   0.00000,274640135.82653,   0.00000,   0.00000,   0.00000,-129035064.84176,   0.00000
-262532476.09696,-393060739.98396,125612.62323,  -0.00043,  -0.00128,   0.00000,346740370.21011,   0.00000,274640135.82653,   0.00000,   0.00000,   0.00000,-127899765.61642,   0.00000
-262838133.48016,-394471788.45159,280534.85855,  -0.00043,  -0.00128,   0.00000,347864749.30317,   0.00000,274640135.82653,   0.00000,   0.00000,   0.00000,-126775386.52336,   0.00000
-263135416.68847,-395891211.09411,435457.09387,  -0.00043,  -0.00129,   0.00001,348995227.20442,   0.00000,274640135.82653,   0.00000,   0.00000,   0.00000,-125644908.62211,   0.00000
-263447354.70283,-397316914.36778,590379.32919,  -0.00042,  -0.00129,   0.00001,350134538.02364,   0.00000,274640135.82653,   0.00000,   0.00000,   0.00000,-124505597.80289,   0.00000
-263729983.10510,-398730056.37913,745301.56451,  -0.00042,  -0.00130,   0.00001,351260241.47294,   0.00000,274640135.82653,   0.00000,   0.00000,   0.00000,-123379894.35359,   0.00000
-264027266.31342,-400149479.02165,900223.79982,  -0.00042,  -0.00131,   0.00001,352394751.75444,   0.00000,274640135.82653,   0.00000,   0.00000,   0.00000,-122245384.07209,   0.00000
-264309894.71569,-401562621.03300,1059333.12258,  -0.00042,  -0.00131,   0.00001,353523198.00618,   0.00000,274640135.82653,   0.00000,   0.00000,   0.00000,-121116937.82035,   0.00000
-264592523.11796,-402975763.04435,1214255.35790,  -0.00042,  -0.00132,   0.00002,354652954.64727,   0.00000,274640135.82653,   0.00000,   0.00000,   0.00000,-119987181.17926,   0.00000
-264875151.52023,-404388905.05570,1373364.68066,  -0.00042,  -0.00132,   0.00002,355784089.46568,   0.00000,274640135.82653,   0.00000,   0.00000,   0.00000,-118856046.36085,   0.00000
-265157779.92250,-405802047.06705,1528286.91598,  -0.00042,  -0.00133,   0.00002,356916498.29004,   0.00000,274640135.82653,   0.00000,   0.00000,   0.00000,-117723637.53649,   0.00000
-265425753.51872,-407208908.44724,1687396.23874,  -0.00041,  -0.00134,   0.00002,358042925.22521,   0.00000,274640135.82653,   0.00000,   0.00000,   0.00000,-116597210.60131,   0.00000
-265700007.74611,-408630424.63347,1846505.56150,  -0.00041,  -0.00134,   0.00002,359183017.15194,   0.00000,274640135.82653,   0.00000,   0.00000,   0.00000,-115457118.67459,   0.00000
-265967981.34234,-410037286.01366,2001427.79682,  -0.00041,  -0.00135,   0.00003,360312046.59892,   0.00000,274640135.82653,   0.00000,   0.00000,   0.00000,-114328089.22761,   0.00000
-266221300.13252,-411437866.76269,2160537.11958,  -0.00041,  -0.00135,   0.00003,361435165.41574,   0.00000,274640135.82653,   0.00000,   0.00000,   0.00000,-113204970.41079,   0.00000
-266480899.55387,-412853102.31776,2319646.44234,  -0.00041,  -0.00136,   0.00003,362571965.42211,   0.00000,274640135.82653,   0.00000,   0.00000,   0.00000,-112068170.40442,   0.00000
-266734218.34405,-414253683.06679,2478755.76510,  -0.00041,  -0.00136,   0.00003,363697755.71410,   0.00000,274640135.82653,   0.00000,   0.00000,   0.00000,-110942380.11242,   0.00000
-266993817.76539,-415668918.62186,2637865.08786,  -0.00040,  -0.00137,   0.00003,364837213.17954,   0.00000,274640135.82653,   0.00000,   0.00000,   0.00000,-109802922.64699,   0.00000
-267232481.74953,-417063218.73973,2796974.41062,  -0.00040,  -0.00138,   0.00004,365958410.11630,   0.00000,274640135.82653,   0.00000,   0.00000,   0.00000,-108681725.71023,   0.00000
-267477426.36483,-418472173.66364,2956083.73337,  -0.00040,  -0.00138,   0.00004,367093297.43513,   0.00000,274640135.82653,   0.00000,   0.00000,   0.00000,-107546838.39140,   0.00000
-267716090.34897,-419866473.78151,3119380.14358,  -0.00040,  -0.00139,   0.00004,368217247.83815,   0.00000,274640135.82653,   0.00000,   0.00000,   0.00000,-106422887.98838,   0.00000
-267961034.96427,-421275428.70542,3278489.46633,  -0.00040,  -0.00139,   0.00004,369354773.47488,   0.00000,274640135.82653,   0.00000,   0.00000,   0.00000,-105285362.35165,   0.00000
-268191324.77353,-422678102.99816,3437598.78909,  -0.00040,  -0.00140,   0.00004,370486458.99462,   0.00000,274640135.82653,   0.00000,   0.00000,   0.00000,-104153676.83191,   0.00000
-268415333.95163,-424066122.48487,3596708.11185,  -0.00039,  -0.00141,   0.00005,371607086.56199,   0.00000,274640135.82653,   0.00000,   0.00000,   0.00000,-103033049.26454,   0.00000
-268645623.76088,-425468796.77762,3760004.52205,  -0.00039,  -0.00141,   0.00005,372741533.50300,   0.00000,274640135.82653,   0.00000,   0.00000,   0.00000,-101898602.32353,   0.00000
-268875913.57014,-426871471.07037,3919113.84481,  -0.00039,  -0.00142,   0.00005,373877160.72377,   0.00000,274640135.82653,   0.00000,   0.00000,   0.00000,-100762975.10276,   0.00000
-269106203.37940,-428274145.36311,4082410.25501,  -0.00039,  -0.00142,   0.00005,375014214.71729,   0.00000,274640135.82653,   0.00000,   0.00000,   0.00000,-99625921.10924,   0.00000
-269315557.75145,-429655884.21866,4241519.57777,  -0.00039,  -0.00143,   0.00006,376132963.00130,   0.00000,274640135.82653,   0.00000,   0.00000,   0.00000,-98507172.82523,   0.00000
-269531192.75466,-431052277.88025,4404815.98797,  -0.00039,  -0.00144,   0.00006,377265559.98194,   0.00000,274640135.82653,   0.00000,   0.00000,   0.00000,-97374575.84459,   0.00000
-269746827.75788,-432448671.54183,4568112.39818,  -0.00038,  -0.00144,   0.00006,378399458.56180,   0.00000,274640135.82653,   0.00000,   0.00000,   0.00000,-96240677.26473,   0.00000
-269947807.95505,-433838784.57226,4727221.72093,  -0.00038,  -0.00145,   0.00006,379527497.01873,   0.00000,274640135.82653,   0.00000,   0.00000,   0.00000,-95112638.80780,   0.00000
-270148788.15222,-435228897.60268,4890518.13114,  -0.00038,  -0.00145,   0.00006,380657002.16224,   0.00000,274640135.82653,   0.00000,   0.00000,   0.00000,-93983133.66429,   0.00000
-270364423.15543,-436625291.26427,5053814.54134,  -0.00038,  -0.00146,   0.00007,381794767.37679,   0.00000,274640135.82653,   0.00000,   0.00000,   0.00000,-92845368.44974,   0.00000
-270550748.54656,-438009123.66353,5212923.86410,  -0.00038,  -0.00147,   0.00007,382919740.15431,   0.00000,274640135.82653,   0.00000,   0.00000,   0.00000,-91720395.67222,   0.00000
-270751728.74373,-439399236.69396,5376220.27430,  -0.00038,  -0.00147,   0.00007,384053116.26740,   0.00000,274640135.82653,   0.00000,   0.00000,   0.00000,-90587019.55913,   0.00000
-270938054.13485,-440783069.09322,5539516.68450,  -0.00037,  -0.00148,   0.00007,385180859.95699,   0.00000,274640135.82653,   0.00000,   0.00000,   0.00000,-89459275.86954,   0.00000
-271139034.33202,-442173182.12365,5702813.09470,  -0.00037,  -0.00148,   0.00007,386316781.34778,   0.00000,274640135.82653,   0.00000,   0.00000,   0.00000,-88323354.47875,   0.00000
-271325359.72315,-443557014.52291,5866109.50490,  -0.00037,  -0.00149,   0.00008,387447084.33590,   0.00000,274640135.82653,   0.00000,   0.00000,   0.00000,-87193051.49063,   0.00000
-271511685.11428,-444940846.92218,6029405.91510,  -0.00037,  -0.00150,   0.00008,388578659.34257,   0.00000,274640135.82653,   0.00000,   0.00000,   0.00000,-86061476.48396,   0.00000
-271683355.69936,-446318398.69028,6192702.32530,  -0.00037,  -0.00150,   0.00008,389704666.63006,   0.00000,274640135.82653,   0.00000,   0.00000,   0.00000,-84935469.19647,   0.00000
-271869681.09048,-447702231.08954,6351811.64806,  -0.00036,  -0.00151,   0.00008,390838566.37059,   0.00000,274640135.82653,   0.00000,   0.00000,   0.00000,-83801569.45594,   0.00000
-272041351.67557,-449079782.85765,6515108.05826,  -0.00036,  -0.00151,   0.00008,391967112.33624,   0.00000,274640135.82653,   0.00000,   0.00000,   0.00000,-82673023.49029,   0.00000
-272219302.89181,-450471989.43179,6678404.46846,  -0.00036,  -0.00152,   0.00009,393109392.47602,   0.00000,274640135.82653,   0.00000,   0.00000,   0.00000,-81530743.35051,   0.00000
-272376318.67085,-451843260.56873,6841700.87866,  -0.00036,  -0.00152,   0.00009,394233704.51657,   0.00000,274640135.82653,   0.00000,   0.00000,   0.00000,-80406431.30995,   0.00000
-272547989.25593,-453220812.33683,7004997.28886,  -0.00036,  -0.00153,   0.00009,395366033.00286,   0.00000,274640135.82653,   0.00000,   0.00000,   0.00000,-79274102.82367,   0.00000
-272705005.03497,-454592083.47378,7168293.69906,  -0.00035,  -0.00154,   0.00009,396492873.85683,   0.00000,274640135.82653,   0.00000,   0.00000,   0.00000,-78147261.96970,   0.00000
-272876675.62005,-455969635.24188,7331590.10926,  -0.00035,  -0.00154,   0.00010,397627673.52407,   0.00000,274640135.82653,   0.00000,   0.00000,   0.00000,-77012462.30246,   0.00000
-273033691.39909,-457340906.37882,7494886.51946,  -0.00035,  -0.00155,   0.00010,398757000.39224,   0.00000,274640135.82653,   0.00000,   0.00000,   0.00000,-75883135.43429,   0.00000
-273190707.17813,-458712177.51576,7658182.92966,  -0.00035,  -0.00155,   0.00010,399887563.47296,   0.00000,274640135.82653,   0.00000,   0.00000,   0.00000,-74752572.35357,   0.00000
-273333068.15113,-460077168.02154,7821479.33986,  -0.00035,  -0.00156,   0.00010,401012704.75536,   0.00000,274640135.82653,   0.00000,   0.00000,   0.00000,-73627431.07117,   0.00000
-273496364.56133,-461463093.96452,7984775.75006,  -0.00034,  -0.00157,   0.00010,402158227.40855,   0.00000,274640135.82653,   0.00000,   0.00000,   0.00000,-72481908.41798,   0.00000
-273638725.53432,-462828084.47030,8148072.16026,  -0.00034,  -0.00157,   0.00011,403285846.45427,   0.00000,274640135.82653,   0.00000,   0.00000,   0.00000,-71354289.37226,   0.00000
-273781086.50732,-464193074.97608,8311368.57047,  -0.00034,  -0.00158,   0.00011,404414695.96356,   0.00000,274640135.82653,   0.00000,   0.00000,   0.00000,-70225439.86297,   0.00000
-273923447.48032,-465558065.48186,8474664.98067,  -0.00034,  -0.00158,   0.00011,405544765.66128,   0.00000,274640135.82653,   0.00000,   0.00000,   0.00000,-69095370.16525,   0.00000
-274065808.45331,-466923055.98764,8637961.39087,  -0.00034,  -0.00159,   0.00011,406676045.37547,   0.00000,274640135.82653,   0.00000,   0.00000,   0.00000,-67964090.45106,   0.00000
-274193514.62026,-468281765.86226,8801257.80107,  -0.00033,  -0.00160,   0.00011,407801984.91569,   0.00000,274640135.82653,   0.00000,   0.00000,   0.00000,-66838150.91084,   0.00000
-274335875.59326,-469646756.36804,8964554.21127,  -0.00033,  -0.00160,   0.00012,408935672.17033,   0.00000,274640135.82653,   0.00000,   0.00000,   0.00000,-65704463.65620,   0.00000
-274463581.76021,-471005466.24265,9127850.62147,  -0.00033,  -0.00161,   0.00012,410064034.78044,   0.00000,274640135.82653,   0.00000,   0.00000,   0.00000,-64576101.04609,   0.00000
-274591287.92716,-472364176.11727,9291147.03167,  -0.00033,  -0.00161,   0.00012,411193602.86031,   0.00000,274640135.82653,   0.00000,   0.00000,   0.00000,-63446532.96622,   0.00000
-274718994.09411,-473722885.99189,9454443.44187,  -0.00033,  -0.00162,   0.00012,412324366.50276,   0.00000,274640135.82653,   0.00000,   0.00000,   0.00000,-62315769.32377,   0.00000
-274832045.45502,-475075315.23535,9617739.85207,  -0.00032,  -0.00163,   0.00013,413449864.53405,   0.00000,274640135.82653,   0.00000,   0.00000,   0.00000,-61190271.29248,   0.00000
-274959751.62197,-476434025.10996,9781036.26227,  -0.00032,  -0.00163,   0.00013,414583007.48716,   0.00000,274640135.82653,   0.00000,   0.00000,   0.00000,-60057128.33937,   0.00000
-275072802.98288,-477786454.35342,9944332.67247,  -0.00032,  -0.00164,   0.00013,415710900.66911,   0.00000,274640135.82653,   0.00000,   0.00000,   0.00000,-58929235.15742,   0.00000
-275200509.14983,-479145164.22804,10107629.08267,  -0.00032,  -0.00164,   0.00013,416846384.15635,   0.00000,274640135.82653,   0.00000,   0.00000,   0.00000,-57793751.67018,   0.00000
-275313560.51074,-480497593.47149,10270925.49287,  -0.00032,  -0.00165,   0.00013,417976633.78347,   0.00000,274640135.82653,   0.00000,   0.00000,   0.00000,-56663502.04306,   0.00000
-275426611.87165,-481850022.71495,10430034.81563,  -0.00031,  -0.00166,   0.00014,419107743.43789,   0.00000,274640135.82653,   0.00000,   0.00000,   0.00000,-55532392.38864,   0.00000
-275539663.23256,-483202451.95841,10593331.22583,  -0.00031,  -0.00166,   0.00014,420240324.94103,   0.00000,274640135.82653,   0.00000,   0.00000,   0.00000,-54399810.88550,   0.00000
-275638059.78742,-484548600.57070,10756627.63603,  -0.00031,  -0.00167,   0.00014,421367731.67707,   0.00000,274640135.82653,   0.00000,   0.00000,   0.00000,-53272404.14946,   0.00000
-275751111.14833,-485901029.81416,10919924.04623,  -0.00031,  -0.00167,   0.00014,422502628.88904,   0.00000,274640135.82653,   0.00000,   0.00000,   0.00000,-52137506.93749,   0.00000
-275849507.70319,-487247178.42645,11079033.36899,  -0.00030,  -0.00168,   0.00014,423632038.95255,   0.00000,274640135.82653,   0.00000,   0.00000,   0.00000,-51008096.87397,   0.00000
-275947904.25806,-488593327.03875,11242329.77919,  -0.00030,  -0.00169,   0.00015,424762934.34925,   0.00000,274640135.82653,   0.00000,   0.00000,   0.00000,-49877201.47728,   0.00000
-276046300.81292,-489939475.65104,11405626.18939,  -0.00030,  -0.00169,   0.00015,425894981.23873,   0.00000,274640135.82653,   0.00000,   0.00000,   0.00000,-48745154.58780,   0.00000
-276138416.73663,-491270969.45729,11564735.51215,  -0.00030,  -0.00170,   0.00015,427015259.98155,   0.00000,274640135.82653,   0.00000,   0.00000,   0.00000,-47624875.84498,   0.00000
-276236813.29149,-492617118.06959,11728031.92235,  -0.00030,  -0.00170,   0.00015,428149575.92243,   0.00000,274640135.82653,   0.00000,   0.00000,   0.00000,-46490559.90410,   0.00000
-276335209.84635,-493963266.68188,11887141.24511,  -0.00029,  -0.00171,   0.00015,429284668.32380,   0.00000,274640135.82653,   0.00000,   0.00000,   0.00000,-45355467.50273,   0.00000
-276412670.96401,-495288479.85697,12050437.65531,  -0.00029,  -0.00171,   0.00016,430402451.75483,   0.00000,274640135.82653,   0.00000,   0.00000,   0.00000,-44237684.07170,   0.00000
-276496412.71283,-496628347.83810,12209546.97807,  -0.00029,  -0.00172,   0.00016,431533596.14630,   0.00000,274640135.82653,   0.00000,   0.00000,   0.00000,-43106539.68023,   0.00000
-276594809.26770,-497974496.45040,12372843.38827,  -0.00029,  -0.00173,   0.00016,432672380.12556,   0.00000,274640135.82653,   0.00000,   0.00000,   0.00000,-41967755.70097,   0.00000
-276672270.38536,-499299709.62549,12531952.71103,  -0.00029,  -0.00173,   0.00016,433793165.55670,   0.00000,274640135.82653,   0.00000,   0.00000,   0.00000,-40846970.26983,   0.00000
-276756012.13418,-500639577.60662,12695249.12124,  -0.00028,  -0.00174,   0.00017,434928007.78330,   0.00000,274640135.82653,   0.00000,   0.00000,   0.00000,-39712128.04323,   0.00000
-276833473.25184,-501964790.78171,12854358.44399,  -0.00028,  -0.00174,   0.00017,436050994.96273,   0.00000,274640135.82653,   0.00000,   0.00000,   0.00000,-38589140.86380,   0.00000
-276902560.19462,-503298378.13168,13013467.76675,  -0.00028,  -0.00175,   0.00017,437181571.95358,   0.00000,274640135.82653,   0.00000,   0.00000,   0.00000,-37458563.87295,   0.00000
-276980021.31227,-504623591.30677,13172577.08951,  -0.00028,  -0.00176,   0.00017,438306740.07617,   0.00000,274640135.82653,   0.00000,   0.00000,   0.00000,-36333395.75036,   0.00000
-277042827.62389,-505942523.85070,13331686.41227,  -0.00027,  -0.00176,   0.00017,439426922.18761,   0.00000,274640135.82653,   0.00000,   0.00000,   0.00000,-35213213.63892,   0.00000
-277126569.37271,-507282391.83183,13490795.73503,  -0.00027,  -0.00177,   0.00018,440566835.19310,   0.00000,274640135.82653,   0.00000,   0.00000,   0.00000,-34073300.63343,   0.00000
-277189375.68433,-508601324.37576,13654092.14523,  -0.00027,  -0.00177,   0.00018,441689570.02632,   0.00000,274640135.82653,   0.00000,   0.00000,   0.00000,-32950565.80021,   0.00000
-277252181.99594,-509920256.91969,13813201.46799,  -0.00027,  -0.00178,   0.00018,442812997.28895,   0.00000,274640135.82653,   0.00000,   0.00000,   0.00000,-31827138.53758,   0.00000
-277321268.93872,-511253844.26966,13968123.70331,  -0.00026,  -0.00179,   0.00018,443949704.45198,   0.00000,274640135.82653,   0.00000,   0.00000,   0.00000,-30690431.37455,   0.00000
-277384075.25034,-512572776.81358,14127233.02607,  -0.00026,  -0.00179,   0.00018,445075260.12671,   0.00000,274640135.82653,   0.00000,   0.00000,   0.00000,-29564875.69982,   0.00000
-277446881.56195,-513891709.35751,14286342.34883,  -0.00026,  -0.00180,   0.00019,446201868.60454,   0.00000,274640135.82653,   0.00000,   0.00000,   0.00000,-28438267.22199,   0.00000
-277495033.06752,-515204361.27028,14445451.67159,  -0.00026,  -0.00180,   0.00019,447323584.44846,   0.00000,274640135.82653,   0.00000,   0.00000,   0.00000,-27316551.37807,   0.00000
-277557839.37914,-516523293.81421,14604560.99435,  -0.00026,  -0.00181,   0.00019,448452291.15140,   0.00000,274640135.82653,   0.00000,   0.00000,   0.00000,-26187844.67513,   0.00000
-277605990.88471,-517835945.72697,14759483.22967,  -0.00025,  -0.00181,   0.00019,449575710.05159,   0.00000,274640135.82653,   0.00000,   0.00000,   0.00000,-25064425.77494,   0.00000
-277668797.19633,-519154878.27090,14918592.55243,  -0.00025,  -0.00182,   0.00019,450706480.06444,   0.00000,274640135.82653,   0.00000,   0.00000,   0.00000,-23933655.76209,   0.00000
-277710668.07074,-520452875.37762,15073514.78775,  -0.00025,  -0.00183,   0.00020,451819352.69845,   0.00000,274640135.82653,   0.00000,   0.00000,   0.00000,-22820783.12808,   0.00000
-277758819.57631,-521765527.29039,15232624.11051,  -0.00025,  -0.00183,   0.00020,452946298.00577,   0.00000,274640135.82653,   0.00000,   0.00000,   0.00000,-21693837.82076,   0.00000
-277806971.08188,-523078179.20316,15387546.34582,  -0.00024,  -0.00184,   0.00020,454073848.49202,   0.00000,274640135.82653,   0.00000,   0.00000,   0.00000,-20566287.33450,   0.00000
-277855122.58745,-524390831.11592,15546655.66858,  -0.00024,  -0.00184,   0.00020,455202844.62041,   0.00000,274640135.82653,   0.00000,   0.00000,   0.00000,-19437291.20611,   0.00000
-277896993.46186,-525688828.22264,15701577.90390,  -0.00024,  -0.00185,   0.00020,456319796.72122,   0.00000,274640135.82653,   0.00000,   0.00000,   0.00000,-18320339.10531,   0.00000
-277945144.96743,-527001480.13541,15856500.13922,  -0.00024,  -0.00186,   0.00021,457450376.18477,   0.00000,274640135.82653,   0.00000,   0.00000,   0.00000,-17189759.64176,   0.00000
-277972361.03580,-528293196.61097,16011422.37454,  -0.00023,  -0.00186,   0.00021,458563545.04422,   0.00000,274640135.82653,   0.00000,   0.00000,   0.00000,-16076590.78231,   0.00000
-278020512.54137,-529605848.52374,16166344.60986,  -0.00023,  -0.00187,   0.00021,459696120.09127,   0.00000,274640135.82653,   0.00000,   0.00000,   0.00000,-14944015.73525,   0.00000
-278047728.60974,-530897564.99930,16321266.84518,  -0.00023,  -0.00187,   0.00021,460811298.78619,   0.00000,274640135.82653,   0.00000,   0.00000,   0.00000,-13828837.04034,   0.00000
-278089599.48415,-532195562.10602,16476189.08049,  -0.00023,  -0.00188,   0.00021,461933204.44967,   0.00000,274640135.82653,   0.00000,   0.00000,   0.00000,-12706931.37686,   0.00000
-278123096.18368,-533501933.38763,16631111.31581,  -0.00023,  -0.00189,   0.00022,463062999.61904,   0.00000,274640135.82653,   0.00000,   0.00000,   0.00000,-11577136.20749,   0.00000
-278150312.25205,-534793649.86319,16786033.55113,  -0.00022,  -0.00189,   0.00022,464181145.89800,   0.00000,274640135.82653,   0.00000,   0.00000,   0.00000,-10458989.92853,   0.00000
-278177528.32041,-536085366.33875,16936768.69901,  -0.00022,  -0.00190,   0.00022,465299814.62498,   0.00000,274640135.82653,   0.00000,   0.00000,   0.00000,-9340321.20155,   0.00000
-278204744.38878,-537377082.81431,17091690.93433,  -0.00022,  -0.00190,   0.00022,466419910.23828,   0.00000,274640135.82653,   0.00000,   0.00000,   0.00000,-8220225.58825,   0.00000
-278231960.45715,-538668799.28987,17242426.08221,  -0.00022,  -0.00191,   0.00022,467540508.25175,   0.00000,274640135.82653,   0.00000,   0.00000,   0.00000,-7099627.57478,   0.00000
-278259176.52551,-539960515.76543,17397348.31752,  -0.00021,  -0.00191,   0.00023,468662525.29788,   0.00000,274640135.82653,   0.00000,   0.00000,   0.00000,-5977610.52864,   0.00000
-278286392.59388,-541252232.24099,17548083.46540,  -0.00021,  -0.00192,   0.00023,469785025.00076,   0.00000,274640135.82653,   0.00000,   0.00000,   0.00000,-4855110.82577,   0.00000
-278307328.03108,-542529293.91051,17698818.61328,  -0.00021,  -0.00193,   0.00023,470895816.46149,   0.00000,274640135.82653,   0.00000,   0.00000,   0.00000,-3744319.36504,   0.00000
-278319889.29341,-543814729.75491,17853740.84860,  -0.00021,  -0.00193,   0.00023,472015078.02194,   0.00000,274640135.82653,   0.00000,   0.00000,   0.00000,-2625057.80459,   0.00000
-278347105.36177,-545106446.23047,18004475.99647,  -0.00020,  -0.00194,   0.00023,473140392.30520,   0.00000,274640135.82653,   0.00000,   0.00000,   0.00000,-1499743.52133,   0.00000
-278353385.99294,-546377227.26883,18155211.14435,  -0.00020,  -0.00194,   0.00024,474248422.03963,   0.00000,274640135.82653,   0.00000,   0.00000,   0.00000,-391713.78690,   0.00000
-278362846.79099,-546826251.29971,18207609.41052,  -0.00020,  -0.00195,   0.00024,474640140.20475,   0.00000,274640135.82653,   0.00000,   0.00000,   0.00000,  -4.22028,   0.00000
-278011502.75498,-546825507.07652,18273701.32310,  -0.00020,  -0.00195,   0.00024,474643586.66964,   0.00000,274643591.96147,  -0.00000,  -0.00000,   0.00000,  -5.29184,   1.00000
-277462340.88054,-546823679.97537,18375512.27883,  -0.00020,  -0.00195,   0.00024,474648804.53696,   0.00001,274648809.93398,  -0.00000,  -0.00001,   0.00000,  -5.39702,   1.00000
-276914470.74970,-546821633.41803,18472872.96047,  -0.00019,  -0.00196,   0.00024,474654022.18705,   0.00001,274654031.78052,  -0.00000,  -0.00001,   0.00000,  -9.59347,   1.00000
-276379285.37167,-546818399.04705,18573297.86283,  -0.00019,  -0.00197,   0.00024,474659345.99746,   0.00002,274659347.37520,  -0.00000,  -0.00002,   0.00000,  -1.37774,   1.00000
-275833252.33225,-546814283.11668,18674237.30381,  -0.00019,  -0.00197,   0.00025,474664579.04022,   0.00002,274664583.64191,  -0.00000,  -0.00002,   0.00000,  -4.60169,   1.00000
-275288518.67060,-546809984.82511,18770729.54665,  -0.00019,  -0.00198,   0.00025,474669820.15147,   0.00003,274669823.63924,  -0.00000,  -0.00003,   0.00000,  -3.48776,   1.00000
-274744592.20782,-546804370.21090,18871093.51397,  -0.00018,  -0.00198,   0.00025,474675068.89384,   0.00003,274675072.05330,  -0.00000,  -0.00003,   0.00000,  -3.15947,   1.00000
-274201962.98753,-546798581.55468,18967011.69928,  -0.00018,  -0.00199,   0.00025,474680317.13326,   0.00004,274680324.16914,  -0.00000,  -0.00004,   0.00000,  -7.03588,   1.00000
-273660393.13895,-546792072.11843,19062650.03224,  -0.00018,  -0.00200,   0.00025,474685581.58227,   0.00004,274685582.23896,  -0.00000,  -0.00004,   0.00001,  -0.65670,   1.00000
-273107579.72281,-546784027.20544,19162989.12020,  -0.00018,  -0.00200,   0.00026,474690763.19636,   0.00005,274690763.47484,  -0.00000,  -0.00005,   0.00001,  -0.27848,   1.00000
-272568135.86253,-546776038.46856,19258054.25213,  -0.00017,  -0.00201,   0.00026,474696026.26524,   0.00005,274696033.71618,  -0.00000,  -0.00005,   0.00001,  -7.45095,   1.00000
-272029752.23134,-546767347.08726,19352841.55573,  -0.00017,  -0.00201,   0.00026,474701305.46733,   0.00006,274701309.84771,  -0.00000,  -0.00006,   0.00001,  -4.38038,   1.00000
-271480287.27061,-546757670.26503,19448189.11034,  -0.00017,  -0.00202,   0.00026,474706502.12339,   0.00006,274706506.72308,  -0.00000,  -0.00006,   0.00001,  -4.59968,   1.00000
-270944287.52770,-546748139.81344,19538267.09690,  -0.00017,  -0.00202,   0.00026,474711788.11775,   0.00007,274711792.36148,  -0.00000,  -0.00006,   0.00001,  -4.24373,   1.00000
-270396898.08400,-546737010.28293,19633076.01291,  -0.00016,  -0.00203,   0.00026,474716991.77460,   0.00007,274717001.18715,  -0.00000,  -0.00007,   0.00001,  -9.41255,   1.00000
-269862614.55479,-546725337.83211,19727358.76140,  -0.00016,  -0.00204,   0.00027,474722237.42138,   0.00007,274722241.17823,  -0.00000,  -0.00007,   0.00001,  -3.75685,   1.00000
-269317558.17158,-546713388.59440,19817468.18228,  -0.00016,  -0.00204,   0.00027,474727456.23925,   0.00008,274727459.35793,  -0.00000,  -0.00008,   0.00001,  -3.11869,   1.00000
-268785378.15954,-546700329.79999,19911213.52688,  -0.00016,  -0.00205,   0.00027,474732708.48224,   0.00008,274732711.08200,   0.00000,  -0.00008,   0.00001,  -2.59976,   1.00000
-268242400.64073,-546686979.64307,20000788.26774,  -0.00015,  -0.00205,   0.00027,474737934.01019,   0.00009,274737941.02979,   0.00000,  -0.00009,   0.00001,  -7.01959,   1.00000
-267700481.08503,-546672945.10069,20090102.14680,  -0.00015,  -0.00206,   0.00027,474743175.50798,   0.00009,274743176.82294,   0.00000,  -0.00009,   0.00001,  -1.31496,   1.00000
-267171726.59333,-546658459.71910,20178901.14436,  -0.00015,  -0.00206,   0.00028,474748441.47980,   0.00010,274748443.46380,   0.00000,  -0.00010,   0.00001,  -1.98400,   1.00000
-266631883.54340,-546643049.92396,20267694.77092,  -0.00015,  -0.00207,   0.00028,474753681.05884,   0.00010,274753690.91434,   0.00000,  -0.00010,   0.00001,  -9.85549,   1.00000
-266092817.45558,-546626812.71558,20356844.29615,  -0.00014,  -0.00208,   0.00028,474758880.39918,   0.00011,274758883.99971,   0.00000,  -0.00011,   0.00002,  -3.60053,   1.00000
-265555083.84036,-546610054.32843,20445118.12708,  -0.00014,  -0.00208,   0.00028,474764134.92060,   0.00011,274764143.08672,   0.00000,  -0.00011,   0.00002,  -8.16612,   1.00000
-265018091.91710,-546592467.48972,20533753.86076,  -0.00014,  -0.00209,   0.00028,474769340.74594,   0.00012,274769347.74935,   0.00000,  -0.00012,   0.00002,  -7.00341,   1.00000
-264482468.22499,-546574383.06303,20621510.40822,  -0.00014,  -0.00209,   0.00029,474774610.09683,   0.00012,274774618.39011,   0.00000,  -0.00012,   0.00002,  -8.29328,   1.00000
-263947811.90934,-546556105.44475,20705486.19441,  -0.00013,  -0.00210,   0.00029,474779830.20393,   0.00013,274779831.87745,   0.00000,  -0.00013,   0.00002,  -1.67352,   1.00000
-263413934.87394,-546536541.27382,20793366.18761,  -0.00013,  -0.00210,   0.00029,474785049.65534,   0.00013,274785053.71209,   0.00000,  -0.00013,   0.00002,  -4.05675,   1.00000
-262881355.29221,-546516963.65680,20876842.82052,  -0.00013,  -0.00211,   0.00029,474790275.93991,   0.00014,274790278.57475,   0.00000,  -0.00014,   0.00002,  -2.63484,   1.00000
-262337586.68150,-546496360.60870,20960333.80612,  -0.00013,  -0.00212,   0.00029,474795484.34237,   0.00014,274795484.58054,   0.00000,  -0.00014,   0.00002,  -0.23816,   1.00000
-261806850.28969,-546474854.39165,21047471.59516,  -0.00012,  -0.00212,   0.00029,474800717.28235,   0.00015,274800723.51930,   0.00000,  -0.00014,   0.00002,  -6.23695,   1.00000
-261277416.28755,-546453367.91795,21130208.92572,  -0.00012,  -0.00213,   0.00030,474805965.28189,   0.00015,274805965.34975,   0.00000,  -0.00015,   0.00002,  -0.06786,   1.00000
-260748576.80612,-546431066.39509,21213343.98244,  -0.00012,  -0.00213,   0.00030,474811147.33299,   0.00016,274811152.39424,   0.00000,  -0.00015,   0.00002,  -5.06124,   1.00000
-260208941.69718,-546407882.95001,21295856.10236,  -0.00012,  -0.00214,   0.00030,474816376.50049,   0.00016,274816381.10726,   0.00000,  -0.00016,   0.00002,  -4.60677,   1.00000
-259682436.44795,-546384984.32355,21374365.06708,  -0.00011,  -0.00214,   0.00030,474821572.14278,   0.00017,274821576.58232,   0.00000,  -0.00016,   0.00002,  -4.43954,   1.00000
-259144879.37351,-546360531.59035,21456406.01231,  -0.00011,  -0.00215,   0.00030,474826807.38209,   0.00017,274826816.58039,   0.00000,  -0.00017,   0.00002,  -9.19830,   1.00000
-258620189.69288,-546335765.20617,21538596.89381,  -0.00011,  -0.00215,   0.00031,474832017.76526,   0.00017,274832025.82684,   0.00000,  -0.00017,   0.00003,  -8.06158,   1.00000
-258096785.72188,-546311055.19456,21616403.46845,  -0.00011,  -0.00216,   0.00031,474837234.40190,   0.00018,274837237.76525,   0.00000,  -0.00018,   0.00003,  -3.36335,   1.00000
-257561803.51439,-546284562.94085,21698390.22228,  -0.00010,  -0.00217,   0.00031,474842425.95692,   0.00018,274842433.88361,   0.00000,  -0.00018,   0.00003,  -7.92668,   1.00000
-257040471.63138,-546258656.72990,21775733.07683,  -0.00010,  -0.00217,   0.00031,474847648.20241,   0.00019,274847656.78181,   0.00000,  -0.00019,   0.00003,  -8.57939,   1.00000
-256507801.57694,-546231612.41740,21853111.57992,  -0.00010,  -0.00218,   0.00031,474852853.07988,   0.00019,274852861.11480,   0.00000,  -0.00019,   0.00003,  -8.03492,   1.00000
-255976169.55978,-546203965.40252,21930264.89534,  -0.00010,  -0.00218,   0.00031,474858065.00151,   0.00020,274858070.96169,   0.00000,  -0.00020,   0.00003,  -5.96018,   1.00000
-255457365.84418,-546176107.89277,22007594.93627,  -0.00009,  -0.00219,   0.00032,474863242.93660,   0.00020,274863249.46176,   0.00000,  -0.00020,   0.00003,  -6.52516,   1.00000
-254927786.19308,-546147283.81006,22084299.06004,  -0.00009,  -0.00219,   0.00032,474868468.71978,   0.00021,274868470.16129,   0.00000,  -0.00021,   0.00003,  -1.44151,   1.00000
-254398612.04817,-546117655.07915,22161445.75348,  -0.00009,  -0.00220,   0.00032,474873627.99770,   0.00021,274873635.64794,   0.00000,  -0.00021,   0.00003,  -7.65023,   1.00000
-253883789.69694,-546088957.96812,22233294.83419,  -0.00009,  -0.00220,   0.00032,474878882.16106,   0.00022,274878888.10916,   0.00000,  -0.00022,   0.00003,  -5.94810,   1.00000
-253356640.35638,-546058187.72352,22310011.21692,  -0.00008,  -0.00221,   0.00032,474884063.23369,   0.00022,274884064.21510,   0.00000,  -0.00022,   0.00003,  -0.98141,   1.00000
-252830510.24679,-546026832.62178,22386505.73511,  -0.00008,  -0.00222,   0.00032,474889242.95199,   0.00023,274889245.74558,   0.00000,  -0.00022,   0.00003,  -2.79360,   1.00000
-252318119.45567,-545996257.08968,22458372.55446,  -0.00008,  -0.00222,   0.00033,474894443.88861,   0.00023,274894453.31420,   0.00000,  -0.00023,   0.00003,  -9.42559,   1.00000
-251794272.85011,-545964458.52227,22530293.41093,  -0.00008,  -0.00223,   0.00033,474899636.06805,   0.00024,274899642.51687,   0.00000,  -0.00023,   0.00003,  -6.44882,   1.00000
-251271449.03284,-545932101.51805,22602005.40259,  -0.00007,  -0.00223,   0.00033,474904834.98239,   0.00024,274904837.01109,   0.00001,  -0.00024,   0.00004,  -2.02870,   1.00000
-250748649.68127,-545898284.84758,22678334.28352,  -0.00007,  -0.00224,   0.00033,474909976.16946,   0.00025,274909978.80097,   0.00001,  -0.00024,   0.00004,  -2.63151,   1.00000
-250227868.18203,-545864814.90646,22749617.18686,  -0.00007,  -0.00224,   0.00033,474915180.28445,   0.00025,274915183.90080,   0.00001,  -0.00025,   0.00004,  -3.61635,   1.00000
-249707605.31893,-545831260.43871,22817234.32152,  -0.00007,  -0.00225,   0.00033,474920324.49676,   0.00026,274920330.37630,   0.00001,  -0.00025,   0.00004,  -5.87953,   1.00000
-249201395.43979,-545797480.21533,22887849.85289,  -0.00006,  -0.00225,   0.00034,474925564.91942,   0.00026,274925569.11700,   0.00001,  -0.00026,   0.00004,  -4.19758,   1.00000
-248682859.95119,-545762172.26265,22959211.91635,  -0.00006,  -0.00226,   0.00034,474930723.25378,   0.00027,274930728.74377,   0.00001,  -0.00026,   0.00004,  -5.48999,   1.00000
-248165331.88502,-545726330.97897,23030368.50745,  -0.00006,  -0.00227,   0.00034,474935888.14528,   0.00027,274935893.53955,   0.00001,  -0.00027,   0.00004,  -5.39427,   1.00000
-247649073.89391,-545690655.86906,23097177.17966,  -0.00006,  -0.00227,   0.00034,474941058.37018,   0.00027,274941060.51968,   0.00001,  -0.00027,   0.00004,  -2.14950,   1.00000
-247133819.49932,-545654449.41012,23163791.78796,  -0.00005,  -0.00228,   0.00034,474946226.89505,   0.00028,274946232.63626,   0.00001,  -0.00028,   0.00004,  -5.74121,   1.00000
-246619312.48080,-545617036.17170,23234356.33041,  -0.00005,  -0.00228,   0.00034,474951411.25497,   0.00028,274951412.77674,   0.00001,  -0.00028,   0.00004,  -1.52177,   1.00000
-246105199.49525,-545579554.73222,23301273.33704,  -0.00005,  -0.00229,   0.00035,474956527.08420,   0.00029,274956533.95714,   0.00001,  -0.00029,   0.00004,  -6.87294,   1.00000
-245592965.89052,-545541808.32734,23367297.70466,  -0.00005,  -0.00229,   0.00035,474961714.88830,   0.00029,274961721.29428,   0.00001,  -0.00029,   0.00004,  -6.40598,   1.00000
-245080839.75104,-545503317.62606,23433833.38411,  -0.00004,  -0.00230,   0.00035,474966851.50077,   0.00030,274966852.46974,   0.00001,  -0.00029,   0.00004,  -0.96897,   1.00000
-244570615.42700,-545464557.33383,23499472.81365,  -0.00004,  -0.00230,   0.00035,474972043.83473,   0.00030,274972049.89048,   0.00001,  -0.00030,   0.00005,  -6.05574,   1.00000
-244060467.89581,-545425056.46470,23565628.24731,  -0.00004,  -0.00231,   0.00035,474977184.95760,   0.00031,274977191.06645,   0.00001,  -0.00030,   0.00005,  -6.10886,   1.00000
-243551311.67795,-545385061.22796,23631593.60534,  -0.00004,  -0.00232,   0.00035,474982332.35357,   0.00031,274982337.20442,   0.00001,  -0.00031,   0.00005,  -4.85085,   1.00000
-243043405.89533,-545345278.09947,23693227.53531,  -0.00003,  -0.00232,   0.00036,474987476.47647,   0.00032,274987485.27446,   0.00001,  -0.00031,   0.00005,  -8.79800,   1.00000
-242536231.34099,-545304307.12734,23758824.74213,  -0.00003,  -0.00233,   0.00036,474992636.32127,   0.00032,274992641.25775,   0.00001,  -0.00032,   0.00005,  -4.93648,   1.00000
-242029318.58957,-545263304.21064,23820805.51377,  -0.00003,  -0.00233,   0.00036,474997735.08051,   0.00033,274997737.79885,   0.00001,  -0.00032,   0.00005,  -2.71835,   1.00000
-241524122.45980,-545221364.39408,23886034.18228,  -0.00003,  -0.00234,   0.00036,475002899.17744,   0.00033,275002903.61274,   0.00001,  -0.00033,   0.00005,  -4.43531,   1.00000
-241020178.37208,-545179669.93191,23946934.55215,  -0.00002,  -0.00234,   0.00036,475008067.95369,   0.00034,275008071.21079,   0.00001,  -0.00033,   0.00005,  -3.25710,   1.00000
-240516187.73498,-545137234.79385,24008376.86485,  -0.00002,  -0.00235,   0.00036,475013176.97018,   0.00034,275013182.28300,   0.00001,  -0.00034,   0.00005,  -5.31281,   1.00000
-240013172.69220,-545094332.96494,24069643.01364,  -0.00002,  -0.00235,   0.00037,475018292.03645,   0.00035,275018298.15471,   0.00001,  -0.00034,   0.00005,  -6.11826,   1.00000
-239511132.81778,-545050968.53701,24130733.46287,  -0.00001,  -0.00236,   0.00037,475023413.12974,   0.00035,275023418.80844,   0.00001,  -0.00035,   0.00005,  -5.67870,   1.00000
-238997325.56088,-545006072.89400,24191910.83862,  -0.00001,  -0.00236,   0.00037,475028518.01820,   0.00035,275028522.04422,   0.00001,  -0.00035,   0.00005,  -4.02602,   1.00000
-238497259.52477,-544961783.91241,24252650.05245,  -0.00001,  -0.00237,   0.00037,475033651.25082,   0.00036,275033652.33426,   0.00001,  -0.00035,   0.00005,  -1.08345,   1.00000
-237998163.97783,-544917035.39465,24313214.49743,  -0.00001,  -0.00237,   0.00037,475038782.38891,   0.00036,275038787.39293,   0.00001,  -0.00036,   0.00006,  -5.00402,   1.00000
-237500041.74282,-544871840.50395,24373605.10008,  -0.00000,  -0.00238,   0.00037,475043919.45856,   0.00037,275043927.16370,   0.00001,  -0.00036,   0.00006,  -7.70513,   1.00000
-237002019.20378,-544826650.27561,24430413.42699,  -0.00000,  -0.00239,   0.00037,475049002.76340,   0.00037,275049006.93634,   0.00001,  -0.00037,   0.00006,  -4.17294,   1.00000
-236505844.23990,-544780573.50086,24490466.26171,   0.00000,  -0.00239,   0.00038,475054151.62420,   0.00038,275054156.07445,   0.00001,  -0.00037,   0.00006,  -4.45025,   1.00000
-236009735.39327,-544734497.43299,24546940.79116,   0.00000,  -0.00240,   0.00038,475059238.62382,   0.00038,275059245.16057,   0.00001,  -0.00038,   0.00006,  -6.53675,   1.00000
-235514326.99306,-544687260.98420,24607392.95785,   0.00001,  -0.00240,   0.00038,475064341.08405,   0.00039,275064342.00073,   0.00002,  -0.00038,   0.00006,  -0.91668,   1.00000
-235020131.99846,-544640313.61818,24663533.57728,   0.00001,  -0.00241,   0.00038,475069431.69395,   0.00039,275069440.35183,   0.00002,  -0.00039,   0.00006,  -8.65788,   1.00000
-234526898.01269,-544592949.84300,24719513.76432,   0.00001,  -0.00241,   0.00038,475074536.03212,   0.00040,275074543.24006,   0.00002,  -0.00039,   0.00006,  -7.20795,   1.00000
-234034621.29312,-544545164.37780,24775333.48537,   0.00001,  -0.00242,   0.00038,475079646.09825,   0.00040,275079650.68764,   0.00002,  -0.00040,   0.00006,  -4.58939,   1.00000
-233543298.10471,-544496951.91059,24830992.70282,   0.00002,  -0.00242,   0.00039,475084753.87894,   0.00041,275084762.71687,   0.00002,  -0.00040,   0.00006,  -8.83793,   1.00000
-233038821.15810,-544446778.46879,24887496.35448,   0.00002,  -0.00243,   0.00039,475089795.44766,   0.00041,275089795.95903,   0.00002,  -0.00041,   0.00006,  -0.51138,   1.00000
-232549437.14261,-544397729.65640,24942833.67283,   0.00002,  -0.00243,   0.00039,475094914.74017,   0.00042,275094917.16632,   0.00002,  -0.00041,   0.00006,  -2.42614,   1.00000
-232059725.31260,-544347950.13207,24998757.70431,   0.00002,  -0.00244,   0.00039,475099973.48274,   0.00042,275099981.16810,   0.00002,  -0.00041,   0.00007,  -7.68536,   1.00000
-231571219.36427,-544298520.80658,25050385.74230,   0.00003,  -0.00244,   0.00039,475105043.86530,   0.00042,275105046.35903,   0.00002,  -0.00042,   0.00007,  -2.49373,   1.00000
-231084703.36422,-544248260.94171,25105254.64564,   0.00003,  -0.00245,   0.00039,475110180.02487,   0.00043,275110181.01028,   0.00002,  -0.00042,   0.00007,  -0.98541,   1.00000
-230598074.88893,-544198022.93908,25156578.46624,   0.00003,  -0.00245,   0.00039,475115253.58123,   0.00043,275115255.08463,   0.00002,  -0.00043,   0.00007,  -1.50340,   1.00000
-230110787.64213,-544146300.46118,25212643.64795,   0.00003,  -0.00246,   0.00040,475120268.25042,   0.00044,275120275.05356,   0.00002,  -0.00043,   0.00007,  -6.80314,   1.00000
-229626042.29641,-544095275.22030,25263661.54392,   0.00004,  -0.00246,   0.00040,475125352.84972,   0.00044,275125357.94842,   0.00002,  -0.00044,   0.00007,  -5.09871,   1.00000
-229141977.12920,-544043106.62914,25318670.10772,   0.00004,  -0.00247,   0.00040,475130444.85165,   0.00045,275130448.49557,   0.00002,  -0.00044,   0.00007,  -3.64392,   1.00000
-228657727.90467,-543990962.69339,25370141.05957,   0.00004,  -0.00248,   0.00040,475135474.01201,   0.00045,275135478.29583,   0.00002,  -0.00045,   0.00007,  -4.28382,   1.00000
-228175798.52135,-543938774.44184,25420708.74856,   0.00004,  -0.00248,   0.00040,475140567.06094,   0.00046,275140574.31833,   0.00002,  -0.00045,   0.00007,  -7.25739,   1.00000
-227693399.47316,-543885864.47492,25471889.98193,   0.00005,  -0.00249,   0.00040,475145607.01888,   0.00046,275145612.75138,   0.00002,  -0.00046,   0.00007,  -5.73251,   1.00000
-227211925.90356,-543832576.17725,25522925.98876,   0.00005,  -0.00249,   0.00041,475150652.35685,   0.00047,275150655.48763,   0.00002,  -0.00046,   0.00007,  -3.13078,   1.00000
-226731374.19820,-543778904.07537,25573816.68881,   0.00005,  -0.00250,   0.00041,475155695.20139,   0.00047,275155702.54994,   0.00002,  -0.00046,   0.00007,  -7.34856,   1.00000
-226251749.77545,-543724869.38111,25624563.42589,   0.00005,  -0.00250,   0.00041,475160751.23936,   0.00048,275160753.84556,   0.00002,  -0.00047,   0.00007,  -2.60619,   1.00000
-225773045.99942,-543670457.67365,25675165.64150,   0.00006,  -0.00251,   0.00041,475165804.73579,   0.00048,275165809.43603,   0.00002,  -0.00047,   0.00008,  -4.70025,   1.00000
-225293787.96151,-543615319.99820,25726389.55169,   0.00006,  -0.00251,   0.00041,475170804.81926,   0.00048,275170807.27198,   0.00002,  -0.00048,   0.00008,  -2.45273,   1.00000
-224816932.30055,-543560181.17584,25776702.91643,   0.00006,  -0.00252,   0.00041,475175868.91169,   0.00049,275175871.34978,   0.00002,  -0.00048,   0.00008,  -2.43809,   1.00000
-224339747.24207,-543505076.12059,25823505.33338,   0.00006,  -0.00252,   0.00041,475180869.60958,   0.00049,275180874.28195,   0.00003,  -0.00049,   0.00008,  -4.67237,   1.00000
-223863215.18807,-543448842.67179,25874310.29248,   0.00007,  -0.00253,   0.00042,475185877.63552,   0.00050,275185884.75312,   0.00003,  -0.00049,   0.00008,  -7.11760,   1.00000
-223387595.39140,-543392262.09216,25924973.01255,   0.00007,  -0.00253,   0.00042,475190898.66119,   0.00050,275190899.36924,   0.00003,  -0.00050,   0.00008,  -0.70805,   1.00000
-222926190.68411,-543337625.40467,25971101.10699,   0.00007,  -0.00254,   0.00042,475195926.81822,   0.00051,275195935.38142,   0.00003,  -0.00050,   0.00008,  -8.56320,   1.00000
-222452362.64760,-543280351.95460,26021490.73525,   0.00007,  -0.00254,   0.00042,475200958.05390,   0.00051,275200958.17645,   0.00003,  -0.00050,   0.00008,  -0.12255,   1.00000
-221979691.86686,-543223489.70571,26067602.94635,   0.00008,  -0.00255,   0.00042,475205976.68773,   0.00052,275205981.78666,   0.00003,  -0.00051,   0.00008,  -5.09893,   1.00000
-221507927.56100,-543166285.08832,26113584.10024,   0.00008,  -0.00255,   0.00042,475211000.42168,   0.00052,275211009.49051,   0.00003,  -0.00051,   0.00008,  -9.06883,   1.00000
-221035215.49575,-543107579.79065,26164346.47162,   0.00008,  -0.00256,   0.00042,475215980.22138,   0.00053,275215982.49988,   0.00003,  -0.00052,   0.00008,  -2.27850,   1.00000
-220565265.11602,-543049699.53367,26210054.65462,   0.00008,  -0.00256,   0.00043,475221014.14551,   0.00053,275221018.39039,   0.00003,  -0.00052,   0.00008,  -4.24488,   1.00000
-220107698.50538,-542992710.21801,26256157.60302,   0.00009,  -0.00257,   0.00043,475226013.57268,   0.00054,275226016.39025,   0.00003,  -0.00053,   0.00009,  -2.81757,   1.00000
-219637634.94213,-542932982.24740,26306519.69320,   0.00009,  -0.00257,   0.00043,475230992.96788,   0.00054,275231001.54250,   0.00003,  -0.00053,   0.00009,  -8.57462,   1.00000
-219168720.93764,-542873713.44847,26352608.13337,   0.00009,  -0.00258,   0.00043,475235982.90733,   0.00054,275235987.26920,   0.00003,  -0.00054,   0.00009,  -4.36186,   1.00000
-218700695.87739,-542814107.61834,26398566.48254,   0.00010,  -0.00258,   0.00043,475240970.11469,   0.00055,275240977.04507,   0.00003,  -0.00054,   0.00009,  -6.93037,   1.00000
-218246703.51691,-542755854.13733,26444142.16545,   0.00010,  -0.00259,   0.00043,475245981.34121,   0.00055,275245990.86539,   0.00003,  -0.00055,   0.00009,  -9.52418,   1.00000
-217778738.82932,-542695191.89192,26490628.85167,   0.00010,  -0.00259,   0.00043,475250919.17913,   0.00056,275250926.24082,   0.00003,  -0.00055,   0.00009,  -7.06169,   1.00000
-217313363.10561,-542634627.46332,26536199.70891,   0.00010,  -0.00260,   0.00044,475255921.12028,   0.00056,275255927.86796,   0.00003,  -0.00055,   0.00009,  -6.74768,   1.00000
-216860319.98722,-542575039.29944,26582177.54214,   0.00011,  -0.00260,   0.00044,475260887.83408,   0.00057,275260891.05803,   0.00003,  -0.00056,   0.00009,  -3.22395,   1.00000
-216394960.56730,-542513415.46376,26628279.96397,   0.00011,  -0.00261,   0.00044,475265832.61590,   0.00057,275265838.21307,   0.00003,  -0.00056,   0.00009,  -5.59717,   1.00000
-215932482.86141,-542452708.64805,26669331.43455,   0.00011,  -0.00261,   0.00044,475270846.75848,   0.00058,275270848.09567,   0.00004,  -0.00057,   0.00009,  -1.33719,   1.00000
-215482065.32235,-542392215.82197,26714937.81126,   0.00011,  -0.00262,   0.00044,475275820.01039,   0.00058,275275822.81380,   0.00004,  -0.00057,   0.00009,  -2.80341,   1.00000
-215017528.75150,-542329215.58487,26761461.14649,   0.00012,  -0.00262,   0.00044,475280712.26444,   0.00059,275280719.24701,   0.00004,  -0.00058,   0.00009,  -6.98257,   1.00000
-214568856.86174,-542268141.29237,26806812.46483,   0.00012,  -0.00263,   0.00044,475285694.91367,   0.00059,275285701.57037,   0.00004,  -0.00058,   0.00010,  -6.65670,   1.00000
-214107827.51906,-542204987.85404,26852289.02656,   0.00012,  -0.00263,   0.00045,475290663.61249,   0.00059,275290667.99237,   0.00004,  -0.00059,   0.00010,  -4.37987,   1.00000
-213659326.94598,-542143680.51767,26894051.36590,   0.00012,  -0.00264,   0.00045,475295586.37279,   0.00060,275295591.95798,   0.00004,  -0.00059,   0.00010,  -5.58519,   1.00000
-213200022.96755,-542079935.45411,26939284.13157,   0.00013,  -0.00265,   0.00045,475300564.50082,   0.00060,275300565.97680,   0.00004,  -0.00059,   0.00010,  -1.47598,   1.00000
-212752985.47692,-542017264.31210,26984938.79112,   0.00013,  -0.00265,   0.00045,475305498.85728,   0.00061,275305500.91100,   0.00004,  -0.00060,   0.00010,  -2.05372,   1.00000
-212293792.68292,-541953258.65769,27026585.28308,   0.00013,  -0.00266,   0.00045,475310409.29089,   0.00061,275310416.58410,   0.00004,  -0.00060,   0.00010,  -7.29322,   1.00000
-211848468.99544,-541890029.99816,27071999.05045,   0.00013,  -0.00266,   0.00045,475315352.79841,   0.00062,275315358.93244,   0.00004,  -0.00061,   0.00010,  -6.13403,   1.00000
-211403988.56956,-541826531.02525,27117288.56186,   0.00014,  -0.00267,   0.00045,475320300.79859,   0.00062,275320304.92138,   0.00004,  -0.00061,   0.00010,  -4.12278,   1.00000
-210947326.56019,-541761669.95576,27158570.36345,   0.00014,  -0.00267,   0.00045,475325225.01835,   0.00063,275325231.73190,   0.00004,  -0.00062,   0.00010,  -6.71355,   1.00000
-210504555.49938,-541697629.52842,27203620.97528,   0.00014,  -0.00268,   0.00046,475330182.06953,   0.00063,275330185.05491,   0.00004,  -0.00062,   0.00010,  -2.98537,   1.00000
-210060702.80357,-541632835.65257,27249352.56629,   0.00014,  -0.00268,   0.00046,475335076.60023,   0.00064,275335079.50534,   0.00004,  -0.00063,   0.00010,  -2.90511,   1.00000
-209604632.78262,-541566647.07334,27291075.95471,   0.00015,  -0.00268,   0.00046,475339947.40541,   0.00064,275339954.87073,   0.00004,  -0.00063,   0.00010,  -7.46532,   1.00000
-209164414.54068,-541501816.60692,27335762.42688,   0.00015,  -0.00269,   0.00046,475344917.90469,   0.00064,275344919.09774,   0.00004,  -0.00063,   0.00011,  -1.19306,   1.00000
-208723317.73135,-541437028.78928,27377002.54781,   0.00015,  -0.00269,   0.00046,475349815.73884,   0.00065,275349820.81170,   0.00004,  -0.00064,   0.00011,  -5.07286,   1.00000
-208282805.38193,-541371183.14673,27422261.15329,   0.00015,  -0.00270,   0.00046,475354727.96744,   0.00065,275354729.62364,   0.00005,  -0.00064,   0.00011,  -1.65620,   1.00000
-207843364.41476,-541305885.27766,27463265.90981,   0.00016,  -0.00270,   0.00046,475359634.50545,   0.00066,275359638.40921,   0.00005,  -0.00065,   0.00011,  -3.90376,   1.00000
-207404504.47764,-541239523.93815,27508289.02455,   0.00016,  -0.00271,   0.00047,475364547.87823,   0.00066,275364554.31790,   0.00005,  -0.00065,   0.00011,  -6.43966,   1.00000
-206964461.38629,-541172402.83108,27554002.72284,   0.00016,  -0.00271,   0.00047,475369406.03280,   0.00067,275369411.14362,   0.00005,  -0.00066,   0.00011,  -5.11083,   1.00000
-206527502.17303,-541106357.95619,27594650.03811,   0.00016,  -0.00272,   0.00047,475374325.54565,   0.00067,275374330.47647,   0.00005,  -0.00066,   0.00011,  -4.93083,   1.00000
-206089087.83413,-541038735.51272,27640130.84184,   0.00017,  -0.00272,   0.00047,475379192.29140,   0.00068,275379194.28424,   0.00005,  -0.00066,   0.00011,  -1.99284,   1.00000
-205653777.93868,-540972195.87522,27680543.51910,   0.00017,  -0.00273,   0.00047,475384112.81566,   0.00068,275384120.62428,   0.00005,  -0.00067,   0.00011,  -7.80863,   1.00000
-205216989.37046,-540904081.83428,27725792.67733,   0.00017,  -0.00273,   0.00047,475388988.09059,   0.00069,275388991.36413,   0.00005,  -0.00067,   0.00011,  -3.27354,   1.00000
-204781011.94183,-540835717.02878,27770920.24171,   0.00017,  -0.00274,   0.00047,475393860.15359,   0.00069,275393865.61193,   0.00005,  -0.00068,   0.00011,  -5.45833,   1.00000
-204346090.82309,-540767931.81900,27811797.15087,   0.00018,  -0.00274,   0.00048,475398733.89720,   0.00069,275398739.65444,   0.00005,  -0.00068,   0.00011,  -5.75723,   1.00000
-203911738.37861,-540699088.83356,27856692.98097,   0.00018,  -0.00275,   0.00048,475403614.41806,   0.00070,275403620.78501,   0.00005,  -0.00069,   0.00012,  -6.36695,   1.00000
-203476087.04299,-540629467.91072,27902289.81323,   0.00018,  -0.00275,   0.00048,475408439.37777,   0.00070,275408442.64441,   0.00005,  -0.00069,   0.00012,  -3.26664,   1.00000
-203057004.31250,-540563095.43872,27942571.64043,   0.00018,  -0.00276,   0.00048,475413342.55426,   0.00071,275413345.40931,   0.00005,  -0.00070,   0.00012,  -2.85505,   1.00000
-202622925.07279,-540493000.41959,27987939.38187,   0.00019,  -0.00276,   0.00048,475418168.34632,   0.00071,275418174.00448,   0.00005,  -0.00070,   0.00012,  -5.65816,   1.00000
-202191796.07311,-540423235.35380,28032363.07314,   0.00019,  -0.00277,   0.00048,475423065.54490,   0.00072,275423068.71422,   0.00005,  -0.00070,   0.00012,  -3.16932,   1.00000
-201772977.14011,-540355656.95749,28073122.22595,   0.00019,  -0.00277,   0.00048,475427913.84780,   0.00072,275427918.68898,   0.00006,  -0.00071,   0.00012,  -4.84119,   1.00000
-201341268.39627,-540284876.40370,28118143.09767,   0.00019,  -0.00278,   0.00049,475432751.95691,   0.00073,275432757.32218,   0.00006,  -0.00071,   0.00012,  -5.36527,   1.00000
-200923793.96620,-540216047.62732,28162803.86105,   0.00020,  -0.00278,   0.00049,475437610.84825,   0.00073,275437617.53823,   0.00006,  -0.00072,   0.00012,  -6.68997,   1.00000
-200493656.12632,-540144823.47369,28207587.76432,   0.00020,  -0.00279,   0.00049,475442457.08479,   0.00073,275442462.79870,   0.00006,  -0.00072,   0.00012,  -5.71391,   1.00000
-200075556.32549,-540075004.38081,28252842.77372,   0.00020,  -0.00279,   0.00049,475447264.17479,   0.00074,275447266.72807,   0.00006,  -0.00073,   0.00012,  -2.55328,   1.00000
-199646987.91393,-540003336.20311,28297388.46371,   0.00020,  -0.00280,   0.00049,475452111.08877,   0.00074,275452118.63185,   0.00006,  -0.00073,   0.00012,  -7.54308,   1.00000
-199230447.40455,-539933101.70009,28342409.25384,   0.00021,  -0.00280,   0.00049,475456926.07343,   0.00075,275456929.03019,   0.00006,  -0.00073,   0.00012,  -2.95675,   1.00000
-198816917.02906,-539863245.30235,28386479.12374,   0.00021,  -0.00281,   0.00049,475461797.27517,   0.00075,275461805.47468,   0.00006,  -0.00074,   0.00013,  -8.19951,   1.00000
-198388431.68593,-539790359.63540,28431506.96663,   0.00021,  -0.00281,   0.00050,475466603.51705,   0.00076,275466604.25212,   0.00006,  -0.00074,   0.00013,  -0.73507,   1.00000
-197974209.22390,-539719504.44905,28476177.26332,   0.00021,  -0.00282,   0.00050,475471415.45958,   0.00076,275471424.30057,   0.00006,  -0.00075,   0.00013,  -8.84099,   1.00000
-197560757.16719,-539648470.39704,28520732.33265,   0.00022,  -0.00282,   0.00050,475476245.96498,   0.00077,275476247.41740,   0.00006,  -0.00075,   0.00013,  -1.45242,   1.00000
-197148065.36139,-539577226.59368,28565170.50978,   0.00022,  -0.00283,   0.00050,475481065.55047,   0.00077,275481073.73885,   0.00006,  -0.00076,   0.00013,  -8.18838,   1.00000
-196736140.02799,-539505799.78561,28609493.57015,   0.00022,  -0.00283,   0.00050,475485896.31019,   0.00077,275485903.14322,   0.00006,  -0.00076,   0.00013,  -6.83303,   1.00000
-196322424.67442,-539432729.50835,28658668.67273,   0.00022,  -0.00284,   0.00050,475490673.47250,   0.00078,275490676.55077,   0.00006,  -0.00076,   0.00013,  -3.07827,   1.00000
-195912027.12201,-539360917.81070,28702749.56526,   0.00023,  -0.00284,   0.00050,475495504.47064,   0.00078,275495512.24610,   0.00006,  -0.00077,   0.00013,  -7.77545,   1.00000
-195499817.26885,-539287464.06230,28751685.62671,   0.00023,  -0.00285,   0.00051,475500289.21807,   0.00079,275500291.87858,   0.00007,  -0.00077,   0.00013,  -2.66051,   1.00000
-195090946.65480,-539215283.78929,28795526.07403,   0.00023,  -0.00285,   0.00051,475505127.77370,   0.00079,275505133.78379,   0.00007,  -0.00078,   0.00013,  -6.01009,   1.00000
-194680236.94624,-539141446.43943,28844223.81392,   0.00023,  -0.00285,   0.00051,475509912.75489,   0.00080,275509919.63401,   0.00007,  -0.00078,   0.00013,  -6.87912,   1.00000
-194270515.12082,-539068270.74723,28888670.87936,   0.00024,  -0.00286,   0.00051,475514698.87259,   0.00080,275514704.75584,   0.00007,  -0.00079,   0.00013,  -5.88325,   1.00000
-193861308.95328,-538994064.91555,28937130.00189,   0.00024,  -0.00286,   0.00051,475519491.35543,   0.00081,275519496.77043,   0.00007,  -0.00079,   0.00014,  -5.41500,   1.00000
-193464007.23170,-538921426.66970,28986078.63514,   0.00024,  -0.00287,   0.00051,475524243.01526,   0.00081,275524246.29544,   0.00007,  -0.00079,   0.00014,  -3.28019,   1.00000
-193056278.63073,-538846857.77770,29034289.62513,   0.00024,  -0.00287,   0.00051,475529035.56284,   0.00081,275529044.40972,   0.00007,  -0.00080,   0.00014,  -8.84687,   1.00000
-192649535.84681,-538772971.22282,29078252.30240,   0.00024,  -0.00288,   0.00052,475533836.46199,   0.00082,275533841.68746,   0.00007,  -0.00080,   0.00014,  -5.22547,   1.00000
-192254444.11408,-538699827.71936,29126845.04123,   0.00025,  -0.00288,   0.00052,475538598.90666,   0.00082,275538600.11641,   0.00007,  -0.00081,   0.00014,  -1.20975,   1.00000
-191846493.08510,-538624068.61245,29175549.13583,   0.00025,  -0.00289,   0.00052,475543335.08660,   0.00083,275543344.29239,   0.00007,  -0.00081,   0.00014,  -9.20579,   1.00000
-191455092.46211,-538550416.87964,29227169.30374,   0.00025,  -0.00289,   0.00052,475548174.60299,   0.00083,275548175.47913,   0.00007,  -0.00082,   0.00014,  -0.87614,   1.00000
-191048590.56909,-538474313.60346,29275622.02992,   0.00025,  -0.00290,   0.00052,475552918.01572,   0.00084,275552925.61550,   0.00007,  -0.00082,   0.00014,  -7.59978,   1.00000
-190656425.09996,-538400525.96934,29323720.36225,   0.00026,  -0.00290,   0.00052,475557694.68106,   0.00084,275557695.79638,   0.00007,  -0.00082,   0.00014,  -1.11533,   1.00000
-190264740.65378,-538325709.25901,29375822.16168,   0.00026,  -0.00291,   0.00052,475562462.88880,   0.00085,275562472.81142,   0.00008,  -0.00083,   0.00014,  -9.92262,   1.00000
-189871507.72479,-538250925.01223,29424529.33282,   0.00026,  -0.00291,   0.00053,475567179.09802,   0.00085,275567185.70885,   0.00008,  -0.00083,   0.00014,  -6.61083,   1.00000
-189467653.27646,-538173304.66514,29476612.35293,   0.00026,  -0.00292,   0.00053,475571946.63769,   0.00085,275571951.47507,   0.00008,  -0.00084,   0.00014,  -4.83738,   1.00000
-189075859.52272,-538098206.49642,29525070.29753,   0.00027,  -0.00292,   0.00053,475576669.86112,   0.00086,275576670.17953,   0.00008,  -0.00084,   0.00015,  -0.31840,   1.00000
-188687075.06515,-538022780.09569,29576668.91034,   0.00027,  -0.00293,   0.00053,475581452.05144,   0.00086,275581458.77144,   0.00008,  -0.00085,   0.00015,  -6.72000,   1.00000
-188296461.30222,-537946515.32812,29629004.08285,   0.00027,  -0.00293,   0.00053,475586184.76075,   0.00087,275586187.07668,   0.00008,  -0.00085,   0.00015,  -2.31593,   1.00000
-187906552.46581,-537870092.98465,29681209.98665,   0.00027,  -0.00293,   0.00053,475590913.72576,   0.00087,275590918.26722,   0.00008,  -0.00085,   0.00015,  -4.54146,   1.00000
-187530991.71880,-537796092.19504,29733056.82938,   0.00028,  -0.00294,   0.00054,475595667.69339,   0.00088,275595669.01830,   0.00008,  -0.00086,   0.00015,  -1.32491,   1.00000
-187142239.22327,-537718511.72130,29789130.77368,   0.00028,  -0.00294,   0.00054,475600405.94042,   0.00088,275600409.73631,   0.00008,  -0.00086,   0.00015,  -3.79589,   1.00000
-186754422.15882,-537641656.55796,29840944.10891,   0.00028,  -0.00295,   0.00054,475605145.05123,   0.00088,275605149.33483,   0.00008,  -0.00087,   0.00015,  -4.28360,   1.00000
-186367309.08382,-537564658.57615,29892629.91971,   0.00028,  -0.00295,   0.00054,475609887.55323,   0.00089,275609891.74357,   0.00008,  -0.00087,   0.00015,  -4.19034,   1.00000
-185991719.24038,-537488524.30747,29948954.04826,   0.00029,  -0.00296,   0.00054,475614590.00545,   0.00089,275614594.38532,   0.00008,  -0.00087,   0.00015,  -4.37987,   1.00000
-185605761.84454,-537410375.65941,30004498.50017,   0.00029,  -0.00296,   0.00054,475619341.79509,   0.00090,275619346.32616,   0.00008,  -0.00088,   0.00015,  -4.53107,   1.00000
-185231774.77515,-537334855.37050,30056430.00824,   0.00029,  -0.00297,   0.00054,475624048.20203,   0.00090,275624050.42436,   0.00009,  -0.00088,   0.00015,  -2.22233,   1.00000
-184844553.64977,-537255686.09255,30112587.24534,   0.00029,  -0.00297,   0.00055,475628739.13695,   0.00091,275628744.75147,   0.00009,  -0.00089,   0.00015,  -5.61452,   1.00000
-184471712.04371,-537179032.53771,30168379.98364,   0.00030,  -0.00298,   0.00055,475633454.65683,   0.00091,275633458.27723,   0.00009,  -0.00089,   0.00016,  -3.62041,   1.00000
-184099315.51228,-537101374.77125,30228160.55761,   0.00030,  -0.00298,   0.00055,475638175.89556,   0.00092,275638178.48998,   0.00009,  -0.00090,   0.00016,  -2.59442,   1.00000
-183714124.87997,-537021798.12068,30283904.07181,   0.00030,  -0.00299,   0.00055,475642876.73786,   0.00092,275642881.04431,   0.00009,  -0.00090,   0.00016,  -4.30646,   1.00000
-183343098.97382,-536943890.58976,30343406.50355,   0.00030,  -0.00299,   0.00055,475647604.49510,   0.00092,275647606.68950,   0.00009,  -0.00090,   0.00016,  -2.19439,   1.00000
-182972970.74875,-536866740.03304,30398644.24337,   0.00030,  -0.00299,   0.00055,475652325.73150,   0.00093,275652330.98159,   0.00009,  -0.00091,   0.00016,  -5.25009,   1.00000
-182600577.10096,-536787818.01827,30458755.76462,   0.00031,  -0.00300,   0.00056,475656992.36709,   0.00093,275656998.74404,   0.00009,  -0.00091,   0.00016,  -6.37695,   1.00000
-182231568.61007,-536709553.64813,30517838.28804,   0.00031,  -0.00300,   0.00056,475661729.68537,   0.00094,275661732.35777,   0.00009,  -0.00092,   0.00016,  -2.67240,   1.00000
-181874217.68131,-536633111.40030,30577439.50057,   0.00031,  -0.00301,   0.00056,475666416.10458,   0.00094,275666421.55386,   0.00009,  -0.00092,   0.00016,  -5.44928,   1.00000
-181503785.29985,-536553831.97098,30637127.46421,   0.00031,  -0.00301,   0.00056,475671092.14122,   0.00095,275671097.15965,   0.00009,  -0.00093,   0.00016,  -5.01843,   1.00000
-181134014.99561,-536474434.58832,30696673.88846,   0.00032,  -0.00302,   0.00056,475675771.33931,   0.00095,275675775.40490,   0.00009,  -0.00093,   0.00016,  -4.06559,   1.00000
-180764679.14291,-536394026.49709,30760199.46539,   0.00032,  -0.00302,   0.00056,475680456.19610,   0.00095,275680460.38636,   0.00009,  -0.00093,   0.00016,  -4.19026,   1.00000
-180409743.53174,-536316265.86595,30823348.10043,   0.00032,  -0.00303,   0.00057,475685157.41105,   0.00096,275685163.99980,   0.00010,  -0.00094,   0.00016,  -6.58875,   1.00000
-180041930.04749,-536236528.45827,30882454.93292,   0.00032,  -0.00303,   0.00057,475689845.96128,   0.00096,275689850.05698,   0.00010,  -0.00094,   0.00017,  -4.09570,   1.00000
-179685505.62528,-536157752.60888,30946212.18543,   0.00033,  -0.00303,   0.00057,475694485.87077,   0.00097,275694495.51245,   0.00010,  -0.00095,   0.00017,  -9.64168,   1.00000
-179332293.36433,-536078797.07001,31013041.92910,   0.00033,  -0.00304,   0.00057,475699205.71499,   0.00097,275699210.83026,   0.00010,  -0.00095,   0.00017,  -5.11527,   1.00000
-178977129.67856,-535999817.67242,31076495.93588,   0.00033,  -0.00304,   0.00057,475703851.58895,   0.00098,275703861.29489,   0.00010,  -0.00095,   0.00017,  -9.70594,   1.00000
-178608835.67148,-535917931.15276,31140028.74005,   0.00033,  -0.00305,   0.00057,475708494.33462,   0.00098,275708498.43765,   0.00010,  -0.00096,   0.00017,  -4.10303,   1.00000
-178257567.38114,-535838673.09446,31206401.44444,   0.00033,  -0.00305,   0.00058,475713216.14083,   0.00098,275713221.41600,   0.00010,  -0.00096,   0.00017,  -5.27517,   1.00000
-177904092.74659,-535758494.56575,31273524.67178,   0.00034,  -0.00306,   0.00058,475717880.51799,   0.00099,275717883.57619,   0.00010,  -0.00097,   0.00017,  -3.05819,   1.00000
-177551245.73344,-535678210.65983,31340491.57334,   0.00034,  -0.00306,   0.00058,475722540.83496,   0.00099,275722548.27459,   0.00010,  -0.00097,   0.00017,  -7.43962,   1.00000
-177209950.63851,-535599856.50431,31407987.92694,   0.00034,  -0.00307,   0.00058,475727163.27374,   0.00100,275727167.73854,   0.00010,  -0.00097,   0.00017,  -4.46481,   1.00000
-176858115.61246,-535518471.54797,31478760.88856,   0.00034,  -0.00307,   0.00058,475731831.84928,   0.00100,275731841.56061,   0.00010,  -0.00098,   0.00017,  -9.71133,   1.00000
-176507134.83116,-535437913.79857,31545252.90471,   0.00035,  -0.00308,   0.00058,475736508.03483,   0.00101,275736513.63776,   0.00010,  -0.00098,   0.00017,  -5.60293,   1.00000
-176167461.14727,-535358381.18346,31616397.95666,   0.00035,  -0.00308,   0.00059,475741141.49683,   0.00101,275741144.58840,   0.00011,  -0.00099,   0.00018,  -3.09157,   1.00000
-175817486.30838,-535276717.26371,31686687.92955,   0.00035,  -0.00308,   0.00059,475745818.90284,   0.00101,275745825.83044,   0.00011,  -0.00099,   0.00018,  -6.92759,   1.00000
-175479033.30752,-535197013.82040,31757509.61602,   0.00035,  -0.00309,   0.00059,475750458.08656,   0.00102,275750461.60856,   0.00011,  -0.00100,   0.00018,  -3.52200,   1.00000
-175141177.84371,-535117220.49142,31828169.05717,   0.00035,  -0.00309,   0.00059,475755093.08700,   0.00102,275755099.79099,   0.00011,  -0.00100,   0.00018,  -6.70399,   1.00000
-174789884.22922,-535033507.45945,31903008.43757,   0.00036,  -0.00310,   0.00059,475759727.95912,   0.00103,275759729.21098,   0.00011,  -0.00100,   0.00018,  -1.25187,   1.00000
-174453025.72740,-534952624.31768,31977451.71335,   0.00036,  -0.00310,   0.00060,475764371.06095,   0.00103,275764376.51121,   0.00011,  -0.00101,   0.00018,  -5.45026,   1.00000
-174116766.25007,-534871668.54456,32051725.73911,   0.00036,  -0.00311,   0.00060,475769023.98520,   0.00104,275769026.15674,   0.00011,  -0.00101,   0.00018,  -2.17153,   1.00000
-173778142.83599,-534789743.49585,32126758.23914,   0.00036,  -0.00311,   0.00060,475773612.16056,   0.00104,275773614.82791,   0.00011,  -0.00102,   0.00018,  -2.66735,   1.00000
-173443078.79723,-534708622.35877,32200691.21433,   0.00037,  -0.00311,   0.00060,475778263.72186,   0.00104,275778269.27650,   0.00011,  -0.00102,   0.00018,  -5.55464,   1.00000
-173122223.35382,-534629467.93600,32278346.77529,   0.00037,  -0.00312,   0.00060,475782939.01378,   0.00105,275782945.55288,   0.00011,  -0.00102,   0.00018,  -6.53910,   1.00000
-172785113.09216,-534546365.50378,32356983.74649,   0.00037,  -0.00312,   0.00060,475787537.83018,   0.00105,275787545.57890,   0.00011,  -0.00103,   0.00018,  -7.74872,   1.00000
-172462438.29168,-534466177.35958,32435220.14615,   0.00037,  -0.00313,   0.00061,475792158.14134,   0.00106,275792163.07666,   0.00012,  -0.00103,   0.00018,  -4.93531,   1.00000
-172126481.17190,-534382915.85934,32513504.11608,   0.00037,  -0.00313,   0.00061,475796762.52305,   0.00106,275796767.80620,   0.00012,  -0.00104,   0.00019,  -5.28315,   1.00000
-171804964.64213,-534302581.97184,32591387.88858,   0.00038,  -0.00314,   0.00061,475801381.32114,   0.00107,275801389.95506,   0.00012,  -0.00104,   0.00019,  -8.63392,   1.00000
-171483792.90424,-534221245.57889,32673210.51981,   0.00038,  -0.00314,   0.00061,475806012.01729,   0.00107,275806018.70464,   0.00012,  -0.00104,   0.00019,  -6.68734,   1.00000
-171149324.32436,-534136809.45070,32755072.57604,   0.00038,  -0.00315,   0.00061,475810626.96307,   0.00107,275810634.80950,   0.00012,  -0.00105,   0.00019,  -7.84643,   1.00000
-170829308.19936,-534055337.36059,32836527.16906,   0.00038,  -0.00315,   0.00062,475815263.13402,   0.00108,275815268.20584,   0.00012,  -0.00105,   0.00019,  -5.07182,   1.00000
-170506581.93807,-533971920.43197,32922860.29117,   0.00039,  -0.00315,   0.00062,475819843.51171,   0.00108,275819844.85080,   0.00012,  -0.00106,   0.00019,  -1.33910,   1.00000
-170201569.63309,-533893362.92149,33003714.19012,   0.00039,  -0.00316,   0.00062,475824489.01069,   0.00109,275824497.72093,   0.00012,  -0.00106,   0.00019,  -8.71023,   1.00000
-169879932.53622,-533809807.86565,33089676.18463,   0.00039,  -0.00316,   0.00062,475829074.68407,   0.00109,275829078.85451,   0.00012,  -0.00107,   0.00019,  -4.17045,   1.00000
-169558852.04013,-533726176.00555,33175446.80760,   0.00039,  -0.00317,   0.00062,475833656.19096,   0.00110,275833662.33095,   0.00012,  -0.00107,   0.00019,  -6.13999,   1.00000
-169251992.24560,-533644602.36213,33264915.06705,   0.00039,  -0.00317,   0.00063,475838260.47481,   0.00110,275838267.29572,   0.00012,  -0.00107,   0.00019,  -6.82091,   1.00000
-168932003.46295,-533560845.20963,33350297.90266,   0.00040,  -0.00318,   0.00063,475842854.20164,   0.00110,275842855.26703,   0.00012,  -0.00108,   0.00019,  -1.06539,   1.00000
-168626240.03974,-533479154.04103,33439377.98430,   0.00040,  -0.00318,   0.00063,475847463.73253,   0.00111,275847464.70341,   0.00013,  -0.00108,   0.00020,  -0.97088,   1.00000
-168321011.26238,-533397406.57670,33528260.63738,   0.00040,  -0.00318,   0.00063,475852075.83820,   0.00111,275852076.33409,   0.00013,  -0.00109,   0.00020,  -0.49589,   1.00000
-168016092.97342,-533314634.57479,33621055.96587,   0.00040,  -0.00319,   0.00063,475856692.64566,   0.00112,275856694.67499,   0.00013,  -0.00109,   0.00020,  -2.02933,   1.00000
-167708799.67580,-533231798.39991,33710505.47460,   0.00041,  -0.00319,   0.00064,475861242.37317,   0.00112,275861247.25049,   0.00013,  -0.00109,   0.00020,  -4.87732,   1.00000
-167404952.50966,-533148913.42455,33802896.38286,   0.00041,  -0.00320,   0.00064,475865864.38800,   0.00113,275865870.02936,   0.00013,  -0.00110,   0.00020,  -5.64136,   1.00000
-167098266.41811,-533064015.92008,33900165.70780,   0.00041,  -0.00320,   0.00064,475870430.33131,   0.00113,275870436.08359,   0.00013,  -0.00110,   0.00020,  -5.75228,   1.00000
-166792329.83132,-532980028.01296,33993112.96782,   0.00041,  -0.00321,   0.00064,475874990.00593,   0.00113,275874999.86389,   0.00013,  -0.00111,   0.00020,  -9.85796,   1.00000
-166500618.56708,-532898171.24184,34089741.63714,   0.00041,  -0.00321,   0.00065,475879578.47101,   0.00114,275879584.83307,   0.00013,  -0.00111,   0.00020,  -6.36206,   1.00000
-166195489.07894,-532813093.12655,34186382.05411,   0.00042,  -0.00321,   0.00065,475884152.23801,   0.00114,275884157.55368,   0.00013,  -0.00111,   0.00020,  -5.31568,   1.00000
-165904812.44791,-532731136.18797,34282587.13101,   0.00042,  -0.00322,   0.00065,475888745.78441,   0.00115,275888746.87071,   0.00013,  -0.00112,   0.00020,  -1.08630,   1.00000
-165614414.20627,-532648134.44620,34382687.61338,   0.00042,  -0.00322,   0.00065,475893336.97803,   0.00115,275893342.97575,   0.00013,  -0.00112,   0.00020,  -5.99772,   1.00000
-165321321.85955,-532564073.40203,34483558.80988,   0.00042,  -0.00323,   0.00065,475897869.96246,   0.00116,275897877.71381,   0.00014,  -0.00113,   0.00021,  -7.75134,   1.00000
-165031936.17085,-532480979.81126,34583219.29437,   0.00042,  -0.00323,   0.00066,475902473.11287,   0.00116,275902478.12151,   0.00014,  -0.00113,   0.00021,  -5.00865,   1.00000
-164739837.09573,-532396811.96994,34683656.11647,   0.00043,  -0.00324,   0.00066,475907011.14050,   0.00116,275907017.17529,   0.00014,  -0.00113,   0.00021,  -6.03478,   1.00000
-164461958.27458,-532314819.53785,34787757.13432,   0.00043,  -0.00324,   0.00066,475911577.20595,   0.00117,275911577.23944,   0.00014,  -0.00114,   0.00021,  -0.03348,   1.00000
-164170606.39596,-532229546.23655,34891856.07169,   0.00043,  -0.00324,   0.00066,475916122.23633,   0.00117,275916125.26185,   0.00014,  -0.00114,   0.00021,  -3.02552,   1.00000
-163896939.66679,-532148488.60872,34994501.56271,   0.00043,  -0.00325,   0.00067,475920747.02441,   0.00118,275920753.15451,   0.00014,  -0.00115,   0.00021,  -6.13010,   1.00000
-163603082.57658,-532061071.81620,35103263.26919,   0.00043,  -0.00325,   0.00067,475925244.73816,   0.00118,275925246.59522,   0.00014,  -0.00115,   0.00021,  -1.85706,   1.00000
-163326927.79853,-531977882.41600,35210557.50760,   0.00044,  -0.00326,   0.00067,475929815.84697,   0.00119,275929819.94426,   0.00014,  -0.00115,   0.00021,  -4.09729,   1.00000
-163051246.40950,-531894648.19444,35317618.99399,   0.00044,  -0.00326,   0.00067,475934389.40797,   0.00119,275934395.39753,   0.00014,  -0.00116,   0.00021,  -5.98956,   1.00000
-162772769.04048,-531810317.95186,35425463.19356,   0.00044,  -0.00326,   0.00067,475938904.57839,   0.00119,275938909.38581,   0.00014,  -0.00116,   0.00021,  -4.80742,   1.00000
-162497814.82669,-531725983.83368,35536160.83419,   0.00044,  -0.00327,   0.00068,475943491.84363,   0.00120,275943493.82304,   0.00014,  -0.00117,   0.00022,  -1.97941,   1.00000
-162234014.59039,-531643810.10930,35647412.85259,   0.00044,  -0.00327,   0.00068,475948023.21339,   0.00120,275948030.83788,   0.00015,  -0.00117,   0.00022,  -7.62449,   1.00000
-161956465.67015,-531557293.21406,35762753.46044,   0.00045,  -0.00328,   0.00068,475952556.28739,   0.00121,275952560.73511,   0.00015,  -0.00117,   0.00022,  -4.44772,   1.00000
-161696658.24745,-531475085.02675,35876593.38138,   0.00045,  -0.00328,   0.00068,475957161.89583,   0.00121,275957170.32916,   0.00015,  -0.00118,   0.00022,  -8.43333,   1.00000
-161420013.54047,-531388464.88091,35991441.75396,   0.00045,  -0.00329,   0.00069,475961699.95301,   0.00121,275961704.49295,   0.00015,  -0.00118,   0.00022,  -4.53994,   1.00000
-161154501.99889,-531304018.41380,36106850.10021,   0.00045,  -0.00329,   0.00069,475966188.79092,   0.00122,275966191.11508,   0.00015,  -0.00119,   0.00022,  -2.32416,   1.00000
-160892528.47025,-531219572.29589,36225076.38055,   0.00045,  -0.00329,   0.00069,475970742.82411,   0.00122,275970748.31545,   0.00015,  -0.00119,   0.00022,  -5.49133,   1.00000
-160630999.74257,-531135088.93346,36343048.80591,   0.00046,  -0.00330,   0.00069,475975306.11413,   0.00123,275975307.58646,   0.00015,  -0.00119,   0.00022,  -1.47233,   1.00000
-160380339.01005,-531051740.94189,36465680.47424,   0.00046,  -0.00330,   0.00070,475979814.71025,   0.00123,275979824.10430,   0.00015,  -0.00120,   0.00022,  -9.39405,   1.00000
-160119675.60769,-530967170.23384,36583135.44979,   0.00046,  -0.00331,   0.00070,475984382.85797,   0.00124,275984387.54955,   0.00015,  -0.00120,   0.00022,  -4.69158,   1.00000
-159869871.80224,-530883742.70338,36705256.14394,   0.00046,  -0.00331,   0.00070,475988902.99534,   0.00124,275988908.16605,   0.00015,  -0.00121,   0.00022,  -5.17071,   1.00000
-159606259.17725,-530795868.86241,36831440.76101,   0.00046,  -0.00331,   0.00070,475993418.48358,   0.00124,275993422.11944,   0.00015,  -0.00121,   0.00023,  -3.63586,   1.00000
-159357085.88956,-530711297.00859,36957128.41256,   0.00047,  -0.00332,   0.00071,475997945.24483,   0.00125,275997951.94479,   0.00016,  -0.00121,   0.00023,  -6.69996,   1.00000
-159108329.75878,-530626687.25287,37082548.50454,   0.00047,  -0.00332,   0.00071,476002481.19113,   0.00125,276002483.82439,   0.00016,  -0.00122,   0.00023,  -2.63326,   1.00000
-158859987.16804,-530542025.87957,37207700.40687,   0.00047,  -0.00333,   0.00071,476007012.79792,   0.00126,276007017.82188,   0.00016,  -0.00122,   0.00023,  -5.02396,   1.00000
-158622456.43545,-530458507.12090,37337517.19151,   0.00047,  -0.00333,   0.00072,476011502.58794,   0.00126,276011508.88270,   0.00016,  -0.00123,   0.00023,  -6.29476,   1.00000
-158374696.14531,-530372694.00056,37466219.53236,   0.00047,  -0.00333,   0.00072,476016047.50530,   0.00127,276016052.05427,   0.00016,  -0.00123,   0.00023,  -4.54897,   1.00000
-158137737.21726,-530288017.54049,37599583.86203,   0.00048,  -0.00334,   0.00072,476020550.43006,   0.00127,276020552.30768,   0.00016,  -0.00123,   0.00023,  -1.87763,   1.00000
-157890553.82649,-530201032.58321,37731818.63454,   0.00048,  -0.00334,   0.00072,476025101.94149,   0.00127,276025104.80821,   0.00016,  -0.00124,   0.00023,  -2.86672,   1.00000
-157654389.38658,-530116253.65044,37864620.14919,   0.00048,  -0.00335,   0.00073,476029603.05132,   0.00128,276029609.31275,   0.00016,  -0.00124,   0.00023,  -6.26143,   1.00000
-157418384.49033,-530030349.19874,38001232.44595,   0.00048,  -0.00335,   0.00073,476034114.89914,   0.00128,276034121.01084,   0.00016,  -0.00125,   0.00023,  -6.11170,   1.00000
-157182766.33199,-529944394.30982,38137555.04315,   0.00048,  -0.00335,   0.00073,476038629.21662,   0.00129,276038634.83408,   0.00016,  -0.00125,   0.00024,  -5.61746,   1.00000
-156958131.76593,-529860657.00884,38274449.04805,   0.00048,  -0.00336,   0.00073,476043099.41718,   0.00129,276043100.50234,   0.00017,  -0.00125,   0.00024,  -1.08516,   1.00000
-156723036.06074,-529773506.18471,38414281.70532,   0.00049,  -0.00336,   0.00074,476047620.19186,   0.00129,276047623.72345,   0.00017,  -0.00126,   0.00024,  -3.53159,   1.00000
-156502359.64378,-529689745.49643,38553586.28227,   0.00049,  -0.00337,   0.00074,476052157.91394,   0.00130,276052162.43451,   0.00017,  -0.00126,   0.00024,  -4.52058,   1.00000
-156278362.10833,-529603656.43890,38697784.65082,   0.00049,  -0.00337,   0.00074,476056638.42920,   0.00130,276056644.79238,   0.00017,  -0.00127,   0.00024,  -6.36318,   1.00000
-156054724.90606,-529517512.12721,38841679.52914,   0.00049,  -0.00337,   0.00075,476061121.42547,   0.00131,276061129.28591,   0.00017,  -0.00127,   0.00024,  -7.86044,   1.00000
-155831447.69405,-529431313.63546,38985271.49009,   0.00049,  -0.00338,   0.00075,476065606.89603,   0.00131,276065615.90991,   0.00017,  -0.00127,   0.00024,  -9.01389,   1.00000
-155608530.12796,-529345062.03169,39128561.10621,   0.00050,  -0.00338,   0.00075,476070094.83415,   0.00132,276070104.65921,   0.00017,  -0.00128,   0.00024,  -9.82506,   1.00000
-155399555.00333,-529260004.72373,39279488.23216,   0.00050,  -0.00339,   0.00075,476074615.65138,   0.00132,276074619.33589,   0.00017,  -0.00128,   0.00024,  -3.68451,   1.00000
-155177096.42366,-529172521.13280,39426243.34569,   0.00050,  -0.00339,   0.00076,476079110.05735,   0.00132,276079117.67133,   0.00017,  -0.00129,   0.00024,  -7.61398,   1.00000
-154968814.22588,-529087346.02209,39576539.68839,   0.00050,  -0.00339,   0.00076,476083629.15504,   0.00133,276083636.67781,   0.00017,  -0.00129,   0.00025,  -7.52277,   1.00000
-154757371.73698,-529000903.98197,39727647.37307,   0.00050,  -0.00340,   0.00076,476088089.40294,   0.00133,276088094.12200,   0.00017,  -0.00129,   0.00025,  -4.71906,   1.00000
-154546027.94327,-528913265.56993,39882521.76059,   0.00050,  -0.00340,   0.00077,476092553.55918,   0.00134,276092559.13144,   0.00018,  -0.00130,   0.00025,  -5.57225,   1.00000
-154338522.74041,-528826784.73918,40035933.88152,   0.00051,  -0.00341,   0.00077,476097081.61504,   0.00134,276097090.03070,   0.00018,  -0.00130,   0.00025,  -8.41566,   1.00000
-154141897.74022,-528742528.22906,40189926.82769,   0.00051,  -0.00341,   0.00077,476101564.51652,   0.00134,276101572.47662,   0.00018,  -0.00130,   0.00025,  -7.96010,   1.00000
-153931285.06510,-528653557.58873,40347913.54692,   0.00051,  -0.00341,   0.00078,476106044.26106,   0.00135,276106049.41509,   0.00018,  -0.00131,   0.00025,  -5.15403,   1.00000
-153735065.84488,-528568032.94898,40505331.34667,   0.00051,  -0.00342,   0.00078,476110533.57334,   0.00135,276110541.66418,   0.00018,  -0.00131,   0.00025,  -8.09085,   1.00000
-153535389.73240,-528480054.41738,40667652.02653,   0.00051,  -0.00342,   0.00078,476114971.89288,   0.00136,276114977.85328,   0.00018,  -0.00132,   0.00025,  -5.96040,   1.00000
-153339554.78347,-528393250.56980,40828475.85576,   0.00051,  -0.00343,   0.00079,476119474.33187,   0.00136,276119479.97871,   0.00018,  -0.00132,   0.00025,  -5.64684,   1.00000
-153140247.69727,-528303962.73991,40994200.99511,   0.00052,  -0.00343,   0.00079,476123919.10480,   0.00137,276123926.17033,   0.00018,  -0.00132,   0.00026,  -7.06553,   1.00000
-152958865.14933,-528219404.31204,41158174.72423,   0.00052,  -0.00343,   0.00079,476128447.92766,   0.00137,276128451.27415,   0.00018,  -0.00133,   0.00026,  -3.34649,   1.00000
-152760137.84599,-528129964.55177,41323211.71722,   0.00052,  -0.00344,   0.00079,476132897.90407,   0.00137,276132901.92220,   0.00018,  -0.00133,   0.00026,  -4.01812,   1.00000
-152575553.50602,-528042830.50487,41491740.04841,   0.00052,  -0.00344,   0.00080,476137371.68262,   0.00138,276137373.37006,   0.00019,  -0.00134,   0.00026,  -1.68744,   1.00000
-152391248.51489,-527955613.93480,41659914.51601,   0.00052,  -0.00345,   0.00080,476141841.44399,   0.00138,276141847.09261,   0.00019,  -0.00134,   0.00026,  -5.64862,   1.00000
-152203418.02046,-527865864.21110,41832995.83669,   0.00052,  -0.00345,   0.00080,476146259.97608,   0.00139,276146264.99101,   0.00019,  -0.00134,   0.00026,  -5.01493,   1.00000
-152033521.28760,-527780878.57773,42004286.50391,   0.00053,  -0.00345,   0.00081,476150755.75185,   0.00139,276150761.79773,   0.00019,  -0.00135,   0.00026,  -6.04588,   1.00000
-151846220.17285,-527690958.53314,42176653.21768,   0.00053,  -0.00346,   0.00081,476155179.59558,   0.00139,276155184.23844,   0.00019,  -0.00135,   0.00026,  -4.64287,   1.00000
-151676624.99477,-527604628.66385,42351291.37415,   0.00053,  -0.00346,   0.00081,476159688.54277,   0.00140,276159691.28582,   0.00019,  -0.00136,   0.00026,  -2.74305,   1.00000
-151503453.09662,-527515706.73636,42530834.13340,   0.00053,  -0.00346,   0.00082,476164133.02216,   0.00140,276164142.68741,   0.00019,  -0.00136,   0.00027,  -9.66525,   1.00000
-151330780.78012,-527427914.02821,42705933.56010,   0.00053,  -0.00347,   0.00082,476168585.64617,   0.00141,276168590.58147,   0.00019,  -0.00136,   0.00027,  -4.93530,   1.00000
-151157875.97462,-527337609.51551,42888804.09091,   0.00053,  -0.00347,   0.00082,476173049.90081,   0.00141,276173052.42000,   0.00019,  -0.00137,   0.00027,  -2.51919,   1.00000
-150995958.13007,-527250703.23878,43068197.06846,   0.00054,  -0.00348,   0.00083,476177453.39663,   0.00142,276177459.86183,   0.00019,  -0.00137,   0.00027,  -6.46520,   1.00000
-150823294.46096,-527158980.13831,43254374.10185,   0.00054,  -0.00348,   0.00083,476181924.31067,   0.00142,276181932.33887,   0.00020,  -0.00137,   0.00027,  -8.02821,   1.00000
-150665224.53462,-527071995.35968,43435848.67809,   0.00054,  -0.00348,   0.00084,476186409.40380,   0.00142,276186414.07081,   0.00020,  -0.00138,   0.00027,  -4.66701,   1.00000
-150503521.74643,-526982356.33602,43622239.48661,   0.00054,  -0.00349,   0.00084,476190836.48703,   0.00143,276190840.31167,   0.00020,  -0.00138,   0.00027,  -3.82463,   1.00000
-150341800.18299,-526891373.08795,43812305.63942,   0.00054,  -0.00349,   0.00084,476195267.47140,   0.00143,276195274.93966,   0.00020,  -0.00139,   0.00027,  -7.46825,   1.00000
-150194408.80786,-526803908.94056,44001727.82273,   0.00054,  -0.00349,   0.00085,476199720.08114,   0.00144,276199724.67261,   0.00020,  -0.00139,   0.00027,  -4.59148,   1.00000
-150033118.07727,-526712709.66189,44191002.34152,   0.00054,  -0.00350,   0.00085,476204156.78750,   0.00144,276204164.16984,   0.00020,  -0.00139,   0.00028,  -7.38234,   1.00000
-149885910.49624,-526623782.69580,44383692.92704,   0.00055,  -0.00350,   0.00085,476208616.15610,   0.00144,276208624.79547,   0.00020,  -0.00140,   0.00028,  -8.63936,   1.00000
-149735019.66212,-526532137.08928,44581298.30493,   0.00055,  -0.00351,   0.00086,476213023.84214,   0.00145,276213030.15469,   0.00020,  -0.00140,   0.00028,  -6.31254,   1.00000
-149584332.01343,-526440370.06546,44778493.45370,   0.00055,  -0.00351,   0.00086,476217434.52478,   0.00145,276217438.05832,   0.00020,  -0.00141,   0.00028,  -3.53354,   1.00000
-149451601.38386,-526353486.50050,44973757.61998,   0.00055,  -0.00351,   0.00086,476221922.09025,   0.00146,276221924.87480,   0.00020,  -0.00141,   0.00028,  -2.78455,   1.00000
-149301036.79756,-526260198.98312,45174193.59137,   0.00055,  -0.00352,   0.00087,476226339.66320,   0.00146,276226343.93137,   0.00020,  -0.00141,   0.00028,  -4.26818,   1.00000
-149164785.38801,-526170435.12291,45373958.58802,   0.00055,  -0.00352,   0.00087,476230772.12471,   0.00146,276230778.15923,   0.00021,  -0.00142,   0.00028,  -6.03451,   1.00000
-149028459.36825,-526079265.27562,45577360.84642,   0.00055,  -0.00352,   0.00088,476235215.10927,   0.00147,276235221.10924,   0.00021,  -0.00142,   0.00028,  -5.99997,   1.00000
-148888649.12565,-525986582.36270,45781628.35318,   0.00056,  -0.00353,   0.00088,476239598.77551,   0.00147,276239602.86072,   0.00021,  -0.00143,   0.00028,  -4.08522,   1.00000
-148752427.02874,-525893853.60716,45988228.11605,   0.00056,  -0.00353,   0.00088,476244048.88768,   0.00148,276244057.31657,   0.00021,  -0.00143,   0.00029,  -8.42889,   1.00000
-148626829.53737,-525803266.97089,46195440.11461,   0.00056,  -0.00354,   0.00089,476248457.79012,   0.00148,276248463.11616,   0.00021,  -0.00143,   0.00029,  -5.32605,   1.00000
-148501129.98731,-525711236.43902,46406271.12210,   0.00056,  -0.00354,   0.00089,476252877.22586,   0.00149,276252877.84452,   0.00021,  -0.00144,   0.00029,  -0.61867,   1.00000
-148375580.59580,-525619046.74320,46616661.03059,   0.00056,  -0.00354,   0.00090,476257286.81099,   0.00149,276257295.32120,   0.00021,  -0.00144,   0.00029,  -8.51022,   1.00000
-148249927.29628,-525525403.25218,46830660.11526,   0.00056,  -0.00355,   0.00090,476261713.51761,   0.00149,276261721.82163,   0.00021,  -0.00144,   0.00029,  -8.30402,   1.00000
-148124425.38682,-525431609.01143,47044211.29725,   0.00056,  -0.00355,   0.00090,476266143.48425,   0.00150,276266151.07172,   0.00021,  -0.00145,   0.00029,  -7.58747,   1.00000
-148009250.72558,-525338597.77466,47262430.11002,   0.00057,  -0.00355,   0.00091,476270532.65770,   0.00150,276270538.15775,   0.00021,  -0.00145,   0.00029,  -5.50005,   1.00000
-147897895.31366,-525246850.65363,47478858.97519,   0.00057,  -0.00356,   0.00091,476274987.77148,   0.00151,276274991.83761,   0.00022,  -0.00146,   0.00029,  -4.06613,   1.00000
-147782710.96947,-525152176.72144,47700217.04371,   0.00057,  -0.00356,   0.00092,476279390.84889,   0.00151,276279390.94777,   0.00022,  -0.00146,   0.00030,  -0.09888,   1.00000
-147667651.40432,-525057321.15617,47921112.02648,   0.00057,  -0.00356,   0.00092,476283784.35209,   0.00151,276283792.97485,   0.00022,  -0.00146,   0.00030,  -8.62276,   1.00000
-147552457.07677,-524960953.97340,48145586.84503,   0.00057,  -0.00357,   0.00092,476288195.06248,   0.00152,276288204.38368,   0.00022,  -0.00147,   0.00030,  -9.32120,   1.00000
-147447813.52087,-524866663.48795,48370686.40403,   0.00057,  -0.00357,   0.00093,476292557.30208,   0.00152,276292567.29614,   0.00022,  -0.00147,   0.00030,  -9.99405,   1.00000
-147346717.65647,-524772290.55435,48597991.43187,   0.00057,  -0.00358,   0.00093,476296999.69786,   0.00153,276297003.52144,   0.00022,  -0.00147,   0.00030,  -3.82358,   1.00000
-147242010.49415,-524676265.02051,48826188.79716,   0.00057,  -0.00358,   0.00094,476301369.66779,   0.00153,276301378.90482,   0.00022,  -0.00148,   0.00030,  -9.23703,   1.00000
-147137141.00348,-524578685.48591,49057947.02638,   0.00058,  -0.00358,   0.00094,476305756.85622,   0.00153,276305763.90940,   0.00022,  -0.00148,   0.00030,  -7.05318,   1.00000
-147046506.05273,-524484624.26544,49288951.98768,   0.00058,  -0.00359,   0.00094,476310158.32197,   0.00154,276310164.32248,   0.00022,  -0.00149,   0.00030,  -6.00051,   1.00000
-146941546.02170,-524385263.12621,49523775.47425,   0.00058,  -0.00359,   0.00095,476314553.49181,   0.00154,276314562.12967,   0.00022,  -0.00149,   0.00030,  -8.63786,   1.00000
-146850822.20641,-524289427.13613,49757836.07011,   0.00058,  -0.00359,   0.00095,476318969.48526,   0.00155,276318975.37049,   0.00023,  -0.00149,   0.00031,  -5.88523,   1.00000
-146770313.55979,-524194216.63345,49996564.22191,   0.00058,  -0.00360,   0.00096,476323337.08822,   0.00155,276323347.02204,   0.00023,  -0.00150,   0.00031,  -9.93381,   1.00000
-146679452.61705,-524096572.56746,50233659.04094,   0.00058,  -0.00360,   0.00096,476327767.73589,   0.00156,276327773.23199,   0.00023,  -0.00150,   0.00031,  -5.49611,   1.00000
-146584663.06775,-523995806.13267,50475695.62690,   0.00058,  -0.00360,   0.00097,476332139.52819,   0.00156,276332145.63577,   0.00023,  -0.00150,   0.00031,  -6.10759,   1.00000
-146504089.68556,-523898556.11769,50716951.18739,   0.00058,  -0.00361,   0.00097,476336532.04266,   0.00156,276336533.56746,   0.00023,  -0.00151,   0.00031,  -1.52480,   1.00000
-146419557.16341,-523798138.88644,50963152.29183,   0.00059,  -0.00361,   0.00098,476340859.21388,   0.00157,276340867.83635,   0.00023,  -0.00151,   0.00031,  -8.62248,   1.00000
-146352681.26138,-523701315.47758,51211151.52359,   0.00059,  -0.00361,   0.00098,476345283.97603,   0.00157,276345288.52035,   0.00023,  -0.00152,   0.00031,  -4.54431,   1.00000
-146267952.36888,-523598996.95899,51460347.14649,   0.00059,  -0.00362,   0.00098,476349632.45957,   0.00158,276349636.31212,   0.00023,  -0.00152,   0.00032,  -3.85255,   1.00000
-146200879.74527,-523500255.28847,51711312.33249,   0.00059,  -0.00362,   0.00099,476354065.92658,   0.00158,276354070.73420,   0.00023,  -0.00152,   0.00032,  -4.80762,   1.00000
-146130088.74985,-523399740.49939,51963200.12961,   0.00059,  -0.00362,   0.00099,476358439.79631,   0.00158,276358444.62361,   0.00023,  -0.00153,   0.00032,  -4.82731,   1.00000
-146055581.11814,-523297443.05587,52216021.64255,   0.00059,  -0.00363,   0.00100,476362753.88609,   0.00159,276362758.00526,   0.00023,  -0.00153,   0.00032,  -4.11918,   1.00000
-145984570.30762,-523194965.56570,52470862.97099,   0.00059,  -0.00363,   0.00100,476367136.68004,   0.00159,276367145.90556,   0.00024,  -0.00153,   0.00032,  -9.22553,   1.00000
-145927447.92207,-523094519.00441,52728895.76210,   0.00059,  -0.00363,   0.00101,476371553.55252,   0.00160,276371556.72640,   0.00024,  -0.00154,   0.00032,  -3.17388,   1.00000
-145866574.15808,-522992247.73327,52987863.37885,   0.00059,  -0.00364,   0.00101,476375904.25418,   0.00160,276375907.17399,   0.00024,  -0.00154,   0.00032,  -2.91981,   1.00000
-145805418.36526,-522888214.19398,53250296.66643,   0.00059,  -0.00364,   0.00102,476380259.90170,   0.00160,276380268.47885,   0.00024,  -0.00155,   0.00032,  -8.57715,   1.00000
-145743979.99435,-522782416.17703,53516186.13696,   0.00060,  -0.00364,   0.00102,476384633.35809,   0.00161,276384640.70194,   0.00024,  -0.00155,   0.00033,  -7.34385,   1.00000
-145682544.07727,-522676334.68004,53781514.05610,   0.00060,  -0.00365,   0.00103,476389011.29300,   0.00161,276389016.61936,   0.00024,  -0.00155,   0.00033,  -5.32636,   1.00000
-145631496.50129,-522572145.68281,54047500.56891,   0.00060,  -0.00365,   0.00103,476393339.12671,   0.00162,276393344.60105,   0.00024,  -0.00156,   0.00033,  -5.47434,   1.00000
-145580140.27141,-522466150.87588,54316932.60932,   0.00060,  -0.00365,   0.00104,476397678.44226,   0.00162,276397683.70953,   0.00024,  -0.00156,   0.00033,  -5.26726,   1.00000
-145532235.28725,-522359925.97197,54588273.65718,   0.00060,  -0.00366,   0.00104,476402093.80373,   0.00162,276402097.99283,   0.00024,  -0.00156,   0.00033,  -4.18910,   1.00000
-145490922.73222,-522253963.34508,54861804.31290,   0.00060,  -0.00366,   0.00105,476406394.28631,   0.00163,276406400.52819,   0.00024,  -0.00157,   0.00033,  -6.24188,   1.00000
-145438893.70482,-522143992.66035,55137517.38260,   0.00060,  -0.00366,   0.00105,476410761.52369,   0.00163,276410766.11440,   0.00025,  -0.00157,   0.00033,  -4.59071,   1.00000
-145400989.94587,-522037470.77042,55412347.52462,   0.00060,  -0.00367,   0.00106,476415143.02268,   0.00164,276415147.91457,   0.00025,  -0.00158,   0.00034,  -4.89188,   1.00000
-145373121.36768,-521931233.17271,55691841.80951,   0.00060,  -0.00367,   0.00106,476419487.22126,   0.00164,276419489.57155,   0.00025,  -0.00158,   0.00034,  -2.35028,   1.00000
-145331036.62392,-521820892.79706,55971045.39133,   0.00060,  -0.00367,   0.00107,476423820.61572,   0.00164,276423822.93694,   0.00025,  -0.00158,   0.00034,  -2.32121,   1.00000
-145288606.17669,-521708650.38755,56253648.47000,   0.00061,  -0.00368,   0.00107,476428159.56594,   0.00165,276428168.08203,   0.00025,  -0.00159,   0.00034,  -8.51609,   1.00000
-145259978.83446,-521598275.38465,56539337.87955,   0.00061,  -0.00368,   0.00108,476432532.55454,   0.00165,276432537.32615,   0.00025,  -0.00159,   0.00034,  -4.77160,   1.00000
-145227505.04090,-521485902.82296,56826001.18881,   0.00061,  -0.00368,   0.00108,476436839.16742,   0.00166,276436846.79812,   0.00025,  -0.00159,   0.00034,  -7.63071,   1.00000
-145212584.82257,-521377008.59863,57114145.48607,   0.00061,  -0.00369,   0.00109,476441238.39594,   0.00166,276441244.52304,   0.00025,  -0.00160,   0.00034,  -6.12710,   1.00000
-145179642.82278,-521262330.95665,57403578.28733,   0.00061,  -0.00369,   0.00109,476445568.49636,   0.00167,276445570.19112,   0.00025,  -0.00160,   0.00034,  -1.69476,   1.00000
-145160473.59760,-521149457.05034,57696067.37184,   0.00061,  -0.00369,   0.00110,476449919.97997,   0.00167,276449920.37121,   0.00025,  -0.00161,   0.00035,  -0.39124,   1.00000
-145137431.25674,-521034535.53899,57989546.22471,   0.00061,  -0.00370,   0.00110,476454205.04599,   0.00167,276454210.93608,   0.00025,  -0.00161,   0.00035,  -5.89009,   1.00000
-145117456.99754,-520917672.11336,58288735.48296,   0.00061,  -0.00370,   0.00111,476458581.21759,   0.00168,276458585.87412,   0.00026,  -0.00161,   0.00035,  -4.65654,   1.00000
-145108068.04666,-520804139.12606,58584622.86502,   0.00061,  -0.00370,   0.00111,476462899.28230,   0.00168,276462905.56759,   0.00026,  -0.00162,   0.00035,  -6.28530,   1.00000
-145098249.93508,-520688578.93957,58883852.42880,   0.00061,  -0.00371,   0.00112,476467229.76253,   0.00169,276467237.79146,   0.00026,  -0.00162,   0.00035,  -8.02892,   1.00000
-145088000.13824,-520570980.70824,59186413.05964,   0.00061,  -0.00371,   0.00112,476471579.10130,   0.00169,276471582.65776,   0.00026,  -0.00162,   0.00035,  -3.55646,   1.00000
-145073531.10977,-520449618.06634,59493946.30053,   0.00061,  -0.00371,   0.00113,476475874.99859,   0.00169,276475876.35833,   0.00026,  -0.00163,   0.00035,  -1.35974,   1.00000
-145062728.65082,-520329533.34776,59799161.58125,   0.00062,  -0.00372,   0.00113,476480236.51559,   0.00170,276480238.82619,   0.00026,  -0.00163,   0.00036,  -2.31060,   1.00000
-145062172.29234,-520211095.63849,60105066.08370,   0.00062,  -0.00372,   0.00114,476484546.63131,   0.00170,276484554.31493,   0.00026,  -0.00163,   0.00036,  -7.68362,   1.00000
-145061155.27987,-520090562.23480,60414277.82375,   0.00062,  -0.00372,   0.00114,476488875.82377,   0.00171,276488882.81584,   0.00026,  -0.00164,   0.00036,  -6.99207,   1.00000
-145055887.63170,-519966178.84585,60728470.47231,   0.00062,  -0.00372,   0.00115,476493151.52156,   0.00171,276493160.50483,   0.00026,  -0.00164,   0.00036,  -8.98327,   1.00000
-145068418.01481,-519846865.61899,61039971.16247,   0.00062,  -0.00373,   0.00116,476497514.61309,   0.00171,276497519.44694,   0.00026,  -0.00165,   0.00036,  -4.83385,   1.00000
-145076666.49738,-519723653.09018,61356453.00750,   0.00062,  -0.00373,   0.00116,476501818.07650,   0.00172,276501827.75452,   0.00027,  -0.00165,   0.00036,  -9.67801,   1.00000
-145084422.06471,-519598272.14310,61676206.78514,   0.00062,  -0.00373,   0.00117,476506140.95775,   0.00172,276506149.56945,   0.00027,  -0.00165,   0.00037,  -8.61170,   1.00000
-145092011.76576,-519472419.09905,61995269.84267,   0.00062,  -0.00374,   0.00117,476510470.17620,   0.00173,276510476.48921,   0.00027,  -0.00166,   0.00037,  -6.31301,   1.00000
-145095315.95912,-519342602.78003,62319318.09782,   0.00062,  -0.00374,   0.00118,476514745.79361,   0.00173,276514753.11345,   0.00027,  -0.00166,   0.00037,  -7.31985,   1.00000
-145112607.77694,-519216084.96474,62642334.89364,   0.00062,  -0.00374,   0.00118,476519042.74200,   0.00173,276519047.32267,   0.00027,  -0.00166,   0.00037,  -4.58066,   1.00000
-145133160.79091,-519089105.08319,62966851.37125,   0.00062,  -0.00375,   0.00119,476523413.84155,   0.00174,276523419.54446,   0.00027,  -0.00167,   0.00037,  -5.70291,   1.00000
-145145610.27333,-518956317.39906,63298105.41882,   0.00062,  -0.00375,   0.00120,476527676.64089,   0.00174,276527677.66466,   0.00027,  -0.00167,   0.00037,  -1.02377,   1.00000
-145161658.46337,-518824794.97815,63626883.34564,   0.00062,  -0.00375,   0.00120,476532001.16451,   0.00175,276532005.36306,   0.00027,  -0.00167,   0.00037,  -4.19855,   1.00000
-145187536.74276,-518692983.64110,63960308.12786,   0.00062,  -0.00376,   0.00121,476536292.98382,   0.00175,276536295.64384,   0.00027,  -0.00168,   0.00038,  -2.66002,   1.00000
-145213202.47519,-518560635.94354,64293008.75540,   0.00062,  -0.00376,   0.00121,476540585.49593,   0.00175,276540591.49206,   0.00027,  -0.00168,   0.00038,  -5.99614,   1.00000
-145238310.32842,-518425972.62313,64628916.26361,   0.00062,  -0.00376,   0.00122,476544891.94133,   0.00176,276544901.84896,   0.00027,  -0.00169,   0.00038,  -9.90764,   1.00000
-145277004.48449,-518292764.55762,64967669.19057,   0.00062,  -0.00376,   0.00123,476549233.20053,   0.00176,276549239.25007,   0.00028,  -0.00169,   0.00038,  -6.04954,   1.00000
-145297527.21159,-518153393.22673,65307835.02337,   0.00063,  -0.00377,   0.00123,476553505.41189,   0.00177,276553505.84975,   0.00028,  -0.00169,   0.00038,  -0.43786,   1.00000
-145331631.82541,-518015425.17623,65650829.46921,   0.00063,  -0.00377,   0.00124,476557794.09002,   0.00177,276557799.85902,   0.00028,  -0.00170,   0.00038,  -5.76900,   1.00000
-145379291.07081,-517878845.75975,65996637.22970,   0.00063,  -0.00377,   0.00124,476562111.45816,   0.00177,276562121.36406,   0.00028,  -0.00170,   0.00039,  -9.90589,   1.00000
-145412543.76907,-517737912.41580,66342041.64188,   0.00063,  -0.00378,   0.00125,476566434.46180,   0.00178,276566436.31451,   0.00028,  -0.00170,   0.00039,  -1.85271,   1.00000
-145455557.99223,-517596464.73562,66692079.64579,   0.00063,  -0.00378,   0.00126,476570705.69556,   0.00178,276570714.96115,   0.00028,  -0.00171,   0.00039,  -9.26559,   1.00000
-145498315.42626,-517454430.09379,67041351.95956,   0.00063,  -0.00378,   0.00126,476574996.97819,   0.00179,276574999.65350,   0.00028,  -0.00171,   0.00039,  -2.67531,   1.00000
-145540449.44456,-517309931.67926,67393764.10133,   0.00063,  -0.00378,   0.00127,476579296.86363,   0.00179,276579299.87674,   0.00028,  -0.00171,   0.00039,  -3.01311,   1.00000
-145582322.23256,-517164827.83329,67745398.54321,   0.00063,  -0.00379,   0.00127,476583604.57828,   0.00179,276583606.32167,   0.00028,  -0.00172,   0.00039,  -1.74340,   1.00000
-145633561.83168,-517017249.06447,68105571.04706,   0.00063,  -0.00379,   0.00128,476587885.99296,   0.00180,276587886.33876,   0.00028,  -0.00172,   0.00040,  -0.34580,   1.00000
-145684513.49838,-516869013.49752,68464945.41039,   0.00063,  -0.00379,   0.00129,476592163.24183,   0.00180,276592172.89949,   0.00028,  -0.00172,   0.00040,  -9.65765,   1.00000
-145735183.19033,-516720152.37109,68823526.09976,   0.00063,  -0.00380,   0.00129,476596461.01959,   0.00181,276596465.86527,   0.00029,  -0.00173,   0.00040,  -4.84568,   1.00000
-145795556.97075,-516570601.18864,69186736.34737,   0.00063,  -0.00380,   0.00130,476600719.03953,   0.00181,276600723.37184,   0.00029,  -0.00173,   0.00040,  -4.33232,   1.00000
-145844886.71068,-516416628.00378,69551495.37686,   0.00063,  -0.00380,   0.00131,476605047.79030,   0.00181,276605048.78040,   0.00029,  -0.00174,   0.00040,  -0.99010,   1.00000
-145904288.26484,-516263827.08307,69916982.07965,   0.00063,  -0.00380,   0.00131,476609323.65038,   0.00182,276609329.35680,   0.00029,  -0.00174,   0.00040,  -5.70643,   1.00000
-145959227.59418,-516106484.67650,70287475.45570,   0.00063,  -0.00381,   0.00132,476613557.72061,   0.00182,276613562.26068,   0.00029,  -0.00174,   0.00041,  -4.54007,   1.00000
-146031391.15205,-515952227.26279,70658701.73779,   0.00063,  -0.00381,   0.00133,476617879.33087,   0.00183,276617888.77808,   0.00029,  -0.00175,   0.00041,  -9.44720,   1.00000
-146099445.27665,-515795317.71605,71031045.20598,   0.00063,  -0.00381,   0.00133,476622152.27840,   0.00183,276622158.00894,   0.00029,  -0.00175,   0.00041,  -5.73054,   1.00000
-146152643.80092,-515631971.49337,71406819.45061,   0.00063,  -0.00381,   0.00134,476626427.13792,   0.00183,276626431.57902,   0.00029,  -0.00175,   0.00041,  -4.44111,   1.00000
-146233414.01817,-515473478.70821,71784842.13102,   0.00063,  -0.00382,   0.00135,476630740.38395,   0.00184,276630747.68727,   0.00029,  -0.00176,   0.00041,  -7.30332,   1.00000
-146295917.89885,-515308497.70514,72164383.69613,   0.00063,  -0.00382,   0.00135,476634984.60654,   0.00184,276634994.11574,   0.00029,  -0.00176,   0.00041,  -9.50920,   1.00000
-146371833.02894,-515144568.26572,72546547.22446,   0.00063,  -0.00382,   0.00136,476639265.61767,   0.00185,276639270.65043,   0.00029,  -0.00176,   0.00042,  -5.03276,   1.00000
-146447389.79248,-514979886.03971,72927847.40375,   0.00063,  -0.00382,   0.00137,476643549.91670,   0.00185,276643554.60057,   0.00030,  -0.00177,   0.00042,  -4.68388,   1.00000
-146518424.08577,-514810431.43109,73314155.86720,   0.00063,  -0.00383,   0.00137,476647786.25543,   0.00185,276647791.97643,   0.00030,  -0.00177,   0.00042,  -5.72101,   1.00000
-146606599.28127,-514643980.67410,73701026.74123,   0.00063,  -0.00383,   0.00138,476652118.40275,   0.00186,276652124.24461,   0.00030,  -0.00177,   0.00042,  -5.84186,   1.00000
-146676087.76242,-514468927.36278,74093298.34788,   0.00063,  -0.00383,   0.00139,476656388.79848,   0.00186,276656397.52259,   0.00030,  -0.00178,   0.00042,  -8.72412,   1.00000
-146755584.93449,-514294804.02866,74486312.75828,   0.00063,  -0.00383,   0.00139,476660617.97816,   0.00187,276660627.13509,   0.00030,  -0.00178,   0.00042,  -9.15693,   1.00000
-146838466.23385,-514121940.73994,74876388.08550,   0.00063,  -0.00384,   0.00140,476664922.51778,   0.00187,276664928.84438,   0.00030,  -0.00178,   0.00043,  -6.32660,   1.00000
-146930508.47818,-513945859.80757,75274901.04171,   0.00063,  -0.00384,   0.00141,476669200.60325,   0.00187,276669208.06534,   0.00030,  -0.00179,   0.00043,  -7.46210,   1.00000
-147022142.61967,-513768950.85483,75672500.26691,   0.00063,  -0.00384,   0.00141,476673489.09578,   0.00188,276673495.37331,   0.00030,  -0.00179,   0.00043,  -6.27753,   1.00000
-147109613.75855,-513589133.51345,76071267.68946,   0.00063,  -0.00384,   0.00142,476677722.11965,   0.00188,276677726.47486,   0.00030,  -0.00179,   0.00043,  -4.35521,   1.00000
-147195843.85657,-513404301.05221,76476787.77410,   0.00063,  -0.00385,   0.00143,476681980.63208,   0.00189,276681987.24413,   0.00030,  -0.00180,   0.00043,  -6.61205,   1.00000
-147281666.70442,-513218614.72739,76881376.19203,   0.00063,  -0.00385,   0.00143,476686249.96395,   0.00189,276686256.40725,   0.00030,  -0.00180,   0.00043,  -6.44330,   1.00000
-147381206.10510,-513035829.80961,77284607.35465,   0.00063,  -0.00385,   0.00144,476690544.07535,   0.00189,276690546.88034,   0.00030,  -0.00181,   0.00044,  -2.80499,   1.00000
-147476135.63997,-512847934.41246,77692844.77638,   0.00063,  -0.00385,   0.00145,476694784.18027,   0.00190,276694792.40648,   0.00031,  -0.00181,   0.00044,  -8.22621,   1.00000
-147570207.88131,-512657037.22598,78103958.19254,   0.00063,  -0.00386,   0.00146,476699049.05739,   0.00190,276699057.48006,   0.00031,  -0.00181,   0.00044,  -8.42267,   1.00000
-147677535.94997,-512466860.52270,78517497.32559,   0.00063,  -0.00386,   0.00146,476703352.93457,   0.00191,276703355.29370,   0.00031,  -0.00182,   0.00044,  -2.35913,   1.00000
-147780658.16813,-512273605.76926,78932219.84551,   0.00063,  -0.00386,   0.00147,476707589.05531,   0.00191,276707597.66396,   0.00031,  -0.00182,   0.00044,  -8.60865,   1.00000
-147882890.35389,-512077281.54084,79349785.39345,   0.00063,  -0.00386,   0.00148,476711850.46820,   0.00191,276711860.08534,   0.00031,  -0.00182,   0.00045,  -9.61714,   1.00000
-147984226.09170,-511877867.11823,79770177.62016,   0.00063,  -0.00387,   0.00148,476716137.45620,   0.00192,276716142.76296,   0.00031,  -0.00183,   0.00045,  -5.30676,   1.00000
-148085101.98807,-511677516.57206,80189582.50698,   0.00063,  -0.00387,   0.00149,476720430.22879,   0.00192,276720434.61533,   0.00031,  -0.00183,   0.00045,  -4.38654,   1.00000
-148195448.29646,-511475573.42629,80613538.93295,   0.00063,  -0.00387,   0.00150,476724689.09091,   0.00193,276724695.76539,   0.00031,  -0.00183,   0.00045,  -6.67449,   1.00000
-148305315.02251,-511272673.93509,81036499.55391,   0.00063,  -0.00387,   0.00151,476728960.08757,   0.00193,276728966.23689,   0.00031,  -0.00184,   0.00045,  -6.14933,   1.00000
-148410517.09071,-511064383.91865,81464464.44098,   0.00063,  -0.00388,   0.00151,476733189.01586,   0.00193,276733193.16739,   0.00031,  -0.00184,   0.00046,  -4.15153,   1.00000
-148532625.44858,-510858853.89441,81892521.26866,   0.00063,  -0.00388,   0.00152,476737514.51043,   0.00194,276737518.81456,   0.00031,  -0.00184,   0.00046,  -4.30413,   1.00000
-148646764.99591,-510647839.10539,82324027.46294,   0.00063,  -0.00388,   0.00153,476741715.69598,   0.00194,276741725.28644,   0.00031,  -0.00185,   0.00046,  -9.59046,   1.00000
-148763210.54884,-510433600.14806,82759817.14682,   0.00063,  -0.00388,   0.00154,476746026.56489,   0.00195,276746029.28918,   0.00032,  -0.00185,   0.00046,  -2.72429,   1.00000
-148875883.07463,-510218320.22422,83193052.21455,   0.00063,  -0.00388,   0.00154,476750261.33161,   0.00195,276750267.07280,   0.00032,  -0.00185,   0.00046,  -5.74119,   1.00000
-148987118.61453,-509997500.45617,83632787.05866,   0.00063,  -0.00389,   0.00155,476754531.28902,   0.00195,276754538.43772,   0.00032,  -0.00186,   0.00047,  -7.14870,   1.00000
-149111948.60758,-509779368.13574,84070998.17142,   0.00063,  -0.00389,   0.00156,476758828.60454,   0.00196,276758833.23924,   0.00032,  -0.00186,   0.00047,  -4.63469,   1.00000
-149232053.39963,-509555602.23155,84514199.30151,   0.00063,  -0.00389,   0.00157,476763084.07410,   0.00196,276763085.74228,   0.00032,  -0.00186,   0.00047,  -1.66818,   1.00000
-149351626.04902,-509330767.17214,84956336.25025,   0.00063,  -0.00389,   0.00158,476767341.08461,   0.00197,276767348.63501,   0.00032,  -0.00187,   0.00047,  -7.55040,   1.00000
-149484287.86949,-509106284.63328,85400674.90661,   0.00063,  -0.00390,   0.00158,476771640.08378,   0.00197,276771647.37047,   0.00032,  -0.00187,   0.00047,  -7.28669,   1.00000
-149598099.27615,-508872352.95381,85850483.57939,   0.00063,  -0.00390,   0.00159,476775883.11927,   0.00197,276775890.93008,   0.00032,  -0.00187,   0.00048,  -7.81082,   1.00000
-149725476.38475,-508641044.53779,86298721.37458,   0.00063,  -0.00390,   0.00160,476780154.47115,   0.00198,276780158.59973,   0.00032,  -0.00188,   0.00048,  -4.12858,   1.00000
-149851316.39899,-508403953.86361,86753333.83472,   0.00063,  -0.00390,   0.00161,476784456.93632,   0.00198,276784461.71201,   0.00032,  -0.00188,   0.00048,  -4.77569,   1.00000
-149987473.74254,-508169413.30803,87204966.99950,   0.00063,  -0.00390,   0.00161,476788702.85940,   0.00199,276788712.40746,   0.00032,  -0.00188,   0.00048,  -9.54806,   1.00000
-150107970.98426,-507925332.30740,87663445.21909,   0.00063,  -0.00391,   0.00162,476792978.12727,   0.00199,276792985.44909,   0.00032,  -0.00189,   0.00048,  -7.32182,   1.00000
-150241997.87874,-507683818.35992,88120301.15395,   0.00063,  -0.00391,   0.00163,476797282.51783,   0.00199,276797283.22348,   0.00033,  -0.00189,   0.00049,  -0.70565,   1.00000
-150371236.24085,-507436342.57674,88582130.89630,   0.00063,  -0.00391,   0.00164,476801533.18950,   0.00200,276801540.40325,   0.00033,  -0.00189,   0.00049,  -7.21375,   1.00000
-150513979.31641,-507191401.07321,89042319.93759,   0.00063,  -0.00391,   0.00165,476805813.15802,   0.00200,276805822.58493,   0.00033,  -0.00190,   0.00049,  -9.42692,   1.00000
-150637830.59953,-506936755.20207,89507999.60784,   0.00063,  -0.00391,   0.00166,476810048.87599,   0.00201,276810050.74496,   0.00033,  -0.00190,   0.00049,  -1.86897,   1.00000
-150778359.60180,-506684651.12729,89973295.00602,   0.00063,  -0.00392,   0.00166,476814377.21878,   0.00201,276814381.68094,   0.00033,  -0.00190,   0.00049,  -4.46216,   1.00000
-150910898.46555,-506426407.51779,90442293.63667,   0.00063,  -0.00392,   0.00167,476818588.95879,   0.00201,276818595.22511,   0.00033,  -0.00191,   0.00050,  -6.26632,   1.00000
-151059560.09470,-506168248.77923,90914546.68795,   0.00063,  -0.00392,   0.00168,476822921.19000,   0.00202,276822924.95088,   0.00033,  -0.00191,   0.00050,  -3.76087,   1.00000
-151190341.62567,-505905122.77985,91384906.67644,   0.00063,  -0.00392,   0.00169,476827167.65858,   0.00202,276827175.36884,   0.00033,  -0.00191,   0.00050,  -7.71025,   1.00000
-151333541.11809,-505639544.10106,91860925.47131,   0.00063,  -0.00392,   0.00170,476831474.81396,   0.00203,276831477.89958,   0.00033,  -0.00192,   0.00050,  -3.08562,   1.00000
-151472422.29089,-505370178.93650,92338221.86406,   0.00063,  -0.00392,   0.00170,476835725.34673,   0.00203,276835728.19047,   0.00033,  -0.00192,   0.00050,  -2.84375,   1.00000
-151613811.11720,-505099619.35656,92815498.92715,   0.00063,  -0.00393,   0.00171,476840062.74055,   0.00203,276840068.81475,   0.00033,  -0.00192,   0.00051,  -6.07419,   1.00000
-151761283.34726,-504826359.20420,93296025.34606,   0.00063,  -0.00393,   0.00172,476844302.64641,   0.00204,276844306.57265,   0.00033,  -0.00193,   0.00051,  -3.92624,   1.00000
-151911228.68496,-504551883.78269,93776486.31289,   0.00063,  -0.00393,   0.00173,476848630.47310,   0.00204,276848635.06132,   0.00033,  -0.00193,   0.00051,  -4.58822,   1.00000
-152056295.59579,-504271020.87702,94261894.39852,   0.00063,  -0.00393,   0.00174,476852923.15618,   0.00205,276852925.19945,   0.00034,  -0.00193,   0.00051,  -2.04327,   1.00000
-152196483.21928,-503983709.79953,94752244.81863,   0.00063,  -0.00393,   0.00175,476857174.33088,   0.00205,276857177.32611,   0.00034,  -0.00194,   0.00051,  -2.99524,   1.00000
-152339672.58790,-503697701.34657,95238802.04057,   0.00063,  -0.00393,   0.00176,476861505.59880,   0.00206,276861507.23627,   0.00034,  -0.00194,   0.00052,  -1.63746,   1.00000
-152492038.76740,-503408851.69127,95729740.38121,   0.00063,  -0.00394,   0.00176,476865810.58089,   0.00206,276865813.48788,   0.00034,  -0.00194,   0.00052,  -2.90699,   1.00000
-152640055.02114,-503116002.53987,96221980.97067,   0.00063,  -0.00394,   0.00177,476870058.78396,   0.00206,276870068.45386,   0.00034,  -0.00195,   0.00052,  -9.66990,   1.00000
-152786826.13996,-502819242.28245,96716586.02676,   0.00062,  -0.00394,   0.00178,476874346.69837,   0.00207,276874350.72883,   0.00034,  -0.00195,   0.00052,  -4.03046,   1.00000
-152932338.22636,-502518526.97374,97213529.53018,   0.00062,  -0.00394,   0.00179,476878650.88115,   0.00207,276878660.69477,   0.00034,  -0.00195,   0.00053,  -9.81362,   1.00000
-153090641.31997,-502217503.15598,97712221.43279,   0.00062,  -0.00394,   0.00180,476883004.46515,   0.00208,276883012.69686,   0.00034,  -0.00196,   0.00053,  -8.23170,   1.00000
-153230521.40619,-501908736.73461,98212796.10635,   0.00062,  -0.00394,   0.00181,476887298.24757,   0.00208,276887299.67477,   0.00034,  -0.00196,   0.00053,  -1.42721,   1.00000
-153383179.85571,-501599600.07853,98715085.47957,   0.00062,  -0.00395,   0.00182,476891624.26164,   0.00208,276891629.25000,   0.00034,  -0.00196,   0.00053,  -4.98835,   1.00000
-153545523.43842,-501289951.14201,99218106.89531,   0.00062,  -0.00395,   0.00183,476895914.37659,   0.00209,276895922.57355,   0.00034,  -0.00197,   0.00054,  -8.19695,   1.00000
-153692494.54933,-500972605.30265,99723985.50756,   0.00062,  -0.00395,   0.00183,476900224.98550,   0.00209,276900230.23824,   0.00034,  -0.00197,   0.00054,  -5.25274,   1.00000
-153848561.55740,-500652027.56423,100234181.28147,   0.00062,  -0.00395,   0.00184,476904509.94660,   0.00210,276904516.54163,   0.00034,  -0.00197,   0.00054,  -6.59503,   1.00000
-154006927.15561,-500330138.77291,100743934.57482,   0.00062,  -0.00395,   0.00185,476908896.12328,   0.00210,276908896.82554,   0.00035,  -0.00198,   0.00054,  -0.70226,   1.00000
-154157270.66738,-500001154.12208,101257686.79004,   0.00062,  -0.00395,   0.00186,476913160.20344,   0.00210,276913162.44925,   0.00035,  -0.00198,   0.00054,  -2.24581,   1.00000
-154309899.60605,-499670842.76830,101770947.25784,   0.00062,  -0.00396,   0.00187,476917514.63208,   0.00211,276917522.54045,   0.00035,  -0.00198,   0.00055,  -7.90837,   1.00000
-154471579.37148,-499337142.76063,102288485.88050,   0.00062,  -0.00396,   0.00188,476921856.20284,   0.00211,276921862.27595,   0.00035,  -0.00199,   0.00055,  -6.07311,   1.00000
-154614821.88376,-498995449.02644,102807962.24769,   0.00062,  -0.00396,   0.00189,476926136.97278,   0.00212,276926137.95136,   0.00035,  -0.00199,   0.00055,  -0.97858,   1.00000
-154774359.84597,-498656040.68411,103326247.69176,   0.00062,  -0.00396,   0.00190,476930519.34475,   0.00212,276930523.41086,   0.00035,  -0.00199,   0.00055,  -4.06612,   1.00000
-154929495.62173,-498312226.94041,103845863.23260,   0.00062,  -0.00396,   0.00191,476934850.98225,   0.00212,276934859.54187,   0.00035,  -0.00200,   0.00056,  -8.55962,   1.00000
-155093021.72383,-497962100.90303,104373265.37754,   0.00062,  -0.00396,   0.00192,476939186.86443,   0.00213,276939191.57196,   0.00035,  -0.00200,   0.00056,  -4.70754,   1.00000
-155241713.91124,-497606793.44608,104899856.00549,   0.00062,  -0.00396,   0.00192,476943517.12049,   0.00213,276943524.89870,   0.00035,  -0.00200,   0.00056,  -7.77821,   1.00000
-155403654.87649,-497253569.12136,105424379.13586,   0.00061,  -0.00396,   0.00193,476947885.05623,   0.00214,276947888.85471,   0.00035,  -0.00201,   0.00056,  -3.79848,   1.00000
-155560543.09345,-496893029.15656,105953760.62043,   0.00061,  -0.00397,   0.00194,476952213.20989,   0.00214,276952219.54953,   0.00035,  -0.00201,   0.00057,  -6.33965,   1.00000
-155715989.84906,-496528135.53042,106485196.96004,   0.00061,  -0.00397,   0.00195,476956581.11700,   0.00214,276956582.03989,   0.00035,  -0.00201,   0.00057,  -0.92289,   1.00000
-155880394.10549,-496159433.30136,107020826.26230,   0.00061,  -0.00397,   0.00196,476960925.31761,   0.00215,276960926.74692,   0.00035,  -0.00201,   0.00057,  -1.42931,   1.00000
-156029946.77885,-495785511.36481,107555618.33084,   0.00061,  -0.00397,   0.00197,476965264.69198,   0.00215,276965273.26867,   0.00035,  -0.00202,   0.00057,  -8.57669,   1.00000
-156192056.48287,-495410780.61504,108091760.39756,   0.00061,  -0.00397,   0.00198,476969660.90878,   0.00216,276969667.23110,   0.00036,  -0.00202,   0.00058,  -6.32233,   1.00000
-156349069.73000,-495028514.77041,108632722.53661,   0.00061,  -0.00397,   0.00199,476974023.90928,   0.00216,276974029.25292,   0.00036,  -0.00202,   0.00058,  -5.34364,   1.00000
-156505245.95074,-494644617.16658,109172167.93254,   0.00061,  -0.00397,   0.00200,476978404.73902,   0.00217,276978408.39206,   0.00036,  -0.00203,   0.00058,  -3.65304,   1.00000
-156673927.08903,-494259824.81212,109712891.31236,   0.00061,  -0.00397,   0.00201,476982831.61715,   0.00217,276982835.90851,   0.00036,  -0.00203,   0.00058,  -4.29137,   1.00000
-156823469.85910,-493863783.36602,110259086.70109,   0.00061,  -0.00398,   0.00202,476987215.42042,   0.00217,276987217.10321,   0.00036,  -0.00203,   0.00059,  -1.68280,   1.00000
-156982581.54779,-493466501.12519,110805947.05186,   0.00061,  -0.00398,   0.00203,476991558.72440,   0.00218,276991566.22860,   0.00036,  -0.00204,   0.00059,  -7.50419,   1.00000
-157140153.97629,-493064649.81570,111354703.02338,   0.00061,  -0.00398,   0.00204,476995945.00744,   0.00218,276995949.46831,   0.00036,  -0.00204,   0.00059,  -4.46087,   1.00000
-157296174.33100,-492658201.44834,111905326.86681,   0.00061,  -0.00398,   0.00205,477000362.80528,   0.00219,277000367.17676,   0.00036,  -0.00204,   0.00059,  -4.37148,   1.00000
-157465319.69258,-492253647.56862,112453674.37294,   0.00060,  -0.00398,   0.00206,477004810.35959,   0.00219,277004818.22183,   0.00036,  -0.00205,   0.00060,  -7.86225,   1.00000
-157615295.86754,-491837645.68114,113007486.78236,   0.00060,  -0.00398,   0.00207,477009215.17760,   0.00219,277009223.95626,   0.00036,  -0.00205,   0.00060,  -8.77865,   1.00000
-157774115.33335,-491417304.78354,113565364.78625,   0.00060,  -0.00398,   0.00208,477013610.52418,   0.00220,277013615.36814,   0.00036,  -0.00205,   0.00060,  -4.84396,   1.00000
-157932035.98855,-490995217.44789,114121622.83855,   0.00060,  -0.00398,   0.00209,477018020.19831,   0.00220,277018025.45065,   0.00036,  -0.00206,   0.00060,  -5.25235,   1.00000
-158088351.94422,-490568430.70163,114679659.42654,   0.00060,  -0.00398,   0.00210,477022463.15512,   0.00221,277022471.25499,   0.00036,  -0.00206,   0.00061,  -8.09987,   1.00000
-158239478.16682,-490133594.14233,115242434.61819,   0.00060,  -0.00398,   0.00211,477026880.37306,   0.00221,277026888.18993,   0.00036,  -0.00206,   0.00061,  -7.81687,   1.00000
-158389701.79568,-489696999.06206,115803557.83316,   0.00060,  -0.00398,   0.00212,477031318.56733,   0.00221,277031324.23428,   0.00037,  -0.00207,   0.00061,  -5.66695,   1.00000
-158548712.30525,-489255837.01697,116368687.55778,   0.00060,  -0.00399,   0.00213,477035742.49077,   0.00222,277035747.46213,   0.00037,  -0.00207,   0.00061,  -4.97136,   1.00000
-158706067.46305,-488809869.57368,116935511.48786,   0.00060,  -0.00399,   0.00214,477040201.49862,   0.00222,277040207.61571,   0.00037,  -0.00207,   0.00062,  -6.11709,   1.00000
-158862488.81774,-488362115.09289,117500644.10231,   0.00060,  -0.00399,   0.00215,477044682.24349,   0.00223,277044687.38629,   0.00037,  -0.00208,   0.00062,  -5.14281,   1.00000
-159013673.50171,-487906090.88130,118070476.72386,   0.00060,  -0.00399,   0.00216,477049132.13010,   0.00223,277049139.61013,   0.00037,  -0.00208,   0.00062,  -7.48003,   1.00000
-159163184.61743,-487445216.92239,118641946.72742,   0.00059,  -0.00399,   0.00217,477053624.19333,   0.00224,277053629.51736,   0.00037,  -0.00208,   0.00063,  -5.32402,   1.00000
-159322162.74415,-486982592.72767,119214006.06550,   0.00059,  -0.00399,   0.00218,477058083.46119,   0.00224,277058090.46074,   0.00037,  -0.00208,   0.00063,  -6.99955,   1.00000
-159478680.87094,-486511993.83467,119790992.27361,   0.00059,  -0.00399,   0.00219,477062599.96185,   0.00224,277062607.63846,   0.00037,  -0.00209,   0.00063,  -7.67661,   1.00000
-159617453.41202,-486035528.47022,120366735.49628,   0.00059,  -0.00399,   0.00220,477067045.69586,   0.00225,277067046.60539,   0.00037,  -0.00209,   0.00063,  -0.90954,   1.00000
-159767736.02577,-485554589.06529,120946597.56953,   0.00059,  -0.00399,   0.00221,477071555.86581,   0.00225,277071558.44096,   0.00037,  -0.00209,   0.00064,  -2.57515,   1.00000
-159931008.19715,-485075341.01196,121523909.00315,   0.00059,  -0.00399,   0.00222,477076101.76933,   0.00226,277076107.17718,   0.00037,  -0.00210,   0.00064,  -5.40784,   1.00000
-160075765.50221,-484587063.47053,122103321.21521,   0.00059,  -0.00399,   0.00223,477080591.51673,   0.00226,277080596.00814,   0.00037,  -0.00210,   0.00064,  -4.49141,   1.00000
-160214451.61911,-484087018.95479,122690654.30135,   0.00059,  -0.00399,   0.00224,477085072.19264,   0.00227,277085078.08480,   0.00037,  -0.00210,   0.00065,  -5.89215,   1.00000
-160369672.75063,-483592290.57900,123272244.39939,   0.00059,  -0.00399,   0.00225,477089652.76821,   0.00227,277089662.68804,   0.00037,  -0.00211,   0.00065,  -9.91983,   1.00000
-160516786.64560,-483088307.47231,123858316.85943,   0.00059,  -0.00399,   0.00226,477094138.29529,   0.00227,277094138.96121,   0.00037,  -0.00211,   0.00065,  -0.66593,   1.00000
-160664877.24123,-482579801.98728,124445920.41874,   0.00058,  -0.00400,   0.00227,477098736.89441,   0.00228,277098739.56595,   0.00037,  -0.00211,   0.00065,  -2.67154,   1.00000
-160804853.77474,-482061894.19742,125038009.92104,   0.00058,  -0.00400,   0.00228,477103228.03663,   0.00228,277103232.45797,   0.00038,  -0.00212,   0.00066,  -4.42134,   1.00000
-160947376.47169,-481545817.50939,125625049.51912,   0.00058,  -0.00400,   0.00229,477107802.88620,   0.00229,277107812.44896,   0.00038,  -0.00212,   0.00066,  -9.56276,   1.00000
-161098490.04814,-481024406.53856,126215854.89546,   0.00058,  -0.00400,   0.00230,477112380.56969,   0.00229,277112385.09348,   0.00038,  -0.00212,   0.00066,  -4.52379,   1.00000
-161230267.41611,-480490472.17184,126812014.70464,   0.00058,  -0.00400,   0.00231,477116911.12366,   0.00230,277116918.34695,   0.00038,  -0.00213,   0.00067,  -7.22330,   1.00000
-161374163.64671,-479954913.10907,127408676.83223,   0.00058,  -0.00400,   0.00232,477121503.82845,   0.00230,277121510.12654,   0.00038,  -0.00213,   0.00067,  -6.29809,   1.00000
-161517017.60530,-479417388.11304,128003411.18499,   0.00058,  -0.00400,   0.00234,477126117.61470,   0.00230,277126124.91027,   0.00038,  -0.00213,   0.00067,  -7.29557,   1.00000
-161654462.20964,-478870770.78747,128602658.59969,   0.00058,  -0.00400,   0.00235,477130710.33422,   0.00231,277130717.46546,   0.00038,  -0.00213,   0.00067,  -7.13124,   1.00000
-161790035.38313,-478318929.67175,129203150.32728,   0.00058,  -0.00400,   0.00236,477135347.29578,   0.00231,277135353.08166,   0.00038,  -0.00214,   0.00068,  -5.78588,   1.00000
-161921014.67481,-477761147.25534,129804936.00845,   0.00058,  -0.00400,   0.00237,477139941.02438,   0.00232,277139947.41389,   0.00038,  -0.00214,   0.00068,  -6.38951,   1.00000
-162050111.40111,-477198109.54251,130407927.33423,   0.00057,  -0.00400,   0.00238,477144579.84883,   0.00232,277144585.35819,   0.00038,  -0.00214,   0.00068,  -5.50936,   1.00000
-162188543.90258,-476632608.37229,131011368.68428,   0.00057,  -0.00400,   0.00239,477149195.30709,   0.00233,277149198.98889,   0.00038,  -0.00215,   0.00069,  -3.68180,   1.00000
-162324205.02444,-476058509.80374,131619122.87309,   0.00057,  -0.00400,   0.00240,477153867.91056,   0.00233,277153877.08883,   0.00038,  -0.00215,   0.00069,  -9.17827,   1.00000
-162442169.67219,-475478081.49539,132225860.44268,   0.00057,  -0.00400,   0.00241,477158472.40732,   0.00233,277158477.71852,   0.00038,  -0.00215,   0.00069,  -5.31120,   1.00000
-162571291.18809,-474892557.95519,132835997.90362,   0.00057,  -0.00400,   0.00242,477163155.55012,   0.00234,277163160.34692,   0.00038,  -0.00216,   0.00070,  -4.79680,   1.00000
-162699326.43332,-474305002.95494,133444079.36487,   0.00057,  -0.00400,   0.00243,477167862.59956,   0.00234,277167867.76285,   0.00038,  -0.00216,   0.00070,  -5.16329,   1.00000
-162821865.60578,-473707940.80285,134056556.57880,   0.00057,  -0.00400,   0.00244,477172551.08663,   0.00235,277172555.85235,   0.00038,  -0.00216,   0.00070,  -4.76572,   1.00000
-162953689.86055,-473108177.95101,134669424.07770,   0.00057,  -0.00400,   0.00246,477177211.45004,   0.00235,277177221.25872,   0.00038,  -0.00217,   0.00071,  -9.80868,   1.00000
-163069612.65886,-472499469.63920,135284189.44537,   0.00056,  -0.00400,   0.00247,477181912.51150,   0.00236,277181915.82831,   0.00039,  -0.00217,   0.00071,  -3.31681,   1.00000
-163197472.57225,-471888883.90793,135899054.36716,   0.00056,  -0.00400,   0.00248,477186671.60221,   0.00236,277186673.94655,   0.00039,  -0.00217,   0.00071,  -2.34434,   1.00000
-163305866.82599,-471265042.64963,136519137.66260,   0.00056,  -0.00400,   0.00249,477191392.53876,   0.00237,277191397.18236,   0.00039,  -0.00217,   0.00071,  -4.64360,   1.00000
-163427072.04814,-470642671.38099,137136182.16516,   0.00056,  -0.00400,   0.00250,477196160.51961,   0.00237,277196163.54843,   0.00039,  -0.00218,   0.00072,  -3.02881,   1.00000
-163543610.40174,-470013891.98055,137754472.41014,   0.00056,  -0.00400,   0.00251,477200886.76726,   0.00237,277200891.29084,   0.00039,  -0.00218,   0.00072,  -4.52358,   1.00000
-163657218.83403,-469376232.66014,138376708.25077,   0.00056,  -0.00400,   0.00252,477205683.53460,   0.00238,277205688.27130,   0.00039,  -0.00218,   0.00072,  -4.73670,   1.00000
-163766151.15199,-468732083.44698,139000167.71980,   0.00056,  -0.00400,   0.00253,477210445.15655,   0.00238,277210447.21978,   0.00039,  -0.00219,   0.00073,  -2.06322,   1.00000
-163873953.64272,-468085831.98681,139621429.63600,   0.00056,  -0.00400,   0.00255,477215227.85664,   0.00239,277215232.98607,   0.00039,  -0.00219,   0.00073,  -5.12944,   1.00000
-163976164.30173,-467429609.54921,140246950.51660,   0.00056,  -0.00400,   0.00256,477220000.91689,   0.00239,277220002.73456,   0.00039,  -0.00219,   0.00073,  -1.81767,   1.00000
-164090214.30272,-466771381.32490,140872330.27404,   0.00055,  -0.00400,   0.00257,477224837.12859,   0.00240,277224839.04388,   0.00039,  -0.00220,   0.00074,  -1.91529,   1.00000
-164184726.58635,-466099512.03970,141502847.52207,   0.00055,  -0.00400,   0.00258,477229636.74962,   0.00240,277229642.90231,   0.00039,  -0.00220,   0.00074,  -6.15269,   1.00000
-164291993.31284,-465429067.10339,142130162.61217,   0.00055,  -0.00400,   0.00259,477234487.19028,   0.00241,277234491.94584,   0.00039,  -0.00220,   0.00074,  -4.75556,   1.00000
-164383262.87222,-464749495.39470,142759126.86393,   0.00055,  -0.00400,   0.00260,477239370.77718,   0.00241,277239373.63820,   0.00039,  -0.00220,   0.00075,  -2.86102,   1.00000
-164483727.29078,-464066743.35079,143388335.25553,   0.00055,  -0.00400,   0.00262,477244230.17120,   0.00242,277244236.31260,   0.00039,  -0.00221,   0.00075,  -6.14140,   1.00000
-164578522.80046,-463373728.52556,144021697.21106,   0.00055,  -0.00400,   0.00263,477249082.25395,   0.00242,277249085.19659,   0.00039,  -0.00221,   0.00075,  -2.94264,   1.00000
-164671188.00568,-462675063.90311,144655680.95708,   0.00055,  -0.00400,   0.00264,477253979.11687,   0.00243,277253985.42751,   0.00039,  -0.00221,   0.00076,  -6.31064,   1.00000
-164762678.06682,-461974267.18572,145287321.54834,   0.00055,  -0.00400,   0.00265,477258906.22820,   0.00243,277258914.39371,   0.00039,  -0.00222,   0.00076,  -8.16551,   1.00000
-164848471.02365,-461263081.86178,145923061.62538,   0.00054,  -0.00400,   0.00266,477263821.21974,   0.00243,277263830.64721,   0.00039,  -0.00222,   0.00077,  -9.42747,   1.00000
-164928556.06402,-460541439.18492,146562876.04305,   0.00054,  -0.00400,   0.00267,477268730.52977,   0.00244,277268734.71368,   0.00040,  -0.00222,   0.00077,  -4.18391,   1.00000
-165007456.92490,-459817625.21635,147200293.59006,   0.00054,  -0.00400,   0.00269,477273665.32550,   0.00244,277273668.33497,   0.00040,  -0.00223,   0.00077,  -3.00947,   1.00000
-165098071.38336,-459091686.41924,147837220.64716,   0.00054,  -0.00400,   0.00270,477278670.30054,   0.00245,277278672.75635,   0.00040,  -0.00223,   0.00078,  -2.45582,   1.00000
-165170035.38928,-458355148.42418,148476268.61609,   0.00054,  -0.00400,   0.00271,477283619.68314,   0.00245,277283624.66537,   0.00040,  -0.00223,   0.00078,  -4.98223,   1.00000
-165250131.67705,-457611533.32727,149118330.31341,   0.00054,  -0.00399,   0.00272,477288575.83282,   0.00246,277288583.76229,   0.00040,  -0.00223,   0.00078,  -7.92947,   1.00000
-165317711.66914,-456863585.91195,149758227.84975,   0.00054,  -0.00399,   0.00273,477293641.04503,   0.00246,277293643.28518,   0.00040,  -0.00224,   0.00079,  -2.24015,   1.00000
-165390831.25463,-456107071.57470,150401809.69282,   0.00054,  -0.00399,   0.00275,477298620.54202,   0.00247,277298622.63076,   0.00040,  -0.00224,   0.00079,  -2.08874,   1.00000
-165447853.98191,-455341219.25433,151046755.39538,   0.00053,  -0.00399,   0.00276,477303632.63914,   0.00247,277303638.73138,   0.00040,  -0.00224,   0.00079,  -6.09224,   1.00000
-165516537.19763,-454573192.59812,151691011.44663,   0.00053,  -0.00399,   0.00277,477308725.70501,   0.00248,277308728.06280,   0.00040,  -0.00225,   0.00080,  -2.35780,   1.00000
-165580418.07363,-453797898.55364,152336342.95661,   0.00053,  -0.00399,   0.00278,477313781.46233,   0.00248,277313784.38568,   0.00040,  -0.00225,   0.00080,  -2.92335,   1.00000
-165642049.78585,-453016826.68670,152981941.72338,   0.00053,  -0.00399,   0.00279,477318888.83538,   0.00249,277318896.57177,   0.00040,  -0.00225,   0.00080,  -7.73638,   1.00000
-165697844.01006,-452224808.05303,153631398.84569,   0.00053,  -0.00399,   0.00281,477323995.79298,   0.00249,277324000.77603,   0.00040,  -0.00226,   0.00081,  -4.98304,   1.00000
-165738542.85893,-451427028.02629,154279307.65337,   0.00053,  -0.00399,   0.00282,477329113.60972,   0.00250,277329118.69887,   0.00040,  -0.00226,   0.00081,  -5.08915,   1.00000
-165788311.10690,-450625429.72662,154927228.01169,   0.00053,  -0.00399,   0.00283,477334213.12320,   0.00250,277334222.85338,   0.00040,  -0.00226,   0.00082,  -9.73018,   1.00000
-165834762.42915,-449814396.05250,155578073.02446,   0.00052,  -0.00399,   0.00284,477339403.60863,   0.00251,277339409.18845,   0.00040,  -0.00226,   0.00082,  -5.57982,   1.00000
-165891290.35442,-449003109.66630,156226133.08039,   0.00052,  -0.00399,   0.00285,477344552.12302,   0.00251,277344557.40582,   0.00040,  -0.00227,   0.00082,  -5.28281,   1.00000
-165930594.32779,-448178757.04206,156878093.19703,   0.00052,  -0.00399,   0.00287,477349768.25392,   0.00252,277349770.34846,   0.00040,  -0.00227,   0.00083,  -2.09454,   1.00000
-165965056.65496,-447346839.03210,157531051.30571,   0.00052,  -0.00399,   0.00288,477354948.97882,   0.00252,277354952.42675,   0.00040,  -0.00227,   0.00083,  -3.44793,   1.00000
-165993609.76324,-446503637.17826,158187719.41835,   0.00052,  -0.00398,   0.00289,477360125.80896,   0.00253,277360129.43309,   0.00040,  -0.00228,   0.00084,  -3.62413,   1.00000
-166024525.73474,-445663728.31898,158838002.47937,   0.00052,  -0.00398,   0.00290,477365400.76570,   0.00253,277365403.94914,   0.00040,  -0.00228,   0.00084,  -3.18344,   1.00000
-166045904.72422,-444806972.25417,159495649.73631,   0.00052,  -0.00398,   0.00292,477370606.30128,   0.00254,277370610.14585,   0.00041,  -0.00228,   0.00084,  -3.84458,   1.00000
-166082419.36490,-443953506.29035,160148455.59608,   0.00052,  -0.00398,   0.00293,477375949.17296,   0.00254,277375958.92160,   0.00041,  -0.00229,   0.00085,  -9.74864,   1.00000
-166096577.22097,-443083108.48703,160807002.21057,   0.00051,  -0.00398,   0.00294,477381191.63492,   0.00255,277381195.57118,   0.00041,  -0.00229,   0.00085,  -3.93626,   1.00000
-166112014.17559,-442212454.22895,161461719.91956,   0.00051,  -0.00398,   0.00295,477386547.21443,   0.00255,277386556.78621,   0.00041,  -0.00229,   0.00086,  -9.57178,   1.00000
-166132798.67443,-441331960.07891,162119988.74525,   0.00051,  -0.00398,   0.00297,477391835.24899,   0.00256,277391843.98432,   0.00041,  -0.00229,   0.00086,  -8.73534,   1.00000
-166140989.43610,-440447662.25860,162775463.77129,   0.00051,  -0.00398,   0.00298,477397230.79977,   0.00256,277397237.46931,   0.00041,  -0.00230,   0.00086,  -6.66954,   1.00000
-166139552.39783,-439546018.93483,163438193.53094,   0.00051,  -0.00398,   0.00299,477402559.79865,   0.00257,277402565.54845,   0.00041,  -0.00230,   0.00087,  -5.74981,   1.00000
-166154341.29355,-438651637.70378,164093223.50028,   0.00051,  -0.00398,   0.00300,477408010.47640,   0.00257,277408011.62863,   0.00041,  -0.00230,   0.00087,  -1.15223,   1.00000
-166149247.55630,-437741940.06993,164752849.91242,   0.00051,  -0.00397,   0.00302,477413436.40083,   0.00258,277413437.73353,   0.00041,  -0.00231,   0.00088,  -1.33270,   1.00000
-166153089.94732,-436827890.78638,165412219.79141,   0.00051,  -0.00397,   0.00303,477418850.70403,   0.00258,277418855.26378,   0.00041,  -0.00231,   0.00088,  -4.55975,   1.00000
-166140681.08656,-435904307.14858,166072391.17283,   0.00050,  -0.00397,   0.00304,477424307.87921,   0.00259,277424317.12713,   0.00041,  -0.00231,   0.00088,  -9.24792,   1.00000
-166123357.37245,-434972666.07548,166733412.68860,   0.00050,  -0.00397,   0.00306,477429746.83629,   0.00259,277429751.89465,   0.00041,  -0.00232,   0.00089,  -5.05836,   1.00000
-166116343.59438,-434035044.53418,167395453.83303,   0.00050,  -0.00397,   0.00307,477435292.78323,   0.00260,277435297.45592,   0.00041,  -0.00232,   0.00089,  -4.67269,   1.00000
-166091669.30388,-433089373.65546,168056908.46122,   0.00050,  -0.00397,   0.00308,477440765.54254,   0.00260,277440769.91432,   0.00041,  -0.00232,   0.00090,  -4.37178,   1.00000
-166077285.33281,-432137731.09843,168719292.22847,   0.00050,  -0.00397,   0.00309,477446353.82621,   0.00261,277446354.21560,   0.00041,  -0.00232,   0.00090,  -0.38939,   1.00000
-166045238.53955,-431177965.15087,169381098.74843,   0.00050,  -0.00397,   0.00311,477451862.11439,   0.00261,277451865.63942,   0.00041,  -0.00233,   0.00091,  -3.52503,   1.00000
-166023461.23636,-430212233.16590,170043740.80740,   0.00050,  -0.00396,   0.00312,477457487.73413,   0.00262,277457490.00207,   0.00041,  -0.00233,   0.00091,  -2.26794,   1.00000
-165982861.99244,-429234529.69196,170708295.73409,   0.00049,  -0.00396,   0.00313,477463069.72178,   0.00262,277463069.98427,   0.00041,  -0.00233,   0.00091,  -0.26249,   1.00000
-165939829.54569,-428250944.81482,171372267.45477,   0.00049,  -0.00396,   0.00315,477468713.25444,   0.00263,277468716.54652,   0.00041,  -0.00234,   0.00092,  -3.29207,   1.00000
-165905662.94996,-427262709.05669,172035796.96488,   0.00049,  -0.00396,   0.00316,477474349.95139,   0.00263,277474357.91789,   0.00041,  -0.00234,   0.00092,  -7.96650,   1.00000
-165855194.40290,-426264903.16811,172699860.01444,   0.00049,  -0.00396,   0.00317,477480041.20411,   0.00264,277480047.16286,   0.00041,  -0.00234,   0.00093,  -5.95875,   1.00000
-165799741.97277,-425258677.38324,173364625.35180,   0.00049,  -0.00396,   0.00319,477485704.61981,   0.00264,277485712.46654,   0.00041,  -0.00235,   0.00093,  -7.84674,   1.00000
-165755676.01706,-424250315.58043,174027505.80962,   0.00049,  -0.00396,   0.00320,477491460.52828,   0.00265,277491465.21306,   0.00041,  -0.00235,   0.00094,  -4.68478,   1.00000
-165691564.96692,-423225930.26884,174694646.55423,   0.00049,  -0.00395,   0.00321,477497198.56394,   0.00266,277497204.38614,   0.00042,  -0.00235,   0.00094,  -5.82221,   1.00000
-165626179.53985,-422199504.35764,175358614.95530,   0.00049,  -0.00395,   0.00323,477502977.41014,   0.00266,277502983.21974,   0.00042,  -0.00235,   0.00095,  -5.80960,   1.00000
-165555785.21294,-421164526.85537,176023231.74274,   0.00048,  -0.00395,   0.00324,477508729.85829,   0.00267,277508739.28025,   0.00042,  -0.00236,   0.00095,  -9.42196,   1.00000
-165481725.45401,-420119903.61698,176689387.75711,   0.00048,  -0.00395,   0.00325,477514594.08506,   0.00267,277514594.51974,   0.00042,  -0.00236,   0.00096,  -0.43468,   1.00000
-165402633.36570,-419066642.60167,177356134.15958,   0.00048,  -0.00395,   0.00327,477520419.24487,   0.00268,277520427.96219,   0.00042,  -0.00236,   0.00096,  -8.71732,   1.00000
-165322270.06906,-418011391.41401,178019640.09101,   0.00048,  -0.00395,   0.00328,477526293.47898,   0.00268,277526301.92039,   0.00042,  -0.00237,   0.00096,  -8.44141,   1.00000
-165249494.84412,-416947397.23341,178684843.19724,   0.00048,  -0.00394,   0.00329,477532198.28806,   0.00269,277532204.09444,   0.00042,  -0.00237,   0.00097,  -5.80638,   1.00000
-165147751.82240,-415873886.91239,179349204.37340,   0.00048,  -0.00394,   0.00331,477538106.97210,   0.00269,277538107.90630,   0.00042,  -0.00237,   0.00097,  -0.93420,   1.00000
