# sigma_xx, sigma_yy, sigma_xy, epsilon_xx, epsilon_yy, epsilon_xy, vonMises, epsPlastic, hardening, epsilonP__xx, epsilonP__yy, epsilonP__xy, yieldValue, iteration
   0.00000,   0.00000,   0.00000,   0.00000,   0.00000,   0.00000,1181185.37500,   0.00000,274640576.00000,   0.00000,   0.00000,   0.00000,-473459392.00000,   0.00000
   0.00000,   0.00000,   0.00000,   0.00000,   0.00000,   0.00000,1181185.37500,   0.00000,274640576.00000,   0.00000,   0.00000,   0.00000,-473459392.00000,   0.00000
-2871986.99255,-5085742.07461,45846.99874,  -0.00000,  -0.00002,   0.00000,3795247.75000,   0.00000,274640576.00000,   0.00000,   0.00000,   0.00000,-470845344.00000,   0.00000
-5721050.48573,-10161659.79235,85144.42623,  -0.00001,  -0.00004,   0.00000,7919043.00000,   0.00000,274640576.00000,   0.00000,   0.00000,   0.00000,-466721536.00000,   0.00000
-8579938.33579,-15260501.00945,137540.99622,  -0.00001,  -0.00005,   0.00000,12652075.00000,   0.00000,274640576.00000,   0.00000,   0.00000,   0.00000,-461988496.00000,   0.00000
-11415902.68647,-20349517.86969,183387.99496,  -0.00001,  -0.00007,   0.00000,17224098.00000,   0.00000,274640576.00000,   0.00000,   0.00000,   0.00000,-457416480.00000,   0.00000
-14251867.03715,-25438534.72992,229234.99370,  -0.00002,  -0.00009,   0.00000,21733380.00000,   0.00000,274640576.00000,   0.00000,   0.00000,   0.00000,-452907200.00000,   0.00000
-17074732.24534,-30540650.73265,281631.56369,  -0.00002,  -0.00011,   0.00000,26236904.00000,   0.00000,274640576.00000,   0.00000,   0.00000,   0.00000,-448403680.00000,   0.00000
-19874673.95416,-35632942.37851,334028.13368,  -0.00002,  -0.00012,   0.00000,30706828.00000,   0.00000,274640576.00000,   0.00000,   0.00000,   0.00000,-443933744.00000,   0.00000
-22684440.01985,-40748157.52374,386424.70367,  -0.00002,  -0.00014,   0.00001,35162740.00000,   0.00000,274640576.00000,   0.00000,   0.00000,   0.00000,-439477840.00000,   0.00000
-25494206.08553,-45863372.66897,438821.27366,  -0.00003,  -0.00016,   0.00001,39588724.00000,   0.00000,274640576.00000,   0.00000,   0.00000,   0.00000,-435051856.00000,   0.00000
-28281048.65185,-50968763.45732,497767.41490,  -0.00003,  -0.00018,   0.00001,43989792.00000,   0.00000,274640576.00000,   0.00000,   0.00000,   0.00000,-430650784.00000,   0.00000
-31077715.57504,-56097077.74505,550163.98489,  -0.00003,  -0.00019,   0.00001,48409104.00000,   0.00000,274640576.00000,   0.00000,   0.00000,   0.00000,-426231472.00000,   0.00000
-33851458.99887,-61215567.67590,609110.12613,  -0.00003,  -0.00021,   0.00001,52827716.00000,   0.00000,274640576.00000,   0.00000,   0.00000,   0.00000,-421812864.00000,   0.00000
-36635026.77956,-66356981.10612,668056.26737,  -0.00004,  -0.00023,   0.00001,57277076.00000,   0.00000,274640576.00000,   0.00000,   0.00000,   0.00000,-417363504.00000,   0.00000
-39385846.70401,-71465646.68010,727002.40860,  -0.00004,  -0.00025,   0.00001,61706092.00000,   0.00000,274640576.00000,   0.00000,   0.00000,   0.00000,-412934480.00000,   0.00000
-42133391.84284,-76610334.89595,785948.54984,  -0.00004,  -0.00027,   0.00001,66169652.00000,   0.00000,274640576.00000,   0.00000,   0.00000,   0.00000,-408470928.00000,   0.00000
-44871112.62479,-81732099.61243,851444.26233,  -0.00004,  -0.00028,   0.00001,70614584.00000,   0.00000,274640576.00000,   0.00000,   0.00000,   0.00000,-404025984.00000,   0.00000
-47618657.76362,-86876787.82828,910390.40357,  -0.00005,  -0.00030,   0.00001,75077832.00000,   0.00000,274640576.00000,   0.00000,   0.00000,   0.00000,-399562752.00000,   0.00000
-50343279.40307,-92011651.68725,975886.11606,  -0.00005,  -0.00032,   0.00001,79530200.00000,   0.00000,274640576.00000,   0.00000,   0.00000,   0.00000,-395110368.00000,   0.00000
-53067901.04253,-97146515.54623,1041381.82854,  -0.00005,  -0.00034,   0.00001,83981768.00000,   0.00000,274640576.00000,   0.00000,   0.00000,   0.00000,-390658816.00000,   0.00000
-55779423.53949,-102294478.54770,1106877.54103,  -0.00005,  -0.00036,   0.00001,88444136.00000,   0.00000,274640576.00000,   0.00000,   0.00000,   0.00000,-386196448.00000,   0.00000
-58490946.03645,-107442441.54917,1172373.25352,  -0.00006,  -0.00037,   0.00002,92908104.00000,   0.00000,274640576.00000,   0.00000,   0.00000,   0.00000,-381732480.00000,   0.00000
-61189369.39091,-112603503.69314,1237868.96600,  -0.00006,  -0.00039,   0.00002,97385104.00000,   0.00000,274640576.00000,   0.00000,   0.00000,   0.00000,-377255472.00000,   0.00000
-63877968.38849,-117741642.33774,1303364.67849,  -0.00006,  -0.00041,   0.00002,101845408.00000,   0.00000,274640576.00000,   0.00000,   0.00000,   0.00000,-372795168.00000,   0.00000
-66553468.24359,-122892880.12483,1368860.39098,  -0.00006,  -0.00043,   0.00002,106319416.00000,   0.00000,274640576.00000,   0.00000,   0.00000,   0.00000,-368321152.00000,   0.00000
-69228968.09868,-128044117.91193,1434356.10346,  -0.00007,  -0.00045,   0.00002,110796584.00000,   0.00000,274640576.00000,   0.00000,   0.00000,   0.00000,-363844000.00000,   0.00000
-71891368.81127,-133208454.84152,1506401.38720,  -0.00007,  -0.00047,   0.00002,115286672.00000,   0.00000,274640576.00000,   0.00000,   0.00000,   0.00000,-359353904.00000,   0.00000
-74543945.16699,-138349868.27175,1571897.09969,  -0.00007,  -0.00048,   0.00002,119757568.00000,   0.00000,274640576.00000,   0.00000,   0.00000,   0.00000,-354883008.00000,   0.00000
-77183422.38021,-143504380.84447,1643942.38342,  -0.00007,  -0.00050,   0.00002,124238408.00000,   0.00000,274640576.00000,   0.00000,   0.00000,   0.00000,-350402176.00000,   0.00000
-79822899.59344,-148658893.41719,1715987.66716,  -0.00007,  -0.00052,   0.00002,128716320.00000,   0.00000,274640576.00000,   0.00000,   0.00000,   0.00000,-345924256.00000,   0.00000
-82472201.16353,-153836329.48928,1781483.37964,  -0.00008,  -0.00054,   0.00002,133209064.00000,   0.00000,274640576.00000,   0.00000,   0.00000,   0.00000,-341431520.00000,   0.00000
-85098579.23426,-159003941.20450,1853528.66338,  -0.00008,  -0.00056,   0.00002,137686240.00000,   0.00000,274640576.00000,   0.00000,   0.00000,   0.00000,-336954336.00000,   0.00000
-87692209.44874,-164138805.06347,1925573.94712,  -0.00008,  -0.00058,   0.00003,142127920.00000,   0.00000,274640576.00000,   0.00000,   0.00000,   0.00000,-332512656.00000,   0.00000
-90295664.02009,-169296592.42182,1997619.23085,  -0.00008,  -0.00059,   0.00003,146583744.00000,   0.00000,274640576.00000,   0.00000,   0.00000,   0.00000,-328056832.00000,   0.00000
-92908942.94832,-174477303.27953,2063114.94334,  -0.00008,  -0.00061,   0.00003,151055360.00000,   0.00000,274640576.00000,   0.00000,   0.00000,   0.00000,-323585216.00000,   0.00000
-95489474.02031,-179625266.28101,2135160.22707,  -0.00008,  -0.00063,   0.00003,155498256.00000,   0.00000,274640576.00000,   0.00000,   0.00000,   0.00000,-319142320.00000,   0.00000
-98079829.44916,-184796152.78185,2207205.51081,  -0.00009,  -0.00065,   0.00003,159963936.00000,   0.00000,274640576.00000,   0.00000,   0.00000,   0.00000,-314676640.00000,   0.00000
-100647261.37865,-189957214.92582,2279250.79454,  -0.00009,  -0.00067,   0.00003,164426080.00000,   0.00000,274640576.00000,   0.00000,   0.00000,   0.00000,-310214496.00000,   0.00000
-103214693.30814,-195118277.06979,2351296.07828,  -0.00009,  -0.00069,   0.00003,168894832.00000,   0.00000,274640576.00000,   0.00000,   0.00000,   0.00000,-305745744.00000,   0.00000
-105759201.73826,-200269514.85688,2423341.36202,  -0.00009,  -0.00070,   0.00003,173360464.00000,   0.00000,274640576.00000,   0.00000,   0.00000,   0.00000,-301280112.00000,   0.00000
-108303710.16837,-205420752.64398,2495386.64575,  -0.00009,  -0.00072,   0.00003,177830592.00000,   0.00000,274640576.00000,   0.00000,   0.00000,   0.00000,-296809984.00000,   0.00000
-110858042.95536,-210594913.93045,2567431.92949,  -0.00009,  -0.00074,   0.00003,182323280.00000,   0.00000,274640576.00000,   0.00000,   0.00000,   0.00000,-292317296.00000,   0.00000
-113379627.88611,-215736327.36067,2632927.64197,  -0.00010,  -0.00076,   0.00003,186788928.00000,   0.00000,274640576.00000,   0.00000,   0.00000,   0.00000,-287851648.00000,   0.00000
-115888113.67436,-220890839.93339,2704972.92571,  -0.00010,  -0.00078,   0.00004,191267552.00000,   0.00000,274640576.00000,   0.00000,   0.00000,   0.00000,-283373024.00000,   0.00000
-118396599.46261,-226045352.50611,2777018.20945,  -0.00010,  -0.00080,   0.00004,195748624.00000,   0.00000,274640576.00000,   0.00000,   0.00000,   0.00000,-278891952.00000,   0.00000
-120905085.25086,-231199865.07883,2849063.49318,  -0.00010,  -0.00082,   0.00004,200231584.00000,   0.00000,274640576.00000,   0.00000,   0.00000,   0.00000,-274408992.00000,   0.00000
-123390647.53974,-236344553.29468,2921108.77692,  -0.00010,  -0.00083,   0.00004,204706032.00000,   0.00000,274640576.00000,   0.00000,   0.00000,   0.00000,-269934544.00000,   0.00000
-125876209.82861,-241489241.51053,2986604.48940,  -0.00010,  -0.00085,   0.00004,209178512.00000,   0.00000,274640576.00000,   0.00000,   0.00000,   0.00000,-265462064.00000,   0.00000
-128371596.47437,-246656853.22575,3058649.77314,  -0.00010,  -0.00087,   0.00004,213667056.00000,   0.00000,274640576.00000,   0.00000,   0.00000,   0.00000,-260973520.00000,   0.00000
-130834235.26387,-251791717.08472,3124145.48563,  -0.00010,  -0.00089,   0.00004,218122400.00000,   0.00000,274640576.00000,   0.00000,   0.00000,   0.00000,-256518176.00000,   0.00000
-133296874.05338,-256926580.94369,3196190.76936,  -0.00011,  -0.00091,   0.00004,222575200.00000,   0.00000,274640576.00000,   0.00000,   0.00000,   0.00000,-252065376.00000,   0.00000
-135746413.70039,-262074543.94517,3261686.48185,  -0.00011,  -0.00093,   0.00004,227039200.00000,   0.00000,274640576.00000,   0.00000,   0.00000,   0.00000,-247601376.00000,   0.00000
-138195953.34740,-267222506.94664,3333731.76558,  -0.00011,  -0.00095,   0.00004,231506272.00000,   0.00000,274640576.00000,   0.00000,   0.00000,   0.00000,-243134304.00000,   0.00000
-140612745.13817,-272337722.09187,3399227.47807,  -0.00011,  -0.00096,   0.00004,235948624.00000,   0.00000,274640576.00000,   0.00000,   0.00000,   0.00000,-238691952.00000,   0.00000
-143039361.28581,-277475860.73647,3464723.19056,  -0.00011,  -0.00098,   0.00005,240413808.00000,   0.00000,274640576.00000,   0.00000,   0.00000,   0.00000,-234226768.00000,   0.00000
-145465977.43345,-282613999.38107,3536768.47429,  -0.00011,  -0.00100,   0.00005,244880448.00000,   0.00000,274640576.00000,   0.00000,   0.00000,   0.00000,-229760128.00000,   0.00000
-147859845.72485,-287719390.16942,3602264.18678,  -0.00011,  -0.00102,   0.00005,249316592.00000,   0.00000,274640576.00000,   0.00000,   0.00000,   0.00000,-225323984.00000,   0.00000
-150263538.37312,-292847704.45715,3667759.89927,  -0.00011,  -0.00104,   0.00005,253765680.00000,   0.00000,274640576.00000,   0.00000,   0.00000,   0.00000,-220874896.00000,   0.00000
-152644307.52202,-297966194.38800,3726706.04051,  -0.00011,  -0.00106,   0.00005,258191440.00000,   0.00000,274640576.00000,   0.00000,   0.00000,   0.00000,-216449136.00000,   0.00000
-155025076.67092,-303084684.31885,3792201.75299,  -0.00011,  -0.00108,   0.00005,262612448.00000,   0.00000,274640576.00000,   0.00000,   0.00000,   0.00000,-212028128.00000,   0.00000
-157405845.81982,-308203174.24971,3857697.46548,  -0.00012,  -0.00110,   0.00005,267034176.00000,   0.00000,274640576.00000,   0.00000,   0.00000,   0.00000,-207606400.00000,   0.00000
-159763691.46935,-313311839.82369,3916643.60672,  -0.00012,  -0.00111,   0.00005,271482272.00000,   0.00000,274640576.00000,   0.00000,   0.00000,   0.00000,-203158304.00000,   0.00000
-162111712.76200,-318397581.89829,3982139.31920,  -0.00012,  -0.00113,   0.00005,275932032.00000,   0.00000,274640576.00000,   0.00000,   0.00000,   0.00000,-198708544.00000,   0.00000
-164446634.91216,-323496423.11540,4041085.46044,  -0.00012,  -0.00115,   0.00005,280393472.00000,   0.00000,274640576.00000,   0.00000,   0.00000,   0.00000,-194247104.00000,   0.00000
-166781557.06232,-328595264.33251,4100031.60168,  -0.00012,  -0.00117,   0.00005,284866592.00000,   0.00000,274640576.00000,   0.00000,   0.00000,   0.00000,-189773984.00000,   0.00000
-169116479.21248,-333694105.54962,4158977.74292,  -0.00012,  -0.00119,   0.00005,289371616.00000,   0.00000,274640576.00000,   0.00000,   0.00000,   0.00000,-185268960.00000,   0.00000
-171418653.50639,-338760198.91048,4217923.88416,  -0.00012,  -0.00121,   0.00005,293859744.00000,   0.00000,274640576.00000,   0.00000,   0.00000,   0.00000,-180780832.00000,   0.00000
-173730652.15718,-343849215.77071,4270320.45415,  -0.00012,  -0.00123,   0.00006,298331456.00000,   0.00000,274640576.00000,   0.00000,   0.00000,   0.00000,-176309120.00000,   0.00000
-176032826.45110,-348915309.13158,4329266.59539,  -0.00012,  -0.00124,   0.00006,302727584.00000,   0.00000,274640576.00000,   0.00000,   0.00000,   0.00000,-171912992.00000,   0.00000
-178321901.60252,-353994501.63494,4381663.16538,  -0.00012,  -0.00126,   0.00006,307097568.00000,   0.00000,274640576.00000,   0.00000,   0.00000,   0.00000,-167543008.00000,   0.00000
-180601152.39706,-359050770.63893,4434059.73536,  -0.00012,  -0.00128,   0.00006,311442272.00000,   0.00000,274640576.00000,   0.00000,   0.00000,   0.00000,-163198304.00000,   0.00000
-182880403.19161,-364107039.64292,4486456.30535,  -0.00012,  -0.00130,   0.00006,315800992.00000,   0.00000,274640576.00000,   0.00000,   0.00000,   0.00000,-158839584.00000,   0.00000
-185146554.84365,-369176407.78940,4538852.87534,  -0.00012,  -0.00132,   0.00006,320185216.00000,   0.00000,274640576.00000,   0.00000,   0.00000,   0.00000,-154455360.00000,   0.00000
-187402882.13883,-374222852.43652,4591249.44533,  -0.00012,  -0.00134,   0.00006,324546400.00000,   0.00000,274640576.00000,   0.00000,   0.00000,   0.00000,-150094176.00000,   0.00000
-189636285.93463,-379259472.72677,4637096.44407,  -0.00012,  -0.00136,   0.00006,328868672.00000,   0.00000,274640576.00000,   0.00000,   0.00000,   0.00000,-145771904.00000,   0.00000
-191859865.37356,-384273169.51764,4682943.44281,  -0.00012,  -0.00137,   0.00006,333130368.00000,   0.00000,274640576.00000,   0.00000,   0.00000,   0.00000,-141510208.00000,   0.00000
-194093269.16937,-389309789.80788,4735340.01280,  -0.00012,  -0.00139,   0.00006,337414304.00000,   0.00000,274640576.00000,   0.00000,   0.00000,   0.00000,-137226272.00000,   0.00000
-196303749.46580,-394336585.74126,4774637.44030,  -0.00012,  -0.00141,   0.00006,341740320.00000,   0.00000,274640576.00000,   0.00000,   0.00000,   0.00000,-132900256.00000,   0.00000
-198504405.40536,-399340458.17526,4820484.43904,  -0.00012,  -0.00143,   0.00006,346067840.00000,   0.00000,274640576.00000,   0.00000,   0.00000,   0.00000,-128572736.00000,   0.00000
-200705061.34492,-404344330.60926,4866331.43778,  -0.00012,  -0.00145,   0.00006,350383168.00000,   0.00000,274640576.00000,   0.00000,   0.00000,   0.00000,-124257408.00000,   0.00000
-202905717.28448,-409348203.04326,4905628.86527,  -0.00012,  -0.00147,   0.00006,354689152.00000,   0.00000,274640576.00000,   0.00000,   0.00000,   0.00000,-119951424.00000,   0.00000
-205083449.72467,-414342251.12039,4944926.29276,  -0.00013,  -0.00149,   0.00006,358987008.00000,   0.00000,274640576.00000,   0.00000,   0.00000,   0.00000,-115653568.00000,   0.00000
-207238258.66549,-419326474.84064,4984223.72025,  -0.00013,  -0.00150,   0.00006,363281440.00000,   0.00000,274640576.00000,   0.00000,   0.00000,   0.00000,-111359136.00000,   0.00000
-209406166.74881,-424297599.41840,5016971.57650,  -0.00013,  -0.00152,   0.00007,367570432.00000,   0.00000,274640576.00000,   0.00000,   0.00000,   0.00000,-107070144.00000,   0.00000
-211560975.68963,-429281823.13865,5056269.00399,  -0.00013,  -0.00154,   0.00007,371878720.00000,   0.00000,274640576.00000,   0.00000,   0.00000,   0.00000,-102761856.00000,   0.00000
-213705960.27358,-434243123.35954,5089016.86023,  -0.00013,  -0.00156,   0.00007,376175232.00000,   0.00000,274640576.00000,   0.00000,   0.00000,   0.00000,-98465344.00000,   0.00000
-215828021.35815,-439194599.22355,5121764.71648,  -0.00013,  -0.00158,   0.00007,380471232.00000,   0.00000,274640576.00000,   0.00000,   0.00000,   0.00000,-94169344.00000,   0.00000
-217940258.08586,-444123151.58819,5147963.00147,  -0.00013,  -0.00160,   0.00007,384752064.00000,   0.00000,274640576.00000,   0.00000,   0.00000,   0.00000,-89888512.00000,   0.00000
-220062319.17043,-449074627.45220,5180710.85772,  -0.00013,  -0.00161,   0.00007,389053472.00000,   0.00000,274640576.00000,   0.00000,   0.00000,   0.00000,-85587104.00000,   0.00000
-222174555.89813,-454003179.81684,5206909.14271,  -0.00013,  -0.00163,   0.00007,393330496.00000,   0.00000,274640576.00000,   0.00000,   0.00000,   0.00000,-81310080.00000,   0.00000
-224263869.12647,-458921907.82461,5233107.42771,  -0.00013,  -0.00165,   0.00007,397590400.00000,   0.00000,274640576.00000,   0.00000,   0.00000,   0.00000,-77050176.00000,   0.00000
-226343357.99793,-463817712.33301,5252756.14145,  -0.00013,  -0.00167,   0.00007,401818848.00000,   0.00000,274640576.00000,   0.00000,   0.00000,   0.00000,-72821728.00000,   0.00000
-228409747.72689,-468726615.98390,5278954.42645,  -0.00013,  -0.00169,   0.00007,406047680.00000,   0.00000,274640576.00000,   0.00000,   0.00000,   0.00000,-68592896.00000,   0.00000
-230489236.59835,-473622420.49230,5298603.14019,  -0.00013,  -0.00171,   0.00007,410255456.00000,   0.00000,274640576.00000,   0.00000,   0.00000,   0.00000,-64385120.00000,   0.00000
-232545801.97044,-478508400.64382,5318251.85394,  -0.00012,  -0.00172,   0.00007,414450080.00000,   0.00000,274640576.00000,   0.00000,   0.00000,   0.00000,-60190496.00000,   0.00000
-234569619.48628,-483361632.93910,5331350.99644,  -0.00012,  -0.00174,   0.00007,418617248.00000,   0.00000,274640576.00000,   0.00000,   0.00000,   0.00000,-56023328.00000,   0.00000
-236616360.50150,-488224689.59126,5344450.13893,  -0.00012,  -0.00176,   0.00007,422799488.00000,   0.00000,274640576.00000,   0.00000,   0.00000,   0.00000,-51841088.00000,   0.00000
-238640178.01735,-493077921.88654,5357549.28143,  -0.00012,  -0.00178,   0.00007,426986016.00000,   0.00000,274640576.00000,   0.00000,   0.00000,   0.00000,-47654560.00000,   0.00000
-240663995.53319,-497931154.18182,5370648.42393,  -0.00012,  -0.00180,   0.00007,431189088.00000,   0.00000,274640576.00000,   0.00000,   0.00000,   0.00000,-43451488.00000,   0.00000
-242655065.19279,-502751638.62086,5377197.99518,  -0.00012,  -0.00181,   0.00007,435381728.00000,   0.00000,274640576.00000,   0.00000,   0.00000,   0.00000,-39258848.00000,   0.00000
-244669058.35177,-507581947.41677,5383747.56642,  -0.00012,  -0.00183,   0.00007,439599616.00000,   0.00000,274640576.00000,   0.00000,   0.00000,   0.00000,-35040960.00000,   0.00000
-246650303.65450,-512379508.35643,5390297.13767,  -0.00012,  -0.00185,   0.00007,443802368.00000,   0.00000,274640576.00000,   0.00000,   0.00000,   0.00000,-30838208.00000,   0.00000
-248608625.45786,-517167244.93923,5396846.70892,  -0.00012,  -0.00187,   0.00007,448004416.00000,   0.00000,274640576.00000,   0.00000,   0.00000,   0.00000,-26636160.00000,   0.00000
-250589870.76059,-521964805.87889,5396846.70892,  -0.00012,  -0.00189,   0.00007,452215776.00000,   0.00000,274640576.00000,   0.00000,   0.00000,   0.00000,-22424800.00000,   0.00000
-252548192.56394,-526752542.46169,5396846.70892,  -0.00012,  -0.00190,   0.00007,456415136.00000,   0.00000,274640576.00000,   0.00000,   0.00000,   0.00000,-18225440.00000,   0.00000
-254496690.01043,-531517355.54511,5390297.13767,  -0.00012,  -0.00192,   0.00007,460584608.00000,   0.00000,274640576.00000,   0.00000,   0.00000,   0.00000,-14055968.00000,   0.00000
-256412439.60067,-536249420.77229,5390297.13767,  -0.00012,  -0.00194,   0.00007,464709376.00000,   0.00000,274640576.00000,   0.00000,   0.00000,   0.00000,-9931200.00000,   0.00000
-258360937.04716,-541014233.85572,5383747.56642,  -0.00012,  -0.00196,   0.00007,468840992.00000,   0.00000,274640576.00000,   0.00000,   0.00000,   0.00000,-5799584.00000,   0.00000
-260266862.28053,-545723375.58353,5370648.42393,  -0.00012,  -0.00198,   0.00007,472913344.00000,   0.00000,274640576.00000,   0.00000,   0.00000,   0.00000,-1727232.00000,   0.00000
-261075069.13891,-547719715.60124,5367885.32356,  -0.00012,  -0.00198,   0.00007,474641376.00000,   0.00000,274640576.00000,   0.00000,   0.00000,   0.00000, 800.00000,   0.00000
-261087011.74130,-547730880.96953,5336783.44753,  -0.00012,  -0.00199,   0.00007,474641376.00000,   0.00001,274649792.00000,   0.00000,  -0.00001,   0.00000,  32.00000,   2.00000
-261108409.33796,-547751673.45365,5276948.29079,  -0.00012,  -0.00201,   0.00007,478744512.00000,   0.00002,274665632.00000,   0.00000,  -0.00003,   0.00000, 128.00000,   2.00000
-261109979.16137,-547771863.34984,5211418.68259,  -0.00012,  -0.00203,   0.00007,478732288.00000,   0.00004,274681376.00000,   0.00000,  -0.00005,   0.00000, -64.00000,   2.00000
-261112108.60109,-547791893.33782,5152681.68419,  -0.00012,  -0.00205,   0.00007,478768384.00000,   0.00005,274697216.00000,   0.00000,  -0.00006,   0.00000, -64.00000,   2.00000
-261113056.04097,-547812017.52448,5088366.73811,  -0.00012,  -0.00206,   0.00007,478744064.00000,   0.00007,274712864.00000,   0.00000,  -0.00008,   0.00000,   0.00000,   2.00000
-261113993.77584,-547832104.07171,5018065.95196,  -0.00012,  -0.00208,   0.00007,478759744.00000,   0.00008,274728544.00000,   0.00000,  -0.00010,   0.00000, -64.00000,   2.00000
-261095958.98160,-547851760.40779,4948407.66438,  -0.00012,  -0.00210,   0.00007,478767424.00000,   0.00009,274744160.00000,   0.00000,  -0.00012,   0.00000,  96.00000,   2.00000
-261077327.81621,-547871025.97948,4879507.14978,  -0.00012,  -0.00212,   0.00007,478763296.00000,   0.00011,274759680.00000,   0.00000,  -0.00013,   0.00000,  32.00000,   2.00000
-261058880.98237,-547890311.27550,4811145.35861,  -0.00011,  -0.00213,   0.00007,478779008.00000,   0.00012,274775232.00000,   0.00000,  -0.00015,   0.00000, -32.00000,   2.00000
-261040004.24970,-547909637.86866,4737029.36939,  -0.00011,  -0.00215,   0.00007,478774464.00000,   0.00014,274790656.00000,   0.00001,  -0.00017,   0.00001, -32.00000,   2.00000
-261002229.62944,-547928329.00011,4663566.87415,  -0.00011,  -0.00217,   0.00007,478782048.00000,   0.00015,274806080.00000,   0.00001,  -0.00018,   0.00001,  32.00000,   2.00000
-260983843.41643,-547947631.33720,4590594.94911,  -0.00011,  -0.00219,   0.00007,478805792.00000,   0.00016,274821504.00000,   0.00001,  -0.00020,   0.00001,   0.00000,   2.00000
-260945263.77006,-547966182.75616,4512163.82721,  -0.00011,  -0.00220,   0.00007,478773216.00000,   0.00018,274836768.00000,   0.00001,  -0.00022,   0.00001,  96.00000,   2.00000
-260887881.28445,-547983958.52085,4434402.23699,  -0.00011,  -0.00222,   0.00007,478780640.00000,   0.00019,274851968.00000,   0.00001,  -0.00024,   0.00001,  96.00000,   2.00000
-260850109.84371,-548002527.73416,4350659.02716,  -0.00011,  -0.00224,   0.00006,478803968.00000,   0.00021,274867200.00000,   0.00001,  -0.00025,   0.00001,   0.00000,   2.00000
-260792881.18881,-548020289.19039,4267814.20627,  -0.00011,  -0.00225,   0.00006,478791328.00000,   0.00022,274882336.00000,   0.00001,  -0.00027,   0.00001,  32.00000,   2.00000
-260755156.04458,-548038590.28112,4185525.19150,  -0.00011,  -0.00227,   0.00006,478814656.00000,   0.00023,274897472.00000,   0.00001,  -0.00029,   0.00001, -32.00000,   2.00000
-260698073.88111,-548056377.48152,4097614.83340,  -0.00011,  -0.00229,   0.00006,478801760.00000,   0.00025,274912512.00000,   0.00001,  -0.00030,   0.00001,  32.00000,   2.00000
-260621688.11375,-548073411.46711,4010608.44751,  -0.00011,  -0.00231,   0.00006,478788960.00000,   0.00026,274927456.00000,   0.00001,  -0.00032,   0.00001, 192.00000,   2.00000
-260564898.30271,-548090848.79049,3924181.94132,  -0.00011,  -0.00232,   0.00006,478812352.00000,   0.00028,274942432.00000,   0.00001,  -0.00034,   0.00001,  64.00000,   2.00000
-260488839.73421,-548107678.18957,3832137.90618,  -0.00010,  -0.00234,   0.00006,478799296.00000,   0.00029,274957280.00000,   0.00001,  -0.00035,   0.00001, -64.00000,   2.00000
-260413343.62039,-548124441.65691,3740777.00602,  -0.00010,  -0.00236,   0.00006,478814272.00000,   0.00030,274972160.00000,   0.00001,  -0.00037,   0.00001, -32.00000,   2.00000
-260337725.79800,-548141045.11589,3650257.68699,  -0.00010,  -0.00237,   0.00006,478809376.00000,   0.00032,274986912.00000,   0.00001,  -0.00039,   0.00001, -32.00000,   2.00000
-260262772.48216,-548157879.45076,3553912.19235,  -0.00010,  -0.00239,   0.00006,478824256.00000,   0.00033,275001696.00000,   0.00001,  -0.00040,   0.00001, 128.00000,   2.00000
-260187656.07790,-548174521.92661,3451940.29457,  -0.00010,  -0.00241,   0.00006,478819264.00000,   0.00034,275016416.00000,   0.00001,  -0.00042,   0.00001,   0.00000,   2.00000
-260093665.13978,-548191289.83514,3357437.68009,  -0.00010,  -0.00242,   0.00006,478806272.00000,   0.00036,275031008.00000,   0.00001,  -0.00044,   0.00001, 960.00000,   1.00000
-259999174.41477,-548206681.28159,3257267.29917,  -0.00010,  -0.00244,   0.00006,478802016.00000,   0.00037,275045504.00000,   0.00001,  -0.00045,   0.00001, 672.00000,   1.00000
-259905499.01912,-548222387.91769,3151336.74736,  -0.00010,  -0.00246,   0.00005,478816416.00000,   0.00038,275060032.00000,   0.00002,  -0.00047,   0.00001, 704.00000,   1.00000
-259812475.94377,-548238016.45031,3046191.73285,  -0.00010,  -0.00247,   0.00005,478831200.00000,   0.00040,275074528.00000,   0.00002,  -0.00049,   0.00001, 768.00000,   1.00000
-259718532.29480,-548252951.86212,2942090.88069,  -0.00010,  -0.00249,   0.00005,478806016.00000,   0.00041,275088896.00000,   0.00002,  -0.00050,   0.00001, 352.00000,   1.00000
-259606277.21905,-548267563.94267,2832308.88516,  -0.00009,  -0.00251,   0.00005,478812192.00000,   0.00042,275103232.00000,   0.00002,  -0.00052,   0.00001, 256.00000,   1.00000
-259494061.15893,-548281919.22382,2723461.36906,  -0.00009,  -0.00252,   0.00005,478806720.00000,   0.00044,275117472.00000,   0.00002,  -0.00053,   0.00001, 128.00000,   1.00000
-259401813.93738,-548297041.49405,2615378.62540,  -0.00009,  -0.00254,   0.00005,478829152.00000,   0.00045,275131744.00000,   0.00002,  -0.00055,   0.00002, 160.00000,   1.00000
-259271102.56267,-548310363.66732,2501801.29806,  -0.00009,  -0.00255,   0.00005,478807648.00000,   0.00046,275145888.00000,   0.00002,  -0.00057,   0.00002,-128.00000,   1.00000
-259159785.85430,-548324385.95679,2389137.71321,  -0.00009,  -0.00257,   0.00005,478809824.00000,   0.00047,275159968.00000,   0.00002,  -0.00058,   0.00002,-192.00000,   1.00000
-259048429.86461,-548338066.53017,2270922.01509,  -0.00009,  -0.00259,   0.00005,478804192.00000,   0.00049,275173984.00000,   0.00002,  -0.00060,   0.00002,-512.00000,   1.00000
-258918786.06621,-548351240.81068,2153632.23445,  -0.00009,  -0.00260,   0.00004,478810208.00000,   0.00050,275187968.00000,   0.00002,  -0.00061,   0.00002,-544.00000,   1.00000
-258808421.75919,-548364878.51792,2037286.81061,  -0.00009,  -0.00262,   0.00004,478812448.00000,   0.00051,275201888.00000,   0.00002,  -0.00063,   0.00002,-544.00000,   1.00000
-258679658.93374,-548377770.67401,1915359.93591,  -0.00009,  -0.00263,   0.00004,478818592.00000,   0.00053,275215776.00000,   0.00002,  -0.00064,   0.00002,-672.00000,   1.00000
-258550171.12502,-548390095.96990,1794529.25121,  -0.00008,  -0.00265,   0.00004,478792768.00000,   0.00054,275229504.00000,   0.00002,  -0.00066,   0.00002,-928.00000,   1.00000
-258402960.58987,-548403053.12628,1668155.67687,  -0.00008,  -0.00267,   0.00004,478798592.00000,   0.00055,275243232.00000,   0.00002,  -0.00067,   0.00002,  96.00000,   2.00000
-258274751.62955,-548415492.83237,1542796.11191,  -0.00008,  -0.00268,   0.00004,478801696.00000,   0.00056,275256896.00000,   0.00002,  -0.00069,   0.00002,  96.00000,   2.00000
-258146536.61807,-548427458.58074,1418474.48838,  -0.00008,  -0.00270,   0.00004,478795712.00000,   0.00058,275270464.00000,   0.00002,  -0.00070,   0.00002,-128.00000,   2.00000
-258000125.08991,-548438896.84312,1288647.81192,  -0.00008,  -0.00271,   0.00003,478801504.00000,   0.00059,275284032.00000,   0.00002,  -0.00072,   0.00002,  32.00000,   2.00000
-257853112.09827,-548449894.02128,1159948.53118,  -0.00008,  -0.00273,   0.00003,478775648.00000,   0.00060,275297408.00000,   0.00003,  -0.00074,   0.00002,  32.00000,   2.00000
-257707069.28876,-548460727.22676,1025764.86845,  -0.00008,  -0.00274,   0.00003,478789376.00000,   0.00061,275310816.00000,   0.00003,  -0.00075,   0.00002, -64.00000,   2.00000
-257562057.53366,-548471543.43695,892651.52060,  -0.00008,  -0.00276,   0.00003,478803168.00000,   0.00063,275324192.00000,   0.00003,  -0.00077,   0.00002,  32.00000,   2.00000
-257416464.47068,-548482058.70639,754183.83930,  -0.00007,  -0.00277,   0.00003,478777024.00000,   0.00064,275337440.00000,   0.00003,  -0.00078,   0.00002,   0.00000,   2.00000
-257271031.21875,-548492259.19502,616862.55963,  -0.00007,  -0.00279,   0.00003,478770784.00000,   0.00065,275350624.00000,   0.00003,  -0.00080,   0.00002,  32.00000,   2.00000
-257107365.45751,-548501525.07161,480666.30609,  -0.00007,  -0.00280,   0.00002,478776512.00000,   0.00066,275363744.00000,   0.00003,  -0.00081,   0.00002,  64.00000,   2.00000
-256943960.94758,-548510415.59809,339107.09350,  -0.00007,  -0.00282,   0.00002,478770112.00000,   0.00067,275376832.00000,   0.00003,  -0.00082,   0.00002, -64.00000,   2.00000
-256800137.33846,-548519968.62727,198723.75129,  -0.00007,  -0.00283,   0.00002,478771456.00000,   0.00069,275389824.00000,   0.00003,  -0.00084,   0.00002, 160.00000,   2.00000
-256637225.43308,-548528400.51590,59513.18359,  -0.00007,  -0.00285,   0.00002,478757152.00000,   0.00070,275402752.00000,   0.00003,  -0.00085,   0.00002,  32.00000,   2.00000
-256475450.31614,-548536695.30890,-85025.58997,  -0.00007,  -0.00286,   0.00002,478770528.00000,   0.00071,275415648.00000,   0.00003,  -0.00087,   0.00002,  64.00000,   2.00000
-256313090.14919,-548544509.96946,-234860.55539,  -0.00007,  -0.00288,   0.00002,478743968.00000,   0.00072,275428416.00000,   0.00003,  -0.00088,   0.00002,   0.00000,   2.00000
-256132598.97085,-548551299.51710,-383429.33329,  -0.00006,  -0.00289,   0.00001,478749280.00000,   0.00073,275441152.00000,   0.00003,  -0.00090,   0.00002,   0.00000,   2.00000
-255970894.54126,-548558458.31364,-530771.57040,  -0.00006,  -0.00291,   0.00001,478730432.00000,   0.00074,275453760.00000,   0.00003,  -0.00091,   0.00002,   0.00000,   2.00000
-255810383.52217,-548565580.13204,-676848.46448,  -0.00006,  -0.00292,   0.00001,478743488.00000,   0.00076,275466368.00000,   0.00003,  -0.00093,   0.00002, -32.00000,   2.00000
-255630810.41514,-548571381.92169,-834703.26362,  -0.00006,  -0.00294,   0.00001,478728832.00000,   0.00077,275478880.00000,   0.00003,  -0.00094,   0.00002, -32.00000,   2.00000
-255451603.26760,-548576810.05153,-984740.68854,  -0.00006,  -0.00295,   0.00001,478721888.00000,   0.00078,275491296.00000,   0.00003,  -0.00095,   0.00002,  64.00000,   2.00000
-255273678.79973,-548582047.69444,-1139957.00025,  -0.00006,  -0.00297,   0.00000,478734848.00000,   0.00079,275503744.00000,   0.00003,  -0.00097,   0.00002, -64.00000,   2.00000
-255095219.08114,-548586791.46952,-1293936.43009,  -0.00006,  -0.00298,   0.00000,478707744.00000,   0.00080,275516000.00000,   0.00004,  -0.00098,   0.00002,   0.00000,   2.00000
-254917130.07404,-548591189.34226,-1453128.17961,  -0.00005,  -0.00299,  -0.00000,478700608.00000,   0.00081,275528224.00000,   0.00004,  -0.00100,   0.00002, -32.00000,   2.00000
-254740313.62972,-548595336.56933,-1610914.15005,  -0.00005,  -0.00301,  -0.00000,478713408.00000,   0.00082,275540416.00000,   0.00004,  -0.00101,   0.00002,  32.00000,   2.00000
-254562900.55279,-548598932.09636,-1767482.08171,  -0.00005,  -0.00302,  -0.00001,478686016.00000,   0.00084,275552480.00000,   0.00004,  -0.00102,   0.00002,  96.00000,   2.00000
-254367408.04537,-548601264.96758,-1929189.58212,  -0.00005,  -0.00304,  -0.00001,478690880.00000,   0.00085,275564512.00000,   0.00004,  -0.00104,   0.00002,  32.00000,   2.00000
-254190750.41704,-548603959.97560,-2096134.27475,  -0.00005,  -0.00305,  -0.00001,478671168.00000,   0.00086,275576416.00000,   0.00004,  -0.00105,   0.00002, -32.00000,   2.00000
-253996062.76019,-548605542.22850,-2255150.69569,  -0.00005,  -0.00306,  -0.00001,478675744.00000,   0.00087,275588288.00000,   0.00004,  -0.00106,   0.00002,   0.00000,   2.00000
-253821103.46596,-548607495.54530,-2425826.41738,  -0.00005,  -0.00308,  -0.00002,478676064.00000,   0.00088,275600128.00000,   0.00004,  -0.00108,   0.00002, -64.00000,   2.00000
-253627170.26823,-548608284.80491,-2588685.19814,  -0.00004,  -0.00309,  -0.00002,478660416.00000,   0.00089,275611840.00000,   0.00004,  -0.00109,   0.00002, -32.00000,   2.00000
-253432537.73602,-548608178.44489,-2756889.99822,  -0.00004,  -0.00310,  -0.00002,478632832.00000,   0.00090,275623424.00000,   0.00004,  -0.00110,   0.00002, -32.00000,   2.00000
-253239384.42542,-548608007.83031,-2923630.13524,  -0.00004,  -0.00312,  -0.00002,478644672.00000,   0.00091,275635008.00000,   0.00004,  -0.00112,   0.00002, -96.00000,   2.00000
-253046581.33355,-548607299.80507,-3095575.90610,  -0.00004,  -0.00313,  -0.00003,478636864.00000,   0.00092,275646496.00000,   0.00004,  -0.00113,   0.00002,  96.00000,   2.00000
-252854120.45820,-548606076.05378,-3266209.95971,  -0.00004,  -0.00314,  -0.00003,478628896.00000,   0.00093,275657920.00000,   0.00004,  -0.00114,   0.00001, -32.00000,   2.00000
-252661945.30792,-548604214.56499,-3442061.59259,  -0.00004,  -0.00316,  -0.00003,478620832.00000,   0.00094,275669280.00000,   0.00004,  -0.00115,   0.00001, -32.00000,   2.00000
-252450776.46010,-548601074.34536,-3616684.68713,  -0.00003,  -0.00317,  -0.00003,478604736.00000,   0.00095,275680544.00000,   0.00004,  -0.00117,   0.00001,  32.00000,   2.00000
-252258345.59503,-548598203.97562,-3790174.65692,  -0.00003,  -0.00318,  -0.00004,478584128.00000,   0.00096,275691648.00000,   0.00005,  -0.00118,   0.00001,  32.00000,   2.00000
-252047855.97773,-548594004.77314,-3968813.82665,  -0.00003,  -0.00320,  -0.00004,478588000.00000,   0.00097,275702752.00000,   0.00005,  -0.00119,   0.00001,  96.00000,   2.00000
-251857159.48576,-548590312.80956,-4146141.42624,  -0.00003,  -0.00321,  -0.00004,478587200.00000,   0.00098,275713824.00000,   0.00005,  -0.00120,   0.00001,  32.00000,   2.00000
-251647228.70913,-548584962.49659,-4328861.72656,  -0.00003,  -0.00322,  -0.00004,478571072.00000,   0.00099,275724768.00000,   0.00005,  -0.00122,   0.00001,  64.00000,   2.00000
-251436507.91350,-548578886.13336,-4510624.50065,  -0.00003,  -0.00324,  -0.00005,478542304.00000,   0.00100,275735584.00000,   0.00005,  -0.00123,   0.00001,   0.00000,   2.00000
-251227238.20222,-548572587.72409,-4690996.55006,  -0.00002,  -0.00325,  -0.00005,478553440.00000,   0.00101,275746400.00000,   0.00005,  -0.00124,   0.00001, -32.00000,   2.00000
-251018252.53736,-548565801.34673,-4876769.66091,  -0.00002,  -0.00326,  -0.00005,478544672.00000,   0.00102,275757120.00000,   0.00005,  -0.00125,   0.00001, 192.00000,   2.00000
-250808323.65572,-548558193.10477,-5061709.47874,  -0.00002,  -0.00327,  -0.00006,478515808.00000,   0.00103,275767712.00000,   0.00005,  -0.00127,   0.00001,  64.00000,   2.00000
-250599687.46675,-548550073.96373,-5251834.71240,  -0.00002,  -0.00329,  -0.00006,478526816.00000,   0.00104,275778272.00000,   0.00005,  -0.00128,   0.00001,   0.00000,   2.00000
-250390145.94090,-548541451.91298,-5441209.62298,  -0.00002,  -0.00330,  -0.00006,478497632.00000,   0.00105,275788704.00000,   0.00005,  -0.00129,   0.00001,  64.00000,   2.00000
-250181939.97027,-548532562.07828,-5629309.78806,  -0.00002,  -0.00331,  -0.00006,478508352.00000,   0.00106,275799168.00000,   0.00005,  -0.00130,   0.00001,  64.00000,   2.00000
-249972560.26606,-548522691.83133,-5823288.38128,  -0.00001,  -0.00332,  -0.00007,478479264.00000,   0.00107,275809440.00000,   0.00005,  -0.00131,   0.00001,   0.00000,   2.00000
-249743780.78521,-548511290.89543,-6016470.63001,  -0.00001,  -0.00333,  -0.00007,478462208.00000,   0.00108,275819616.00000,   0.00005,  -0.00132,   0.00001,  64.00000,   2.00000
-249534681.84536,-548500568.51655,-6208676.09440,  -0.00001,  -0.00335,  -0.00007,478460128.00000,   0.00109,275829760.00000,   0.00005,  -0.00134,   0.00001, -32.00000,   2.00000
-249305961.32756,-548487956.21555,-6406710.02137,  -0.00001,  -0.00336,  -0.00008,478443200.00000,   0.00110,275839808.00000,   0.00005,  -0.00135,   0.00001, -96.00000,   2.00000
-249096939.67142,-548476249.83664,-6603836.19681,  -0.00001,  -0.00337,  -0.00008,478441024.00000,   0.00111,275849792.00000,   0.00006,  -0.00136,   0.00001,  32.00000,   2.00000
-248868115.81145,-548462413.26727,-6806869.67733,  -0.00001,  -0.00338,  -0.00008,478424160.00000,   0.00112,275859680.00000,   0.00006,  -0.00137,   0.00001,  32.00000,   2.00000
-248639329.33210,-548448233.05256,-7009194.57625,  -0.00000,  -0.00339,  -0.00009,478414176.00000,   0.00113,275869504.00000,   0.00006,  -0.00138,   0.00001,  64.00000,   2.00000
-248428838.94136,-548434687.41444,-7211094.48980,  -0.00000,  -0.00340,  -0.00009,478391808.00000,   0.00114,275879200.00000,   0.00006,  -0.00139,   0.00000,   0.00000,   2.00000
-248199737.89041,-548419386.86943,-7418671.96118,  -0.00000,  -0.00341,  -0.00009,478394528.00000,   0.00115,275888864.00000,   0.00006,  -0.00140,   0.00000,  32.00000,   2.00000
-247969171.26507,-548403308.52908,-7626042.83820,   0.00000,  -0.00343,  -0.00010,478364480.00000,   0.00116,275898368.00000,   0.00006,  -0.00141,   0.00000, -32.00000,   2.00000
-247738363.62432,-548386624.40477,-7839395.71993,   0.00000,  -0.00344,  -0.00010,478354496.00000,   0.00116,275907840.00000,   0.00006,  -0.00142,   0.00000,  32.00000,   2.00000
-247507452.79660,-548369825.96224,-8045711.34469,   0.00000,  -0.00345,  -0.00010,478343968.00000,   0.00117,275917184.00000,   0.00006,  -0.00144,   0.00000,   0.00000,   2.00000
-247276036.77836,-548351955.16333,-8264606.49869,   0.00001,  -0.00346,  -0.00011,478334272.00000,   0.00118,275926496.00000,   0.00006,  -0.00145,   0.00000,   0.00000,   2.00000
-247044434.38709,-548333983.94559,-8476511.80359,   0.00001,  -0.00347,  -0.00011,478323616.00000,   0.00119,275935712.00000,   0.00006,  -0.00146,   0.00000, -32.00000,   2.00000
-246791353.29822,-548313701.69527,-8695101.22518,   0.00001,  -0.00348,  -0.00011,478286112.00000,   0.00120,275944768.00000,   0.00006,  -0.00147,  -0.00000,   0.00000,   2.00000
-246558994.76770,-548294591.22087,-8912691.58132,   0.00001,  -0.00349,  -0.00012,478302912.00000,   0.00121,275953824.00000,   0.00006,  -0.00148,  -0.00000,   0.00000,   2.00000
-246324735.28970,-548274562.13326,-9136842.63787,   0.00001,  -0.00350,  -0.00012,478272800.00000,   0.00122,275962752.00000,   0.00006,  -0.00149,  -0.00000, 128.00000,   2.00000
-246070241.59204,-548252563.11553,-9360757.35844,   0.00001,  -0.00351,  -0.00012,478254816.00000,   0.00122,275971584.00000,   0.00006,  -0.00150,  -0.00000,   0.00000,   2.00000
-245834989.29034,-548231466.24268,-9584109.79509,   0.00002,  -0.00352,  -0.00013,478251424.00000,   0.00123,275980352.00000,   0.00007,  -0.00151,  -0.00000, -64.00000,   2.00000
-245599081.83115,-548209685.90187,-9813587.28355,   0.00002,  -0.00353,  -0.00013,478240960.00000,   0.00124,275989056.00000,   0.00007,  -0.00152,  -0.00000,-128.00000,   2.00000
-245341509.19698,-548185965.83757,-10043292.09478,   0.00002,  -0.00354,  -0.00013,478202848.00000,   0.00125,275997568.00000,   0.00007,  -0.00153,  -0.00000,  96.00000,   2.00000
-245103049.02594,-548163062.22515,-10272387.82980,   0.00002,  -0.00355,  -0.00014,478199424.00000,   0.00126,276006048.00000,   0.00007,  -0.00154,  -0.00000,  32.00000,   2.00000
-244845410.93022,-548137986.91450,-10507242.01900,   0.00002,  -0.00356,  -0.00014,478201472.00000,   0.00126,276014496.00000,   0.00007,  -0.00155,  -0.00001, -96.00000,   2.00000
-244585789.73106,-548112392.22244,-10742098.19995,   0.00002,  -0.00357,  -0.00015,478170528.00000,   0.00127,276022784.00000,   0.00007,  -0.00155,  -0.00001,  64.00000,   2.00000
-244343752.87108,-548087338.67076,-10976744.30063,   0.00003,  -0.00358,  -0.00015,478147104.00000,   0.00128,276030944.00000,   0.00007,  -0.00156,  -0.00001,  64.00000,   2.00000
-244082492.35764,-548060167.87256,-11217023.76781,   0.00003,  -0.00359,  -0.00015,478148896.00000,   0.00129,276039104.00000,   0.00007,  -0.00157,  -0.00001,   0.00000,   2.00000
-243819014.69086,-548032114.20099,-11457207.96283,   0.00003,  -0.00360,  -0.00016,478117952.00000,   0.00129,276047104.00000,   0.00007,  -0.00158,  -0.00001,   0.00000,   2.00000
-243554812.19521,-548003565.73728,-11696743.64994,   0.00003,  -0.00361,  -0.00016,478106656.00000,   0.00130,276055040.00000,   0.00007,  -0.00159,  -0.00001, -96.00000,   2.00000
-243289864.19574,-547974500.66387,-11935595.43171,   0.00003,  -0.00362,  -0.00016,478095520.00000,   0.00131,276062880.00000,   0.00007,  -0.00160,  -0.00001,  32.00000,   2.00000
-243023842.00565,-547944065.90710,-12180221.31890,   0.00003,  -0.00363,  -0.00017,478084704.00000,   0.00132,276070656.00000,   0.00007,  -0.00161,  -0.00001, -96.00000,   2.00000
-242755381.61922,-547912401.19456,-12431139.64615,   0.00004,  -0.00364,  -0.00017,478053824.00000,   0.00132,276078272.00000,   0.00007,  -0.00162,  -0.00001,   0.00000,   2.00000
-242486249.15203,-547880498.99557,-12674715.30176,   0.00004,  -0.00365,  -0.00018,478042080.00000,   0.00133,276085824.00000,   0.00007,  -0.00163,  -0.00001,   0.00000,   2.00000
-242216091.78863,-547847417.10677,-12923966.84022,   0.00004,  -0.00366,  -0.00018,478031168.00000,   0.00134,276093312.00000,   0.00007,  -0.00163,  -0.00001,  96.00000,   2.00000
-241944985.72482,-547813361.95532,-13172341.76402,   0.00004,  -0.00366,  -0.00018,478019712.00000,   0.00134,276100736.00000,   0.00007,  -0.00164,  -0.00001, -64.00000,   2.00000
-241671312.69790,-547777847.39504,-13426978.68439,   0.00004,  -0.00367,  -0.00019,477988640.00000,   0.00135,276108000.00000,   0.00008,  -0.00165,  -0.00001,   0.00000,   2.00000
-241377119.92852,-547740521.33426,-13674475.27064,   0.00005,  -0.00368,  -0.00019,477969120.00000,   0.00136,276115136.00000,   0.00008,  -0.00166,  -0.00001,  32.00000,   2.00000
-241101706.69864,-547703282.47223,-13927405.05974,   0.00005,  -0.00369,  -0.00020,477965024.00000,   0.00136,276122272.00000,   0.00008,  -0.00167,  -0.00002,   0.00000,   2.00000
-240825196.41634,-547664640.15660,-14186008.92391,   0.00005,  -0.00370,  -0.00020,477953728.00000,   0.00137,276129312.00000,   0.00008,  -0.00168,  -0.00002,  32.00000,   2.00000
-240546473.46660,-547625576.72775,-14438008.46142,   0.00005,  -0.00371,  -0.00021,477921280.00000,   0.00138,276136192.00000,   0.00008,  -0.00168,  -0.00002, 224.00000,   2.00000
-240246610.90115,-547583013.27419,-14696051.44757,   0.00005,  -0.00371,  -0.00021,477902592.00000,   0.00138,276142976.00000,   0.00008,  -0.00169,  -0.00002,   0.00000,   2.00000
-239965888.66004,-547541440.05721,-14953188.27403,   0.00005,  -0.00372,  -0.00021,477897216.00000,   0.00139,276149728.00000,   0.00008,  -0.00170,  -0.00002, -32.00000,   2.00000
-239664118.21276,-547496611.47686,-15216511.52563,   0.00006,  -0.00373,  -0.00022,477878304.00000,   0.00140,276156384.00000,   0.00008,  -0.00171,  -0.00002,  32.00000,   2.00000
-239380053.63980,-547452983.45892,-15473308.34286,   0.00006,  -0.00374,  -0.00022,477852352.00000,   0.00140,276162912.00000,   0.00008,  -0.00171,  -0.00002,   0.00000,   2.00000
-239074934.93401,-547406111.95772,-15736499.03342,   0.00006,  -0.00375,  -0.00023,477832992.00000,   0.00141,276169344.00000,   0.00008,  -0.00172,  -0.00002, -32.00000,   2.00000
-238788882.01540,-547359964.96095,-15999108.92885,   0.00006,  -0.00375,  -0.00023,477827328.00000,   0.00141,276175712.00000,   0.00008,  -0.00173,  -0.00002, -32.00000,   2.00000
-238480093.13246,-547310264.15616,-16269075.45197,   0.00006,  -0.00376,  -0.00023,477787808.00000,   0.00142,276181920.00000,   0.00008,  -0.00174,  -0.00002,  32.00000,   2.00000
-238170457.86522,-547259666.03384,-16538919.67226,   0.00007,  -0.00377,  -0.00024,477774528.00000,   0.00142,276188064.00000,   0.00008,  -0.00174,  -0.00002, -32.00000,   2.00000
-237879946.58060,-547209954.13415,-16808453.67692,   0.00007,  -0.00377,  -0.00024,477768224.00000,   0.00143,276194144.00000,   0.00008,  -0.00175,  -0.00002,   0.00000,   2.00000
-237566873.81414,-547157387.98781,-17079140.01233,   0.00007,  -0.00378,  -0.00025,477727520.00000,   0.00144,276200064.00000,   0.00008,  -0.00176,  -0.00003, -32.00000,   2.00000
-237254692.25903,-547104354.04895,-17349147.90726,   0.00007,  -0.00379,  -0.00025,477733728.00000,   0.00144,276205984.00000,   0.00008,  -0.00176,  -0.00003, -32.00000,   2.00000
-236939636.48634,-547049396.01361,-17626679.93094,   0.00007,  -0.00380,  -0.00026,477700576.00000,   0.00145,276211744.00000,   0.00008,  -0.00177,  -0.00003, -96.00000,   2.00000
-236621960.73090,-546993326.65243,-17905281.60577,   0.00008,  -0.00380,  -0.00026,477666592.00000,   0.00145,276217376.00000,   0.00009,  -0.00178,  -0.00003, -32.00000,   2.00000
-236305233.11282,-546936958.55410,-18183333.20258,   0.00008,  -0.00381,  -0.00027,477672288.00000,   0.00146,276222976.00000,   0.00009,  -0.00178,  -0.00003,  64.00000,   2.00000
-235985777.39054,-546879343.04627,-18462527.04025,   0.00008,  -0.00382,  -0.00027,477638368.00000,   0.00146,276228448.00000,   0.00009,  -0.00179,  -0.00003,   0.00000,   2.00000
-235663321.13526,-546819817.39758,-18749403.33059,   0.00008,  -0.00382,  -0.00027,477604608.00000,   0.00147,276233792.00000,   0.00009,  -0.00179,  -0.00003,   0.00000,   2.00000
-235341783.43593,-546759952.32079,-19035739.85721,   0.00008,  -0.00383,  -0.00028,477610112.00000,   0.00147,276239104.00000,   0.00009,  -0.00180,  -0.00003,  96.00000,   2.00000
-235017356.11633,-546698679.82476,-19323235.33499,   0.00008,  -0.00383,  -0.00028,477575744.00000,   0.00148,276244288.00000,   0.00009,  -0.00181,  -0.00003,   0.00000,   2.00000
-234690148.70169,-546636434.54816,-19611905.24434,   0.00009,  -0.00384,  -0.00029,477541184.00000,   0.00148,276249312.00000,   0.00009,  -0.00181,  -0.00003, -96.00000,   2.00000
-234363530.58506,-546572978.51013,-19906465.45714,   0.00009,  -0.00385,  -0.00029,477547008.00000,   0.00149,276254336.00000,   0.00009,  -0.00182,  -0.00003, 192.00000,   2.00000
-234034200.33530,-546508954.03482,-20195631.29061,   0.00009,  -0.00385,  -0.00030,477511968.00000,   0.00149,276259232.00000,   0.00009,  -0.00182,  -0.00003,  64.00000,   2.00000
-233701565.01016,-546442796.82557,-20492413.12227,   0.00009,  -0.00386,  -0.00030,477478048.00000,   0.00150,276263968.00000,   0.00009,  -0.00183,  -0.00004,  96.00000,   2.00000
-233349609.69529,-546374158.65444,-20788753.13200,   0.00009,  -0.00386,  -0.00031,477476160.00000,   0.00150,276268672.00000,   0.00009,  -0.00183,  -0.00004,  32.00000,   2.00000
-233014716.29754,-546306134.20176,-21085821.80998,   0.00010,  -0.00387,  -0.00031,477448512.00000,   0.00150,276273248.00000,   0.00009,  -0.00184,  -0.00004,  96.00000,   2.00000
-232678205.17475,-546235929.95882,-21389462.44126,   0.00010,  -0.00388,  -0.00032,477434624.00000,   0.00151,276277792.00000,   0.00009,  -0.00184,  -0.00004, -32.00000,   2.00000
-232318662.72767,-546163313.04344,-21687952.50535,   0.00010,  -0.00388,  -0.00032,477392096.00000,   0.00151,276282112.00000,   0.00009,  -0.00185,  -0.00004,  64.00000,   2.00000
-231977665.99431,-546090584.37761,-21992628.03024,   0.00010,  -0.00389,  -0.00032,477385120.00000,   0.00152,276286432.00000,   0.00009,  -0.00185,  -0.00004, -32.00000,   2.00000
-231615137.16482,-546014663.58756,-22297635.52601,   0.00010,  -0.00389,  -0.00033,477363520.00000,   0.00152,276290624.00000,   0.00009,  -0.00186,  -0.00004,  64.00000,   2.00000
-231269330.70709,-545938969.35730,-22603275.06890,   0.00011,  -0.00390,  -0.00033,477335936.00000,   0.00152,276294688.00000,   0.00009,  -0.00186,  -0.00004,  32.00000,   2.00000
-230901477.51451,-545858827.23708,-22915710.58342,   0.00011,  -0.00390,  -0.00034,477315168.00000,   0.00153,276298688.00000,   0.00009,  -0.00187,  -0.00004,  64.00000,   2.00000
-230552723.68721,-545780482.98496,-23221232.89684,   0.00011,  -0.00391,  -0.00034,477306336.00000,   0.00153,276302624.00000,   0.00009,  -0.00187,  -0.00004, -32.00000,   2.00000
-230179668.89625,-545697033.59356,-23534631.03249,   0.00011,  -0.00391,  -0.00035,477266016.00000,   0.00154,276306368.00000,   0.00009,  -0.00188,  -0.00004, -32.00000,   2.00000
-229805366.46393,-545613170.00319,-23841496.99637,   0.00011,  -0.00391,  -0.00035,477250368.00000,   0.00154,276310048.00000,   0.00009,  -0.00188,  -0.00004,   0.00000,   2.00000
-229449246.32156,-545528718.30371,-24154419.58810,   0.00012,  -0.00392,  -0.00036,477243424.00000,   0.00154,276313696.00000,   0.00010,  -0.00188,  -0.00004,  64.00000,   2.00000
-229068965.45971,-545440144.18724,-24468875.51331,   0.00012,  -0.00392,  -0.00036,477202144.00000,   0.00155,276317184.00000,   0.00010,  -0.00189,  -0.00004,  64.00000,   2.00000
-228686839.04818,-545349792.56366,-24783353.22327,   0.00012,  -0.00393,  -0.00037,477187392.00000,   0.00155,276320576.00000,   0.00010,  -0.00189,  -0.00005,  64.00000,   2.00000
-228300230.75402,-545256028.09732,-25105583.90418,   0.00012,  -0.00393,  -0.00037,477154048.00000,   0.00155,276323840.00000,   0.00010,  -0.00190,  -0.00005, -96.00000,   2.00000
-227914362.87367,-545162353.10706,-25420259.70975,   0.00012,  -0.00394,  -0.00038,477157792.00000,   0.00155,276327104.00000,   0.00010,  -0.00190,  -0.00005, -96.00000,   2.00000
-227521591.61337,-545064608.08350,-25744142.51958,   0.00012,  -0.00394,  -0.00038,477104576.00000,   0.00156,276330144.00000,   0.00010,  -0.00190,  -0.00005,   0.00000,   2.00000
-227129489.71102,-544966972.74392,-26060631.31122,   0.00013,  -0.00394,  -0.00039,477108160.00000,   0.00156,276333184.00000,   0.00010,  -0.00191,  -0.00005,  64.00000,   2.00000
-226732588.87634,-544865775.07612,-26385346.74291,   0.00013,  -0.00395,  -0.00039,477074336.00000,   0.00156,276336096.00000,   0.00010,  -0.00191,  -0.00005, -32.00000,   2.00000
-226333600.97101,-544762995.23798,-26710668.18460,   0.00013,  -0.00395,  -0.00040,477058912.00000,   0.00157,276338912.00000,   0.00010,  -0.00191,  -0.00005, -32.00000,   2.00000
-225930196.54450,-544658195.11813,-27038077.75054,   0.00013,  -0.00395,  -0.00040,477023520.00000,   0.00157,276341600.00000,   0.00010,  -0.00192,  -0.00005, -32.00000,   2.00000
-225524621.92363,-544551871.75315,-27366389.09774,   0.00013,  -0.00396,  -0.00041,477007680.00000,   0.00157,276344192.00000,   0.00010,  -0.00192,  -0.00005, -32.00000,   2.00000
-225116916.89949,-544444266.45023,-27695746.58281,   0.00014,  -0.00396,  -0.00041,476991520.00000,   0.00157,276346720.00000,   0.00010,  -0.00192,  -0.00005, -32.00000,   2.00000
-224704281.61589,-544333625.87229,-28034091.92064,   0.00014,  -0.00396,  -0.00042,476956384.00000,   0.00157,276349088.00000,   0.00010,  -0.00192,  -0.00005,  32.00000,   2.00000
-224269514.69105,-544220824.03493,-28367675.14638,   0.00014,  -0.00397,  -0.00042,476931968.00000,   0.00158,276351360.00000,   0.00010,  -0.00193,  -0.00005,  32.00000,   2.00000
-223850679.31719,-544108907.75741,-28703476.83088,   0.00014,  -0.00397,  -0.00043,476901664.00000,   0.00158,276353536.00000,   0.00010,  -0.00193,  -0.00005, 160.00000,   2.00000
-223431653.53991,-543995302.83270,-29045716.69594,   0.00014,  -0.00397,  -0.00043,476905632.00000,   0.00158,276355680.00000,   0.00010,  -0.00193,  -0.00005,  64.00000,   2.00000
-222985581.98279,-543878450.79255,-29385956.49647,   0.00015,  -0.00397,  -0.00044,476840896.00000,   0.00158,276357568.00000,   0.00010,  -0.00193,  -0.00005,   0.00000,   2.00000
-222559812.63708,-543762457.54002,-29732135.03779,   0.00015,  -0.00398,  -0.00044,476850976.00000,   0.00158,276359488.00000,   0.00010,  -0.00194,  -0.00005,  64.00000,   2.00000
-222108798.32490,-543642180.11942,-30081323.71936,   0.00015,  -0.00398,  -0.00045,476807424.00000,   0.00159,276361248.00000,   0.00010,  -0.00194,  -0.00005,   0.00000,   2.00000
-221655456.87014,-543520678.63952,-30431664.57525,   0.00015,  -0.00398,  -0.00045,476790048.00000,   0.00159,276362912.00000,   0.00010,  -0.00194,  -0.00005,  64.00000,   2.00000
-221218126.42439,-543400911.81251,-30777560.85179,   0.00015,  -0.00398,  -0.00045,476758208.00000,   0.00159,276364480.00000,   0.00010,  -0.00194,  -0.00005, -64.00000,   2.00000
-220757386.92331,-543275874.26584,-31131452.44819,   0.00016,  -0.00398,  -0.00046,476735616.00000,   0.00159,276365920.00000,   0.00010,  -0.00194,  -0.00006,   0.00000,   2.00000
-220294049.91662,-543149032.61892,-31486381.19666,   0.00016,  -0.00399,  -0.00046,476718432.00000,   0.00159,276367296.00000,   0.00010,  -0.00194,  -0.00006,  64.00000,   2.00000
-219846004.05417,-543022085.04720,-31843292.23129,   0.00016,  -0.00399,  -0.00047,476687936.00000,   0.00159,276368544.00000,   0.00010,  -0.00195,  -0.00006, -64.00000,   2.00000
-219374720.44625,-542890717.89175,-32201730.46048,   0.00016,  -0.00399,  -0.00047,476664096.00000,   0.00159,276369696.00000,   0.00010,  -0.00195,  -0.00006, -32.00000,   2.00000
-218897668.83681,-542755419.49532,-32562622.95018,   0.00016,  -0.00399,  -0.00048,476627008.00000,   0.00160,276370720.00000,   0.00010,  -0.00195,  -0.00006,-960.00000,   1.00000
-218420723.20210,-542619699.37110,-32923220.48653,   0.00017,  -0.00399,  -0.00048,476628544.00000,   0.00160,276371712.00000,   0.00010,  -0.00195,  -0.00006,-864.00000,   1.00000
-217935616.33565,-542480432.46805,-33287948.20080,   0.00017,  -0.00399,  -0.00049,476571552.00000,   0.00160,276372512.00000,   0.00010,  -0.00195,  -0.00006,-832.00000,   1.00000
-217450228.68687,-542339690.64094,-33652362.92156,   0.00017,  -0.00399,  -0.00049,476573760.00000,   0.00160,276373312.00000,   0.00010,  -0.00195,  -0.00006,-608.00000,   1.00000
-216959072.27907,-542195693.92667,-34019518.92526,   0.00017,  -0.00400,  -0.00050,476536672.00000,   0.00160,276373952.00000,   0.00010,  -0.00195,  -0.00006,-576.00000,   1.00000
-216444211.28350,-542046652.67776,-34388449.68040,   0.00017,  -0.00400,  -0.00050,476512672.00000,   0.00160,276374496.00000,   0.00010,  -0.00195,  -0.00006,-544.00000,   1.00000
-215944150.19096,-541897231.02782,-34759774.01415,   0.00018,  -0.00400,  -0.00051,476481472.00000,   0.00160,276374912.00000,   0.00010,  -0.00195,  -0.00006,-416.00000,   1.00000
-215440898.33649,-541745369.09171,-35132464.92295,   0.00018,  -0.00400,  -0.00051,476463648.00000,   0.00160,276375264.00000,   0.00010,  -0.00195,  -0.00006,-288.00000,   1.00000
-214913680.26737,-541588112.52682,-35507063.70222,   0.00018,  -0.00400,  -0.00052,476439616.00000,   0.00160,276375520.00000,   0.00010,  -0.00195,  -0.00006,-288.00000,   1.00000
-214401093.33101,-541430486.04443,-35884236.90991,   0.00018,  -0.00400,  -0.00052,476408064.00000,   0.00160,276375648.00000,   0.00010,  -0.00195,  -0.00006, -96.00000,   1.00000
-213864406.93997,-541267395.87670,-36263423.47249,   0.00019,  -0.00400,  -0.00053,476383840.00000,   0.00160,276375680.00000,   0.00010,  -0.00195,  -0.00006,  32.00000,   1.00000
-213333891.66882,-541077458.31049,-36643298.60491,   0.00019,  -0.00400,  -0.00053,476352320.00000,   0.00160,276375680.00000,   0.00010,  -0.00195,  -0.00006,-23360.00000,   0.00000
-212780452.89831,-540877696.38740,-37023173.73734,   0.00019,  -0.00400,  -0.00054,476324256.00000,   0.00160,276375680.00000,   0.00010,  -0.00195,  -0.00006,-51424.00000,   0.00000
-212230288.91342,-540641911.82245,-37403048.86976,   0.00019,  -0.00400,  -0.00054,476264416.00000,   0.00160,276375680.00000,   0.00010,  -0.00195,  -0.00006,-111264.00000,   0.00000
-211637552.71541,-540350455.90188,-37782924.00218,   0.00019,  -0.00400,  -0.00055,476160608.00000,   0.00160,276375680.00000,   0.00010,  -0.00195,  -0.00006,-215072.00000,   0.00000
-211034992.16053,-540036076.48194,-38156249.56336,   0.00020,  -0.00400,  -0.00055,476037216.00000,   0.00160,276375680.00000,   0.00010,  -0.00195,  -0.00006,-338464.00000,   0.00000
-210422607.24878,-539698773.56264,-38536124.69578,   0.00020,  -0.00400,  -0.00056,475897408.00000,   0.00160,276375680.00000,   0.00010,  -0.00195,  -0.00006,-478272.00000,   0.00000
-209790573.62328,-539315623.64459,-38915999.82821,   0.00020,  -0.00400,  -0.00056,475719872.00000,   0.00160,276375680.00000,   0.00010,  -0.00195,  -0.00006,-655808.00000,   0.00000
-209158539.99778,-538932473.72654,-39289325.38938,   0.00020,  -0.00400,  -0.00057,475542656.00000,   0.00160,276375680.00000,   0.00010,  -0.00195,  -0.00006,-833024.00000,   0.00000
-208497033.30167,-538480553.31038,-39669200.52181,   0.00020,  -0.00400,  -0.00057,475309824.00000,   0.00160,276375680.00000,   0.00010,  -0.00195,  -0.00006,-1065856.00000,   0.00000
-207835526.60555,-538028632.89422,-40042526.08298,   0.00021,  -0.00400,  -0.00058,475077120.00000,   0.00160,276375680.00000,   0.00010,  -0.00195,  -0.00006,-1298560.00000,   0.00000
-207154371.19568,-537530865.47932,-40422401.21541,   0.00021,  -0.00400,  -0.00058,474808896.00000,   0.00160,276375680.00000,   0.00010,  -0.00195,  -0.00006,-1566784.00000,   0.00000
-206440467.92958,-537000350.20818,-40795726.77658,   0.00021,  -0.00399,  -0.00059,474515296.00000,   0.00160,276375680.00000,   0.00010,  -0.00195,  -0.00006,-1860384.00000,   0.00000
-205729839.44909,-536433812.29516,-41169052.33776,   0.00021,  -0.00399,  -0.00059,474190528.00000,   0.00160,276375680.00000,   0.00010,  -0.00195,  -0.00006,-2185152.00000,   0.00000
-204986463.11237,-535834526.52591,-41542377.89893,   0.00022,  -0.00399,  -0.00060,473842240.00000,   0.00160,276375680.00000,   0.00010,  -0.00195,  -0.00006,-2533440.00000,   0.00000
-204256185.91814,-535222141.61416,-41915703.46011,   0.00022,  -0.00399,  -0.00060,473482240.00000,   0.00160,276375680.00000,   0.00010,  -0.00195,  -0.00006,-2893440.00000,   0.00000
-203483336.51079,-534554085.34679,-42289029.02128,   0.00022,  -0.00399,  -0.00061,473079488.00000,   0.00160,276375680.00000,   0.00010,  -0.00195,  -0.00006,-3296192.00000,   0.00000
-202723586.24594,-533872929.93693,-42662354.58246,   0.00022,  -0.00399,  -0.00061,472664960.00000,   0.00160,276375680.00000,   0.00010,  -0.00195,  -0.00006,-3710720.00000,   0.00000
-201931088.12485,-533159026.67082,-43035680.14364,   0.00022,  -0.00399,  -0.00062,472227264.00000,   0.00160,276375680.00000,   0.00010,  -0.00195,  -0.00006,-4148416.00000,   0.00000
-201118941.29001,-532399276.40597,-43402456.13356,   0.00023,  -0.00398,  -0.00062,471750656.00000,   0.00160,276375680.00000,   0.00010,  -0.00195,  -0.00006,-4625024.00000,   0.00000
-200306794.45518,-531639526.14112,-43775781.69474,   0.00023,  -0.00398,  -0.00063,471277696.00000,   0.00160,276375680.00000,   0.00010,  -0.00195,  -0.00006,-5097984.00000,   0.00000
-199465174.54972,-530811005.37816,-44142557.68466,   0.00023,  -0.00398,  -0.00063,470746528.00000,   0.00160,276375680.00000,   0.00010,  -0.00195,  -0.00006,-5629152.00000,   0.00000
-198623554.64426,-529982484.61520,-44509333.67459,   0.00023,  -0.00398,  -0.00064,470217120.00000,   0.00160,276375680.00000,   0.00010,  -0.00195,  -0.00006,-6158560.00000,   0.00000
-197762286.02506,-529108116.85350,-44876109.66452,   0.00023,  -0.00398,  -0.00064,469650400.00000,   0.00160,276375680.00000,   0.00010,  -0.00195,  -0.00006,-6725280.00000,   0.00000
-196891193.04898,-528210825.59243,-45242885.65445,   0.00024,  -0.00397,  -0.00065,469065920.00000,   0.00160,276375680.00000,   0.00010,  -0.00195,  -0.00006,-7309760.00000,   0.00000
-195977527.85979,-527257862.97575,-45609661.64437,   0.00024,  -0.00397,  -0.00065,468438368.00000,   0.00160,276375680.00000,   0.00010,  -0.00195,  -0.00006,-7937312.00000,   0.00000
-195086786.16997,-526314724.71593,-45969888.06305,   0.00024,  -0.00397,  -0.00066,467815840.00000,   0.00160,276375680.00000,   0.00010,  -0.00195,  -0.00006,-8559840.00000,   0.00000
-194176395.76640,-525325739.45738,-46336664.05298,   0.00024,  -0.00397,  -0.00066,467157504.00000,   0.00160,276375680.00000,   0.00010,  -0.00195,  -0.00006,-9218176.00000,   0.00000
-193223433.14972,-524281082.84322,-46696890.47165,   0.00025,  -0.00396,  -0.00066,466453856.00000,   0.00160,276375680.00000,   0.00010,  -0.00195,  -0.00006,-9921824.00000,   0.00000
-192270470.53303,-523236426.22905,-47057116.89033,   0.00025,  -0.00396,  -0.00067,465751104.00000,   0.00160,276375680.00000,   0.00010,  -0.00195,  -0.00006,-10624576.00000,   0.00000
-191320782.70197,-522155746.97302,-47417343.30901,   0.00025,  -0.00396,  -0.00067,465015744.00000,   0.00160,276375680.00000,   0.00010,  -0.00195,  -0.00006,-11359936.00000,   0.00000
-190328522.65779,-521019396.36137,-47777569.72769,   0.00025,  -0.00395,  -0.00068,464236608.00000,   0.00160,276375680.00000,   0.00010,  -0.00195,  -0.00006,-12139072.00000,   0.00000
-189336262.61362,-519883045.74972,-48131246.57512,   0.00026,  -0.00395,  -0.00068,463455904.00000,   0.00160,276375680.00000,   0.00010,  -0.00195,  -0.00006,-12919776.00000,   0.00000
-188324353.85569,-518700848.13933,-48491472.99380,   0.00026,  -0.00395,  -0.00069,462638688.00000,   0.00160,276375680.00000,   0.00010,  -0.00195,  -0.00006,-13736992.00000,   0.00000
-187302620.74090,-517495727.02957,-48845149.84123,   0.00026,  -0.00394,  -0.00069,461800384.00000,   0.00160,276375680.00000,   0.00010,  -0.00195,  -0.00006,-14575296.00000,   0.00000
-186261238.91236,-516244758.92107,-49198826.68866,   0.00026,  -0.00394,  -0.00070,460923456.00000,   0.00160,276375680.00000,   0.00010,  -0.00195,  -0.00006,-15452224.00000,   0.00000
-185196933.58444,-514983966.45570,-49552503.53608,   0.00026,  -0.00394,  -0.00070,460041568.00000,   0.00160,276375680.00000,   0.00010,  -0.00195,  -0.00006,-16334112.00000,   0.00000
-184135903.04215,-513687151.34846,-49899630.81227,   0.00027,  -0.00393,  -0.00071,459124288.00000,   0.00160,276375680.00000,   0.00010,  -0.00195,  -0.00006,-17251392.00000,   0.00000
-183065048.14299,-512367412.74184,-50253307.65969,   0.00027,  -0.00393,  -0.00071,458190368.00000,   0.00160,276375680.00000,   0.00010,  -0.00195,  -0.00006,-18185312.00000,   0.00000
-181951621.03072,-510992002.77962,-50600434.93588,   0.00027,  -0.00392,  -0.00072,457210368.00000,   0.00160,276375680.00000,   0.00010,  -0.00195,  -0.00006,-19165312.00000,   0.00000
-180861117.41781,-509626417.17427,-50947562.21206,   0.00027,  -0.00392,  -0.00072,456237024.00000,   0.00160,276375680.00000,   0.00010,  -0.00195,  -0.00006,-20138656.00000,   0.00000
-179728041.59178,-508205160.21330,-51294689.48824,   0.00028,  -0.00392,  -0.00072,455220320.00000,   0.00160,276375680.00000,   0.00010,  -0.00195,  -0.00006,-21155360.00000,   0.00000
-178575317.05202,-506738056.25359,-51635267.19317,   0.00028,  -0.00391,  -0.00073,454163904.00000,   0.00160,276375680.00000,   0.00010,  -0.00195,  -0.00006,-22211776.00000,   0.00000
-177422592.51225,-505270952.29389,-51975844.89810,   0.00028,  -0.00391,  -0.00073,453109504.00000,   0.00160,276375680.00000,   0.00010,  -0.00195,  -0.00006,-23266176.00000,   0.00000
-176250219.25873,-503758001.33544,-52316422.60303,   0.00028,  -0.00390,  -0.00074,452018304.00000,   0.00160,276375680.00000,   0.00010,  -0.00195,  -0.00006,-24357376.00000,   0.00000
-175068021.64834,-502222126.87762,-52657000.30796,   0.00029,  -0.00390,  -0.00074,450910144.00000,   0.00160,276375680.00000,   0.00010,  -0.00195,  -0.00006,-25465536.00000,   0.00000
-173875999.68108,-500663328.92043,-52997578.01290,   0.00029,  -0.00389,  -0.00075,449785664.00000,   0.00160,276375680.00000,   0.00010,  -0.00195,  -0.00006,-26590016.00000,   0.00000
-172651229.85757,-499071783.10700,-53331606.14658,   0.00029,  -0.00389,  -0.00075,448637376.00000,   0.00160,276375680.00000,   0.00010,  -0.00195,  -0.00006,-27738304.00000,   0.00000
-171429734.81969,-497444214.65170,-53665634.28026,   0.00029,  -0.00388,  -0.00076,447458976.00000,   0.00160,276375680.00000,   0.00010,  -0.00195,  -0.00006,-28916704.00000,   0.00000
-170198415.42494,-495793722.69703,-53999662.41395,   0.00030,  -0.00388,  -0.00076,446265056.00000,   0.00160,276375680.00000,   0.00010,  -0.00195,  -0.00006,-30110624.00000,   0.00000
-168934348.17394,-494110482.88612,-54327140.97638,   0.00030,  -0.00387,  -0.00076,445048288.00000,   0.00160,276375680.00000,   0.00010,  -0.00195,  -0.00006,-31327392.00000,   0.00000
-167660456.56607,-492404319.57583,-54654619.53882,   0.00030,  -0.00387,  -0.00077,443816160.00000,   0.00160,276375680.00000,   0.00010,  -0.00195,  -0.00006,-32559520.00000,   0.00000
-166366916.24445,-490652309.26681,-54982098.10125,   0.00030,  -0.00386,  -0.00077,442549664.00000,   0.00160,276375680.00000,   0.00010,  -0.00195,  -0.00006,-33826016.00000,   0.00000
-165063551.56596,-488877375.45841,-55309576.66368,   0.00031,  -0.00386,  -0.00078,441268160.00000,   0.00160,276375680.00000,   0.00010,  -0.00195,  -0.00006,-35107520.00000,   0.00000
-163760186.88747,-487102441.65001,-55630505.65487,   0.00031,  -0.00385,  -0.00078,439988352.00000,   0.00160,276375680.00000,   0.00010,  -0.00195,  -0.00006,-36387328.00000,   0.00000
-162427349.13836,-485258737.34351,-55951434.64606,   0.00031,  -0.00385,  -0.00078,438654688.00000,   0.00160,276375680.00000,   0.00010,  -0.00195,  -0.00006,-37720992.00000,   0.00000
-161094511.38926,-483415033.03700,-56272363.63724,   0.00031,  -0.00384,  -0.00079,437325120.00000,   0.00160,276375680.00000,   0.00010,  -0.00195,  -0.00006,-39050560.00000,   0.00000
-159751849.28327,-481548405.23112,-56593292.62843,   0.00032,  -0.00383,  -0.00079,435980224.00000,   0.00160,276375680.00000,   0.00010,  -0.00195,  -0.00006,-40395456.00000,   0.00000
-158366614.96418,-479626106.06963,-56907672.04837,   0.00032,  -0.00383,  -0.00080,434593152.00000,   0.00160,276375680.00000,   0.00010,  -0.00195,  -0.00006,-41782528.00000,   0.00000
-156994479.78757,-477690707.76564,-57222051.46830,   0.00032,  -0.00382,  -0.00080,433195360.00000,   0.00160,276375680.00000,   0.00010,  -0.00195,  -0.00006,-43180320.00000,   0.00000
-155589596.75473,-475722561.60541,-57536430.88824,   0.00032,  -0.00382,  -0.00081,431777184.00000,   0.00160,276375680.00000,   0.00010,  -0.00195,  -0.00006,-44598496.00000,   0.00000
-154174889.36501,-473731491.94581,-57844260.73693,   0.00033,  -0.00381,  -0.00081,430340640.00000,   0.00160,276375680.00000,   0.00010,  -0.00195,  -0.00006,-46035040.00000,   0.00000
-152740533.26155,-471694575.28747,-58152090.58562,   0.00033,  -0.00380,  -0.00081,428868928.00000,   0.00160,276375680.00000,   0.00010,  -0.00195,  -0.00006,-47506752.00000,   0.00000
-151306177.15809,-469657658.62912,-58453370.86306,   0.00033,  -0.00380,  -0.00082,427397408.00000,   0.00160,276375680.00000,   0.00010,  -0.00195,  -0.00006,-48978272.00000,   0.00000
-149852172.34088,-467574894.97204,-58761200.71175,   0.00033,  -0.00379,  -0.00082,425892544.00000,   0.00160,276375680.00000,   0.00010,  -0.00195,  -0.00006,-50483136.00000,   0.00000
-148388343.16679,-465469207.81558,-59062480.98919,   0.00034,  -0.00378,  -0.00083,424367584.00000,   0.00160,276375680.00000,   0.00010,  -0.00195,  -0.00006,-52008096.00000,   0.00000
-146924513.99271,-463363520.65913,-59357211.69538,   0.00034,  -0.00378,  -0.00083,422841088.00000,   0.00160,276375680.00000,   0.00010,  -0.00195,  -0.00006,-53534592.00000,   0.00000
-145408288.24864,-461179238.64769,-59658491.97282,   0.00034,  -0.00377,  -0.00083,421256000.00000,   0.00160,276375680.00000,   0.00010,  -0.00195,  -0.00006,-55119680.00000,   0.00000
-143914986.00394,-459004780.99313,-59953222.67901,   0.00034,  -0.00376,  -0.00084,419673056.00000,   0.00160,276375680.00000,   0.00010,  -0.00195,  -0.00006,-56702624.00000,   0.00000
-142388935.90299,-456797575.48232,-60241403.81395,   0.00035,  -0.00375,  -0.00084,418064512.00000,   0.00160,276375680.00000,   0.00010,  -0.00195,  -0.00006,-58311168.00000,   0.00000
-140843237.08830,-454544522.97277,-60536134.52014,   0.00035,  -0.00375,  -0.00084,416422016.00000,   0.00160,276375680.00000,   0.00010,  -0.00195,  -0.00006,-59953664.00000,   0.00000
-139320461.77298,-452301294.82009,-60824315.65508,   0.00035,  -0.00374,  -0.00085,414784192.00000,   0.00160,276375680.00000,   0.00010,  -0.00195,  -0.00006,-61591488.00000,   0.00000
-137755114.24454,-450002395.31180,-61105947.21878,   0.00035,  -0.00373,  -0.00085,413105344.00000,   0.00160,276375680.00000,   0.00010,  -0.00195,  -0.00006,-63270336.00000,   0.00000
-136157018.85986,-447670747.94726,-61387578.78247,   0.00036,  -0.00373,  -0.00086,411409280.00000,   0.00160,276375680.00000,   0.00010,  -0.00195,  -0.00006,-64966400.00000,   0.00000
-134572022.61768,-445326001.44023,-61669210.34616,   0.00036,  -0.00372,  -0.00086,409705952.00000,   0.00160,276375680.00000,   0.00010,  -0.00195,  -0.00006,-66669728.00000,   0.00000
-132977202.01862,-442958331.43383,-61950841.90986,   0.00036,  -0.00371,  -0.00086,407992928.00000,   0.00160,276375680.00000,   0.00010,  -0.00195,  -0.00006,-68382752.00000,   0.00000
-131349633.56332,-440557913.57118,-62225923.90230,   0.00036,  -0.00370,  -0.00087,406265792.00000,   0.00160,276375680.00000,   0.00010,  -0.00195,  -0.00006,-70109888.00000,   0.00000
-129735164.25052,-438144396.56604,-62501005.89475,   0.00037,  -0.00369,  -0.00087,404540672.00000,   0.00160,276375680.00000,   0.00010,  -0.00195,  -0.00006,-71835008.00000,   0.00000
-128087947.08147,-435698131.70465,-62769538.31595,   0.00037,  -0.00369,  -0.00087,402814112.00000,   0.00160,276375680.00000,   0.00010,  -0.00195,  -0.00006,-73561568.00000,   0.00000
-126430905.55555,-433228943.34390,-63038070.73714,   0.00037,  -0.00368,  -0.00088,401092896.00000,   0.00160,276375680.00000,   0.00010,  -0.00195,  -0.00006,-75282784.00000,   0.00000
-124754215.31589,-430713907.98440,-63300053.58709,   0.00038,  -0.00367,  -0.00088,399336064.00000,   0.00160,276375680.00000,   0.00010,  -0.00195,  -0.00006,-77039616.00000,   0.00000
-123077525.07622,-428198872.62490,-63568586.00829,   0.00038,  -0.00366,  -0.00088,397560704.00000,   0.00160,276375680.00000,   0.00010,  -0.00195,  -0.00006,-78814976.00000,   0.00000
-121381186.12281,-425637990.26666,-63824019.28698,   0.00038,  -0.00365,  -0.00089,395719072.00000,   0.00160,276375680.00000,   0.00010,  -0.00195,  -0.00006,-80656608.00000,   0.00000
-119684847.16940,-423077107.90843,-64086002.13693,   0.00038,  -0.00365,  -0.00089,393875904.00000,   0.00160,276375680.00000,   0.00010,  -0.00195,  -0.00006,-82499776.00000,   0.00000
-117968859.50224,-420470378.55145,-64341435.41563,   0.00039,  -0.00364,  -0.00089,391999904.00000,   0.00160,276375680.00000,   0.00010,  -0.00195,  -0.00006,-84375776.00000,   0.00000
-116229948.33571,-417853824.83759,-64590319.12308,   0.00039,  -0.00363,  -0.00090,390127392.00000,   0.00160,276375680.00000,   0.00010,  -0.00195,  -0.00006,-86248288.00000,   0.00000
-114494311.95481,-415201248.48187,-64845752.40178,   0.00039,  -0.00362,  -0.00090,388231168.00000,   0.00160,276375680.00000,   0.00010,  -0.00195,  -0.00006,-88144512.00000,   0.00000
-112725927.71766,-412515924.26991,-65088086.53798,   0.00039,  -0.00361,  -0.00090,386310112.00000,   0.00160,276375680.00000,   0.00010,  -0.00195,  -0.00006,-90065568.00000,   0.00000
-110957543.48052,-409830600.05795,-65336970.24543,   0.00040,  -0.00360,  -0.00091,384394080.00000,   0.00160,276375680.00000,   0.00010,  -0.00195,  -0.00006,-91981600.00000,   0.00000
-109169510.52962,-407099428.84724,-65579304.38163,   0.00040,  -0.00359,  -0.00091,382438816.00000,   0.00160,276375680.00000,   0.00010,  -0.00195,  -0.00006,-93936864.00000,   0.00000
-107371653.22186,-404345334.13717,-65815088.94659,   0.00040,  -0.00358,  -0.00091,380463904.00000,   0.00160,276375680.00000,   0.00010,  -0.00195,  -0.00006,-95911776.00000,   0.00000
-105563971.55722,-401568315.92772,-66050873.51154,   0.00041,  -0.00358,  -0.00092,378474688.00000,   0.00160,276375680.00000,   0.00010,  -0.00195,  -0.00006,-97900992.00000,   0.00000
-103733366.39321,-398781473.36140,-66286658.07649,   0.00041,  -0.00357,  -0.00092,376488736.00000,   0.00160,276375680.00000,   0.00010,  -0.00195,  -0.00006,-99886944.00000,   0.00000
-101906036.01482,-395958608.15322,-66515893.07020,   0.00041,  -0.00356,  -0.00092,374473856.00000,   0.00160,276375680.00000,   0.00010,  -0.00195,  -0.00006,-101901824.00000,   0.00000
-100045957.78020,-393102995.08879,-66745128.06390,   0.00041,  -0.00355,  -0.00093,372447360.00000,   0.00160,276375680.00000,   0.00010,  -0.00195,  -0.00006,-103928320.00000,   0.00000
-98208803.04494,-390257206.38123,-66974363.05761,   0.00042,  -0.00354,  -0.00093,370434912.00000,   0.00160,276375680.00000,   0.00010,  -0.00195,  -0.00006,-105940768.00000,   0.00000
-96329076.09656,-387355746.31806,-67197048.48006,   0.00042,  -0.00353,  -0.00093,368388736.00000,   0.00160,276375680.00000,   0.00010,  -0.00195,  -0.00006,-107986944.00000,   0.00000
-94449349.14819,-384454286.25489,-67413184.33127,   0.00042,  -0.00352,  -0.00093,366346816.00000,   0.00160,276375680.00000,   0.00010,  -0.00195,  -0.00006,-110028864.00000,   0.00000
-92549973.48607,-381506979.19298,-67629320.18247,   0.00043,  -0.00351,  -0.00094,364272992.00000,   0.00160,276375680.00000,   0.00010,  -0.00195,  -0.00006,-112102688.00000,   0.00000
-90650597.82395,-378559672.13106,-67845456.03368,   0.00043,  -0.00350,  -0.00094,362200352.00000,   0.00160,276375680.00000,   0.00010,  -0.00195,  -0.00006,-114175328.00000,   0.00000
-88708649.94871,-375556693.71354,-68055042.31364,   0.00043,  -0.00349,  -0.00094,360082112.00000,   0.00160,276375680.00000,   0.00010,  -0.00195,  -0.00006,-116293568.00000,   0.00000
-86789625.57284,-372563539.65289,-68264628.59360,   0.00043,  -0.00348,  -0.00095,357962048.00000,   0.00160,276375680.00000,   0.00010,  -0.00195,  -0.00006,-118413632.00000,   0.00000
-84860776.84010,-369547462.09286,-68467665.30231,   0.00044,  -0.00347,  -0.00095,355814400.00000,   0.00160,276375680.00000,   0.00010,  -0.00195,  -0.00006,-120561280.00000,   0.00000
-82899180.25112,-366498636.67660,-68670702.01102,   0.00044,  -0.00346,  -0.00095,353641952.00000,   0.00160,276375680.00000,   0.00010,  -0.00195,  -0.00006,-122733728.00000,   0.00000
-80917934.94839,-363403964.26159,-68867189.14848,   0.00044,  -0.00345,  -0.00095,351428480.00000,   0.00160,276375680.00000,   0.00010,  -0.00195,  -0.00006,-124947200.00000,   0.00000
-78936689.64566,-360309291.84658,-69063676.28594,   0.00045,  -0.00344,  -0.00096,349220320.00000,   0.00160,276375680.00000,   0.00010,  -0.00195,  -0.00006,-127155360.00000,   0.00000
-76955444.34293,-357214619.43158,-69253613.85215,   0.00045,  -0.00343,  -0.00096,347019008.00000,   0.00160,276375680.00000,   0.00010,  -0.00195,  -0.00006,-129356672.00000,   0.00000
-74954550.32646,-354074100.01783,-69443551.41836,   0.00045,  -0.00342,  -0.00096,344796608.00000,   0.00160,276375680.00000,   0.00010,  -0.00195,  -0.00006,-131579072.00000,   0.00000
-72943831.95311,-350910657.10471,-69633488.98457,   0.00046,  -0.00341,  -0.00096,342575104.00000,   0.00160,276375680.00000,   0.00010,  -0.00195,  -0.00006,-133800576.00000,   0.00000
-70933113.57976,-347747214.19159,-69816876.97954,   0.00046,  -0.00340,  -0.00097,340370432.00000,   0.00160,276375680.00000,   0.00010,  -0.00195,  -0.00006,-136005248.00000,   0.00000
-68879822.99329,-344528099.92286,-69993715.40325,   0.00046,  -0.00339,  -0.00097,338143648.00000,   0.00160,276375680.00000,   0.00010,  -0.00195,  -0.00006,-138232032.00000,   0.00000
-66849455.90620,-341318810.01100,-70170553.82697,   0.00046,  -0.00338,  -0.00097,335936768.00000,   0.00160,276375680.00000,   0.00010,  -0.00195,  -0.00006,-140438912.00000,   0.00000
-64786340.96286,-338076772.24290,-70347392.25068,   0.00047,  -0.00337,  -0.00097,333724544.00000,   0.00160,276375680.00000,   0.00010,  -0.00195,  -0.00006,-142651136.00000,   0.00000
-62713401.66265,-334811810.97543,-70517681.10315,   0.00047,  -0.00336,  -0.00097,331500864.00000,   0.00160,276375680.00000,   0.00010,  -0.00195,  -0.00006,-144874816.00000,   0.00000
-60630638.00557,-331523926.20858,-70681420.38437,   0.00047,  -0.00334,  -0.00098,329262816.00000,   0.00160,276375680.00000,   0.00010,  -0.00195,  -0.00006,-147112864.00000,   0.00000
-58538049.99161,-328213117.94237,-70845159.66558,   0.00048,  -0.00333,  -0.00098,327012320.00000,   0.00160,276375680.00000,   0.00010,  -0.00195,  -0.00006,-149363360.00000,   0.00000
-56445461.97765,-324902309.67615,-71008898.94680,   0.00048,  -0.00332,  -0.00098,324767104.00000,   0.00160,276375680.00000,   0.00010,  -0.00195,  -0.00006,-151608576.00000,   0.00000
-54333225.24995,-321545654.41120,-71166088.65677,   0.00048,  -0.00331,  -0.00098,322489344.00000,   0.00160,276375680.00000,   0.00010,  -0.00195,  -0.00006,-153886336.00000,   0.00000
-52220988.52225,-318188999.14625,-71323278.36674,   0.00049,  -0.00330,  -0.00098,320223008.00000,   0.00160,276375680.00000,   0.00010,  -0.00195,  -0.00006,-156152672.00000,   0.00000
-50076003.93830,-314799596.02505,-71473918.50546,   0.00049,  -0.00329,  -0.00099,317950272.00000,   0.00160,276375680.00000,   0.00010,  -0.00195,  -0.00006,-158425408.00000,   0.00000
-47953942.85372,-311420017.26072,-71618009.07293,   0.00049,  -0.00328,  -0.00099,315697312.00000,   0.00160,276375680.00000,   0.00010,  -0.00195,  -0.00006,-160678368.00000,   0.00000
-45789309.55603,-307984767.14078,-71762099.64040,   0.00050,  -0.00327,  -0.00099,313436608.00000,   0.00160,276375680.00000,   0.00010,  -0.00195,  -0.00006,-162939072.00000,   0.00000
-43624676.25834,-304549517.02084,-71906190.20787,   0.00050,  -0.00325,  -0.00099,311207712.00000,   0.00160,276375680.00000,   0.00010,  -0.00195,  -0.00006,-165167968.00000,   0.00000
-41450218.60377,-301091343.40153,-72043731.20409,   0.00050,  -0.00324,  -0.00099,308989120.00000,   0.00160,276375680.00000,   0.00010,  -0.00195,  -0.00006,-167386560.00000,   0.00000
-39265936.59233,-297610246.28285,-72181272.20032,   0.00050,  -0.00323,  -0.00100,306782528.00000,   0.00160,276375680.00000,   0.00010,  -0.00195,  -0.00006,-169593152.00000,   0.00000
-37071830.22402,-294106225.66480,-72312263.62529,   0.00051,  -0.00322,  -0.00100,304577856.00000,   0.00160,276375680.00000,   0.00010,  -0.00195,  -0.00006,-171797824.00000,   0.00000
-34877723.85571,-290602205.04675,-72436705.47901,   0.00051,  -0.00321,  -0.00100,302384640.00000,   0.00160,276375680.00000,   0.00010,  -0.00195,  -0.00006,-173991040.00000,   0.00000
-32673793.13052,-287075260.92933,-72567696.90399,   0.00051,  -0.00320,  -0.00100,300188672.00000,   0.00160,276375680.00000,   0.00010,  -0.00195,  -0.00006,-176187008.00000,   0.00000
-30437114.54910,-283515568.95567,-72685589.18647,   0.00052,  -0.00318,  -0.00100,297970336.00000,   0.00160,276375680.00000,   0.00010,  -0.00195,  -0.00006,-178405344.00000,   0.00000
-28213535.11017,-279942777.83951,-72803481.46894,   0.00052,  -0.00317,  -0.00100,295736000.00000,   0.00160,276375680.00000,   0.00010,  -0.00195,  -0.00006,-180639680.00000,   0.00000
-25967032.17186,-276360162.36647,-72921373.75142,   0.00052,  -0.00316,  -0.00101,293501568.00000,   0.00160,276375680.00000,   0.00010,  -0.00195,  -0.00006,-182874112.00000,   0.00000
-23733628.37606,-272764447.75094,-73032716.46265,   0.00053,  -0.00315,  -0.00101,291246496.00000,   0.00160,276375680.00000,   0.00010,  -0.00195,  -0.00006,-185129184.00000,   0.00000
-21467476.72401,-269135985.27917,-73137509.60262,   0.00053,  -0.00314,  -0.00101,288973760.00000,   0.00160,276375680.00000,   0.00010,  -0.00195,  -0.00006,-187401920.00000,   0.00000
-19191500.71509,-265484599.30802,-73242302.74260,   0.00053,  -0.00312,  -0.00101,286691552.00000,   0.00160,276375680.00000,   0.00010,  -0.00195,  -0.00006,-189684128.00000,   0.00000
-16915524.70617,-261833213.33687,-73340546.31133,   0.00054,  -0.00311,  -0.00101,284415232.00000,   0.00160,276375680.00000,   0.00010,  -0.00195,  -0.00006,-191960448.00000,   0.00000
-14629724.34038,-258158903.86636,-73438789.88006,   0.00054,  -0.00310,  -0.00101,282136480.00000,   0.00160,276375680.00000,   0.00010,  -0.00195,  -0.00006,-194239200.00000,   0.00000
-12343923.97458,-254484594.39584,-73537033.44880,   0.00054,  -0.00309,  -0.00101,279874752.00000,   0.00160,276375680.00000,   0.00010,  -0.00195,  -0.00006,-196500928.00000,   0.00000
-10015551.39567,-250754613.56971,-73628727.44628,   0.00055,  -0.00308,  -0.00101,277595104.00000,   0.00160,276375680.00000,   0.00010,  -0.00195,  -0.00006,-198780576.00000,   0.00000
-7719926.67301,-247057380.59982,-73713871.87251,   0.00055,  -0.00306,  -0.00102,275346560.00000,   0.00160,276375680.00000,   0.00010,  -0.00195,  -0.00006,-201029120.00000,   0.00000
-5404653.23660,-243314300.63120,-73799016.29874,   0.00055,  -0.00305,  -0.00102,273087456.00000,   0.00160,276375680.00000,   0.00010,  -0.00195,  -0.00006,-203288224.00000,   0.00000
-3066456.30081,-239561396.30570,-73877611.15373,   0.00056,  -0.00304,  -0.00102,270846528.00000,   0.00160,276375680.00000,   0.00010,  -0.00195,  -0.00006,-205529152.00000,   0.00000
-718435.00816,-235785568.48082,-73956206.00871,   0.00056,  -0.00303,  -0.00102,268612064.00000,   0.00160,276375680.00000,   0.00010,  -0.00195,  -0.00006,-207763616.00000,   0.00000
1616487.14200,-231996641.51346,-74028251.29245,   0.00056,  -0.00301,  -0.00102,266376496.00000,   0.00160,276375680.00000,   0.00010,  -0.00195,  -0.00006,-209999184.00000,   0.00000
3974332.79153,-228197890.18922,-74100296.57618,   0.00057,  -0.00300,  -0.00102,264161824.00000,   0.00160,276375680.00000,   0.00010,  -0.00195,  -0.00006,-212213856.00000,   0.00000
6342002.79793,-224376215.36560,-74165792.28867,   0.00057,  -0.00299,  -0.00102,261942160.00000,   0.00160,276375680.00000,   0.00010,  -0.00195,  -0.00006,-214433520.00000,   0.00000
8709672.80434,-220554540.54199,-74224738.42991,   0.00057,  -0.00297,  -0.00102,259729344.00000,   0.00160,276375680.00000,   0.00010,  -0.00195,  -0.00006,-216646336.00000,   0.00000
11087167.16761,-216709942.21901,-74283684.57115,   0.00058,  -0.00296,  -0.00102,257508752.00000,   0.00160,276375680.00000,   0.00010,  -0.00195,  -0.00006,-218866928.00000,   0.00000
13474485.88776,-212842420.39666,-74342630.71238,   0.00058,  -0.00295,  -0.00102,255276416.00000,   0.00160,276375680.00000,   0.00010,  -0.00195,  -0.00006,-221099264.00000,   0.00000
15884728.10728,-208965074.21743,-74395027.28237,   0.00058,  -0.00294,  -0.00102,253041600.00000,   0.00160,276375680.00000,   0.00010,  -0.00195,  -0.00006,-223334080.00000,   0.00000
18272046.82743,-205097552.39508,-74440874.28111,   0.00059,  -0.00292,  -0.00103,250803456.00000,   0.00160,276375680.00000,   0.00010,  -0.00195,  -0.00006,-225572224.00000,   0.00000
20679014.26132,-201184183.57398,-74486721.27986,   0.00059,  -0.00291,  -0.00103,248555648.00000,   0.00160,276375680.00000,   0.00010,  -0.00195,  -0.00006,-227820032.00000,   0.00000
23108905.19459,-197260990.39602,-74526018.70735,   0.00059,  -0.00290,  -0.00103,246356096.00000,   0.00160,276375680.00000,   0.00010,  -0.00195,  -0.00006,-230019584.00000,   0.00000
25515872.62848,-193347621.57492,-74565316.13484,   0.00060,  -0.00288,  -0.00103,244222112.00000,   0.00160,276375680.00000,   0.00010,  -0.00195,  -0.00006,-232153568.00000,   0.00000
27955587.91862,-189401504.89759,-74604613.56233,   0.00060,  -0.00287,  -0.00103,242129728.00000,   0.00160,276375680.00000,   0.00010,  -0.00195,  -0.00006,-234245952.00000,   0.00000
30382204.06626,-185442289.07775,-74630811.84733,   0.00060,  -0.00286,  -0.00103,240038624.00000,   0.00160,276375680.00000,   0.00010,  -0.00195,  -0.00006,-236337056.00000,   0.00000
32831743.71327,-181473248.90105,-74657010.13232,   0.00061,  -0.00284,  -0.00103,237976272.00000,   0.00160,276375680.00000,   0.00010,  -0.00195,  -0.00006,-238399408.00000,   0.00000
35291107.71715,-177481285.22497,-74683208.41732,   0.00061,  -0.00283,  -0.00103,235932768.00000,   0.00160,276375680.00000,   0.00010,  -0.00195,  -0.00006,-240442912.00000,   0.00000
37750471.72104,-173489321.54889,-74702857.13106,   0.00061,  -0.00282,  -0.00103,233925520.00000,   0.00160,276375680.00000,   0.00010,  -0.00195,  -0.00006,-242450160.00000,   0.00000
40209835.72492,-169497357.87281,-74722505.84481,   0.00062,  -0.00280,  -0.00103,231969136.00000,   0.00160,276375680.00000,   0.00010,  -0.00195,  -0.00006,-244406544.00000,   0.00000
42688848.44255,-165459547.19799,-74735604.98731,   0.00062,  -0.00279,  -0.00103,230061728.00000,   0.00160,276375680.00000,   0.00010,  -0.00195,  -0.00006,-246313952.00000,   0.00000
45158036.80331,-161444660.02254,-74742154.55855,   0.00062,  -0.00278,  -0.00103,228268752.00000,   0.00160,276375680.00000,   0.00010,  -0.00195,  -0.00006,-248106928.00000,   0.00000
47646873.87781,-157383925.84836,-74748704.12980,   0.00063,  -0.00276,  -0.00103,226484416.00000,   0.00160,276375680.00000,   0.00010,  -0.00195,  -0.00006,-249891264.00000,   0.00000
50125886.59544,-153346115.17354,-74748704.12980,   0.00063,  -0.00275,  -0.00103,224720768.00000,   0.00160,276375680.00000,   0.00010,  -0.00195,  -0.00006,-251654912.00000,   0.00000
52614723.66994,-149285380.99935,-74748704.12980,   0.00063,  -0.00274,  -0.00103,222969344.00000,   0.00160,276375680.00000,   0.00010,  -0.00195,  -0.00006,-253406336.00000,   0.00000
55113385.10132,-145201723.32579,-74742154.55855,   0.00064,  -0.00272,  -0.00103,221228176.00000,   0.00160,276375680.00000,   0.00010,  -0.00195,  -0.00006,-255147504.00000,   0.00000
57634970.03207,-141108241.29536,-74735604.98731,   0.00064,  -0.00271,  -0.00103,219523616.00000,   0.00160,276375680.00000,   0.00010,  -0.00195,  -0.00006,-256852064.00000,   0.00000
60143455.82032,-137001660.12243,-74722505.84481,   0.00064,  -0.00269,  -0.00103,217826288.00000,   0.00160,276375680.00000,   0.00010,  -0.00195,  -0.00006,-258549392.00000,   0.00000
62651941.60856,-132895078.94950,-74709406.70231,   0.00065,  -0.00268,  -0.00103,216162112.00000,   0.00160,276375680.00000,   0.00010,  -0.00195,  -0.00006,-260213568.00000,   0.00000
65183350.89618,-128778673.41969,-74689757.98856,   0.00065,  -0.00267,  -0.00103,214533904.00000,   0.00160,276375680.00000,   0.00010,  -0.00195,  -0.00006,-261841776.00000,   0.00000
67701661.04131,-124649168.74739,-74670109.27482,   0.00065,  -0.00265,  -0.00103,212929040.00000,   0.00160,276375680.00000,   0.00010,  -0.00195,  -0.00006,-263446640.00000,   0.00000
70242894.68580,-120509839.71822,-74643910.98982,   0.00066,  -0.00264,  -0.00103,211370512.00000,   0.00160,276375680.00000,   0.00010,  -0.00195,  -0.00006,-265005168.00000,   0.00000
72771029.18779,-116357411.54655,-74611163.13358,   0.00066,  -0.00263,  -0.00103,209838384.00000,   0.00160,276375680.00000,   0.00010,  -0.00195,  -0.00006,-266537296.00000,   0.00000
75322087.18916,-112195159.01800,-74578415.27734,   0.00066,  -0.00261,  -0.00103,208367744.00000,   0.00160,276375680.00000,   0.00010,  -0.00195,  -0.00006,-268007936.00000,   0.00000
77860046.04803,-108019807.34696,-74539117.84985,   0.00067,  -0.00260,  -0.00103,206929216.00000,   0.00160,276375680.00000,   0.00010,  -0.00195,  -0.00006,-269446464.00000,   0.00000
80420928.40627,-103834631.31905,-74499820.42235,   0.00067,  -0.00258,  -0.00103,205557936.00000,   0.00160,276375680.00000,   0.00010,  -0.00195,  -0.00006,-270817744.00000,   0.00000
82981810.76451,-99649455.29113,-74453973.42361,   0.00067,  -0.00257,  -0.00103,204242720.00000,   0.00160,276375680.00000,   0.00010,  -0.00195,  -0.00006,-272132960.00000,   0.00000
85529593.98025,-95451180.12072,-74408126.42487,   0.00068,  -0.00256,  -0.00102,202977664.00000,   0.00160,276375680.00000,   0.00010,  -0.00195,  -0.00006,-273398016.00000,   0.00000
88100300.69536,-91243080.59344,-74355729.85488,   0.00068,  -0.00254,  -0.00102,201787808.00000,   0.00160,276375680.00000,   0.00010,  -0.00195,  -0.00006,-274587872.00000,   0.00000
90671007.41047,-87034981.06615,-74303333.28489,   0.00069,  -0.00253,  -0.00102,200683520.00000,   0.00160,276375680.00000,   0.00010,  -0.00195,  -0.00006,-275692160.00000,   0.00000
93251538.48245,-82803958.03950,-74244387.14365,   0.00069,  -0.00251,  -0.00102,199670832.00000,   0.00160,276375680.00000,   0.00010,  -0.00195,  -0.00006,-276704848.00000,   0.00000
95809146.05507,-78582759.36972,-74178891.43117,   0.00069,  -0.00250,  -0.00102,198752944.00000,   0.00160,276375680.00000,   0.00010,  -0.00195,  -0.00006,-277622736.00000,   0.00000
98399501.48393,-74328812.84369,-74113395.71868,   0.00070,  -0.00248,  -0.00102,197830256.00000,   0.00160,276375680.00000,   0.00010,  -0.00195,  -0.00006,-278545424.00000,   0.00000
100980032.55591,-70097789.81704,-74047900.00619,   0.00070,  -0.00247,  -0.00102,196757488.00000,   0.00160,276375680.00000,   0.00010,  -0.00195,  -0.00006,-279618192.00000,   0.00000
103570387.98477,-65843843.29101,-73975854.72246,   0.00070,  -0.00246,  -0.00102,195835152.00000,   0.00160,276375680.00000,   0.00010,  -0.00195,  -0.00006,-280540528.00000,   0.00000
106147644.27113,-61576797.62249,-73897259.86747,   0.00071,  -0.00244,  -0.00102,195136720.00000,   0.00160,276375680.00000,   0.00010,  -0.00195,  -0.00006,-281238960.00000,   0.00000
108747824.05686,-57299927.59709,-73818665.01249,   0.00071,  -0.00243,  -0.00102,194398912.00000,   0.00160,276375680.00000,   0.00010,  -0.00195,  -0.00006,-281976768.00000,   0.00000
111348003.84259,-53023057.57170,-73733520.58626,   0.00071,  -0.00241,  -0.00102,193711840.00000,   0.00160,276375680.00000,   0.00010,  -0.00195,  -0.00006,-282663840.00000,   0.00000
113948183.62832,-48746187.54630,-73648376.16002,   0.00072,  -0.00240,  -0.00102,193106208.00000,   0.00160,276375680.00000,   0.00010,  -0.00195,  -0.00006,-283269472.00000,   0.00000
116535264.27156,-44456218.37841,-73556682.16254,   0.00072,  -0.00238,  -0.00101,192554448.00000,   0.00160,276375680.00000,   0.00010,  -0.00195,  -0.00006,-283821232.00000,   0.00000
119145268.41416,-40156424.85364,-73464988.16506,   0.00072,  -0.00237,  -0.00101,192086512.00000,   0.00160,276375680.00000,   0.00010,  -0.00195,  -0.00006,-284289168.00000,   0.00000
121755272.55676,-35856631.32887,-73366744.59633,   0.00073,  -0.00235,  -0.00101,191680672.00000,   0.00160,276375680.00000,   0.00010,  -0.00195,  -0.00006,-284695008.00000,   0.00000
124375101.05624,-31533914.30474,-73261951.45635,   0.00073,  -0.00234,  -0.00101,191332176.00000,   0.00160,276375680.00000,   0.00010,  -0.00195,  -0.00006,-285043504.00000,   0.00000
126962181.69947,-27243945.13684,-73157158.31637,   0.00073,  -0.00233,  -0.00101,191045184.00000,   0.00160,276375680.00000,   0.00010,  -0.00195,  -0.00006,-285330496.00000,   0.00000
129582010.19895,-22921228.11271,-73052365.17639,   0.00074,  -0.00231,  -0.00101,190838000.00000,   0.00160,276375680.00000,   0.00010,  -0.00195,  -0.00006,-285537680.00000,   0.00000
132211663.05530,-18575587.58920,-72941022.46516,   0.00074,  -0.00230,  -0.00101,190694096.00000,   0.00160,276375680.00000,   0.00010,  -0.00195,  -0.00006,-285681584.00000,   0.00000
134808568.05541,-14262694.92194,-72823130.18269,   0.00074,  -0.00228,  -0.00100,190608112.00000,   0.00160,276375680.00000,   0.00010,  -0.00195,  -0.00006,-285767568.00000,   0.00000
137438220.91176,-9917054.39843,-72705237.90021,   0.00075,  -0.00227,  -0.00100,190607664.00000,   0.00160,276375680.00000,   0.00010,  -0.00195,  -0.00006,-285768016.00000,   0.00000
140044950.26874,-5581238.23179,-72587345.61773,   0.00075,  -0.00225,  -0.00100,190667632.00000,   0.00160,276375680.00000,   0.00010,  -0.00195,  -0.00006,-285708048.00000,   0.00000
142674603.12509,-1235597.70829,-72456354.19276,   0.00075,  -0.00224,  -0.00100,190795536.00000,   0.00160,276375680.00000,   0.00010,  -0.00195,  -0.00006,-285580144.00000,   0.00000
145281332.48206,3100218.45835,-72331912.33904,   0.00076,  -0.00222,  -0.00100,190982800.00000,   0.00160,276375680.00000,   0.00010,  -0.00195,  -0.00006,-285392880.00000,   0.00000
147920809.69529,7468782.48123,-72194371.34281,   0.00076,  -0.00221,  -0.00100,191233504.00000,   0.00160,276375680.00000,   0.00010,  -0.00195,  -0.00006,-285142176.00000,   0.00000
150537363.40914,11827522.14723,-72063379.91784,   0.00076,  -0.00219,  -0.00099,191553328.00000,   0.00160,276375680.00000,   0.00010,  -0.00195,  -0.00006,-284822352.00000,   0.00000
153167016.26549,16173162.67074,-71919289.35037,   0.00077,  -0.00218,  -0.00099,191964960.00000,   0.00160,276375680.00000,   0.00010,  -0.00195,  -0.00006,-284410720.00000,   0.00000
155793394.33622,20554825.83611,-71781748.35415,   0.00077,  -0.00216,  -0.00099,192475152.00000,   0.00160,276375680.00000,   0.00010,  -0.00195,  -0.00006,-283900528.00000,   0.00000
158409948.05007,24913565.50212,-71631108.21543,   0.00078,  -0.00215,  -0.00099,193069760.00000,   0.00160,276375680.00000,   0.00010,  -0.00195,  -0.00006,-283305920.00000,   0.00000
161026501.76392,29272305.16812,-71487017.64795,   0.00078,  -0.00213,  -0.00099,193752912.00000,   0.00160,276375680.00000,   0.00010,  -0.00195,  -0.00006,-282622768.00000,   0.00000
163652879.83465,33653968.33350,-71329827.93799,   0.00078,  -0.00212,  -0.00098,194486544.00000,   0.00160,276375680.00000,   0.00010,  -0.00195,  -0.00006,-281889136.00000,   0.00000
166279257.90537,38035631.49887,-71172638.22802,   0.00079,  -0.00211,  -0.00098,195272176.00000,   0.00160,276375680.00000,   0.00010,  -0.00195,  -0.00006,-281103504.00000,   0.00000
168905635.97610,42417294.66425,-71015448.51805,   0.00079,  -0.00209,  -0.00098,196105136.00000,   0.00160,276375680.00000,   0.00010,  -0.00195,  -0.00006,-280270544.00000,   0.00000
171532014.04682,46798957.82962,-70851709.23683,   0.00079,  -0.00208,  -0.00098,196977584.00000,   0.00160,276375680.00000,   0.00010,  -0.00195,  -0.00006,-279398096.00000,   0.00000
174158392.11755,51180620.99500,-70687969.95561,   0.00080,  -0.00206,  -0.00098,197898768.00000,   0.00160,276375680.00000,   0.00010,  -0.00195,  -0.00006,-278476912.00000,   0.00000
176784770.18827,55562284.16037,-70517681.10315,   0.00080,  -0.00205,  -0.00097,198865808.00000,   0.00160,276375680.00000,   0.00010,  -0.00195,  -0.00006,-277509872.00000,   0.00000
179420972.61587,59966870.82512,-70340842.67943,   0.00080,  -0.00203,  -0.00097,199889088.00000,   0.00160,276375680.00000,   0.00010,  -0.00195,  -0.00006,-276486592.00000,   0.00000
182024427.18723,64338709.63362,-70164004.25572,   0.00081,  -0.00202,  -0.00097,200962592.00000,   0.00160,276375680.00000,   0.00010,  -0.00195,  -0.00006,-275413088.00000,   0.00000
184660629.61483,68743296.29836,-69987165.83200,   0.00081,  -0.00200,  -0.00097,202132560.00000,   0.00160,276375680.00000,   0.00010,  -0.00195,  -0.00006,-274243120.00000,   0.00000
187273908.54305,73138058.60624,-69803777.83704,   0.00081,  -0.00199,  -0.00097,203360144.00000,   0.00160,276375680.00000,   0.00010,  -0.00195,  -0.00006,-273015536.00000,   0.00000
189887187.47128,77532820.91411,-69613840.27083,   0.00082,  -0.00197,  -0.00096,204661632.00000,   0.00160,276375680.00000,   0.00010,  -0.00195,  -0.00006,-271714048.00000,   0.00000
192523389.89888,81937407.57885,-69423902.70462,   0.00082,  -0.00196,  -0.00096,206066144.00000,   0.00160,276375680.00000,   0.00010,  -0.00195,  -0.00006,-270309536.00000,   0.00000
195136668.82711,86332169.88673,-69233965.13840,   0.00082,  -0.00194,  -0.00096,207536192.00000,   0.00160,276375680.00000,   0.00010,  -0.00195,  -0.00006,-268839488.00000,   0.00000
197749947.75534,90726932.19460,-69037478.00094,   0.00083,  -0.00193,  -0.00096,209045360.00000,   0.00160,276375680.00000,   0.00010,  -0.00195,  -0.00006,-267330320.00000,   0.00000
200363226.68357,95121694.50247,-68840990.86348,   0.00083,  -0.00191,  -0.00095,210588304.00000,   0.00160,276375680.00000,   0.00010,  -0.00195,  -0.00006,-265787376.00000,   0.00000
202953582.11242,99506632.45347,-68637954.15477,   0.00083,  -0.00190,  -0.00095,212170656.00000,   0.00160,276375680.00000,   0.00010,  -0.00195,  -0.00006,-264205024.00000,   0.00000
205566861.04065,103901394.76134,-68428367.87482,   0.00084,  -0.00188,  -0.00095,213868432.00000,   0.00160,276375680.00000,   0.00010,  -0.00195,  -0.00006,-262507248.00000,   0.00000
208180139.96888,108296157.06922,-68218781.59486,   0.00084,  -0.00187,  -0.00094,215734128.00000,   0.00160,276375680.00000,   0.00010,  -0.00195,  -0.00006,-260641552.00000,   0.00000
210780319.75461,112704018.51959,-68009195.31490,   0.00084,  -0.00185,  -0.00094,217760320.00000,   0.00160,276375680.00000,   0.00010,  -0.00195,  -0.00006,-258615360.00000,   0.00000
213370675.18347,117088956.47059,-67793059.46369,   0.00085,  -0.00184,  -0.00094,219774064.00000,   0.00160,276375680.00000,   0.00010,  -0.00195,  -0.00006,-256601616.00000,   0.00000
215970854.96920,121496817.92096,-67570374.04124,   0.00085,  -0.00182,  -0.00094,221739968.00000,   0.00160,276375680.00000,   0.00010,  -0.00195,  -0.00006,-254635712.00000,   0.00000
218561210.39806,125881755.87195,-67354238.19003,   0.00085,  -0.00181,  -0.00093,223707952.00000,   0.00160,276375680.00000,   0.00010,  -0.00195,  -0.00006,-252667728.00000,   0.00000
221151565.82691,130266693.82295,-67125003.19633,   0.00086,  -0.00179,  -0.00093,225693904.00000,   0.00160,276375680.00000,   0.00010,  -0.00195,  -0.00006,-250681776.00000,   0.00000
223751745.61265,134674555.27332,-66895768.20262,   0.00086,  -0.00178,  -0.00093,227724800.00000,   0.00160,276375680.00000,   0.00010,  -0.00195,  -0.00006,-248650880.00000,   0.00000
226342101.04150,139059493.22432,-66666533.20892,   0.00086,  -0.00176,  -0.00092,229785344.00000,   0.00160,276375680.00000,   0.00010,  -0.00195,  -0.00006,-246590336.00000,   0.00000
228919357.32786,143457530.31782,-66430748.64396,   0.00086,  -0.00175,  -0.00092,231872064.00000,   0.00160,276375680.00000,   0.00010,  -0.00195,  -0.00006,-244503616.00000,   0.00000
231486789.25735,147832643.91195,-66194964.07901,   0.00087,  -0.00173,  -0.00092,233947744.00000,   0.00160,276375680.00000,   0.00010,  -0.00195,  -0.00006,-242427936.00000,   0.00000
234054221.18684,152207757.50607,-65952629.94281,   0.00087,  -0.00172,  -0.00091,235714768.00000,   0.00160,276375680.00000,   0.00010,  -0.00195,  -0.00006,-240660912.00000,   0.00000
236631477.47320,156605794.59957,-65710295.80661,   0.00087,  -0.00170,  -0.00091,237681168.00000,   0.00160,276375680.00000,   0.00010,  -0.00195,  -0.00006,-238694512.00000,   0.00000
239198909.40269,160980908.19370,-65461412.09916,   0.00088,  -0.00169,  -0.00091,239921024.00000,   0.00160,276375680.00000,   0.00010,  -0.00195,  -0.00006,-236454656.00000,   0.00000
241766341.33217,165356021.78782,-65212528.39171,   0.00088,  -0.00167,  -0.00091,242193376.00000,   0.00160,276375680.00000,   0.00010,  -0.00195,  -0.00006,-234182304.00000,   0.00000
244310849.76229,169721311.02508,-64957095.11301,   0.00088,  -0.00166,  -0.00090,244462336.00000,   0.00160,276375680.00000,   0.00010,  -0.00195,  -0.00006,-231913344.00000,   0.00000
246878281.69178,174096424.61920,-64701661.83431,   0.00089,  -0.00164,  -0.00090,246788464.00000,   0.00160,276375680.00000,   0.00010,  -0.00195,  -0.00006,-229587216.00000,   0.00000
249432614.47877,178484637.35583,-64446228.55561,   0.00089,  -0.00163,  -0.00090,249164288.00000,   0.00160,276375680.00000,   0.00010,  -0.00195,  -0.00006,-227211392.00000,   0.00000
251977122.90888,182849926.59308,-64184245.70566,   0.00089,  -0.00161,  -0.00089,251571344.00000,   0.00160,276375680.00000,   0.00010,  -0.00195,  -0.00006,-224804336.00000,   0.00000
254498707.83963,187205391.47346,-63915713.28447,   0.00090,  -0.00160,  -0.00089,253986272.00000,   0.00160,276375680.00000,   0.00010,  -0.00195,  -0.00006,-222389408.00000,   0.00000
257033391.91287,191547757.21134,-63653730.43452,   0.00090,  -0.00158,  -0.00089,256433104.00000,   0.00160,276375680.00000,   0.00010,  -0.00195,  -0.00006,-219942576.00000,   0.00000
259554976.84362,195903222.09172,-63378648.44207,   0.00090,  -0.00157,  -0.00088,258889600.00000,   0.00160,276375680.00000,   0.00010,  -0.00195,  -0.00006,-217486080.00000,   0.00000
262076561.77437,200258686.97210,-63103566.44963,   0.00090,  -0.00155,  -0.00088,261375632.00000,   0.00160,276375680.00000,   0.00010,  -0.00195,  -0.00006,-215000048.00000,   0.00000
264598146.70511,204614151.85248,-62828484.45718,   0.00091,  -0.00154,  -0.00087,263895200.00000,   0.00160,276375680.00000,   0.00010,  -0.00195,  -0.00006,-212480480.00000,   0.00000
267109907.27899,208946693.23349,-62546852.89349,   0.00091,  -0.00152,  -0.00087,266431616.00000,   0.00160,276375680.00000,   0.00010,  -0.00195,  -0.00006,-209944064.00000,   0.00000
269598744.35349,213269410.25763,-62265221.32980,   0.00091,  -0.00151,  -0.00087,268984320.00000,   0.00160,276375680.00000,   0.00010,  -0.00195,  -0.00006,-207391360.00000,   0.00000
272120329.28424,217624875.13801,-61983589.76610,   0.00092,  -0.00149,  -0.00086,271596832.00000,   0.00160,276375680.00000,   0.00010,  -0.00195,  -0.00006,-204778848.00000,   0.00000
274609166.35874,221947592.16215,-61695408.63116,   0.00092,  -0.00148,  -0.00086,274203424.00000,   0.00160,276375680.00000,   0.00010,  -0.00195,  -0.00006,-202172256.00000,   0.00000
277075079.93387,226260484.82941,-61400677.92497,   0.00092,  -0.00146,  -0.00086,276814528.00000,   0.00160,276375680.00000,   0.00010,  -0.00195,  -0.00006,-199561152.00000,   0.00000
279563917.00838,230583201.85355,-61112496.79003,   0.00093,  -0.00145,  -0.00085,279470240.00000,   0.00160,276375680.00000,   0.00010,  -0.00195,  -0.00006,-196905440.00000,   0.00000
282029830.58351,234896094.52081,-60811216.51259,   0.00093,  -0.00144,  -0.00085,282123392.00000,   0.00160,276375680.00000,   0.00010,  -0.00195,  -0.00006,-194252288.00000,   0.00000
284508843.30114,239195888.04558,-60516485.80640,   0.00093,  -0.00142,  -0.00084,284806400.00000,   0.00160,276375680.00000,   0.00010,  -0.00195,  -0.00006,-191569280.00000,   0.00000
286951833.37690,243498956.35597,-60208655.95771,   0.00093,  -0.00141,  -0.00084,287486720.00000,   0.00160,276375680.00000,   0.00010,  -0.00195,  -0.00006,-188888960.00000,   0.00000
289407922.59516,247788925.52386,-59907375.68027,   0.00094,  -0.00139,  -0.00084,290211808.00000,   0.00160,276375680.00000,   0.00010,  -0.00195,  -0.00006,-186163872.00000,   0.00000
291841088.31405,252069070.33488,-59599545.83158,   0.00094,  -0.00138,  -0.00083,292990720.00000,   0.00160,276375680.00000,   0.00010,  -0.00195,  -0.00006,-183384960.00000,   0.00000
294274254.03294,256349215.14590,-59291715.98289,   0.00094,  -0.00136,  -0.00083,295890624.00000,   0.00160,276375680.00000,   0.00010,  -0.00195,  -0.00006,-180485056.00000,   0.00000
296707419.75183,260629359.95692,-58977336.56295,   0.00094,  -0.00135,  -0.00082,298762080.00000,   0.00160,276375680.00000,   0.00010,  -0.00195,  -0.00006,-177613600.00000,   0.00000
299140585.47072,264909504.76794,-58662957.14302,   0.00095,  -0.00133,  -0.00082,301437568.00000,   0.00160,276375680.00000,   0.00010,  -0.00195,  -0.00006,-174938112.00000,   0.00000
301541003.33336,269156901.72272,-58342028.15183,   0.00095,  -0.00132,  -0.00082,304111264.00000,   0.00160,276375680.00000,   0.00010,  -0.00195,  -0.00006,-172264416.00000,   0.00000
303951245.55288,273427222.17687,-58021099.16064,   0.00095,  -0.00130,  -0.00081,306884736.00000,   0.00160,276375680.00000,   0.00010,  -0.00195,  -0.00006,-169490944.00000,   0.00000
306351663.41553,277674619.13164,-57700170.16946,   0.00096,  -0.00129,  -0.00081,309693920.00000,   0.00160,276375680.00000,   0.00010,  -0.00195,  -0.00006,-166681760.00000,   0.00000
308752081.27817,281922016.08642,-57372691.60702,   0.00096,  -0.00127,  -0.00080,312533504.00000,   0.00160,276375680.00000,   0.00010,  -0.00195,  -0.00006,-163842176.00000,   0.00000
311129575.64145,286159588.68432,-57045213.04459,   0.00096,  -0.00126,  -0.00080,315386080.00000,   0.00160,276375680.00000,   0.00010,  -0.00195,  -0.00006,-160989600.00000,   0.00000
313497245.64785,290374237.78286,-56711184.91091,   0.00096,  -0.00124,  -0.00079,318247328.00000,   0.00160,276375680.00000,   0.00010,  -0.00195,  -0.00006,-158128352.00000,   0.00000
315841992.15488,294579062.52452,-56377156.77722,   0.00097,  -0.00123,  -0.00079,321114592.00000,   0.00160,276375680.00000,   0.00010,  -0.00195,  -0.00006,-155261088.00000,   0.00000
318209662.16128,298793711.62305,-56043128.64354,   0.00097,  -0.00121,  -0.00079,324013952.00000,   0.00160,276375680.00000,   0.00010,  -0.00195,  -0.00006,-152361728.00000,   0.00000
320554408.66832,302998536.36471,-55702550.93861,   0.00097,  -0.00120,  -0.00078,326900000.00000,   0.00160,276375680.00000,   0.00010,  -0.00195,  -0.00006,-149475680.00000,   0.00000
322876231.67598,307193536.74950,-55361973.23367,   0.00097,  -0.00119,  -0.00078,329768608.00000,   0.00160,276375680.00000,   0.00010,  -0.00195,  -0.00006,-146607072.00000,   0.00000
325211153.82614,311375437.99179,-55014845.95749,   0.00098,  -0.00117,  -0.00077,332632064.00000,   0.00160,276375680.00000,   0.00010,  -0.00195,  -0.00006,-143743616.00000,   0.00000
327532976.83380,315570438.37658,-54667718.68131,   0.00098,  -0.00116,  -0.00077,335496224.00000,   0.00160,276375680.00000,   0.00010,  -0.00195,  -0.00006,-140879456.00000,   0.00000
329844975.48458,319742515.26199,-54320591.40513,   0.00098,  -0.00114,  -0.00076,338354240.00000,   0.00160,276375680.00000,   0.00010,  -0.00195,  -0.00006,-138021440.00000,   0.00000
332124226.27913,323881844.29117,-53973464.12895,   0.00098,  -0.00113,  -0.00076,341197536.00000,   0.00160,276375680.00000,   0.00010,  -0.00195,  -0.00006,-135178144.00000,   0.00000
334413301.43055,328044096.81971,-53619787.28152,   0.00098,  -0.00111,  -0.00075,344073696.00000,   0.00160,276375680.00000,   0.00010,  -0.00195,  -0.00006,-132301984.00000,   0.00000
336692552.22509,332183425.84888,-53259560.86284,   0.00099,  -0.00110,  -0.00075,346954080.00000,   0.00160,276375680.00000,   0.00010,  -0.00195,  -0.00006,-129421600.00000,   0.00000
338948879.52027,336312930.52118,-52899334.44417,   0.00099,  -0.00108,  -0.00075,349839072.00000,   0.00160,276375680.00000,   0.00010,  -0.00195,  -0.00006,-126536608.00000,   0.00000
341205206.81544,340442435.19348,-52539108.02549,   0.00099,  -0.00107,  -0.00074,352741920.00000,   0.00160,276375680.00000,   0.00010,  -0.00195,  -0.00006,-123633760.00000,   0.00000
343451709.75374,344549016.36641,-52178881.60681,   0.00099,  -0.00106,  -0.00074,355642624.00000,   0.00160,276375680.00000,   0.00010,  -0.00195,  -0.00006,-120733056.00000,   0.00000
345698212.69204,348655597.53934,-51812105.61688,   0.00100,  -0.00104,  -0.00073,358551776.00000,   0.00160,276375680.00000,   0.00010,  -0.00195,  -0.00006,-117823904.00000,   0.00000
347921792.13098,352752354.35540,-51445329.62696,   0.00100,  -0.00103,  -0.00073,361455200.00000,   0.00160,276375680.00000,   0.00010,  -0.00195,  -0.00006,-114920480.00000,   0.00000
350122448.07054,356839286.81459,-51078553.63703,   0.00100,  -0.00101,  -0.00072,364353024.00000,   0.00160,276375680.00000,   0.00010,  -0.00195,  -0.00006,-112022656.00000,   0.00000
352336203.15259,360913120.13127,-50705228.07585,   0.00100,  -0.00100,  -0.00072,367258592.00000,   0.00160,276375680.00000,   0.00010,  -0.00195,  -0.00006,-109117088.00000,   0.00000
354527034.73528,364977129.09109,-50331902.51468,   0.00100,  -0.00098,  -0.00071,370160896.00000,   0.00160,276375680.00000,   0.00010,  -0.00195,  -0.00006,-106214784.00000,   0.00000
356685118.46173,369008390.19466,-49952027.38225,   0.00101,  -0.00097,  -0.00071,373043232.00000,   0.00160,276375680.00000,   0.00010,  -0.00195,  -0.00006,-103332448.00000,   0.00000
358853026.54504,373062574.79760,-49572152.24983,   0.00101,  -0.00096,  -0.00070,375958016.00000,   0.00160,276375680.00000,   0.00010,  -0.00195,  -0.00006,-100417664.00000,   0.00000
361011110.27149,377093835.90117,-49192277.11741,   0.00101,  -0.00094,  -0.00070,378874720.00000,   0.00160,276375680.00000,   0.00010,  -0.00195,  -0.00006,-97500960.00000,   0.00000
363169193.99793,381125097.00474,-48812401.98498,   0.00101,  -0.00093,  -0.00069,381812064.00000,   0.00160,276375680.00000,   0.00010,  -0.00195,  -0.00006,-94563616.00000,   0.00000
365294529.86813,385123610.25206,-48425977.28131,   0.00101,  -0.00091,  -0.00069,384736320.00000,   0.00160,276375680.00000,   0.00010,  -0.00195,  -0.00006,-91639360.00000,   0.00000
367396942.23896,389112299.14252,-48039552.57764,   0.00102,  -0.00090,  -0.00068,387666688.00000,   0.00160,276375680.00000,   0.00010,  -0.00195,  -0.00006,-88708992.00000,   0.00000
369522278.10916,393110812.38984,-47646578.30272,   0.00102,  -0.00089,  -0.00068,390630016.00000,   0.00160,276375680.00000,   0.00010,  -0.00195,  -0.00006,-85745664.00000,   0.00000
371601766.98062,397089676.92342,-47253604.02779,   0.00102,  -0.00087,  -0.00067,393579072.00000,   0.00160,276375680.00000,   0.00010,  -0.00195,  -0.00006,-82796608.00000,   0.00000
373694354.99458,401055442.31451,-46860629.75287,   0.00102,  -0.00086,  -0.00067,396541696.00000,   0.00160,276375680.00000,   0.00010,  -0.00195,  -0.00006,-79833984.00000,   0.00000
375764019.50917,405011383.34872,-46467655.47795,   0.00102,  -0.00084,  -0.00066,399509856.00000,   0.00160,276375680.00000,   0.00010,  -0.00195,  -0.00006,-76865824.00000,   0.00000
377800936.16751,408934576.52668,-46068131.63178,   0.00102,  -0.00083,  -0.00066,402475456.00000,   0.00160,276375680.00000,   0.00010,  -0.00195,  -0.00006,-73900224.00000,   0.00000
379860776.32522,412867594.06152,-45668607.78561,   0.00103,  -0.00082,  -0.00065,405477024.00000,   0.00160,276375680.00000,   0.00010,  -0.00195,  -0.00006,-70898656.00000,   0.00000
381874769.48420,416780962.88262,-45269083.93944,   0.00103,  -0.00080,  -0.00065,408432736.00000,   0.00160,276375680.00000,   0.00010,  -0.00195,  -0.00006,-67942944.00000,   0.00000
383911686.14254,420704156.06058,-44863010.52202,   0.00103,  -0.00079,  -0.00064,411350272.00000,   0.00160,276375680.00000,   0.00010,  -0.00195,  -0.00006,-65025408.00000,   0.00000
385915854.94464,424594601.38231,-44456937.10460,   0.00103,  -0.00077,  -0.00064,414038752.00000,   0.00160,276375680.00000,   0.00010,  -0.00195,  -0.00006,-62336928.00000,   0.00000
387897100.24737,428475222.34716,-44050863.68718,   0.00103,  -0.00076,  -0.00063,416670304.00000,   0.00160,276375680.00000,   0.00010,  -0.00195,  -0.00006,-59705376.00000,   0.00000
389868521.19322,432332919.81264,-43638240.69852,   0.00103,  -0.00075,  -0.00062,419560192.00000,   0.00160,276375680.00000,   0.00010,  -0.00195,  -0.00006,-56815488.00000,   0.00000
391839942.13908,436190617.27811,-43232167.28110,   0.00104,  -0.00073,  -0.00062,422439936.00000,   0.00160,276375680.00000,   0.00010,  -0.00195,  -0.00006,-53935744.00000,   0.00000
393788439.58557,440038490.38672,-42812994.72118,   0.00104,  -0.00072,  -0.00061,425312480.00000,   0.00160,276375680.00000,   0.00010,  -0.00195,  -0.00006,-51063200.00000,   0.00000
395727112.67518,443863439.99596,-42400371.73251,   0.00104,  -0.00071,  -0.00061,428179520.00000,   0.00160,276375680.00000,   0.00010,  -0.00195,  -0.00006,-48196160.00000,   0.00000
397642862.26542,447678565.24832,-41981199.17260,   0.00104,  -0.00069,  -0.00060,431034208.00000,   0.00160,276375680.00000,   0.00010,  -0.00195,  -0.00006,-45341472.00000,   0.00000
399558611.85566,451493690.50068,-41568576.18393,   0.00104,  -0.00068,  -0.00060,433892224.00000,   0.00160,276375680.00000,   0.00010,  -0.00195,  -0.00006,-42483456.00000,   0.00000
401441613.58966,455276067.89680,-41142854.05276,   0.00104,  -0.00067,  -0.00059,436715456.00000,   0.00160,276375680.00000,   0.00010,  -0.00195,  -0.00006,-39660224.00000,   0.00000
403324615.32366,459058445.29292,-40723681.49285,   0.00104,  -0.00065,  -0.00059,439542272.00000,   0.00160,276375680.00000,   0.00010,  -0.00195,  -0.00006,-36833408.00000,   0.00000
405174869.20142,462808074.83280,-40297959.36168,   0.00104,  -0.00064,  -0.00058,442339712.00000,   0.00160,276375680.00000,   0.00010,  -0.00195,  -0.00006,-34035968.00000,   0.00000
407025123.07917,466557704.37268,-39872237.23052,   0.00105,  -0.00062,  -0.00058,445143776.00000,   0.00160,276375680.00000,   0.00010,  -0.00195,  -0.00006,-31231904.00000,   0.00000
408852453.45756,470297509.55568,-39446515.09935,   0.00105,  -0.00061,  -0.00057,447942496.00000,   0.00160,276375680.00000,   0.00010,  -0.00195,  -0.00006,-28433184.00000,   0.00000
410669959.47907,474014391.23931,-39014243.39694,   0.00105,  -0.00060,  -0.00056,450732960.00000,   0.00160,276375680.00000,   0.00010,  -0.00195,  -0.00006,-25642720.00000,   0.00000
412487465.50058,477731272.92294,-38588521.26577,   0.00105,  -0.00058,  -0.00056,453537024.00000,   0.00160,276375680.00000,   0.00010,  -0.00195,  -0.00006,-22838656.00000,   0.00000
414272223.66585,481415406.75033,-38156249.56336,   0.00105,  -0.00057,  -0.00055,456319712.00000,   0.00160,276375680.00000,   0.00010,  -0.00195,  -0.00006,-20055968.00000,   0.00000
416034058.33175,485089716.22085,-37717428.28970,   0.00105,  -0.00056,  -0.00055,459098208.00000,   0.00160,276375680.00000,   0.00010,  -0.00195,  -0.00006,-17277472.00000,   0.00000
417795892.99765,488764025.69137,-37285156.58728,   0.00105,  -0.00054,  -0.00054,461889440.00000,   0.00160,276375680.00000,   0.00010,  -0.00195,  -0.00006,-14486240.00000,   0.00000
419524979.80730,492405587.30564,-36846335.31362,   0.00105,  -0.00053,  -0.00054,464656704.00000,   0.00160,276375680.00000,   0.00010,  -0.00195,  -0.00006,-11718976.00000,   0.00000
421254066.61696,496047148.91991,-36407514.03996,   0.00105,  -0.00052,  -0.00053,467432192.00000,   0.00160,276375680.00000,   0.00010,  -0.00195,  -0.00006,-8943488.00000,   0.00000
422973329.06974,499665787.03481,-35968692.76630,   0.00105,  -0.00051,  -0.00053,470196224.00000,   0.00160,276375680.00000,   0.00010,  -0.00195,  -0.00006,-6179456.00000,   0.00000
424669668.02315,503274600.79284,-35523321.92139,   0.00105,  -0.00049,  -0.00052,472948096.00000,   0.00160,276375680.00000,   0.00010,  -0.00195,  -0.00006,-3427584.00000,   0.00000
426343083.47719,506873590.19400,-35084500.64772,   0.00105,  -0.00048,  -0.00051,475688000.00000,   0.00160,276375680.00000,   0.00010,  -0.00195,  -0.00006,-687680.00000,   0.00000
426763855.05352,507778083.42502,-34971853.13910,   0.00105,  -0.00048,  -0.00051,476375840.00000,   0.00160,276375680.00000,   0.00010,  -0.00195,  -0.00006, 160.00000,   0.00000
426244349.78474,508270598.74557,-34465603.84576,   0.00106,  -0.00047,  -0.00051,476375840.00000,   0.00161,276382368.00000,   0.00011,  -0.00195,  -0.00006, 192.00000,   2.00000
425545941.57067,508923006.57162,-33788391.33375,   0.00106,  -0.00045,  -0.00050,479070656.00000,   0.00161,276391232.00000,   0.00011,  -0.00194,  -0.00006,   0.00000,   2.00000
424846228.40804,509563588.92181,-33121541.37830,   0.00106,  -0.00044,  -0.00050,479087104.00000,   0.00162,276400160.00000,   0.00012,  -0.00193,  -0.00007, -32.00000,   2.00000
424135785.59439,510199377.39835,-32459739.97901,   0.00106,  -0.00043,  -0.00049,479087936.00000,   0.00163,276409024.00000,   0.00012,  -0.00192,  -0.00007, -64.00000,   2.00000
423426578.67411,510826653.40990,-31795422.79001,   0.00106,  -0.00041,  -0.00048,479101248.00000,   0.00164,276417920.00000,   0.00013,  -0.00191,  -0.00007, 192.00000,   2.00000
422711982.19132,511445621.13546,-31137458.13776,   0.00106,  -0.00040,  -0.00048,479084128.00000,   0.00165,276426720.00000,   0.00013,  -0.00190,  -0.00007,  96.00000,   2.00000
421993156.95655,512058021.20214,-30479324.28330,   0.00106,  -0.00039,  -0.00047,479065184.00000,   0.00166,276435424.00000,   0.00014,  -0.00190,  -0.00008,   0.00000,   2.00000
421273385.36379,512659587.64284,-29831433.12820,   0.00106,  -0.00038,  -0.00047,479080416.00000,   0.00166,276444160.00000,   0.00014,  -0.00189,  -0.00008,   0.00000,   2.00000
420554723.25203,513253017.19361,-29180902.43549,   0.00106,  -0.00036,  -0.00046,479093216.00000,   0.00167,276452896.00000,   0.00015,  -0.00188,  -0.00008,  32.00000,   2.00000
419829764.12024,513837944.86177,-28542874.82332,   0.00106,  -0.00035,  -0.00046,479076384.00000,   0.00168,276461568.00000,   0.00015,  -0.00187,  -0.00008,  96.00000,   2.00000
419100461.23089,514417120.79237,-27904344.09234,   0.00106,  -0.00034,  -0.00045,479056960.00000,   0.00169,276470112.00000,   0.00015,  -0.00186,  -0.00009, -32.00000,   2.00000
418366913.37476,514991925.58628,-27261865.59210,   0.00106,  -0.00033,  -0.00044,479087584.00000,   0.00170,276478784.00000,   0.00016,  -0.00185,  -0.00009,   0.00000,   2.00000
417632405.03588,515555466.47511,-26632867.81869,   0.00106,  -0.00031,  -0.00044,479052256.00000,   0.00170,276487264.00000,   0.00016,  -0.00184,  -0.00009, -32.00000,   2.00000
416882667.89066,516120216.07096,-26000800.08545,   0.00106,  -0.00030,  -0.00043,479068608.00000,   0.00171,276495808.00000,   0.00017,  -0.00184,  -0.00009,   0.00000,   2.00000
416144022.86162,516669999.23026,-25374655.73407,   0.00106,  -0.00029,  -0.00042,479046144.00000,   0.00172,276504224.00000,   0.00017,  -0.00183,  -0.00010, 128.00000,   2.00000
415400265.05159,517214417.33979,-24750992.09409,   0.00106,  -0.00028,  -0.00042,479077632.00000,   0.00173,276512736.00000,   0.00018,  -0.00182,  -0.00010,  64.00000,   2.00000
414650962.02666,517752641.77674,-24132845.86317,   0.00106,  -0.00026,  -0.00041,479059072.00000,   0.00174,276521152.00000,   0.00018,  -0.00181,  -0.00010,   0.00000,   2.00000
413896283.42973,518285096.45905,-23520116.62584,   0.00106,  -0.00025,  -0.00041,479040288.00000,   0.00174,276529472.00000,   0.00019,  -0.00180,  -0.00010,  64.00000,   2.00000
413142834.42379,518810462.13030,-22904415.82370,   0.00106,  -0.00024,  -0.00040,479052544.00000,   0.00175,276537824.00000,   0.00019,  -0.00179,  -0.00010,   0.00000,   2.00000
412377668.31553,519331991.94916,-22299450.06601,   0.00106,  -0.00023,  -0.00039,479053024.00000,   0.00176,276546144.00000,   0.00019,  -0.00178,  -0.00010, -32.00000,   2.00000
411607722.82224,519848986.28331,-21693189.21265,   0.00106,  -0.00021,  -0.00039,479033376.00000,   0.00177,276554368.00000,   0.00020,  -0.00178,  -0.00011, -32.00000,   2.00000
410843691.76673,520355382.50930,-21091307.44691,   0.00106,  -0.00020,  -0.00038,479028320.00000,   0.00177,276562528.00000,   0.00020,  -0.00177,  -0.00011,  96.00000,   2.00000
410068595.77702,520859163.45358,-20493498.17850,   0.00106,  -0.00019,  -0.00038,479027776.00000,   0.00178,276570688.00000,   0.00021,  -0.00176,  -0.00011,  96.00000,   2.00000
409294746.09074,521356085.30424,-19892564.81248,   0.00106,  -0.00018,  -0.00037,479040192.00000,   0.00179,276578880.00000,   0.00021,  -0.00175,  -0.00011, -64.00000,   2.00000
408514579.62180,521846999.00810,-19303009.67691,   0.00105,  -0.00016,  -0.00036,479022144.00000,   0.00180,276586944.00000,   0.00021,  -0.00174,  -0.00011, 128.00000,   2.00000
407724019.04404,522336104.42503,-18710872.93985,   0.00105,  -0.00015,  -0.00036,479020896.00000,   0.00180,276595008.00000,   0.00022,  -0.00173,  -0.00011, -32.00000,   2.00000
406938846.59588,522813786.95344,-18129305.62818,   0.00105,  -0.00014,  -0.00035,479016352.00000,   0.00181,276603008.00000,   0.00022,  -0.00173,  -0.00012, -32.00000,   2.00000
406148579.08600,523286634.63508,-17545842.32319,   0.00105,  -0.00013,  -0.00035,478996576.00000,   0.00182,276610944.00000,   0.00022,  -0.00172,  -0.00012, -32.00000,   2.00000
405359883.77019,523751622.30355,-16959075.62459,   0.00105,  -0.00012,  -0.00034,479008704.00000,   0.00183,276618880.00000,   0.00023,  -0.00171,  -0.00012,  96.00000,   2.00000
404548092.92682,524216812.82025,-16383142.08262,   0.00105,  -0.00010,  -0.00033,478994976.00000,   0.00183,276626784.00000,   0.00023,  -0.00170,  -0.00012,  32.00000,   2.00000
403754884.59652,524664658.32508,-15810628.89927,   0.00105,  -0.00009,  -0.00033,479002368.00000,   0.00184,276634656.00000,   0.00024,  -0.00169,  -0.00012, -32.00000,   2.00000
402940091.79642,525113170.57647,-15235967.37931,   0.00105,  -0.00008,  -0.00032,478986912.00000,   0.00185,276642496.00000,   0.00024,  -0.00168,  -0.00012, -96.00000,   2.00000
402131909.12410,525547932.14571,-14671877.59117,   0.00105,  -0.00007,  -0.00031,478980832.00000,   0.00186,276650272.00000,   0.00024,  -0.00168,  -0.00012,-128.00000,   2.00000
401326878.07070,525973388.85250,-14104746.30345,   0.00105,  -0.00006,  -0.00031,478991680.00000,   0.00186,276658112.00000,   0.00025,  -0.00167,  -0.00012,  32.00000,   2.00000
400505032.94034,526396852.27879,-13542669.30611,   0.00105,  -0.00005,  -0.00030,478958496.00000,   0.00187,276665792.00000,   0.00025,  -0.00166,  -0.00013,   0.00000,   2.00000
399685726.82318,526811635.84300,-12984011.32079,   0.00104,  -0.00003,  -0.00030,478970400.00000,   0.00188,276673504.00000,   0.00025,  -0.00165,  -0.00013, -32.00000,   2.00000
398873600.59228,527216943.63024,-12429235.39925,   0.00104,  -0.00002,  -0.00029,478964032.00000,   0.00189,276681184.00000,   0.00026,  -0.00164,  -0.00013, -32.00000,   2.00000
398038499.88560,527626271.37001,-11878345.72100,   0.00104,  -0.00001,  -0.00028,478950464.00000,   0.00189,276688800.00000,   0.00026,  -0.00164,  -0.00013,  96.00000,   2.00000
397209515.29772,528028680.85466,-11324361.13777,   0.00104,   0.00000,  -0.00028,478944896.00000,   0.00190,276696352.00000,   0.00026,  -0.00163,  -0.00013,  32.00000,   2.00000
396385420.77618,528423999.87303,-10780141.20664,   0.00104,   0.00001,  -0.00027,478940160.00000,   0.00191,276703840.00000,   0.00027,  -0.00162,  -0.00013,  32.00000,   2.00000
395531755.24475,528827302.60481,-10232251.19838,   0.00104,   0.00002,  -0.00026,478945856.00000,   0.00191,276711328.00000,   0.00027,  -0.00161,  -0.00013,   0.00000,   2.00000
394687121.21118,529221442.46972,-9694421.73283,   0.00104,   0.00003,  -0.00026,478922848.00000,   0.00192,276718720.00000,   0.00027,  -0.00160,  -0.00013,  96.00000,   2.00000
393842437.75713,529610766.18369,-9152725.86225,   0.00103,   0.00005,  -0.00025,478935808.00000,   0.00193,276726112.00000,   0.00028,  -0.00160,  -0.00013,   0.00000,   2.00000
392972495.88620,530004271.33558,-8614336.76859,   0.00103,   0.00006,  -0.00024,478922720.00000,   0.00193,276733440.00000,   0.00028,  -0.00159,  -0.00013,  32.00000,   2.00000
392107729.06996,530389823.68427,-8079111.65308,   0.00103,   0.00007,  -0.00024,478917024.00000,   0.00194,276740704.00000,   0.00028,  -0.00158,  -0.00013, 192.00000,   2.00000
391243255.01868,530768305.63070,-7546689.08471,   0.00103,   0.00008,  -0.00023,478929824.00000,   0.00195,276748000.00000,   0.00028,  -0.00157,  -0.00013, -64.00000,   2.00000
390359248.90943,531148013.58183,-7011397.24825,   0.00103,   0.00009,  -0.00023,478896960.00000,   0.00196,276755136.00000,   0.00029,  -0.00156,  -0.00013,  64.00000,   2.00000
389480823.15853,531518240.73901,-6485747.65127,   0.00103,   0.00010,  -0.00022,478890752.00000,   0.00196,276762272.00000,   0.00029,  -0.00156,  -0.00013,  32.00000,   2.00000
388590790.04838,531885715.80404,-5963051.56035,   0.00102,   0.00011,  -0.00021,478889696.00000,   0.00197,276769376.00000,   0.00029,  -0.00155,  -0.00013, -32.00000,   2.00000
387702568.24672,532246211.02816,-5436572.10106,   0.00102,   0.00012,  -0.00021,478901408.00000,   0.00198,276776480.00000,   0.00030,  -0.00154,  -0.00014, 128.00000,   2.00000
386807257.46663,532601793.72590,-4919736.26827,   0.00102,   0.00014,  -0.00020,478881664.00000,   0.00198,276783520.00000,   0.00030,  -0.00153,  -0.00014,   0.00000,   2.00000
385900730.88342,532954949.10961,-4399167.75015,   0.00102,   0.00015,  -0.00019,478880352.00000,   0.00199,276790560.00000,   0.00030,  -0.00153,  -0.00014,  32.00000,   2.00000
384987336.60478,533303844.39760,-3881541.91941,   0.00102,   0.00016,  -0.00019,478860288.00000,   0.00199,276797472.00000,   0.00030,  -0.00152,  -0.00014,  64.00000,   2.00000
384079816.15657,533643622.76805,-3373156.37238,   0.00101,   0.00017,  -0.00018,478853280.00000,   0.00200,276804384.00000,   0.00031,  -0.00151,  -0.00014,   0.00000,   2.00000
383160921.05587,533981379.51732,-2860838.78555,   0.00101,   0.00018,  -0.00017,478851712.00000,   0.00201,276811232.00000,   0.00031,  -0.00150,  -0.00014,  64.00000,   2.00000
382234538.48908,534314943.08258,-2351201.14544,   0.00101,   0.00019,  -0.00017,478831648.00000,   0.00201,276818016.00000,   0.00031,  -0.00150,  -0.00014,  32.00000,   2.00000
381309844.91512,534642039.18384,-1843999.19123,   0.00101,   0.00020,  -0.00016,478842912.00000,   0.00202,276824832.00000,   0.00031,  -0.00149,  -0.00014,  96.00000,   2.00000
380373146.26705,534966824.02310,-1339266.45149,   0.00100,   0.00021,  -0.00015,478841728.00000,   0.00203,276831616.00000,   0.00032,  -0.00148,  -0.00014,   0.00000,   2.00000
379428829.01796,535288108.71191,-837011.86053,   0.00100,   0.00022,  -0.00015,478821344.00000,   0.00203,276838304.00000,   0.00032,  -0.00147,  -0.00014,  64.00000,   2.00000
378490255.86310,535601617.68848,-330621.66136,   0.00100,   0.00023,  -0.00014,478813760.00000,   0.00204,276844960.00000,   0.00032,  -0.00147,  -0.00014,  32.00000,   2.00000
377525740.41168,535917282.20244,166888.43307,   0.00100,   0.00024,  -0.00013,478799904.00000,   0.00205,276851584.00000,   0.00032,  -0.00146,  -0.00014, -64.00000,   2.00000
376566275.50804,536224462.17562,662117.81548,   0.00099,   0.00025,  -0.00013,478791936.00000,   0.00205,276858112.00000,   0.00033,  -0.00145,  -0.00014,-832.00000,   1.00000
375609095.83091,536526916.73106,1155069.06385,   0.00099,   0.00026,  -0.00012,478802176.00000,   0.00206,276864704.00000,   0.00033,  -0.00145,  -0.00014,-544.00000,   1.00000
374629679.36080,536830093.67965,1652406.54642,   0.00099,   0.00027,  -0.00012,478769888.00000,   0.00206,276871136.00000,   0.00033,  -0.00144,  -0.00014,-256.00000,   1.00000
373651687.75482,537127283.90697,2140956.16988,   0.00098,   0.00028,  -0.00011,478781280.00000,   0.00207,276877600.00000,   0.00033,  -0.00143,  -0.00014,  32.00000,   1.00000
372665193.60133,537421210.73627,2633959.74348,   0.00098,   0.00029,  -0.00010,478761248.00000,   0.00208,276883968.00000,   0.00033,  -0.00142,  -0.00014, 352.00000,   1.00000
371680131.97603,537709195.11596,3118194.12877,   0.00098,   0.00030,  -0.00010,478772640.00000,   0.00208,276890368.00000,   0.00034,  -0.00142,  -0.00014, 736.00000,   1.00000
370672181.80443,537997648.06850,3607068.44353,   0.00098,   0.00032,  -0.00009,478740576.00000,   0.00209,276896640.00000,   0.00034,  -0.00141,  -0.00014, 896.00000,   1.00000
369668875.10015,538277707.60340,4087367.74152,   0.00097,   0.00033,  -0.00008,478732672.00000,   0.00209,276902848.00000,   0.00034,  -0.00140,  -0.00014, 128.00000,   2.00000
368653236.57680,538556321.38881,4572134.82978,   0.00097,   0.00034,  -0.00008,478730848.00000,   0.00210,276909056.00000,   0.00034,  -0.00140,  -0.00014,  64.00000,   2.00000
367639097.97805,538828902.34646,5054691.83031,   0.00097,   0.00035,  -0.00007,478742016.00000,   0.00211,276915296.00000,   0.00034,  -0.00139,  -0.00014, 256.00000,   2.00000
366601622.25538,539101805.20268,5529057.98977,   0.00096,   0.00036,  -0.00006,478709728.00000,   0.00211,276921408.00000,   0.00035,  -0.00138,  -0.00014,   0.00000,   2.00000
365569219.21186,539367113.42577,6008056.43358,   0.00096,   0.00037,  -0.00006,478701696.00000,   0.00212,276927456.00000,   0.00035,  -0.00138,  -0.00013, -64.00000,   2.00000
364538359.76872,539626392.15241,6484892.18651,   0.00096,   0.00038,  -0.00005,478712864.00000,   0.00212,276933536.00000,   0.00035,  -0.00137,  -0.00013,   0.00000,   2.00000
363479838.21771,539886619.76383,6959938.61986,   0.00095,   0.00039,  -0.00004,478700192.00000,   0.00213,276939552.00000,   0.00035,  -0.00136,  -0.00013,-160.00000,   2.00000
362426803.12946,540140108.01769,7426656.94937,   0.00095,   0.00040,  -0.00004,478691712.00000,   0.00213,276945536.00000,   0.00035,  -0.00136,  -0.00013,  32.00000,   2.00000
361363780.12867,540389284.88432,7898358.71406,   0.00094,   0.00041,  -0.00003,478671968.00000,   0.00214,276951424.00000,   0.00035,  -0.00135,  -0.00013, -32.00000,   2.00000
360287552.82529,540635935.74224,8368193.38783,   0.00094,   0.00041,  -0.00002,478671072.00000,   0.00215,276957312.00000,   0.00036,  -0.00134,  -0.00013, -64.00000,   2.00000
359201472.95118,540878858.22571,8836580.97612,   0.00094,   0.00042,  -0.00002,478651040.00000,   0.00215,276963104.00000,   0.00036,  -0.00134,  -0.00013,  32.00000,   2.00000
358116588.56192,541115306.33315,9302901.94195,   0.00093,   0.00043,  -0.00001,478662080.00000,   0.00216,276968928.00000,   0.00036,  -0.00133,  -0.00013,-160.00000,   2.00000
357021869.71833,541348486.86725,9767882.28211,   0.00093,   0.00044,  -0.00000,478641696.00000,   0.00216,276974656.00000,   0.00036,  -0.00132,  -0.00013, 160.00000,   2.00000
355913554.94344,541578916.46231,10224587.20373,   0.00093,   0.00045,   0.00000,478640704.00000,   0.00217,276980384.00000,   0.00036,  -0.00132,  -0.00013, -64.00000,   2.00000
354809776.50078,541802066.09347,10686309.18317,   0.00092,   0.00046,   0.00001,478632224.00000,   0.00217,276986048.00000,   0.00036,  -0.00131,  -0.00013,  32.00000,   2.00000
353677169.58346,542025653.44592,11146647.42242,   0.00092,   0.00047,   0.00002,478619936.00000,   0.00218,276991680.00000,   0.00037,  -0.00130,  -0.00013,  64.00000,   2.00000
352548960.17689,542241948.12242,11605554.52202,   0.00091,   0.00048,   0.00002,478611328.00000,   0.00218,276997248.00000,   0.00037,  -0.00130,  -0.00013,  32.00000,   2.00000
351422172.89193,542452379.74464,12062548.56746,   0.00091,   0.00049,   0.00003,478621888.00000,   0.00219,277002848.00000,   0.00037,  -0.00129,  -0.00013,  32.00000,   2.00000
350269251.38310,542662080.46541,12518888.28736,   0.00090,   0.00050,   0.00003,478590080.00000,   0.00219,277008320.00000,   0.00037,  -0.00129,  -0.00013, -32.00000,   2.00000
349105701.36305,542868554.88546,12967819.90012,   0.00090,   0.00051,   0.00004,478569216.00000,   0.00220,277013696.00000,   0.00037,  -0.00128,  -0.00013, -32.00000,   2.00000
347943019.42772,543068374.95863,13421492.36287,   0.00090,   0.00052,   0.00005,478580096.00000,   0.00220,277019136.00000,   0.00037,  -0.00127,  -0.00013, -96.00000,   2.00000
346766192.50959,543265278.35477,13873758.62566,   0.00089,   0.00053,   0.00005,478579040.00000,   0.00221,277024512.00000,   0.00037,  -0.00127,  -0.00013, -32.00000,   2.00000
345593440.56060,543455194.82755,14324915.57674,   0.00089,   0.00054,   0.00006,478569888.00000,   0.00221,277029888.00000,   0.00037,  -0.00126,  -0.00013, -32.00000,   2.00000
344393707.92607,543644244.14839,14775784.15229,   0.00088,   0.00055,   0.00007,478537984.00000,   0.00222,277035104.00000,   0.00038,  -0.00126,  -0.00012, -32.00000,   2.00000
343195558.80710,543827980.14685,15218436.38542,   0.00088,   0.00056,   0.00007,478547392.00000,   0.00222,277040384.00000,   0.00038,  -0.00125,  -0.00012, -64.00000,   2.00000
341985284.49164,544007017.75407,15667009.90813,   0.00087,   0.00057,   0.00008,478527456.00000,   0.00223,277045536.00000,   0.00038,  -0.00124,  -0.00012, -64.00000,   2.00000
340760606.35670,544183063.95390,16114289.94786,   0.00087,   0.00057,   0.00009,478526336.00000,   0.00223,277050688.00000,   0.00038,  -0.00124,  -0.00012,  32.00000,   2.00000
339537348.52043,544353408.42539,16553320.83384,   0.00086,   0.00058,   0.00009,478535968.00000,   0.00224,277055872.00000,   0.00038,  -0.00123,  -0.00012,  64.00000,   2.00000
338304405.76626,544518395.08720,16999109.32983,   0.00086,   0.00059,   0.00010,478496576.00000,   0.00224,277060928.00000,   0.00038,  -0.00123,  -0.00012, -64.00000,   2.00000
337053999.56644,544680368.71670,17442795.60376,   0.00085,   0.00060,   0.00011,478515424.00000,   0.00225,277066016.00000,   0.00038,  -0.00122,  -0.00012, -32.00000,   2.00000
335794308.49273,544838188.78964,17880297.95212,   0.00085,   0.00061,   0.00011,478474944.00000,   0.00225,277070944.00000,   0.00038,  -0.00121,  -0.00012,-160.00000,   2.00000
334516762.34585,544992122.15212,18322187.23131,   0.00084,   0.00062,   0.00012,478494624.00000,   0.00226,277075936.00000,   0.00038,  -0.00121,  -0.00012,  32.00000,   2.00000
333245698.45464,545139348.52381,18757522.12338,   0.00084,   0.00063,   0.00013,478465184.00000,   0.00226,277080800.00000,   0.00038,  -0.00120,  -0.00012, 192.00000,   2.00000
331958966.68847,545281673.24278,19198090.45628,   0.00083,   0.00064,   0.00013,478465760.00000,   0.00227,277085664.00000,   0.00039,  -0.00120,  -0.00012, 128.00000,   2.00000
330657456.60244,545420719.76484,19630893.91462,   0.00083,   0.00064,   0.00014,478464800.00000,   0.00227,277090528.00000,   0.00039,  -0.00119,  -0.00012, -64.00000,   2.00000
329342494.91187,545554234.81609,20069892.12600,   0.00082,   0.00065,   0.00015,478445792.00000,   0.00228,277095296.00000,   0.00039,  -0.00119,  -0.00012, 128.00000,   2.00000
328012633.34429,545684428.34384,20501191.18416,   0.00082,   0.00066,   0.00015,478444960.00000,   0.00228,277100064.00000,   0.00039,  -0.00118,  -0.00011,  32.00000,   2.00000
326685909.95912,545807602.22707,20931785.44749,   0.00081,   0.00067,   0.00016,478435904.00000,   0.00228,277104800.00000,   0.00039,  -0.00118,  -0.00011, -96.00000,   2.00000
325345774.26978,545926089.72771,21362270.35103,   0.00080,   0.00068,   0.00017,478416256.00000,   0.00229,277109440.00000,   0.00039,  -0.00117,  -0.00011,  96.00000,   2.00000
323989916.66350,546040177.16826,21791700.41108,   0.00080,   0.00069,   0.00017,478416480.00000,   0.00229,277114048.00000,   0.00039,  -0.00117,  -0.00011, 128.00000,   2.00000
322634357.04439,546146737.17809,22226052.09479,   0.00079,   0.00070,   0.00018,478427872.00000,   0.00230,277118720.00000,   0.00039,  -0.00116,  -0.00011, -96.00000,   2.00000
321248901.56236,546251732.43109,22654549.57530,   0.00079,   0.00070,   0.00018,478396960.00000,   0.00230,277123264.00000,   0.00039,  -0.00116,  -0.00011,  96.00000,   2.00000
319865995.47923,546349632.75988,23082628.98877,   0.00078,   0.00071,   0.00019,478388000.00000,   0.00231,277127744.00000,   0.00039,  -0.00115,  -0.00011,  64.00000,   2.00000
318467627.98890,546444231.29219,23503346.95180,   0.00078,   0.00072,   0.00020,478387008.00000,   0.00231,277132224.00000,   0.00039,  -0.00114,  -0.00011, -32.00000,   2.00000
317069510.59906,546531506.49050,23929110.62767,   0.00077,   0.00073,   0.00020,478398176.00000,   0.00231,277136736.00000,   0.00039,  -0.00114,  -0.00011, -96.00000,   2.00000
315642108.70496,546615996.35372,24356859.69225,   0.00076,   0.00074,   0.00021,478348768.00000,   0.00232,277141056.00000,   0.00039,  -0.00113,  -0.00011, 704.00000,   1.00000
314213350.95376,546693776.31797,24781928.52476,   0.00076,   0.00075,   0.00022,478379520.00000,   0.00232,277145472.00000,   0.00039,  -0.00113,  -0.00011, 864.00000,   1.00000
312770220.97632,546767106.64159,25200682.86099,   0.00075,   0.00075,   0.00022,478359296.00000,   0.00233,277149792.00000,   0.00039,  -0.00112,  -0.00010, 480.00000,   1.00000
311311530.23270,546833808.37186,25626045.76965,   0.00074,   0.00076,   0.00023,478340960.00000,   0.00233,277154048.00000,   0.00039,  -0.00112,  -0.00010, 288.00000,   1.00000
309853639.48774,546894110.73165,26049657.10439,   0.00074,   0.00077,   0.00024,478351328.00000,   0.00233,277158336.00000,   0.00040,  -0.00112,  -0.00010,  96.00000,   1.00000
308363701.25408,546950933.80559,26467381.64413,   0.00073,   0.00078,   0.00024,478321696.00000,   0.00234,277162496.00000,   0.00040,  -0.00111,  -0.00010, -32.00000,   1.00000
306874319.09663,547000564.99397,26883153.59587,   0.00073,   0.00078,   0.00025,478332896.00000,   0.00234,277166720.00000,   0.00040,  -0.00111,  -0.00010,-288.00000,   1.00000
305368871.36225,547042797.92120,27305295.64662,   0.00072,   0.00079,   0.00026,478315584.00000,   0.00235,277170816.00000,   0.00040,  -0.00110,  -0.00010,-192.00000,   1.00000
303864512.59312,547078706.35001,27718901.72040,   0.00071,   0.00080,   0.00026,478326240.00000,   0.00235,277174976.00000,   0.00040,  -0.00110,  -0.00010,-160.00000,   1.00000
302326571.84818,547108756.26277,28133120.99251,   0.00071,   0.00081,   0.00027,478299040.00000,   0.00235,277179040.00000,   0.00040,  -0.00109,  -0.00010,-352.00000,   1.00000
300789176.74100,547131340.67272,28545389.81795,   0.00070,   0.00082,   0.00027,478310880.00000,   0.00236,277183104.00000,   0.00040,  -0.00109,  -0.00010,-512.00000,   1.00000
299235505.17970,547146936.26664,28957876.70406,   0.00069,   0.00082,   0.00028,478293344.00000,   0.00236,277187104.00000,   0.00040,  -0.00108,  -0.00010,-448.00000,   1.00000
297665183.86793,547157426.36691,29362890.35764,   0.00069,   0.00083,   0.00029,478294336.00000,   0.00237,277191104.00000,   0.00040,  -0.00108,  -0.00009,-512.00000,   1.00000
296095419.44036,547158677.22641,29774231.45054,   0.00068,   0.00084,   0.00029,478287296.00000,   0.00237,277195040.00000,   0.00040,  -0.00107,  -0.00009,-512.00000,   1.00000
294490211.63509,547154192.75925,30185513.24246,   0.00067,   0.00085,   0.00030,478279840.00000,   0.00237,277198976.00000,   0.00040,  -0.00107,  -0.00009,-896.00000,   1.00000
292886835.92891,547143751.07436,30590524.22835,   0.00066,   0.00085,   0.00031,478269472.00000,   0.00238,277202848.00000,   0.00040,  -0.00106,  -0.00009,-736.00000,   1.00000
291283182.02081,547124871.19493,31000755.90982,   0.00066,   0.00086,   0.00031,478281408.00000,   0.00238,277206752.00000,   0.00040,  -0.00106,  -0.00009,-608.00000,   1.00000
289644973.29903,547101285.93171,31406261.67332,   0.00065,   0.00087,   0.00032,478252000.00000,   0.00238,277210528.00000,   0.00040,  -0.00106,  -0.00009,-640.00000,   1.00000
288007068.22451,547070609.33901,31810612.20125,   0.00064,   0.00088,   0.00033,478262208.00000,   0.00239,277214368.00000,   0.00040,  -0.00105,  -0.00009,-928.00000,   1.00000
286352398.97212,547034471.97766,32216135.14846,   0.00064,   0.00088,   0.00033,478242816.00000,   0.00239,277218080.00000,   0.00040,  -0.00105,  -0.00009, 160.00000,   2.00000
284679308.73873,546990654.89463,32621119.46123,   0.00063,   0.00089,   0.00034,478244704.00000,   0.00239,277221824.00000,   0.00040,  -0.00104,  -0.00009, -32.00000,   2.00000
282988519.03355,546939718.40571,33027167.89004,   0.00062,   0.00090,   0.00034,478225536.00000,   0.00240,277225472.00000,   0.00040,  -0.00104,  -0.00008,  64.00000,   2.00000
281298027.15470,546881658.02628,33432000.96775,   0.00061,   0.00091,   0.00035,478235200.00000,   0.00240,277229184.00000,   0.00040,  -0.00103,  -0.00008, -32.00000,   2.00000
279589650.58902,546816492.78267,33837895.37568,   0.00061,   0.00091,   0.00036,478215968.00000,   0.00240,277232800.00000,   0.00040,  -0.00103,  -0.00008, -32.00000,   2.00000
277863661.38763,546745691.03504,34236802.87593,   0.00060,   0.00092,   0.00036,478215200.00000,   0.00241,277236384.00000,   0.00040,  -0.00103,  -0.00008, -32.00000,   2.00000
276118765.12504,546665883.72371,34643202.29497,   0.00059,   0.00093,   0.00037,478197696.00000,   0.00241,277239936.00000,   0.00040,  -0.00102,  -0.00008,  32.00000,   2.00000
274374797.18563,546580339.90256,35041886.25821,   0.00058,   0.00093,   0.00038,478206048.00000,   0.00242,277243488.00000,   0.00040,  -0.00102,  -0.00008,  32.00000,   2.00000
272612226.52612,546486882.42474,35441618.25169,   0.00057,   0.00094,   0.00038,478187232.00000,   0.00242,277246976.00000,   0.00040,  -0.00101,  -0.00008,  32.00000,   2.00000
270830982.30964,546385594.13938,35842418.16276,   0.00057,   0.00095,   0.00039,478168736.00000,   0.00242,277250368.00000,   0.00040,  -0.00101,  -0.00008,  64.00000,   2.00000
269031351.90125,546276810.96805,36240895.41996,   0.00056,   0.00095,   0.00039,478189920.00000,   0.00242,277253856.00000,   0.00040,  -0.00101,  -0.00008,   0.00000,   2.00000
267231271.58799,546159472.87705,36641363.62309,   0.00055,   0.00096,   0.00040,478160608.00000,   0.00243,277257216.00000,   0.00040,  -0.00100,  -0.00008, 256.00000,   2.00000
265393779.25720,546033571.35991,37040092.54081,   0.00054,   0.00097,   0.00041,478174400.00000,   0.00243,277260640.00000,   0.00040,  -0.00100,  -0.00007,  96.00000,   2.00000
263575776.12919,545901317.54534,37431927.42880,   0.00053,   0.00098,   0.00041,478171744.00000,   0.00243,277264032.00000,   0.00040,  -0.00099,  -0.00007, -64.00000,   2.00000
261718420.75885,545757253.80903,37831800.41062,   0.00053,   0.00098,   0.00042,478148032.00000,   0.00244,277267360.00000,   0.00040,  -0.00099,  -0.00007,   0.00000,   2.00000
259842771.83788,545605600.34175,38224383.86654,   0.00052,   0.00099,   0.00043,478149536.00000,   0.00244,277270656.00000,   0.00040,  -0.00099,  -0.00007, -32.00000,   2.00000
257966545.68658,545444612.16064,38617104.45053,   0.00051,   0.00100,   0.00043,478141120.00000,   0.00244,277273920.00000,   0.00040,  -0.00098,  -0.00007, 160.00000,   2.00000
256090393.28484,545274256.11768,39008098.26914,   0.00050,   0.00100,   0.00044,478152832.00000,   0.00245,277277248.00000,   0.00040,  -0.00098,  -0.00007,   0.00000,   2.00000
254174679.39481,545092144.00024,39400614.17160,   0.00049,   0.00101,   0.00044,478129376.00000,   0.00245,277280448.00000,   0.00040,  -0.00098,  -0.00007,  64.00000,   2.00000
252259136.95645,544900490.71324,39791345.07046,   0.00048,   0.00102,   0.00045,478141600.00000,   0.00245,277283712.00000,   0.00040,  -0.00097,  -0.00007, 224.00000,   2.00000
250323733.83597,544699158.49159,40176469.38349,   0.00048,   0.00102,   0.00046,478124960.00000,   0.00246,277286880.00000,   0.00040,  -0.00097,  -0.00007,  32.00000,   2.00000
248368107.34423,544484767.00729,40566883.34320,   0.00047,   0.00103,   0.00046,478131552.00000,   0.00246,277290112.00000,   0.00040,  -0.00096,  -0.00007,  64.00000,   2.00000
246393654.25487,544260925.34717,40949821.95671,   0.00046,   0.00103,   0.00047,478135232.00000,   0.00246,277293312.00000,   0.00040,  -0.00096,  -0.00006, -64.00000,   2.00000
244417917.79021,544026606.41558,41332917.75056,   0.00045,   0.00104,   0.00047,478128256.00000,   0.00247,277296480.00000,   0.00040,  -0.00096,  -0.00006,-128.00000,   2.00000
242420987.52295,543780559.37325,41716989.17686,   0.00044,   0.00105,   0.00048,478113920.00000,   0.00247,277299616.00000,   0.00040,  -0.00095,  -0.00006, -32.00000,   2.00000
240404191.78203,543523110.32774,42100118.06315,   0.00043,   0.00105,   0.00049,478119680.00000,   0.00247,277302752.00000,   0.00040,  -0.00095,  -0.00006,   0.00000,   2.00000
238388319.29120,543258518.89017,42475330.00907,   0.00042,   0.00106,   0.00049,478130336.00000,   0.00247,277305920.00000,   0.00040,  -0.00095,  -0.00006,   0.00000,   2.00000
236350026.74444,542980513.90949,42858162.26607,   0.00041,   0.00107,   0.00050,478117664.00000,   0.00248,277309024.00000,   0.00040,  -0.00094,  -0.00006,  64.00000,   2.00000
234292506.67212,542693988.07509,43233977.38787,   0.00040,   0.00107,   0.00050,478121024.00000,   0.00248,277312128.00000,   0.00040,  -0.00094,  -0.00006, 128.00000,   2.00000
232233135.57185,542398425.64149,43610532.53866,   0.00040,   0.00108,   0.00051,478113120.00000,   0.00248,277315200.00000,   0.00040,  -0.00094,  -0.00006, -96.00000,   2.00000
230131313.41164,542089637.51452,43989301.72152,   0.00039,   0.00108,   0.00052,478091328.00000,   0.00249,277318144.00000,   0.00040,  -0.00093,  -0.00006,  64.00000,   2.00000
228031870.07209,541773652.15436,44364818.85417,   0.00038,   0.00109,   0.00052,478122656.00000,   0.00249,277321248.00000,   0.00040,  -0.00093,  -0.00005,   0.00000,   2.00000
225928015.60367,541447668.31298,44743172.73583,   0.00037,   0.00110,   0.00053,478094880.00000,   0.00249,277324224.00000,   0.00040,  -0.00093,  -0.00005, -32.00000,   2.00000
223786677.96204,541111527.94719,45113202.87866,   0.00036,   0.00110,   0.00053,478110976.00000,   0.00249,277327232.00000,   0.00039,  -0.00092,  -0.00005,  64.00000,   2.00000
221639798.92447,540762153.51379,45492248.21114,   0.00035,   0.00111,   0.00054,478085504.00000,   0.00250,277330144.00000,   0.00039,  -0.00092,  -0.00005,   0.00000,   2.00000
219496437.58205,540406636.65865,45861332.26340,   0.00034,   0.00111,   0.00055,478115648.00000,   0.00250,277333152.00000,   0.00039,  -0.00092,  -0.00005,  64.00000,   2.00000
217309559.33163,540034898.92495,46232199.50623,   0.00033,   0.00112,   0.00055,478095520.00000,   0.00250,277336096.00000,   0.00039,  -0.00091,  -0.00005,  32.00000,   2.00000
215120115.15882,539651685.33094,46603401.44740,   0.00032,   0.00113,   0.00056,478088576.00000,   0.00251,277339008.00000,   0.00039,  -0.00091,  -0.00005,  64.00000,   2.00000
212910832.52113,539256948.41946,46967116.56634,   0.00031,   0.00113,   0.00056,478093760.00000,   0.00251,277341952.00000,   0.00039,  -0.00091,  -0.00005,   0.00000,   2.00000
210701208.71637,538849473.98873,47335346.00922,   0.00030,   0.00114,   0.00057,478108896.00000,   0.00251,277344928.00000,   0.00039,  -0.00090,  -0.00005,   0.00000,   2.00000
208468654.57899,538429102.54009,47698245.88203,   0.00029,   0.00114,   0.00057,478094432.00000,   0.00251,277347840.00000,   0.00039,  -0.00090,  -0.00005, -32.00000,   2.00000
206212287.42149,537993526.75024,48062199.94932,   0.00028,   0.00115,   0.00058,478082112.00000,   0.00252,277350688.00000,   0.00039,  -0.00090,  -0.00004,-128.00000,   2.00000
203938708.54112,537545569.75606,48422917.58946,   0.00027,   0.00115,   0.00059,478108960.00000,   0.00252,277353664.00000,   0.00039,  -0.00089,  -0.00004,  96.00000,   2.00000
201658619.61418,537084131.17083,48786276.55725,   0.00026,   0.00116,   0.00059,478083072.00000,   0.00252,277356512.00000,   0.00039,  -0.00089,  -0.00004, -96.00000,   2.00000
199362054.51300,536612276.81389,49140056.50823,   0.00025,   0.00117,   0.00060,478108000.00000,   0.00252,277359456.00000,   0.00039,  -0.00089,  -0.00004, -64.00000,   2.00000
197058107.97363,536124999.77303,49502883.49094,   0.00024,   0.00117,   0.00060,478084000.00000,   0.00253,277362304.00000,   0.00039,  -0.00088,  -0.00004, -32.00000,   2.00000
194716621.26138,535623286.69006,49856678.81863,   0.00023,   0.00118,   0.00061,478103680.00000,   0.00253,277365216.00000,   0.00039,  -0.00088,  -0.00004,  64.00000,   2.00000
192371857.33127,535109443.78067,50210936.95481,   0.00022,   0.00118,   0.00062,478097344.00000,   0.00253,277368128.00000,   0.00039,  -0.00088,  -0.00004,  32.00000,   2.00000
190024262.03209,534585495.70380,50559326.87154,   0.00021,   0.00119,   0.00062,478089216.00000,   0.00254,277370976.00000,   0.00039,  -0.00087,  -0.00004,  96.00000,   2.00000
187655264.57463,534044604.17384,50912804.31229,   0.00020,   0.00119,   0.00063,478099360.00000,   0.00254,277373856.00000,   0.00039,  -0.00087,  -0.00004, -32.00000,   2.00000
185266159.41104,533491466.54606,51258763.48744,   0.00019,   0.00120,   0.00063,478105568.00000,   0.00254,277376768.00000,   0.00039,  -0.00087,  -0.00003, -32.00000,   2.00000
182873365.48182,532925827.55612,51605140.64670,   0.00018,   0.00120,   0.00064,478099712.00000,   0.00254,277379648.00000,   0.00039,  -0.00086,  -0.00003, -32.00000,   2.00000
180438304.48584,532341287.23811,51950895.30394,   0.00017,   0.00121,   0.00064,478103104.00000,   0.00255,277382528.00000,   0.00039,  -0.00086,  -0.00003,   0.00000,   2.00000
178021000.93918,531748969.04764,52296545.53644,   0.00016,   0.00121,   0.00065,478102432.00000,   0.00255,277385408.00000,   0.00038,  -0.00086,  -0.00003,   0.00000,   2.00000
175561207.92487,531137112.13993,52641534.98253,   0.00015,   0.00122,   0.00065,478106432.00000,   0.00255,277388288.00000,   0.00038,  -0.00085,  -0.00003, -64.00000,   2.00000
173102825.49451,530517367.38612,52978447.47155,   0.00014,   0.00122,   0.00066,478118144.00000,   0.00255,277391200.00000,   0.00038,  -0.00085,  -0.00003, 128.00000,   2.00000
170640524.14031,529885213.94464,53315920.32852,   0.00013,   0.00123,   0.00067,478112928.00000,   0.00256,277394080.00000,   0.00038,  -0.00085,  -0.00003,  32.00000,   2.00000
168152494.09123,529235580.32991,53654526.14278,   0.00012,   0.00123,   0.00067,478102880.00000,   0.00256,277396928.00000,   0.00038,  -0.00085,  -0.00003,  32.00000,   2.00000
165644216.11562,528572595.19735,53985604.22449,   0.00010,   0.00124,   0.00068,478110624.00000,   0.00256,277399808.00000,   0.00038,  -0.00084,  -0.00003, -96.00000,   2.00000
163114656.07630,527890917.06363,54321626.93212,   0.00009,   0.00124,   0.00068,478123424.00000,   0.00257,277402720.00000,   0.00038,  -0.00084,  -0.00002, -96.00000,   2.00000
160581614.24282,527197821.31713,54651864.13883,   0.00008,   0.00125,   0.00069,478117248.00000,   0.00257,277405600.00000,   0.00038,  -0.00084,  -0.00002,  64.00000,   2.00000
158027928.59500,526487331.80605,54980645.49941,   0.00007,   0.00125,   0.00069,478128992.00000,   0.00257,277408512.00000,   0.00038,  -0.00083,  -0.00002, 128.00000,   2.00000
155475649.59305,525764199.59252,55307356.30973,   0.00006,   0.00126,   0.00070,478145472.00000,   0.00257,277411488.00000,   0.00038,  -0.00083,  -0.00002, -96.00000,   2.00000
152897888.60962,525022973.10485,55628667.57930,   0.00005,   0.00126,   0.00070,478136352.00000,   0.00258,277414400.00000,   0.00038,  -0.00083,  -0.00002, -64.00000,   2.00000
150321267.27753,524266099.05496,55954061.46988,   0.00004,   0.00127,   0.00071,478155584.00000,   0.00258,277417408.00000,   0.00038,  -0.00082,  -0.00002,  64.00000,   2.00000
147718957.35060,523490145.54483,56273938.84914,   0.00003,   0.00127,   0.00071,478147232.00000,   0.00258,277420352.00000,   0.00038,  -0.00082,  -0.00002, -32.00000,   2.00000
145096325.73177,522694995.16515,56592076.19603,   0.00002,   0.00128,   0.00072,478160672.00000,   0.00259,277423360.00000,   0.00038,  -0.00082,  -0.00002, -64.00000,   2.00000
142469939.97619,521886265.64309,56904192.07211,   0.00000,   0.00128,   0.00073,478156416.00000,   0.00259,277426368.00000,   0.00037,  -0.00081,  -0.00001,   0.00000,   2.00000
139823219.13440,521058287.20302,57214548.54885,  -0.00001,   0.00129,   0.00073,478169792.00000,   0.00259,277429376.00000,   0.00037,  -0.00081,  -0.00001, -64.00000,   2.00000
137155762.19797,520208690.00112,57529374.49616,  -0.00002,   0.00129,   0.00074,478185600.00000,   0.00259,277432480.00000,   0.00037,  -0.00081,  -0.00001,  64.00000,   2.00000
134484283.11435,519346279.48741,57838277.15903,  -0.00003,   0.00130,   0.00074,478180576.00000,   0.00260,277435552.00000,   0.00037,  -0.00080,  -0.00001, -96.00000,   2.00000
131815214.66335,518474605.89791,58138865.65451,  -0.00004,   0.00130,   0.00075,478194016.00000,   0.00260,277438656.00000,   0.00037,  -0.00080,  -0.00001, -32.00000,   2.00000
129118651.63416,517579338.81023,58446516.37998,  -0.00005,   0.00131,   0.00075,478189824.00000,   0.00260,277441728.00000,   0.00037,  -0.00080,  -0.00001,  64.00000,   2.00000
126401974.72826,516668677.74476,58746290.63865,  -0.00006,   0.00131,   0.00076,478199680.00000,   0.00261,277444864.00000,   0.00037,  -0.00079,  -0.00001,  64.00000,   2.00000
123680377.26106,515744252.24130,59046588.24401,  -0.00008,   0.00132,   0.00076,478195488.00000,   0.00261,277447968.00000,   0.00037,  -0.00079,  -0.00001, -96.00000,   2.00000
120945596.99520,514808221.88968,59336550.74893,  -0.00009,   0.00132,   0.00077,478223680.00000,   0.00261,277451168.00000,   0.00037,  -0.00079,  -0.00000,  32.00000,   2.00000
118198390.37189,513853207.06615,59635835.08845,  -0.00010,   0.00132,   0.00077,478202624.00000,   0.00261,277454272.00000,   0.00037,  -0.00078,  -0.00000, -32.00000,   2.00000
115438174.41659,512886603.80229,59924712.69672,  -0.00011,   0.00133,   0.00078,478231168.00000,   0.00262,277457472.00000,   0.00036,  -0.00078,  -0.00000, -32.00000,   2.00000
112650351.52123,511899398.38920,60214467.73719,  -0.00012,   0.00133,   0.00078,478224256.00000,   0.00262,277460640.00000,   0.00036,  -0.00078,  -0.00000, 160.00000,   2.00000
109857725.35043,510900726.90621,60498469.17013,  -0.00013,   0.00134,   0.00079,478217824.00000,   0.00262,277463776.00000,   0.00036,  -0.00077,   0.00000, -32.00000,   2.00000
107067191.45171,509889227.73695,60786594.61286,  -0.00015,   0.00134,   0.00079,478235264.00000,   0.00263,277467008.00000,   0.00036,  -0.00077,   0.00000,  96.00000,   2.00000
104256847.55669,508861555.47665,61066575.54200,  -0.00016,   0.00135,   0.00080,478246400.00000,   0.00263,277470240.00000,   0.00036,  -0.00077,   0.00000, -64.00000,   2.00000
101426653.42002,507815256.88037,61344604.71374,  -0.00017,   0.00135,   0.00080,478260288.00000,   0.00263,277473536.00000,   0.00036,  -0.00076,   0.00001,  32.00000,   2.00000
98591921.77857,506756067.40138,61616659.70581,  -0.00018,   0.00135,   0.00081,478255776.00000,   0.00264,277476800.00000,   0.00036,  -0.00076,   0.00001,   0.00000,   2.00000
95752119.13183,505678511.77725,61895104.36024,  -0.00019,   0.00136,   0.00081,478256512.00000,   0.00264,277480032.00000,   0.00036,  -0.00076,   0.00001,  32.00000,   2.00000
92901065.47490,504587379.72249,62162618.14233,  -0.00021,   0.00136,   0.00082,478288192.00000,   0.00264,277483424.00000,   0.00036,  -0.00075,   0.00001, 128.00000,   2.00000
90014426.98826,503467911.31189,62433187.11679,  -0.00022,   0.00137,   0.00082,478266752.00000,   0.00265,277486720.00000,   0.00035,  -0.00075,   0.00001, -32.00000,   2.00000
87139581.60409,502343036.43437,62692686.01070,  -0.00023,   0.00137,   0.00083,478300288.00000,   0.00265,277490112.00000,   0.00035,  -0.00075,   0.00001,  96.00000,   2.00000
84237027.08456,501193798.52423,62952818.37610,  -0.00024,   0.00137,   0.00083,478297504.00000,   0.00265,277493504.00000,   0.00035,  -0.00074,   0.00001, 160.00000,   2.00000
81337842.32036,500033104.60565,63210895.15430,  -0.00025,   0.00138,   0.00084,478314208.00000,   0.00266,277496960.00000,   0.00035,  -0.00074,   0.00002, -32.00000,   2.00000
78433570.40988,498856944.77156,63469577.71248,  -0.00027,   0.00138,   0.00084,478312128.00000,   0.00266,277500384.00000,   0.00035,  -0.00073,   0.00002,  96.00000,   2.00000
75510279.87933,497663481.37237,63720180.63231,  -0.00028,   0.00139,   0.00085,478324576.00000,   0.00266,277503872.00000,   0.00035,  -0.00073,   0.00002,  64.00000,   2.00000
72568166.23486,496449073.90909,63968605.77925,  -0.00029,   0.00139,   0.00085,478340544.00000,   0.00266,277507392.00000,   0.00035,  -0.00073,   0.00002,  32.00000,   2.00000
69621569.88653,495217813.35895,64217141.23472,  -0.00030,   0.00139,   0.00086,478339584.00000,   0.00267,277510944.00000,   0.00034,  -0.00072,   0.00002,  64.00000,   2.00000
66679374.28575,493973643.81678,64462986.86823,  -0.00032,   0.00140,   0.00086,478357536.00000,   0.00267,277514528.00000,   0.00034,  -0.00072,   0.00002, -64.00000,   2.00000
63709733.19771,492706010.00508,64702715.48039,  -0.00033,   0.00140,   0.00087,478353472.00000,   0.00268,277518112.00000,   0.00034,  -0.00072,   0.00002, -64.00000,   2.00000
60744512.54954,491426416.92655,64939736.40507,  -0.00034,   0.00141,   0.00087,478370848.00000,   0.00268,277521760.00000,   0.00034,  -0.00071,   0.00003,   0.00000,   2.00000
57761121.88756,490125564.54747,65174007.71002,  -0.00035,   0.00141,   0.00088,478387968.00000,   0.00268,277525472.00000,   0.00034,  -0.00071,   0.00003,   0.00000,   2.00000
54783058.59137,488814772.70601,65399093.56800,  -0.00037,   0.00141,   0.00088,478403968.00000,   0.00269,277529248.00000,   0.00034,  -0.00070,   0.00003, -96.00000,   2.00000
51778773.88082,487475538.85513,65623524.41806,  -0.00038,   0.00142,   0.00088,478405792.00000,   0.00269,277532992.00000,   0.00034,  -0.00070,   0.00003, -32.00000,   2.00000
48772336.20679,486114780.17907,65846727.47253,  -0.00039,   0.00142,   0.00089,478411264.00000,   0.00269,277536800.00000,   0.00033,  -0.00070,   0.00003,  32.00000,   2.00000
45783294.47634,484744693.98019,66057102.02941,  -0.00041,   0.00142,   0.00089,478451200.00000,   0.00270,277540768.00000,   0.00033,  -0.00069,   0.00003, 128.00000,   2.00000
42760820.81277,483350353.01401,66268698.97324,  -0.00042,   0.00143,   0.00090,478449632.00000,   0.00270,277544672.00000,   0.00033,  -0.00069,   0.00004, -32.00000,   2.00000
39689701.26015,481961918.68971,66488687.17337,  -0.00043,   0.00143,   0.00090,478414176.00000,   0.00270,277548384.00000,   0.00033,  -0.00068,   0.00004,   0.00000,   2.00000
36647575.84703,480618006.68509,66711289.26959,  -0.00044,   0.00143,   0.00091,478405184.00000,   0.00271,277552000.00000,   0.00033,  -0.00068,   0.00004, 128.00000,   2.00000
33594637.48527,479234456.63030,66922710.34085,  -0.00046,   0.00144,   0.00091,478420640.00000,   0.00271,277555744.00000,   0.00033,  -0.00068,   0.00004, 224.00000,   2.00000
30527565.97467,477785376.39234,67125906.93264,  -0.00047,   0.00144,   0.00092,478464896.00000,   0.00271,277559680.00000,   0.00032,  -0.00067,   0.00004, -64.00000,   2.00000
27468625.13055,476311405.96113,67324136.46361,  -0.00048,   0.00144,   0.00092,478499712.00000,   0.00272,277563776.00000,   0.00032,  -0.00067,   0.00005, -32.00000,   2.00000
24414671.56386,474828988.20085,67514268.66387,  -0.00050,   0.00145,   0.00092,478516640.00000,   0.00272,277567904.00000,   0.00032,  -0.00066,   0.00005, -32.00000,   2.00000
21343293.46967,473326479.52035,67702763.09377,  -0.00051,   0.00145,   0.00093,478535456.00000,   0.00273,277572096.00000,   0.00032,  -0.00066,   0.00005,   0.00000,   2.00000
18267226.29314,471809887.18756,67886180.11814,  -0.00052,   0.00146,   0.00093,478534336.00000,   0.00273,277576288.00000,   0.00032,  -0.00066,   0.00005,   0.00000,   2.00000
15175101.47048,470268606.36170,68073870.37929,  -0.00053,   0.00146,   0.00094,478558176.00000,   0.00273,277580544.00000,   0.00031,  -0.00065,   0.00005, 224.00000,   2.00000
12101940.90367,468722116.32967,68256295.76527,  -0.00055,   0.00146,   0.00094,478557344.00000,   0.00274,277584768.00000,   0.00031,  -0.00065,   0.00005, -64.00000,   2.00000
9001596.70882,467150799.11084,68427635.42954,  -0.00056,   0.00146,   0.00095,478595520.00000,   0.00274,277589152.00000,   0.00031,  -0.00064,   0.00006, -96.00000,   2.00000
5910239.06273,465561802.10322,68608128.61332,  -0.00057,   0.00147,   0.00095,478584256.00000,   0.00275,277593504.00000,   0.00031,  -0.00064,   0.00006,-128.00000,   2.00000
2815439.94411,463958102.22969,68777113.43959,  -0.00059,   0.00147,   0.00095,478622496.00000,   0.00275,277597984.00000,   0.00031,  -0.00063,   0.00006, -64.00000,   2.00000
-282585.35522,462337573.79446,68939749.78094,  -0.00060,   0.00147,   0.00096,478624672.00000,   0.00276,277602464.00000,   0.00030,  -0.00063,   0.00006,  64.00000,   2.00000
-3395151.69008,460691006.73667,69105342.04533,  -0.00061,   0.00148,   0.00096,478650976.00000,   0.00276,277607040.00000,   0.00030,  -0.00063,   0.00006,  32.00000,   2.00000
-6512247.44174,459029204.94017,69264507.99546,  -0.00063,   0.00148,   0.00097,478651040.00000,   0.00276,277611584.00000,   0.00030,  -0.00062,   0.00007, -32.00000,   2.00000
-9611477.25375,457367804.69104,69412265.32213,  -0.00064,   0.00148,   0.00097,478684320.00000,   0.00277,277616288.00000,   0.00030,  -0.00062,   0.00007, 160.00000,   2.00000
-12738580.71567,455676191.87244,69565737.45846,  -0.00065,   0.00149,   0.00097,478689952.00000,   0.00277,277620992.00000,   0.00029,  -0.00061,   0.00007,  96.00000,   2.00000
-15871680.25324,453971891.02783,69713120.88210,  -0.00067,   0.00149,   0.00098,478687392.00000,   0.00278,277625664.00000,   0.00029,  -0.00061,   0.00007,  64.00000,   2.00000
-18998668.02887,452262009.67242,69851832.62592,  -0.00068,   0.00149,   0.00098,478702240.00000,   0.00278,277630368.00000,   0.00029,  -0.00060,   0.00007,  32.00000,   2.00000
-22118130.45371,450540734.00464,69994017.52113,  -0.00069,   0.00150,   0.00099,478723680.00000,   0.00279,277635168.00000,   0.00029,  -0.00060,   0.00008, -32.00000,   2.00000
-25252569.70279,448800759.73784,70127077.03350,  -0.00071,   0.00150,   0.00099,478742912.00000,   0.00279,277640000.00000,   0.00028,  -0.00059,   0.00008, 160.00000,   2.00000
-28390746.10381,447045254.37125,70253901.30855,  -0.00072,   0.00150,   0.00099,478744192.00000,   0.00280,277644864.00000,   0.00028,  -0.00059,   0.00008,  64.00000,   2.00000
-31542347.76424,445266966.48095,70377687.33300,  -0.00073,   0.00150,   0.00100,478768352.00000,   0.00280,277649792.00000,   0.00028,  -0.00058,   0.00008,  96.00000,   2.00000
-34662231.50174,443490075.03365,70499332.07085,  -0.00075,   0.00151,   0.00100,478787488.00000,   0.00280,277654784.00000,   0.00028,  -0.00058,   0.00009, -32.00000,   2.00000
-37808120.03607,441682970.70503,70620826.30192,  -0.00076,   0.00151,   0.00101,478794400.00000,   0.00281,277659808.00000,   0.00027,  -0.00057,   0.00009,  64.00000,   2.00000
-40968437.42796,439856286.89207,70733577.78603,  -0.00077,   0.00151,   0.00101,478815008.00000,   0.00281,277664896.00000,   0.00027,  -0.00057,   0.00009, 128.00000,   2.00000
-44098473.86626,438033305.51020,70844779.56217,  -0.00079,   0.00152,   0.00101,478831456.00000,   0.00282,277670016.00000,   0.00027,  -0.00056,   0.00009,  64.00000,   2.00000
-47244031.47666,436192458.77739,70947528.60100,  -0.00080,   0.00152,   0.00102,478849888.00000,   0.00282,277675232.00000,   0.00026,  -0.00056,   0.00009,  96.00000,   2.00000
-50395118.81516,434335521.81423,71050888.11059,  -0.00082,   0.00152,   0.00102,478851136.00000,   0.00283,277680416.00000,   0.00026,  -0.00055,   0.00010, -32.00000,   2.00000
-53551900.90020,432462964.83569,71154823.33707,  -0.00083,   0.00152,   0.00102,478851776.00000,   0.00283,277685568.00000,   0.00026,  -0.00055,   0.00010,   0.00000,   2.00000
-56711343.36727,430581655.97867,71247520.87507,  -0.00084,   0.00153,   0.00103,478886400.00000,   0.00284,277690848.00000,   0.00026,  -0.00054,   0.00010,  96.00000,   2.00000
-59853324.88004,428697002.07800,71340966.90851,  -0.00086,   0.00153,   0.00103,478884640.00000,   0.00284,277696128.00000,   0.00025,  -0.00054,   0.00010, 224.00000,   2.00000
-63009081.60675,426793646.15225,71425168.12763,  -0.00087,   0.00153,   0.00104,478904512.00000,   0.00285,277701472.00000,   0.00025,  -0.00053,   0.00011,   0.00000,   2.00000
-66176883.89540,424868634.74423,71505988.10806,  -0.00088,   0.00153,   0.00104,478928800.00000,   0.00285,277706912.00000,   0.00025,  -0.00053,   0.00011, 192.00000,   2.00000
-69324204.11376,422937871.55286,71586776.90543,  -0.00090,   0.00154,   0.00104,478930944.00000,   0.00286,277712320.00000,   0.00024,  -0.00052,   0.00011, 128.00000,   2.00000
-72481617.79190,420985956.80666,71657522.65609,  -0.00091,   0.00154,   0.00105,478955520.00000,   0.00286,277717856.00000,   0.00024,  -0.00052,   0.00011, -64.00000,   2.00000
-75625343.49634,419023110.25848,71724774.34518,  -0.00092,   0.00154,   0.00105,478980576.00000,   0.00287,277723456.00000,   0.00024,  -0.00051,   0.00012,   0.00000,   2.00000
-78754538.32175,417048982.03117,71788424.06131,  -0.00094,   0.00154,   0.00105,479006336.00000,   0.00288,277729184.00000,   0.00023,  -0.00051,   0.00012,  96.00000,   2.00000
-81882856.81880,415056165.04160,71844824.71206,  -0.00095,   0.00155,   0.00106,479014016.00000,   0.00288,277734912.00000,   0.00023,  -0.00050,   0.00012,  32.00000,   2.00000
-84996207.03694,413052433.79989,71897715.26660,  -0.00097,   0.00155,   0.00106,479040512.00000,   0.00289,277740768.00000,   0.00023,  -0.00050,   0.00012, 224.00000,   2.00000
-88117198.89612,411026810.58670,71940371.64769,  -0.00098,   0.00155,   0.00106,479068416.00000,   0.00289,277746720.00000,   0.00022,  -0.00049,   0.00013,   0.00000,   2.00000
-91237729.21613,408981160.01929,71982239.62343,  -0.00099,   0.00155,   0.00107,479078400.00000,   0.00290,277752704.00000,   0.00022,  -0.00048,   0.00013, 128.00000,   2.00000
-94344881.88408,406926293.69996,72021083.24259,  -0.00101,   0.00156,   0.00107,479102784.00000,   0.00290,277758752.00000,   0.00021,  -0.00048,   0.00013,  96.00000,   2.00000
-97440443.91320,404865582.14114,72051099.05258,  -0.00102,   0.00156,   0.00107,479122944.00000,   0.00291,277764896.00000,   0.00021,  -0.00047,   0.00014,  64.00000,   2.00000
-100524638.90762,402797597.63096,72078655.60153,  -0.00104,   0.00156,   0.00108,479144672.00000,   0.00292,277771072.00000,   0.00021,  -0.00047,   0.00014, 128.00000,   2.00000
-103634595.41485,400700761.76271,72099485.50090,  -0.00105,   0.00156,   0.00108,479152576.00000,   0.00292,277777312.00000,   0.00020,  -0.00046,   0.00014, 192.00000,   2.00000
-106713189.05428,398611721.75293,72119120.18388,  -0.00106,   0.00157,   0.00108,479166976.00000,   0.00293,277783552.00000,   0.00020,  -0.00046,   0.00014, 128.00000,   2.00000
-109803636.16714,396502854.87450,72136142.20500,  -0.00108,   0.00157,   0.00108,479191168.00000,   0.00293,277789888.00000,   0.00020,  -0.00045,   0.00015,  96.00000,   2.00000
-112899707.25870,394379820.20157,72147850.96081,  -0.00109,   0.00157,   0.00109,479191808.00000,   0.00294,277796192.00000,   0.00019,  -0.00044,   0.00015, -32.00000,   2.00000
-115972991.09666,392264916.13876,72149845.59040,  -0.00111,   0.00157,   0.00109,479221888.00000,   0.00295,277802624.00000,   0.00019,  -0.00044,   0.00015,  32.00000,   2.00000
-119049834.57929,390131072.59334,72159081.82851,  -0.00112,   0.00158,   0.00109,479228352.00000,   0.00295,277809024.00000,   0.00018,  -0.00043,   0.00016, 256.00000,   2.00000
-122132449.07781,387984930.53560,72157448.54400,  -0.00113,   0.00158,   0.00110,479226464.00000,   0.00296,277815424.00000,   0.00018,  -0.00043,   0.00016, 192.00000,   2.00000
-125209878.44478,385827403.95541,72157914.46210,  -0.00115,   0.00158,   0.00110,479268928.00000,   0.00296,277821984.00000,   0.00017,  -0.00042,   0.00016, 128.00000,   2.00000
-128270009.32084,383669202.45003,72154776.12539,  -0.00116,   0.00158,   0.00110,479264928.00000,   0.00297,277828512.00000,   0.00017,  -0.00041,   0.00016, 128.00000,   2.00000
-131339789.37781,381492402.33562,72144060.44757,  -0.00118,   0.00158,   0.00110,479287968.00000,   0.00298,277835104.00000,   0.00017,  -0.00041,   0.00017, 128.00000,   2.00000
-134395863.71385,379307006.03483,72138961.01205,  -0.00119,   0.00159,   0.00111,479311392.00000,   0.00298,277841792.00000,   0.00016,  -0.00040,   0.00017, 128.00000,   2.00000
-137434479.00435,377122533.58143,72124211.75920,  -0.00120,   0.00159,   0.00111,479305920.00000,   0.00299,277848416.00000,   0.00016,  -0.00040,   0.00017,  32.00000,   2.00000
-140466001.37521,374929029.51171,72105878.93849,  -0.00122,   0.00159,   0.00111,479347328.00000,   0.00300,277855232.00000,   0.00015,  -0.00039,   0.00018,  64.00000,   2.00000
-143498892.41761,372717591.50249,72088961.12657,  -0.00123,   0.00159,   0.00112,479354496.00000,   0.00300,277862016.00000,   0.00015,  -0.00038,   0.00018,   0.00000,   2.00000
-146533429.98651,370488596.89194,72073212.35794,  -0.00125,   0.00159,   0.00112,479361376.00000,   0.00301,277868832.00000,   0.00014,  -0.00038,   0.00018, 224.00000,   2.00000
-149541963.94677,368270363.75519,72041855.21739,  -0.00126,   0.00160,   0.00112,479391616.00000,   0.00302,277875776.00000,   0.00014,  -0.00037,   0.00018, 160.00000,   2.00000
-152551573.19557,366033050.37596,72017071.78299,  -0.00127,   0.00160,   0.00112,479401536.00000,   0.00302,277882720.00000,   0.00013,  -0.00036,   0.00019, 128.00000,   2.00000
-155549255.87562,363793124.98104,71984013.01935,  -0.00129,   0.00160,   0.00113,479420608.00000,   0.00303,277889696.00000,   0.00013,  -0.00036,   0.00019, 160.00000,   2.00000
-158555136.78193,361536030.38186,71941193.29736,  -0.00130,   0.00160,   0.00113,479446912.00000,   0.00304,277896768.00000,   0.00012,  -0.00035,   0.00019, 128.00000,   2.00000
-161527030.30139,359290012.78574,71896227.45379,  -0.00132,   0.00160,   0.00113,479462752.00000,   0.00304,277903904.00000,   0.00012,  -0.00035,   0.00020, 160.00000,   2.00000
-164499281.78537,357027457.98578,71849525.27998,  -0.00133,   0.00161,   0.00113,479472800.00000,   0.00305,277911040.00000,   0.00011,  -0.00034,   0.00020,  96.00000,   2.00000
-167456442.85921,354763141.00083,71792413.91372,  -0.00134,   0.00161,   0.00113,479495296.00000,   0.00306,277918240.00000,   0.00011,  -0.00033,   0.00020,  96.00000,   2.00000
-170415324.92061,352479810.78613,71729395.47513,  -0.00136,   0.00161,   0.00114,479530240.00000,   0.00306,277925568.00000,   0.00010,  -0.00033,   0.00020,  64.00000,   2.00000
-173334642.94977,350209600.28790,71656083.82238,  -0.00137,   0.00161,   0.00114,479549952.00000,   0.00307,277932928.00000,   0.00010,  -0.00032,   0.00021, 128.00000,   2.00000
-176245749.57319,347921805.27373,71579130.19035,  -0.00139,   0.00161,   0.00114,479569120.00000,   0.00308,277940352.00000,   0.00009,  -0.00031,   0.00021,   0.00000,   2.00000
-179136039.32777,345630084.77623,71487043.03950,  -0.00140,   0.00162,   0.00114,479622752.00000,   0.00308,277948000.00000,   0.00009,  -0.00031,   0.00021,  96.00000,   2.00000
-181993158.77709,343335460.86294,71392192.76096,  -0.00141,   0.00162,   0.00115,479639744.00000,   0.00309,277955648.00000,   0.00008,  -0.00030,   0.00022, 160.00000,   2.00000
-184836171.47770,341024303.39076,71287432.99014,  -0.00143,   0.00162,   0.00115,479663776.00000,   0.00310,277963392.00000,   0.00008,  -0.00029,   0.00022,  64.00000,   2.00000
-187651048.39320,338707355.19187,71174042.83631,  -0.00144,   0.00162,   0.00115,479726272.00000,   0.00311,277971392.00000,   0.00007,  -0.00029,   0.00022,  96.00000,   2.00000
-190416215.52392,336401533.30793,71057325.80985,  -0.00146,   0.00162,   0.00115,479757792.00000,   0.00311,277979456.00000,   0.00007,  -0.00028,   0.00023, -32.00000,   2.00000
-193172238.60771,334080846.37277,70926821.85541,  -0.00147,   0.00162,   0.00115,479776512.00000,   0.00312,277987584.00000,   0.00006,  -0.00027,   0.00023, 128.00000,   2.00000
-195903848.83255,331753567.45158,70800018.31725,  -0.00148,   0.00163,   0.00116,479812640.00000,   0.00313,277995808.00000,   0.00005,  -0.00027,   0.00024, 160.00000,   2.00000
-198639041.55180,329408242.13008,70664880.31624,  -0.00150,   0.00163,   0.00116,479845216.00000,   0.00314,278004160.00000,   0.00005,  -0.00026,   0.00024, 224.00000,   2.00000
-201363529.12097,327061169.45901,70527378.47147,  -0.00151,   0.00163,   0.00116,479839872.00000,   0.00315,278012448.00000,   0.00004,  -0.00025,   0.00024,  96.00000,   2.00000
-204070362.29818,324725336.08237,70390003.02156,  -0.00153,   0.00163,   0.00116,479863680.00000,   0.00315,278020800.00000,   0.00003,  -0.00024,   0.00025,  64.00000,   2.00000
-206801811.41043,322372184.72954,70251865.28329,  -0.00154,   0.00163,   0.00116,479851648.00000,   0.00316,278029088.00000,   0.00003,  -0.00024,   0.00025,  96.00000,   2.00000
-209564439.11643,320011783.05983,70120500.14394,  -0.00156,   0.00163,   0.00116,479838880.00000,   0.00317,278037248.00000,   0.00002,  -0.00023,   0.00025,  32.00000,   2.00000
-212341736.59661,317677619.02273,69997608.91551,  -0.00157,   0.00164,   0.00117,479794400.00000,   0.00318,278045184.00000,   0.00002,  -0.00022,   0.00026, 160.00000,   2.00000
-214987656.71855,315357569.87616,69847602.71339,  -0.00158,   0.00164,   0.00117,479879072.00000,   0.00319,278053600.00000,   0.00001,  -0.00022,   0.00026,  96.00000,   2.00000
-217650185.46238,312987572.06913,69688947.47752,  -0.00160,   0.00164,   0.00117,479944736.00000,   0.00319,278062208.00000,   0.00000,  -0.00021,   0.00026,  96.00000,   2.00000
-220372670.30204,310623250.69067,69543025.50784,  -0.00161,   0.00164,   0.00117,479890144.00000,   0.00320,278070464.00000,  -0.00000,  -0.00020,   0.00027,   0.00000,   2.00000
-223076524.83520,308277694.61952,69393298.56062,  -0.00163,   0.00164,   0.00117,479887296.00000,   0.00321,278078688.00000,  -0.00001,  -0.00020,   0.00027, 128.00000,   2.00000
-225770956.12393,305933583.13605,69243274.27386,  -0.00164,   0.00164,   0.00117,479902912.00000,   0.00322,278086944.00000,  -0.00002,  -0.00019,   0.00027, 256.00000,   2.00000
-228470400.54604,303575717.11508,69084268.40602,  -0.00165,   0.00165,   0.00118,479931392.00000,   0.00323,278095264.00000,  -0.00002,  -0.00018,   0.00028, 160.00000,   2.00000
-231137727.03117,301233077.47457,68924470.91646,  -0.00167,   0.00165,   0.00118,479944864.00000,   0.00323,278103616.00000,  -0.00003,  -0.00017,   0.00028, 192.00000,   2.00000
-233809770.03196,298876219.73687,68757812.51148,  -0.00168,   0.00165,   0.00118,479951936.00000,   0.00324,278111968.00000,  -0.00003,  -0.00017,   0.00028,  96.00000,   2.00000
-236469624.76240,296518971.10254,68588920.56073,  -0.00170,   0.00165,   0.00118,479972832.00000,   0.00325,278120352.00000,  -0.00004,  -0.00016,   0.00029,  96.00000,   2.00000
-239118250.41037,294162868.21501,68412295.36723,  -0.00171,   0.00165,   0.00118,479990432.00000,   0.00326,278128768.00000,  -0.00005,  -0.00015,   0.00029, 224.00000,   2.00000
-241735344.87091,291821550.04380,68236263.86312,  -0.00172,   0.00165,   0.00118,480000672.00000,   0.00327,278137184.00000,  -0.00005,  -0.00015,   0.00029,  64.00000,   2.00000
-244356780.39992,289465112.02261,68052563.93811,  -0.00174,   0.00165,   0.00118,480027584.00000,   0.00327,278145728.00000,  -0.00006,  -0.00014,   0.00030, 192.00000,   2.00000
-246959652.18807,287107627.09775,67872136.20753,  -0.00175,   0.00166,   0.00118,480026336.00000,   0.00328,278154208.00000,  -0.00007,  -0.00013,   0.00030, 160.00000,   2.00000
-249529537.52272,284766978.37380,67684139.44152,  -0.00176,   0.00166,   0.00118,480055744.00000,   0.00329,278162816.00000,  -0.00007,  -0.00013,   0.00030, 160.00000,   2.00000
-252096496.67099,282411730.75935,67491566.79921,  -0.00178,   0.00166,   0.00119,480062912.00000,   0.00330,278171424.00000,  -0.00008,  -0.00012,   0.00031, 128.00000,   2.00000
-254641714.30602,280056674.81615,67298695.92239,  -0.00179,   0.00166,   0.00119,480085472.00000,   0.00331,278180128.00000,  -0.00009,  -0.00011,   0.00031, 160.00000,   2.00000
-257164387.68252,277702268.88179,67105332.41172,  -0.00181,   0.00166,   0.00119,480108448.00000,   0.00331,278188896.00000,  -0.00009,  -0.00010,   0.00032, 288.00000,   2.00000
-259648823.00011,275366238.14733,66906593.96201,  -0.00182,   0.00166,   0.00119,480118880.00000,   0.00332,278197696.00000,  -0.00010,  -0.00010,   0.00032, 160.00000,   2.00000
-262129792.17438,273017141.85256,66699681.37137,  -0.00183,   0.00166,   0.00119,480150112.00000,   0.00333,278206624.00000,  -0.00011,  -0.00009,   0.00032, 192.00000,   2.00000
-264589338.38191,270668731.06445,66495122.33968,  -0.00185,   0.00166,   0.00119,480151968.00000,   0.00334,278215488.00000,  -0.00012,  -0.00008,   0.00033, 128.00000,   2.00000
-267016117.18888,268340200.33200,66282480.80001,  -0.00186,   0.00167,   0.00119,480182880.00000,   0.00335,278224480.00000,  -0.00012,  -0.00008,   0.00033, 256.00000,   2.00000
-269426364.12356,266012093.70806,66072220.45643,  -0.00188,   0.00167,   0.00119,480183680.00000,   0.00336,278233440.00000,  -0.00013,  -0.00007,   0.00033, 224.00000,   2.00000
-271841183.34297,263670780.27971,65853844.12993,  -0.00189,   0.00167,   0.00119,480213184.00000,   0.00337,278242464.00000,  -0.00014,  -0.00006,   0.00034, 256.00000,   2.00000
-274229825.11831,261347904.37645,65630162.97396,  -0.00190,   0.00167,   0.00119,480220224.00000,   0.00337,278251456.00000,  -0.00015,  -0.00005,   0.00034, 224.00000,   2.00000
-276608807.76656,259025905.06061,65405873.61215,  -0.00192,   0.00167,   0.00119,480239584.00000,   0.00338,278260512.00000,  -0.00015,  -0.00005,   0.00034, 128.00000,   2.00000
-278979199.04064,256704857.18395,65180936.80178,  -0.00193,   0.00167,   0.00119,480258464.00000,   0.00339,278269568.00000,  -0.00016,  -0.00004,   0.00035, 128.00000,   2.00000
-281344059.73295,254386274.34227,64945631.03455,  -0.00194,   0.00167,   0.00119,480250240.00000,   0.00340,278278560.00000,  -0.00017,  -0.00003,   0.00035, 192.00000,   2.00000
-283698780.14884,252068523.00267,64712946.65324,  -0.00196,   0.00167,   0.00119,480292480.00000,   0.00341,278287680.00000,  -0.00018,  -0.00003,   0.00035, 160.00000,   2.00000
-286047120.95235,249753520.73471,64469845.93553,  -0.00197,   0.00168,   0.00119,480283712.00000,   0.00342,278296704.00000,  -0.00018,  -0.00002,   0.00036, 192.00000,   2.00000
-288384894.46301,247439885.06630,64225952.99490,  -0.00198,   0.00168,   0.00119,480301984.00000,   0.00343,278305760.00000,  -0.00019,  -0.00001,   0.00036, 128.00000,   2.00000
-290679116.77009,245161436.25861,63981526.46844,  -0.00200,   0.00168,   0.00119,480319392.00000,   0.00344,278314848.00000,  -0.00020,  -0.00000,   0.00036, 224.00000,   2.00000
-292977724.21632,242868866.16871,63731540.17724,  -0.00201,   0.00168,   0.00120,480325792.00000,   0.00344,278323936.00000,  -0.00021,   0.00000,   0.00037, 256.00000,   2.00000
-295263206.13421,240580018.53288,63474790.36653,  -0.00203,   0.00168,   0.00120,480343168.00000,   0.00345,278333056.00000,  -0.00021,   0.00001,   0.00037,  64.00000,   2.00000
-297548234.99972,238276219.63892,63218884.17822,  -0.00204,   0.00168,   0.00120,480354080.00000,   0.00346,278342176.00000,  -0.00022,   0.00002,   0.00037, 160.00000,   2.00000
-299800824.42675,235994516.55682,62955166.90826,  -0.00205,   0.00168,   0.00120,480383456.00000,   0.00347,278351360.00000,  -0.00023,   0.00002,   0.00038, 128.00000,   2.00000
-302020077.47288,233733486.74514,62686490.01677,  -0.00207,   0.00168,   0.00120,480391936.00000,   0.00348,278360576.00000,  -0.00024,   0.00003,   0.00038,  96.00000,   2.00000
-304219278.52257,231474161.23614,62420409.22351,  -0.00208,   0.00169,   0.00120,480393760.00000,   0.00349,278369760.00000,  -0.00024,   0.00004,   0.00038, -64.00000,   2.00000
-306397805.82603,229222409.78080,62145423.27618,  -0.00209,   0.00169,   0.00119,480437216.00000,   0.00350,278379072.00000,  -0.00025,   0.00005,   0.00039, 192.00000,   2.00000
-308554675.83746,226972645.12801,61873154.91361,  -0.00211,   0.00169,   0.00119,480440448.00000,   0.00351,278388384.00000,  -0.00026,   0.00005,   0.00039,   0.00000,   2.00000
-310690723.59551,224728590.09181,61594795.85900,  -0.00212,   0.00169,   0.00119,480462880.00000,   0.00352,278397728.00000,  -0.00027,   0.00006,   0.00039,  64.00000,   2.00000
-312804787.62785,222488978.91164,61316670.66620,  -0.00213,   0.00169,   0.00119,480487584.00000,   0.00352,278407168.00000,  -0.00028,   0.00007,   0.00040,  64.00000,   2.00000
-314885184.58374,220270559.99845,61034050.02881,  -0.00215,   0.00169,   0.00119,480496608.00000,   0.00353,278416576.00000,  -0.00028,   0.00007,   0.00040,  64.00000,   2.00000
-316948759.71170,218056985.09235,60745516.47818,  -0.00216,   0.00169,   0.00119,480517024.00000,   0.00354,278426048.00000,  -0.00029,   0.00008,   0.00040, 224.00000,   2.00000
-318982466.38383,215862016.53692,60458898.34810,  -0.00217,   0.00169,   0.00119,480525152.00000,   0.00355,278435488.00000,  -0.00030,   0.00009,   0.00041, 128.00000,   2.00000
-321020195.55399,213654086.71029,60165089.91733,  -0.00219,   0.00169,   0.00119,480553984.00000,   0.00356,278445056.00000,  -0.00031,   0.00010,   0.00041,  96.00000,   2.00000
-323037336.65106,211463789.15338,59867202.19324,  -0.00220,   0.00170,   0.00119,480554688.00000,   0.00357,278454528.00000,  -0.00032,   0.00010,   0.00041, 224.00000,   2.00000
-325051057.09649,209270302.25243,59572717.65680,  -0.00221,   0.00170,   0.00119,480546336.00000,   0.00358,278463968.00000,  -0.00033,   0.00011,   0.00042, 288.00000,   2.00000
-327047124.34885,207096810.82023,59272101.29877,  -0.00223,   0.00170,   0.00119,480564288.00000,   0.00359,278473408.00000,  -0.00033,   0.00012,   0.00042, 192.00000,   2.00000
-329055730.25437,204906490.05759,58967460.27999,  -0.00224,   0.00170,   0.00119,480564928.00000,   0.00360,278482816.00000,  -0.00034,   0.00012,   0.00042, 224.00000,   2.00000
-331026789.41431,202752919.36694,58664478.23668,  -0.00225,   0.00170,   0.00119,480574208.00000,   0.00361,278492256.00000,  -0.00035,   0.00013,   0.00043,  32.00000,   2.00000
-333003209.09881,200583492.75952,58363520.90197,  -0.00226,   0.00170,   0.00119,480580832.00000,   0.00361,278501632.00000,  -0.00036,   0.00014,   0.00043, 192.00000,   2.00000
-334954865.44886,198438777.14023,58049650.82790,  -0.00228,   0.00170,   0.00119,480602112.00000,   0.00362,278511104.00000,  -0.00037,   0.00015,   0.00043,  96.00000,   2.00000
-336895178.52409,196294873.30909,57738578.83933,  -0.00229,   0.00170,   0.00119,480598880.00000,   0.00363,278520480.00000,  -0.00037,   0.00015,   0.00044, 128.00000,   2.00000
-338822510.20982,194157061.16155,57421621.74716,  -0.00230,   0.00170,   0.00119,480616320.00000,   0.00364,278529920.00000,  -0.00038,   0.00016,   0.00044, 160.00000,   2.00000
-340731476.46926,192025835.56687,57105327.56277,  -0.00232,   0.00171,   0.00118,480638944.00000,   0.00365,278539360.00000,  -0.00039,   0.00017,   0.00044,  96.00000,   2.00000
-342589907.20054,189939385.51803,56784194.85442,  -0.00233,   0.00171,   0.00118,480658176.00000,   0.00366,278548864.00000,  -0.00040,   0.00017,   0.00045, 128.00000,   2.00000
-344426587.97352,187858781.92532,56459401.66630,  -0.00234,   0.00171,   0.00118,480664448.00000,   0.00367,278558304.00000,  -0.00041,   0.00018,   0.00045, 160.00000,   2.00000
