# sigma_xx, sigma_yy, sigma_xy, epsilon_xx, epsilon_yy, epsilon_xy, vonMises, epsPlastic, hardening, epsilonP__xx, epsilonP__yy, epsilonP__xy, yieldValue, iteration
   0.00000,   0.00000,   0.00000,   0.00000,   0.00000,   0.00000,   0.00000,   0.00000,274640135.82653,   0.00000,   0.00000,   0.00000,-474640135.82653,   0.00000
   0.00000,   0.00000,   0.00000,   0.00000,   0.00000,   0.00000,   0.00000,   0.00000,274640135.82653,   0.00000,   0.00000,   0.00000,-474640135.82653,   0.00000
-1128609.97645,-647375.26568,-973927.39085,  -0.00000,  -0.00000,  -0.00001,1951364.83471,   0.00000,274640135.82653,   0.00000,   0.00000,   0.00000,-472688770.99182,   0.00000
-2208523.58337,-1257512.13113,-1942125.79704,  -0.00001,  -0.00000,  -0.00003,3872625.18389,   0.00000,274640135.82653,   0.00000,   0.00000,   0.00000,-470767510.64264,   0.00000
-3317082.11354,-1896293.91983,-2910324.20324,  -0.00001,  -0.00000,  -0.00004,5806785.91294,   0.00000,274640135.82653,   0.00000,   0.00000,   0.00000,-468833349.91358,   0.00000
-4385537.75114,-2517888.75458,-3878522.60944,  -0.00002,  -0.00000,  -0.00005,7723938.23490,   0.00000,274640135.82653,   0.00000,   0.00000,   0.00000,-466916197.59163,   0.00000
-5453993.38875,-3139483.58932,-4840992.03098,  -0.00002,  -0.00000,  -0.00006,9632512.12737,   0.00000,274640135.82653,   0.00000,   0.00000,   0.00000,-465007623.69915,   0.00000
-6510991.05705,-3772536.39338,-5797732.46787,  -0.00002,  -0.00000,  -0.00008,11528364.58358,   0.00000,274640135.82653,   0.00000,   0.00000,   0.00000,-463111771.24295,   0.00000
-7539343.80210,-4376944.27417,-6754472.90477,  -0.00003,  -0.00001,  -0.00009,13411516.36183,   0.00000,274640135.82653,   0.00000,   0.00000,   0.00000,-461228619.46470,   0.00000
-8576290.02412,-5001403.60124,-7711213.34166,  -0.00003,  -0.00001,  -0.00010,15299076.25807,   0.00000,274640135.82653,   0.00000,   0.00000,   0.00000,-459341059.56846,   0.00000
-9593184.79986,-5617269.45134,-8662224.79390,  -0.00003,  -0.00001,  -0.00011,17169677.39697,   0.00000,274640135.82653,   0.00000,   0.00000,   0.00000,-457470458.42956,   0.00000
-10590028.12931,-6224541.82445,-9613236.24614,  -0.00004,  -0.00001,  -0.00012,19032038.17418,   0.00000,274640135.82653,   0.00000,   0.00000,   0.00000,-455608097.65235,   0.00000
-11566820.01249,-6823220.72059,-10558518.71373,  -0.00004,  -0.00001,  -0.00014,20877539.42655,   0.00000,274640135.82653,   0.00000,   0.00000,   0.00000,-453762596.39998,   0.00000
-12543611.89566,-7421899.61673,-11498072.19666,  -0.00004,  -0.00001,  -0.00015,22714452.61740,   0.00000,274640135.82653,   0.00000,   0.00000,   0.00000,-451925683.20913,   0.00000
-13500352.33256,-8011985.03589,-12443354.66425,  -0.00005,  -0.00001,  -0.00016,24551945.38834,   0.00000,274640135.82653,   0.00000,   0.00000,   0.00000,-450088190.43819,   0.00000
-14445634.80014,-8613528.42436,-13377179.16254,  -0.00005,  -0.00001,  -0.00017,26368316.55183,   0.00000,274640135.82653,   0.00000,   0.00000,   0.00000,-448271819.27470,   0.00000
-15370865.82145,-9206478.33584,-14316732.64547,  -0.00005,  -0.00001,  -0.00019,28185416.74673,   0.00000,274640135.82653,   0.00000,   0.00000,   0.00000,-446454719.07980,   0.00000
-16296096.84276,-9799428.24733,-15244828.15911,  -0.00006,  -0.00001,  -0.00020,29985221.21584,   0.00000,274640135.82653,   0.00000,   0.00000,   0.00000,-444654914.61069,   0.00000
-17201276.41778,-10383784.68184,-16178652.65739,  -0.00006,  -0.00001,  -0.00021,31785829.38308,   0.00000,274640135.82653,   0.00000,   0.00000,   0.00000,-442854306.44345,   0.00000
-18086404.54652,-10959547.63937,-17106748.17102,  -0.00006,  -0.00001,  -0.00022,33569828.72443,   0.00000,274640135.82653,   0.00000,   0.00000,   0.00000,-441070307.10210,   0.00000
-18971532.67526,-11535310.59690,-18029114.70000,  -0.00006,  -0.00002,  -0.00023,35345252.17486,   0.00000,274640135.82653,   0.00000,   0.00000,   0.00000,-439294883.65167,   0.00000
-19825151.38842,-12113938.04676,-18951481.22898,  -0.00007,  -0.00002,  -0.00025,37109289.79656,   0.00000,274640135.82653,   0.00000,   0.00000,   0.00000,-437530846.02997,   0.00000
-20670176.62460,-12672514.05033,-19868118.77331,  -0.00007,  -0.00002,  -0.00026,38860418.69462,   0.00000,274640135.82653,   0.00000,   0.00000,   0.00000,-435779717.13191,   0.00000
-21503743.89147,-13242548.02321,-20784756.31764,  -0.00007,  -0.00002,  -0.00027,40608250.44109,   0.00000,274640135.82653,   0.00000,   0.00000,   0.00000,-434031885.38544,   0.00000
-22337311.15834,-13812581.99609,-21701393.86197,  -0.00007,  -0.00002,  -0.00028,42356326.98775,   0.00000,274640135.82653,   0.00000,   0.00000,   0.00000,-432283808.83878,   0.00000
-23130775.53265,-14365429.01502,-22612302.42164,  -0.00008,  -0.00002,  -0.00029,44080193.69257,   0.00000,274640135.82653,   0.00000,   0.00000,   0.00000,-430559942.13396,   0.00000
-23924239.90696,-14918276.03394,-23517481.99667,  -0.00008,  -0.00002,  -0.00031,45795542.12483,   0.00000,274640135.82653,   0.00000,   0.00000,   0.00000,-428844593.70170,   0.00000
-24706246.31197,-15482581.02217,-24428390.55634,  -0.00008,  -0.00002,  -0.00032,47516641.89709,   0.00000,274640135.82653,   0.00000,   0.00000,   0.00000,-427123493.92944,   0.00000
-25479659.23999,-16026834.56411,-25327841.14671,  -0.00008,  -0.00002,  -0.00033,49215981.03464,   0.00000,274640135.82653,   0.00000,   0.00000,   0.00000,-425424154.79189,   0.00000
-26221562.75243,-16573952.59838,-26227291.73709,  -0.00009,  -0.00002,  -0.00034,50904654.16232,   0.00000,274640135.82653,   0.00000,   0.00000,   0.00000,-423735481.66421,   0.00000
-26963466.26487,-17121070.63265,-27126742.32746,  -0.00009,  -0.00003,  -0.00035,52593693.63435,   0.00000,274640135.82653,   0.00000,   0.00000,   0.00000,-422046442.19218,   0.00000
-27685318.33103,-17659595.18994,-28020463.93318,  -0.00009,  -0.00003,  -0.00036,54266618.06326,   0.00000,274640135.82653,   0.00000,   0.00000,   0.00000,-420373517.76327,   0.00000
-28387118.95091,-18189526.27026,-28914185.53890,  -0.00009,  -0.00003,  -0.00038,55932365.57225,   0.00000,274640135.82653,   0.00000,   0.00000,   0.00000,-418707770.25428,   0.00000
-29068868.12450,-18710863.87360,-29802178.15996,  -0.00010,  -0.00003,  -0.00039,57582127.05114,   0.00000,274640135.82653,   0.00000,   0.00000,   0.00000,-417058008.77539,   0.00000
-29759210.77507,-19252252.92321,-30690170.78103,  -0.00010,  -0.00003,  -0.00040,59236709.59502,   0.00000,274640135.82653,   0.00000,   0.00000,   0.00000,-415403426.23151,   0.00000
-30429501.97936,-19785048.49586,-31572434.41745,  -0.00010,  -0.00003,  -0.00041,60875359.60848,   0.00000,274640135.82653,   0.00000,   0.00000,   0.00000,-413764776.21805,   0.00000
-31071148.26039,-20289199.14524,-32454698.05386,  -0.00010,  -0.00003,  -0.00042,62502651.29377,   0.00000,274640135.82653,   0.00000,   0.00000,   0.00000,-412137484.53276,   0.00000
-31701336.57212,-20804807.76392,-33336961.69028,  -0.00010,  -0.00003,  -0.00043,64127479.27003,   0.00000,274640135.82653,   0.00000,   0.00000,   0.00000,-410512656.55650,   0.00000
-32340118.36082,-21340467.82889,-34213496.34204,  -0.00011,  -0.00003,  -0.00044,65748274.22167,   0.00000,274640135.82653,   0.00000,   0.00000,   0.00000,-408891861.60486,   0.00000
-32930203.77998,-21838889.49362,-35084302.00915,  -0.00011,  -0.00004,  -0.00046,67341674.14284,   0.00000,274640135.82653,   0.00000,   0.00000,   0.00000,-407298461.68368,   0.00000
-33520289.19915,-22337311.15834,-35955107.67627,  -0.00011,  -0.00004,  -0.00047,68935632.52670,   0.00000,274640135.82653,   0.00000,   0.00000,   0.00000,-405704503.29983,   0.00000
-34098916.64900,-22847190.79238,-36820184.35873,  -0.00011,  -0.00004,  -0.00048,70518392.76301,   0.00000,274640135.82653,   0.00000,   0.00000,   0.00000,-404121743.06352,   0.00000
-34677544.09886,-23357070.42641,-37685261.04119,  -0.00011,  -0.00004,  -0.00049,72101703.60766,   0.00000,274640135.82653,   0.00000,   0.00000,   0.00000,-402538432.21886,   0.00000
-35216068.65615,-23849763.10648,-38550337.72365,  -0.00011,  -0.00004,  -0.00050,73671388.01910,   0.00000,274640135.82653,   0.00000,   0.00000,   0.00000,-400968747.80743,   0.00000
-35754593.21344,-24342455.78656,-39409685.42145,  -0.00012,  -0.00004,  -0.00051,75232714.95944,   0.00000,274640135.82653,   0.00000,   0.00000,   0.00000,-399407420.86709,   0.00000
-36273066.32446,-24826554.98966,-40269033.11926,  -0.00012,  -0.00004,  -0.00052,76787648.63287,   0.00000,274640135.82653,   0.00000,   0.00000,   0.00000,-397852487.19366,   0.00000
-36771487.98918,-25302060.71578,-41122651.83242,  -0.00012,  -0.00004,  -0.00053,78327260.03686,   0.00000,274640135.82653,   0.00000,   0.00000,   0.00000,-396312875.78967,   0.00000
-37258451.68461,-25789024.41120,-41976270.54557,  -0.00012,  -0.00004,  -0.00055,79865065.88455,   0.00000,274640135.82653,   0.00000,   0.00000,   0.00000,-394775069.94198,   0.00000
-37745415.38003,-26275988.10663,-42824160.27407,  -0.00012,  -0.00005,  -0.00056,81394545.00840,   0.00000,274640135.82653,   0.00000,   0.00000,   0.00000,-393245590.81813,   0.00000
-38203734.15220,-26734306.87879,-43666321.01793,  -0.00012,  -0.00005,  -0.00057,82904408.13637,   0.00000,274640135.82653,   0.00000,   0.00000,   0.00000,-391735727.69016,   0.00000
-38639136.98575,-27215541.58956,-44514210.74643,  -0.00012,  -0.00005,  -0.00058,84419360.61431,   0.00000,274640135.82653,   0.00000,   0.00000,   0.00000,-390220775.21222,   0.00000
-39085997.78861,-27685318.33103,-45356371.49028,  -0.00012,  -0.00005,  -0.00059,85928371.84220,   0.00000,274640135.82653,   0.00000,   0.00000,   0.00000,-388711763.98433,   0.00000
-39492755.69891,-28137908.11854,-46192803.24948,  -0.00012,  -0.00005,  -0.00060,87415681.14997,   0.00000,274640135.82653,   0.00000,   0.00000,   0.00000,-387224454.67656,   0.00000
-39888055.63990,-28601955.87536,-47029235.00868,  -0.00013,  -0.00005,  -0.00061,88901627.04791,   0.00000,274640135.82653,   0.00000,   0.00000,   0.00000,-385738508.77862,   0.00000
-40274762.10391,-29045952.18589,-47859937.78323,  -0.00013,  -0.00005,  -0.00062,90374918.64664,   0.00000,274640135.82653,   0.00000,   0.00000,   0.00000,-384265217.17989,   0.00000
-40650010.59862,-29501406.46573,-48690640.55777,  -0.00013,  -0.00005,  -0.00063,91846934.04462,   0.00000,274640135.82653,   0.00000,   0.00000,   0.00000,-382793201.78191,   0.00000
-41005207.64705,-29948267.26859,-49515614.34767,  -0.00013,  -0.00006,  -0.00064,93304228.42097,   0.00000,274640135.82653,   0.00000,   0.00000,   0.00000,-381335907.40556,   0.00000
-41368998.17245,-30415179.51773,-50340588.13756,  -0.00013,  -0.00006,  -0.00065,94766851.22506,   0.00000,274640135.82653,   0.00000,   0.00000,   0.00000,-379873284.60147,   0.00000
-41684092.32832,-30844853.36664,-51165561.92746,  -0.00013,  -0.00006,  -0.00067,96213164.37429,   0.00000,274640135.82653,   0.00000,   0.00000,   0.00000,-378426971.45224,   0.00000
-42007779.96116,-31294578.66182,-51984806.73270,  -0.00013,  -0.00006,  -0.00068,97655767.10872,   0.00000,274640135.82653,   0.00000,   0.00000,   0.00000,-376984368.71781,   0.00000
-42302822.67074,-31715659.03375,-52798322.55329,  -0.00013,  -0.00006,  -0.00069,99079455.62624,   0.00000,274640135.82653,   0.00000,   0.00000,   0.00000,-375560680.20029,   0.00000
-42586407.41101,-32148197.37498,-53611838.37388,  -0.00013,  -0.00006,  -0.00070,100502338.78463,   0.00000,274640135.82653,   0.00000,   0.00000,   0.00000,-374137797.04190,   0.00000
-42849940.70501,-32572142.23923,-54425354.19448,  -0.00013,  -0.00006,  -0.00071,101920091.45636,   0.00000,274640135.82653,   0.00000,   0.00000,   0.00000,-372720044.37017,   0.00000
-43122067.47598,-33016138.54976,-55233141.03042,  -0.00013,  -0.00007,  -0.00072,103334183.87958,   0.00000,274640135.82653,   0.00000,   0.00000,   0.00000,-371305951.94695,   0.00000
-43365549.32369,-33431489.93704,-56040927.86635,  -0.00013,  -0.00007,  -0.00073,104738804.89147,   0.00000,274640135.82653,   0.00000,   0.00000,   0.00000,-369901330.93506,   0.00000
-43577521.75582,-33849705.81664,-56842985.71764,  -0.00013,  -0.00007,  -0.00074,106127714.43166,   0.00000,274640135.82653,   0.00000,   0.00000,   0.00000,-368512421.39487,   0.00000
-43809545.63423,-34276515.17322,-57645043.56893,  -0.00013,  -0.00007,  -0.00075,107523813.03518,   0.00000,274640135.82653,   0.00000,   0.00000,   0.00000,-367116322.79135,   0.00000
-44001466.62007,-34686137.57584,-58441372.43556,  -0.00013,  -0.00007,  -0.00076,108899946.35619,   0.00000,274640135.82653,   0.00000,   0.00000,   0.00000,-365740189.47034,   0.00000
-44193387.60591,-35095759.97846,-59237701.30220,  -0.00013,  -0.00007,  -0.00077,110277301.01524,   0.00000,274640135.82653,   0.00000,   0.00000,   0.00000,-364362834.81129,   0.00000
-44345205.69919,-35488195.42712,-60028301.18418,  -0.00013,  -0.00007,  -0.00078,111634980.11934,   0.00000,274640135.82653,   0.00000,   0.00000,   0.00000,-363005155.70719,   0.00000
-44505617.26945,-35900682.32207,-60818901.06616,  -0.00013,  -0.00008,  -0.00079,112998420.84416,   0.00000,274640135.82653,   0.00000,   0.00000,   0.00000,-361641714.98237,   0.00000
-44637383.91645,-36284524.29376,-61603771.96349,  -0.00013,  -0.00008,  -0.00080,114343739.07387,   0.00000,274640135.82653,   0.00000,   0.00000,   0.00000,-360296396.75266,   0.00000
-44777744.04042,-36688417.71173,-62388642.86083,  -0.00013,  -0.00008,  -0.00081,115694814.28328,   0.00000,274640135.82653,   0.00000,   0.00000,   0.00000,-358945321.54325,   0.00000
-44878001.27183,-37075124.17574,-63173513.75816,  -0.00013,  -0.00008,  -0.00082,117035981.14488,   0.00000,274640135.82653,   0.00000,   0.00000,   0.00000,-357604154.68165,   0.00000
-44986851.98022,-37481882.08604,-63946926.68618,  -0.00013,  -0.00008,  -0.00083,118364457.30151,   0.00000,274640135.82653,   0.00000,   0.00000,   0.00000,-356275678.52502,   0.00000
-45067057.76535,-37859995.07307,-64726068.59886,  -0.00013,  -0.00008,  -0.00084,119693659.84211,   0.00000,274640135.82653,   0.00000,   0.00000,   0.00000,-354946475.98442,   0.00000
-45135805.58118,-38249566.02941,-65499481.52689,  -0.00013,  -0.00009,  -0.00085,121014013.70051,   0.00000,274640135.82653,   0.00000,   0.00000,   0.00000,-353626122.12602,   0.00000
-45204553.39700,-38639136.98575,-66267165.47026,  -0.00013,  -0.00009,  -0.00086,122326535.47832,   0.00000,274640135.82653,   0.00000,   0.00000,   0.00000,-352313600.34821,   0.00000
-45253249.76654,-39020114.46511,-67040578.39829,  -0.00013,  -0.00009,  -0.00087,123644475.88723,   0.00000,274640135.82653,   0.00000,   0.00000,   0.00000,-350995659.93930,   0.00000
-45261843.24352,-39383904.99052,-67802533.35701,  -0.00013,  -0.00009,  -0.00088,124934738.48771,   0.00000,274640135.82653,   0.00000,   0.00000,   0.00000,-349705397.33882,   0.00000
-45270436.72050,-39747695.51592,-68564488.31574,  -0.00013,  -0.00009,  -0.00089,126226634.98267,   0.00000,274640135.82653,   0.00000,   0.00000,   0.00000,-348413500.84386,   0.00000
-45287623.67446,-40131537.48761,-69326443.27446,  -0.00013,  -0.00009,  -0.00090,127524563.92101,   0.00000,274640135.82653,   0.00000,   0.00000,   0.00000,-347115571.90552,   0.00000
-45264707.73585,-40498192.50534,-70082669.24853,  -0.00013,  -0.00010,  -0.00091,128804503.42291,   0.00000,274640135.82653,   0.00000,   0.00000,   0.00000,-345835632.40362,   0.00000
-45241791.79724,-40864847.52307,-70838895.22260,  -0.00013,  -0.00010,  -0.00092,130086139.89860,   0.00000,274640135.82653,   0.00000,   0.00000,   0.00000,-344553995.92792,   0.00000
-45198824.41235,-41222909.06383,-71589392.21202,  -0.00013,  -0.00010,  -0.00093,131355084.26878,   0.00000,274640135.82653,   0.00000,   0.00000,   0.00000,-343285051.55775,   0.00000
-45135805.58118,-41572377.12760,-72339889.20144,  -0.00012,  -0.00010,  -0.00094,132620810.82150,   0.00000,274640135.82653,   0.00000,   0.00000,   0.00000,-342019325.00503,   0.00000
-45081380.22698,-41941896.63766,-73084657.20620,  -0.00012,  -0.00010,  -0.00095,133883368.28679,   0.00000,274640135.82653,   0.00000,   0.00000,   0.00000,-340756767.53974,   0.00000
-44986851.98022,-42294229.19376,-73829425.21097,  -0.00012,  -0.00010,  -0.00096,135138027.68567,   0.00000,274640135.82653,   0.00000,   0.00000,   0.00000,-339502108.14086,   0.00000
-44892323.73346,-42646561.74986,-74568464.23108,  -0.00012,  -0.00011,  -0.00097,136385168.82868,   0.00000,274640135.82653,   0.00000,   0.00000,   0.00000,-338254966.99785,   0.00000
-44797795.48671,-42998894.30596,-75307503.25120,  -0.00012,  -0.00011,  -0.00098,137634123.15454,   0.00000,274640135.82653,   0.00000,   0.00000,   0.00000,-337006012.67199,   0.00000
-44671757.82436,-43354091.35439,-76040813.28666,  -0.00012,  -0.00011,  -0.00099,138870643.29978,   0.00000,274640135.82653,   0.00000,   0.00000,   0.00000,-335769492.52675,   0.00000
-44537126.68504,-43689236.95653,-76774123.32212,  -0.00012,  -0.00011,  -0.00100,140104639.58677,   0.00000,274640135.82653,   0.00000,   0.00000,   0.00000,-334535496.23976,   0.00000
-44370986.13013,-44027247.05101,-77507433.35759,  -0.00012,  -0.00011,  -0.00101,141335972.78062,   0.00000,274640135.82653,   0.00000,   0.00000,   0.00000,-333304163.04591,   0.00000
-44224897.02150,-44373850.62245,-78235014.40840,  -0.00011,  -0.00012,  -0.00102,142564384.05102,   0.00000,274640135.82653,   0.00000,   0.00000,   0.00000,-332075751.77551,   0.00000
-44038705.02031,-44703267.23995,-78956866.47455,  -0.00011,  -0.00012,  -0.00103,143776479.06667,   0.00000,274640135.82653,   0.00000,   0.00000,   0.00000,-330863656.75986,   0.00000
-43861106.49610,-45052735.30372,-79678718.54071,  -0.00011,  -0.00012,  -0.00104,144995094.27971,   0.00000,274640135.82653,   0.00000,   0.00000,   0.00000,-329645041.54682,   0.00000
-43643405.07932,-45385016.41354,-80400570.60687,  -0.00011,  -0.00012,  -0.00105,146207199.30167,   0.00000,274640135.82653,   0.00000,   0.00000,   0.00000,-328432936.52486,   0.00000
-43445755.10882,-45725891.00034,-81116693.68838,  -0.00011,  -0.00012,  -0.00105,147416243.56569,   0.00000,274640135.82653,   0.00000,   0.00000,   0.00000,-327223892.26084,   0.00000
-43208002.24576,-46049578.63318,-81832816.76988,  -0.00011,  -0.00013,  -0.00106,148619024.87516,   0.00000,274640135.82653,   0.00000,   0.00000,   0.00000,-326021110.95137,   0.00000
-42970249.38270,-46373266.26602,-82543210.86674,  -0.00011,  -0.00013,  -0.00107,149814539.75039,   0.00000,274640135.82653,   0.00000,   0.00000,   0.00000,-324825596.07614,   0.00000
-42721038.55034,-46708411.86816,-83253604.96359,  -0.00010,  -0.00013,  -0.00108,151012645.92186,   0.00000,274640135.82653,   0.00000,   0.00000,   0.00000,-323627489.90467,   0.00000
-42451776.27169,-47034963.99333,-83958270.07579,  -0.00010,  -0.00013,  -0.00109,152199529.30428,   0.00000,274640135.82653,   0.00000,   0.00000,   0.00000,-322440606.52225,   0.00000
-42162462.54676,-47352922.64152,-84662935.18800,  -0.00010,  -0.00013,  -0.00110,153384792.22951,   0.00000,274640135.82653,   0.00000,   0.00000,   0.00000,-321255343.59702,   0.00000
-41873148.82183,-47670881.28971,-85361871.31555,  -0.00010,  -0.00014,  -0.00111,154562902.50884,   0.00000,274640135.82653,   0.00000,   0.00000,   0.00000,-320077233.31769,   0.00000
-41563783.65062,-47980246.46092,-86060807.44310,  -0.00010,  -0.00014,  -0.00112,155739523.92272,   0.00000,274640135.82653,   0.00000,   0.00000,   0.00000,-318900611.90381,   0.00000
-41242960.51011,-48301069.60143,-86754014.58599,  -0.00009,  -0.00014,  -0.00113,156909761.17015,   0.00000,274640135.82653,   0.00000,   0.00000,   0.00000,-317730374.65638,   0.00000
-40922137.36959,-48621892.74195,-87447221.72889,  -0.00009,  -0.00014,  -0.00114,158082408.16440,   0.00000,274640135.82653,   0.00000,   0.00000,   0.00000,-316557727.66213,   0.00000
-40581262.78280,-48934122.40549,-88134699.88714,  -0.00009,  -0.00014,  -0.00115,159244323.97058,   0.00000,274640135.82653,   0.00000,   0.00000,   0.00000,-315395811.85595,   0.00000
-40228930.22670,-49257810.03833,-88822178.04538,  -0.00009,  -0.00015,  -0.00115,160409624.43689,   0.00000,274640135.82653,   0.00000,   0.00000,   0.00000,-314230511.38964,   0.00000
-39847952.74733,-49552852.74791,-89509656.20363,  -0.00008,  -0.00015,  -0.00116,161569491.17916,   0.00000,274640135.82653,   0.00000,   0.00000,   0.00000,-313070644.64737,   0.00000
-39475568.74495,-49867946.90377,-90191405.37722,  -0.00008,  -0.00015,  -0.00117,162726875.16732,   0.00000,274640135.82653,   0.00000,   0.00000,   0.00000,-311913260.65920,   0.00000
-39091726.77326,-50194499.02894,-90867425.56617,  -0.00008,  -0.00015,  -0.00118,163878394.79440,   0.00000,274640135.82653,   0.00000,   0.00000,   0.00000,-310761741.03213,   0.00000
-38679239.87832,-50492406.23084,-91549174.73976,  -0.00008,  -0.00015,  -0.00119,165034278.19245,   0.00000,274640135.82653,   0.00000,   0.00000,   0.00000,-309605857.63408,   0.00000
-38275346.46035,-50810364.87903,-92219465.94405,  -0.00008,  -0.00016,  -0.00120,166178219.70191,   0.00000,274640135.82653,   0.00000,   0.00000,   0.00000,-308461916.12462,   0.00000
-37851401.59610,-51119730.05024,-92889757.14834,  -0.00007,  -0.00016,  -0.00121,167321615.22295,   0.00000,274640135.82653,   0.00000,   0.00000,   0.00000,-307318520.60358,   0.00000
-37407405.28556,-51420501.74448,-93560048.35263,  -0.00007,  -0.00016,  -0.00122,168464602.70439,   0.00000,274640135.82653,   0.00000,   0.00000,   0.00000,-306175533.12214,   0.00000
-36963408.97503,-51721273.43871,-94224610.57227,  -0.00007,  -0.00016,  -0.00122,169600769.03965,   0.00000,274640135.82653,   0.00000,   0.00000,   0.00000,-305039366.78688,   0.00000
-36507954.69519,-52033503.10225,-94889172.79191,  -0.00006,  -0.00017,  -0.00123,170741163.07038,   0.00000,274640135.82653,   0.00000,   0.00000,   0.00000,-303898972.75615,   0.00000
-36032448.96907,-52337139.28880,-95548006.02689,  -0.00006,  -0.00017,  -0.00124,171871878.42744,   0.00000,274640135.82653,   0.00000,   0.00000,   0.00000,-302768257.39909,   0.00000
-35556943.24295,-52640775.47536,-96206839.26188,  -0.00006,  -0.00017,  -0.00125,173005404.97877,   0.00000,274640135.82653,   0.00000,   0.00000,   0.00000,-301634730.84775,   0.00000
-35061386.07055,-52935818.18494,-96865672.49686,  -0.00006,  -0.00017,  -0.00126,174138950.28558,   0.00000,274640135.82653,   0.00000,   0.00000,   0.00000,-300501185.54095,   0.00000
-34554370.92884,-53242318.86383,-97518776.74720,  -0.00005,  -0.00017,  -0.00127,175267594.51753,   0.00000,274640135.82653,   0.00000,   0.00000,   0.00000,-299372541.30900,   0.00000
-34047355.78713,-53548819.54271,-98166152.01288,  -0.00005,  -0.00018,  -0.00128,176389577.36388,   0.00000,274640135.82653,   0.00000,   0.00000,   0.00000,-298250558.46265,   0.00000
-33520289.19915,-53846726.74462,-98813527.27856,  -0.00005,  -0.00018,  -0.00128,177511862.80328,   0.00000,274640135.82653,   0.00000,   0.00000,   0.00000,-297128273.02325,   0.00000
-32981764.64185,-54156091.91583,-99460902.54424,  -0.00004,  -0.00018,  -0.00129,178639102.71198,   0.00000,274640135.82653,   0.00000,   0.00000,   0.00000,-296001033.11455,   0.00000
-32434646.60758,-54445405.64076,-100102548.82527,  -0.00004,  -0.00018,  -0.00130,179755255.41282,   0.00000,274640135.82653,   0.00000,   0.00000,   0.00000,-294884880.41371,   0.00000
-31876070.60401,-54746177.33499,-100738466.12165,  -0.00004,  -0.00019,  -0.00131,180866941.32855,   0.00000,274640135.82653,   0.00000,   0.00000,   0.00000,-293773194.49798,   0.00000
-31306036.63113,-55058406.99853,-101374383.41803,  -0.00004,  -0.00019,  -0.00132,181983879.62831,   0.00000,274640135.82653,   0.00000,   0.00000,   0.00000,-292656256.19821,   0.00000
-30727409.18127,-55350585.21578,-102010300.71440,  -0.00003,  -0.00019,  -0.00133,183099386.21935,   0.00000,274640135.82653,   0.00000,   0.00000,   0.00000,-291540749.60718,   0.00000
-30137323.76211,-55654221.40234,-102640489.02613,  -0.00003,  -0.00019,  -0.00133,184210725.30361,   0.00000,274640135.82653,   0.00000,   0.00000,   0.00000,-290429410.52292,   0.00000
-29547238.34295,-55957857.58890,-103270677.33786,  -0.00003,  -0.00020,  -0.00134,185325171.94853,   0.00000,274640135.82653,   0.00000,   0.00000,   0.00000,-289314963.87800,   0.00000
-28937101.47751,-56252900.29848,-103900865.64958,  -0.00002,  -0.00020,  -0.00135,186440656.50433,   0.00000,274640135.82653,   0.00000,   0.00000,   0.00000,-288199479.32220,   0.00000
-28315506.64276,-56559400.97736,-104519595.99200,  -0.00002,  -0.00020,  -0.00136,187542697.80576,   0.00000,274640135.82653,   0.00000,   0.00000,   0.00000,-287097438.02077,   0.00000
-27693911.80801,-56865901.65625,-105144055.31908,  -0.00002,  -0.00020,  -0.00137,188657524.00548,   0.00000,274640135.82653,   0.00000,   0.00000,   0.00000,-285982611.82105,   0.00000
-27052265.52698,-57163808.85816,-105762785.66150,  -0.00001,  -0.00021,  -0.00137,189764106.37997,   0.00000,274640135.82653,   0.00000,   0.00000,   0.00000,-284876029.44656,   0.00000
-26399161.27665,-57473174.02937,-106375787.01927,  -0.00001,  -0.00021,  -0.00138,190867131.92885,   0.00000,274640135.82653,   0.00000,   0.00000,   0.00000,-283773003.89768,   0.00000
-25746057.02631,-57782539.20058,-106988788.37704,  -0.00000,  -0.00021,  -0.00139,191973464.97535,   0.00000,274640135.82653,   0.00000,   0.00000,   0.00000,-282666670.85117,   0.00000
-25092952.77598,-58091904.37179,-107601789.73481,  -0.00000,  -0.00022,  -0.00140,193083048.66531,   0.00000,274640135.82653,   0.00000,   0.00000,   0.00000,-281557087.16122,   0.00000
-24399745.63308,-58384082.58904,-108209062.10792,   0.00000,  -0.00022,  -0.00141,194183148.82955,   0.00000,274640135.82653,   0.00000,   0.00000,   0.00000,-280456986.99698,   0.00000
-23735183.41344,-58704905.72956,-108816334.48104,   0.00001,  -0.00022,  -0.00141,195292696.05721,   0.00000,274640135.82653,   0.00000,   0.00000,   0.00000,-279347439.76932,   0.00000
-23030518.30124,-59008541.91612,-109417877.86951,   0.00001,  -0.00022,  -0.00142,196393053.54355,   0.00000,274640135.82653,   0.00000,   0.00000,   0.00000,-278247082.28298,   0.00000
-22325853.18904,-59312178.10267,-110019421.25797,   0.00001,  -0.00023,  -0.00143,197496841.42557,   0.00000,274640135.82653,   0.00000,   0.00000,   0.00000,-277143294.40096,   0.00000
-21621188.07684,-59615814.28923,-110615235.66178,   0.00002,  -0.00023,  -0.00144,198594429.51819,   0.00000,274640135.82653,   0.00000,   0.00000,   0.00000,-276045706.30834,   0.00000
-20905064.99533,-59930908.44510,-111211050.06560,   0.00002,  -0.00023,  -0.00145,199698695.44721,   0.00000,274640135.82653,   0.00000,   0.00000,   0.00000,-274941440.37932,   0.00000
-20177483.94452,-60257460.57026,-111806864.46941,   0.00003,  -0.00023,  -0.00145,200809793.82729,   0.00000,274640135.82653,   0.00000,   0.00000,   0.00000,-273830341.99924,   0.00000
-19441309.41673,-60563961.24915,-112396949.88857,   0.00003,  -0.00024,  -0.00146,201910223.20982,   0.00000,274640135.82653,   0.00000,   0.00000,   0.00000,-272729912.61671,   0.00000
-18693676.91964,-60881919.89734,-112981306.32308,   0.00003,  -0.00024,  -0.00147,203008082.40502,   0.00000,274640135.82653,   0.00000,   0.00000,   0.00000,-271632053.42151,   0.00000
-17946044.42255,-61199878.54553,-113565662.75759,   0.00004,  -0.00024,  -0.00148,204109453.91648,   0.00000,274640135.82653,   0.00000,   0.00000,   0.00000,-270530681.91005,   0.00000
-17178360.47917,-61509243.71674,-114150019.19210,   0.00004,  -0.00025,  -0.00148,205213390.92432,   0.00000,274640135.82653,   0.00000,   0.00000,   0.00000,-269426744.90221,   0.00000
-16419270.01278,-61838660.33423,-114728646.64196,   0.00005,  -0.00025,  -0.00149,206315907.67392,   0.00000,274640135.82653,   0.00000,   0.00000,   0.00000,-268324228.15261,   0.00000
-15640128.10010,-62159483.47474,-115307274.09181,   0.00005,  -0.00025,  -0.00150,207421153.89735,   0.00000,274640135.82653,   0.00000,   0.00000,   0.00000,-267218981.92918,   0.00000
-14860986.18742,-62480306.61526,-115885901.54167,   0.00005,  -0.00026,  -0.00151,208529962.30753,   0.00000,274640135.82653,   0.00000,   0.00000,   0.00000,-266110173.51900,   0.00000
-14070386.30544,-62812587.72508,-116453071.02222,   0.00006,  -0.00026,  -0.00151,209627175.77855,   0.00000,274640135.82653,   0.00000,   0.00000,   0.00000,-265012960.04798,   0.00000
-13279786.42345,-63144868.83490,-117025969.48743,   0.00006,  -0.00026,  -0.00152,210737536.80629,   0.00000,274640135.82653,   0.00000,   0.00000,   0.00000,-263902599.02024,   0.00000
-12469135.09519,-63468556.46774,-117593138.96798,   0.00007,  -0.00026,  -0.00153,211841398.17858,   0.00000,274640135.82653,   0.00000,   0.00000,   0.00000,-262798737.64795,   0.00000
-11667077.24390,-63812295.54686,-118160308.44853,   0.00007,  -0.00027,  -0.00154,212953521.33993,   0.00000,274640135.82653,   0.00000,   0.00000,   0.00000,-261686614.48660,   0.00000
-10844967.94633,-64147441.14901,-118721748.94443,   0.00008,  -0.00027,  -0.00154,214059317.97027,   0.00000,274640135.82653,   0.00000,   0.00000,   0.00000,-260580817.85626,   0.00000
-10022858.64876,-64482586.75115,-119277460.45568,   0.00008,  -0.00027,  -0.00155,215159242.31966,   0.00000,274640135.82653,   0.00000,   0.00000,   0.00000,-259480893.50687,   0.00000
-9209342.82817,-64837783.79958,-119838900.95158,   0.00008,  -0.00028,  -0.00156,216276959.86394,   0.00000,274640135.82653,   0.00000,   0.00000,   0.00000,-258363175.96259,   0.00000
-8355724.11502,-65175793.89405,-120394612.46283,   0.00009,  -0.00028,  -0.00157,217388360.80314,   0.00000,274640135.82653,   0.00000,   0.00000,   0.00000,-257251775.02339,   0.00000
-7522156.84814,-65522397.46550,-120944594.98943,   0.00009,  -0.00028,  -0.00157,218494125.39916,   0.00000,274640135.82653,   0.00000,   0.00000,   0.00000,-256146010.42737,   0.00000
-6677131.61196,-65880459.00625,-121494577.51603,   0.00010,  -0.00029,  -0.00158,219608113.61921,   0.00000,274640135.82653,   0.00000,   0.00000,   0.00000,-255032022.20731,   0.00000
-5812054.92950,-66229927.07003,-122044560.04262,   0.00010,  -0.00029,  -0.00159,220725791.77815,   0.00000,274640135.82653,   0.00000,   0.00000,   0.00000,-253914344.04838,   0.00000
-4946978.24705,-66579395.13380,-122588813.58457,   0.00011,  -0.00029,  -0.00159,221837718.34147,   0.00000,274640135.82653,   0.00000,   0.00000,   0.00000,-252802417.48506,   0.00000
-4090495.04156,-66948914.64386,-123127338.14186,   0.00011,  -0.00030,  -0.00160,222948557.54633,   0.00000,274640135.82653,   0.00000,   0.00000,   0.00000,-251691578.28020,   0.00000
-3213960.38980,-67309840.67694,-123671591.68381,   0.00012,  -0.00030,  -0.00161,224072757.82741,   0.00000,274640135.82653,   0.00000,   0.00000,   0.00000,-250567377.99912,   0.00000
-2337425.73804,-67670766.71002,-124210116.24110,   0.00012,  -0.00030,  -0.00161,225191207.12022,   0.00000,274640135.82653,   0.00000,   0.00000,   0.00000,-249448928.70631,   0.00000
-1469484.56325,-68051744.18938,-124742911.81374,   0.00013,  -0.00031,  -0.00162,226308595.56769,   0.00000,274640135.82653,   0.00000,   0.00000,   0.00000,-248331540.25884,   0.00000
-581491.94218,-68424128.19176,-125275707.38638,   0.00013,  -0.00031,  -0.00163,227430033.10021,   0.00000,274640135.82653,   0.00000,   0.00000,   0.00000,-247210102.72632,   0.00000
326552.12517,-68787918.71717,-125808502.95902,   0.00014,  -0.00031,  -0.00164,228555650.74866,   0.00000,274640135.82653,   0.00000,   0.00000,   0.00000,-246084485.07787,   0.00000
1226002.71554,-69171760.68885,-126335569.54701,   0.00014,  -0.00032,  -0.00164,229680362.07782,   0.00000,274640135.82653,   0.00000,   0.00000,   0.00000,-244959773.74871,   0.00000
2125453.30591,-69555602.66054,-126862636.13500,   0.00015,  -0.00032,  -0.00165,230808842.85531,   0.00000,274640135.82653,   0.00000,   0.00000,   0.00000,-243831292.97122,   0.00000
3024903.89628,-69939444.63223,-127383973.73833,   0.00015,  -0.00032,  -0.00166,231931598.43739,   0.00000,274640135.82653,   0.00000,   0.00000,   0.00000,-242708537.38914,   0.00000
3935812.45596,-70334744.57322,-127905311.34167,   0.00016,  -0.00033,  -0.00166,233063504.83479,   0.00000,274640135.82653,   0.00000,   0.00000,   0.00000,-241576630.99174,   0.00000
4846721.01563,-70730044.51421,-128420919.96036,   0.00016,  -0.00033,  -0.00167,234189745.17506,   0.00000,274640135.82653,   0.00000,   0.00000,   0.00000,-240450390.65147,   0.00000
5769087.54461,-71136802.42451,-128936528.57904,   0.00016,  -0.00033,  -0.00168,235325320.94348,   0.00000,274640135.82653,   0.00000,   0.00000,   0.00000,-239314814.88305,   0.00000
6691454.07359,-71543560.33480,-129452137.19772,   0.00017,  -0.00034,  -0.00168,236464700.33901,   0.00000,274640135.82653,   0.00000,   0.00000,   0.00000,-238175435.48752,   0.00000
7613820.60257,-71950318.24510,-129962016.83176,   0.00017,  -0.00034,  -0.00169,237598427.67175,   0.00000,274640135.82653,   0.00000,   0.00000,   0.00000,-237041708.15478,   0.00000
8547645.10086,-72368534.12470,-130471896.46579,   0.00018,  -0.00035,  -0.00170,238741690.57044,   0.00000,274640135.82653,   0.00000,   0.00000,   0.00000,-235898445.25608,   0.00000
9481469.59914,-72786750.00430,-130981776.09982,   0.00019,  -0.00035,  -0.00170,239888748.40252,   0.00000,274640135.82653,   0.00000,   0.00000,   0.00000,-234751387.42401,   0.00000
10415294.09743,-73204965.88390,-131485926.74920,   0.00019,  -0.00035,  -0.00171,241030171.20178,   0.00000,274640135.82653,   0.00000,   0.00000,   0.00000,-233609964.62475,   0.00000
11360576.56502,-73634639.73280,-131984348.41393,   0.00020,  -0.00036,  -0.00172,242171962.68301,   0.00000,274640135.82653,   0.00000,   0.00000,   0.00000,-232468173.14352,   0.00000
12305859.03260,-74064313.58170,-132488499.06331,   0.00020,  -0.00036,  -0.00172,243326917.67926,   0.00000,274640135.82653,   0.00000,   0.00000,   0.00000,-231313218.14727,   0.00000
13242548.02321,-74514038.87689,-132981191.74339,   0.00021,  -0.00036,  -0.00173,244471787.49009,   0.00000,274640135.82653,   0.00000,   0.00000,   0.00000,-230168348.33644,   0.00000
14199288.46011,-74955170.69510,-133479613.40812,   0.00021,  -0.00037,  -0.00174,245631083.30120,   0.00000,274640135.82653,   0.00000,   0.00000,   0.00000,-229009052.52533,   0.00000
15156028.89700,-75396302.51331,-133972306.08819,   0.00022,  -0.00037,  -0.00174,246784830.53054,   0.00000,274640135.82653,   0.00000,   0.00000,   0.00000,-227855305.29599,   0.00000
16104175.85691,-75857485.77780,-134464998.76827,   0.00022,  -0.00038,  -0.00175,247947237.53420,   0.00000,274640135.82653,   0.00000,   0.00000,   0.00000,-226692898.29233,   0.00000
17052322.81683,-76318669.04229,-134951962.46369,   0.00023,  -0.00038,  -0.00175,249104050.66498,   0.00000,274640135.82653,   0.00000,   0.00000,   0.00000,-225536085.16155,   0.00000
18020521.22302,-76771258.82980,-135438926.15912,   0.00023,  -0.00038,  -0.00176,250266121.60643,   0.00000,274640135.82653,   0.00000,   0.00000,   0.00000,-224374014.22010,   0.00000
18980126.15224,-77243900.06359,-135920160.86989,   0.00024,  -0.00039,  -0.00177,251427593.24739,   0.00000,274640135.82653,   0.00000,   0.00000,   0.00000,-223212542.57914,   0.00000
19939731.08146,-77716541.29739,-136401395.58066,   0.00024,  -0.00039,  -0.00177,252592800.27336,   0.00000,274640135.82653,   0.00000,   0.00000,   0.00000,-222047335.55317,   0.00000
20890742.53370,-78209233.97746,-136882630.29143,   0.00025,  -0.00040,  -0.00178,253766664.08383,   0.00000,274640135.82653,   0.00000,   0.00000,   0.00000,-220873471.74270,   0.00000
21861805.43222,-78693333.18056,-137358136.01755,   0.00025,  -0.00040,  -0.00179,254936717.93855,   0.00000,274640135.82653,   0.00000,   0.00000,   0.00000,-219703417.88798,   0.00000
22832868.33075,-79177432.38366,-137833641.74367,   0.00026,  -0.00040,  -0.00179,256110507.30579,   0.00000,274640135.82653,   0.00000,   0.00000,   0.00000,-218529628.52074,   0.00000
23795337.75229,-79681583.03304,-138303418.48514,   0.00026,  -0.00041,  -0.00180,257283753.17601,   0.00000,274640135.82653,   0.00000,   0.00000,   0.00000,-217356382.65052,   0.00000
24757807.17383,-80185733.68242,-138778924.21126,   0.00027,  -0.00041,  -0.00180,258469907.82401,   0.00000,274640135.82653,   0.00000,   0.00000,   0.00000,-216170228.00252,   0.00000
25731734.56468,-80701342.30110,-139242971.96808,   0.00027,  -0.00042,  -0.00181,259648281.44920,   0.00000,274640135.82653,   0.00000,   0.00000,   0.00000,-214991854.37733,   0.00000
26705661.95553,-81216950.91979,-139712748.70955,   0.00028,  -0.00042,  -0.00182,260839595.13357,   0.00000,274640135.82653,   0.00000,   0.00000,   0.00000,-213800540.69296,   0.00000
27650944.42312,-81761204.46173,-140176796.46636,   0.00029,  -0.00043,  -0.00182,262028331.68529,   0.00000,274640135.82653,   0.00000,   0.00000,   0.00000,-212611804.14124,   0.00000
28644923.26025,-82268219.60344,-140635115.23853,   0.00029,  -0.00043,  -0.00183,263210686.21366,   0.00000,274640135.82653,   0.00000,   0.00000,   0.00000,-211429449.61287,   0.00000
29601663.69714,-82823931.11469,-141093434.01069,   0.00030,  -0.00043,  -0.00183,264404726.84248,   0.00000,274640135.82653,   0.00000,   0.00000,   0.00000,-210235408.98404,   0.00000
30566997.61101,-83359591.17966,-141551752.78285,   0.00030,  -0.00044,  -0.00184,265597272.87141,   0.00000,274640135.82653,   0.00000,   0.00000,   0.00000,-209042862.95512,   0.00000
31543789.49419,-83906709.21393,-142010071.55502,   0.00031,  -0.00044,  -0.00185,266800793.38065,   0.00000,274640135.82653,   0.00000,   0.00000,   0.00000,-207839342.44588,   0.00000
32511987.90038,-84473878.69448,-142462661.34253,   0.00031,  -0.00045,  -0.00185,268003934.46986,   0.00000,274640135.82653,   0.00000,   0.00000,   0.00000,-206636201.35667,   0.00000
33480186.30658,-85041048.17503,-142915251.13004,   0.00032,  -0.00045,  -0.00186,269210697.97303,   0.00000,274640135.82653,   0.00000,   0.00000,   0.00000,-205429437.85350,   0.00000
34448384.71278,-85608217.65558,-143362111.93290,   0.00032,  -0.00046,  -0.00186,270411923.49718,   0.00000,274640135.82653,   0.00000,   0.00000,   0.00000,-204228212.32935,   0.00000
35407989.64200,-86195438.58242,-143808972.73576,   0.00033,  -0.00046,  -0.00187,271621885.12225,   0.00000,274640135.82653,   0.00000,   0.00000,   0.00000,-203018250.70428,   0.00000
36387646.01750,-86774066.03228,-144255833.53862,   0.00033,  -0.00047,  -0.00188,272837936.96353,   0.00000,274640135.82653,   0.00000,   0.00000,   0.00000,-201802198.86299,   0.00000
37338657.46974,-87381338.40539,-144696965.35683,   0.00034,  -0.00047,  -0.00188,274051109.93673,   0.00000,274640135.82653,   0.00000,   0.00000,   0.00000,-200589025.88980,   0.00000
38309720.36826,-87980017.30153,-145138097.17504,   0.00035,  -0.00048,  -0.00189,275270430.18577,   0.00000,274640135.82653,   0.00000,   0.00000,   0.00000,-199369705.64076,   0.00000
39260731.82050,-88587289.67465,-145573500.00859,   0.00035,  -0.00048,  -0.00189,276481548.19419,   0.00000,274640135.82653,   0.00000,   0.00000,   0.00000,-198158587.63233,   0.00000
40223201.24204,-89206020.01707,-146014631.82680,   0.00036,  -0.00048,  -0.00190,277713142.90674,   0.00000,274640135.82653,   0.00000,   0.00000,   0.00000,-196926992.91979,   0.00000
41185670.66359,-89824750.35949,-146450034.66036,   0.00036,  -0.00049,  -0.00190,278939197.29389,   0.00000,274640135.82653,   0.00000,   0.00000,   0.00000,-195700938.53264,   0.00000
42139546.60815,-90463532.14820,-146879708.50926,   0.00037,  -0.00049,  -0.00191,280165005.99051,   0.00000,274640135.82653,   0.00000,   0.00000,   0.00000,-194475129.83602,   0.00000
43093422.55272,-91102313.93690,-147309382.35816,   0.00037,  -0.00050,  -0.00192,281394292.00716,   0.00000,274640135.82653,   0.00000,   0.00000,   0.00000,-193245843.81937,   0.00000
44038705.02031,-91761147.17189,-147739056.20707,   0.00038,  -0.00050,  -0.00192,282632347.67036,   0.00000,274640135.82653,   0.00000,   0.00000,   0.00000,-192007788.15617,   0.00000
44992580.96488,-92399928.96059,-148168730.05597,   0.00038,  -0.00051,  -0.00193,283868469.89039,   0.00000,274640135.82653,   0.00000,   0.00000,   0.00000,-190771665.93614,   0.00000
45949321.40177,-93070220.16488,-148592674.92022,   0.00039,  -0.00051,  -0.00193,285112729.63155,   0.00000,274640135.82653,   0.00000,   0.00000,   0.00000,-189527406.19498,   0.00000
46886010.39238,-93749104.84615,-149010890.79982,   0.00040,  -0.00052,  -0.00194,286348478.02098,   0.00000,274640135.82653,   0.00000,   0.00000,   0.00000,-188291657.80555,   0.00000
47822699.38299,-94427989.52742,-149434835.66408,   0.00040,  -0.00052,  -0.00194,287596535.91242,   0.00000,274640135.82653,   0.00000,   0.00000,   0.00000,-187043599.91411,   0.00000
48770846.34290,-95118332.17799,-149853051.54367,   0.00041,  -0.00053,  -0.00195,288847546.81878,   0.00000,274640135.82653,   0.00000,   0.00000,   0.00000,-185792589.00775,   0.00000
49698941.85653,-95817268.30554,-150271267.42327,   0.00041,  -0.00053,  -0.00195,290098796.98571,   0.00000,274640135.82653,   0.00000,   0.00000,   0.00000,-184541338.84082,   0.00000
50618443.89319,-96536255.87937,-150683754.31822,   0.00042,  -0.00054,  -0.00196,291349913.43669,   0.00000,274640135.82653,   0.00000,   0.00000,   0.00000,-183290222.38984,   0.00000
51557997.37613,-97246649.97622,-151096241.21317,   0.00042,  -0.00054,  -0.00196,292607591.96506,   0.00000,274640135.82653,   0.00000,   0.00000,   0.00000,-182032543.86147,   0.00000
52477499.41278,-97965637.55006,-151508728.10812,   0.00043,  -0.00055,  -0.00197,293865326.04414,   0.00000,274640135.82653,   0.00000,   0.00000,   0.00000,-180774809.78238,   0.00000
53408459.41874,-98696083.09319,-151921215.00307,   0.00044,  -0.00055,  -0.00197,295135143.29560,   0.00000,274640135.82653,   0.00000,   0.00000,   0.00000,-179504992.53093,   0.00000
54319367.97841,-99435122.11331,-152327972.91336,   0.00044,  -0.00056,  -0.00198,296396059.74269,   0.00000,274640135.82653,   0.00000,   0.00000,   0.00000,-178244076.08384,   0.00000
55221683.06111,-100194212.57970,-152734730.82366,   0.00045,  -0.00056,  -0.00199,297665754.77459,   0.00000,274640135.82653,   0.00000,   0.00000,   0.00000,-176974381.05194,   0.00000
56135456.11311,-100964761.01541,-153135759.74930,   0.00045,  -0.00057,  -0.00199,298938886.81947,   0.00000,274640135.82653,   0.00000,   0.00000,   0.00000,-175701249.00706,   0.00000
57037771.19581,-101723851.48180,-153536788.67494,   0.00046,  -0.00057,  -0.00200,300206241.60583,   0.00000,274640135.82653,   0.00000,   0.00000,   0.00000,-174433894.22070,   0.00000
57931492.80153,-102502993.39448,-153937817.60059,   0.00046,  -0.00058,  -0.00200,301482384.22818,   0.00000,274640135.82653,   0.00000,   0.00000,   0.00000,-173157751.59835,   0.00000
58816620.93027,-103302186.75344,-154338846.52623,   0.00047,  -0.00058,  -0.00201,302767337.87908,   0.00000,274640135.82653,   0.00000,   0.00000,   0.00000,-171872797.94745,   0.00000
59721800.50530,-104092786.63542,-154734146.46722,   0.00047,  -0.00059,  -0.00201,304050289.54340,   0.00000,274640135.82653,   0.00000,   0.00000,   0.00000,-170589846.28313,   0.00000
60598335.15706,-104912031.44067,-155129446.40821,   0.00048,  -0.00060,  -0.00202,305338537.42497,   0.00000,274640135.82653,   0.00000,   0.00000,   0.00000,-169301598.40156,   0.00000
61474869.80882,-105731276.24591,-155524746.34920,   0.00049,  -0.00060,  -0.00202,306629938.22765,   0.00000,274640135.82653,   0.00000,   0.00000,   0.00000,-168010197.59888,   0.00000
62331353.01431,-106559114.52813,-155914317.30554,   0.00049,  -0.00061,  -0.00203,307912064.17534,   0.00000,274640135.82653,   0.00000,   0.00000,   0.00000,-166728071.65119,   0.00000
63199294.18909,-107398410.77966,-156303888.26188,   0.00050,  -0.00061,  -0.00203,309206710.21123,   0.00000,274640135.82653,   0.00000,   0.00000,   0.00000,-165433425.61530,   0.00000
64067235.36388,-108237707.03118,-156693459.21822,   0.00050,  -0.00062,  -0.00204,310504465.35834,   0.00000,274640135.82653,   0.00000,   0.00000,   0.00000,-164135670.46819,   0.00000
64926583.06168,-109097054.72899,-157077301.18991,   0.00051,  -0.00062,  -0.00204,311802442.53625,   0.00000,274640135.82653,   0.00000,   0.00000,   0.00000,-162837693.29028,   0.00000
65765879.31321,-109964995.90378,-157461143.16160,   0.00051,  -0.00063,  -0.00205,313099713.62573,   0.00000,274640135.82653,   0.00000,   0.00000,   0.00000,-161540422.20080,   0.00000
66596582.08776,-110852988.52484,-157844985.13328,   0.00052,  -0.00063,  -0.00205,314405849.11195,   0.00000,274640135.82653,   0.00000,   0.00000,   0.00000,-160234286.71457,   0.00000
67447336.30859,-111732387.66893,-158228827.10497,   0.00052,  -0.00064,  -0.00206,315718872.95193,   0.00000,274640135.82653,   0.00000,   0.00000,   0.00000,-158921262.87460,   0.00000
68269445.60616,-112640431.73628,-158606940.09201,   0.00053,  -0.00065,  -0.00206,317028339.78784,   0.00000,274640135.82653,   0.00000,   0.00000,   0.00000,-157611796.03869,   0.00000
69091554.90372,-113548475.80363,-158985053.07904,   0.00054,  -0.00065,  -0.00207,318340825.80499,   0.00000,274640135.82653,   0.00000,   0.00000,   0.00000,-156299310.02154,   0.00000
69893612.75501,-114465113.34796,-159363166.06608,   0.00054,  -0.00066,  -0.00207,319652335.63956,   0.00000,274640135.82653,   0.00000,   0.00000,   0.00000,-154987800.18697,   0.00000
70707128.57560,-115393208.86159,-159735550.06846,   0.00055,  -0.00066,  -0.00208,320968146.40324,   0.00000,274640135.82653,   0.00000,   0.00000,   0.00000,-153671989.42329,   0.00000
71491999.47293,-116349949.29849,-160107934.07084,   0.00055,  -0.00067,  -0.00208,322288936.92093,   0.00000,274640135.82653,   0.00000,   0.00000,   0.00000,-152351198.90560,   0.00000
72296921.81655,-117298096.25840,-160480318.07323,   0.00056,  -0.00067,  -0.00209,323616713.18254,   0.00000,274640135.82653,   0.00000,   0.00000,   0.00000,-151023422.64399,   0.00000
73081792.71388,-118254836.69529,-160852702.07561,   0.00056,  -0.00068,  -0.00209,324943388.27857,   0.00000,274640135.82653,   0.00000,   0.00000,   0.00000,-149696747.54796,   0.00000
73858070.13423,-119231628.57847,-161219357.09334,   0.00057,  -0.00069,  -0.00210,326270527.42772,   0.00000,274640135.82653,   0.00000,   0.00000,   0.00000,-148369608.39881,   0.00000
74614296.10830,-120217013.93862,-161586012.11107,   0.00057,  -0.00069,  -0.00210,327596473.46882,   0.00000,274640135.82653,   0.00000,   0.00000,   0.00000,-147043662.35771,   0.00000
75381980.05168,-121213857.26808,-161952667.12880,   0.00058,  -0.00070,  -0.00211,328935528.41140,   0.00000,274640135.82653,   0.00000,   0.00000,   0.00000,-145704607.41513,   0.00000
76129612.54877,-122219294.07451,-162313593.16188,   0.00058,  -0.00070,  -0.00211,330264876.77338,   0.00000,274640135.82653,   0.00000,   0.00000,   0.00000,-144375259.05315,   0.00000
76868651.56888,-123244782.32723,-162680248.17962,   0.00059,  -0.00071,  -0.00211,331611694.06196,   0.00000,274640135.82653,   0.00000,   0.00000,   0.00000,-143028441.76457,   0.00000
77607690.58900,-124270270.57995,-163041174.21269,   0.00060,  -0.00072,  -0.00212,332952933.55535,   0.00000,274640135.82653,   0.00000,   0.00000,   0.00000,-141687202.27118,   0.00000
78338136.13213,-125315810.27894,-163402100.24577,   0.00060,  -0.00072,  -0.00212,334303248.53022,   0.00000,274640135.82653,   0.00000,   0.00000,   0.00000,-140336887.29631,   0.00000
79048530.22899,-126369943.45492,-163757297.29420,   0.00061,  -0.00073,  -0.00213,335643781.83827,   0.00000,274640135.82653,   0.00000,   0.00000,   0.00000,-138996353.98826,   0.00000
79758924.32584,-127424076.63090,-164112494.34263,   0.00061,  -0.00074,  -0.00213,336987122.89674,   0.00000,274640135.82653,   0.00000,   0.00000,   0.00000,-137653012.92979,   0.00000
80460724.94572,-128498261.25316,-164467691.39105,   0.00062,  -0.00074,  -0.00214,338339561.96856,   0.00000,274640135.82653,   0.00000,   0.00000,   0.00000,-136300573.85797,   0.00000
81153932.08862,-129592497.32170,-164822888.43948,   0.00062,  -0.00075,  -0.00214,339701148.72187,   0.00000,274640135.82653,   0.00000,   0.00000,   0.00000,-134938987.10466,   0.00000
81827087.78523,-130695326.86722,-165178085.48791,   0.00063,  -0.00075,  -0.00215,341061224.00733,   0.00000,274640135.82653,   0.00000,   0.00000,   0.00000,-133578911.81920,   0.00000
82500243.48185,-131798156.41274,-165527553.55168,   0.00063,  -0.00076,  -0.00215,342415737.30962,   0.00000,274640135.82653,   0.00000,   0.00000,   0.00000,-132224398.51691,   0.00000
83164805.70149,-132921037.40454,-165877021.61546,   0.00064,  -0.00077,  -0.00216,343779432.54578,   0.00000,274640135.82653,   0.00000,   0.00000,   0.00000,-130860703.28075,   0.00000
83809316.47484,-134052511.87332,-166226489.67923,   0.00064,  -0.00077,  -0.00216,345141513.69055,   0.00000,274640135.82653,   0.00000,   0.00000,   0.00000,-129498622.13598,   0.00000
84445233.77122,-135204037.78838,-166570228.75836,   0.00065,  -0.00078,  -0.00217,346504529.90494,   0.00000,274640135.82653,   0.00000,   0.00000,   0.00000,-128135605.92159,   0.00000
85081151.06760,-136355563.70344,-166919696.82213,   0.00065,  -0.00079,  -0.00217,347878550.49688,   0.00000,274640135.82653,   0.00000,   0.00000,   0.00000,-126761585.32965,   0.00000
85708474.88700,-137527141.06479,-167263435.90126,   0.00066,  -0.00079,  -0.00217,349253589.36111,   0.00000,274640135.82653,   0.00000,   0.00000,   0.00000,-125386546.46542,   0.00000
86315747.26011,-138707311.90311,-167607174.98038,   0.00066,  -0.00080,  -0.00218,350626934.49381,   0.00000,274640135.82653,   0.00000,   0.00000,   0.00000,-124013201.33272,   0.00000
86914426.15625,-139907534.18772,-167945185.07485,   0.00067,  -0.00081,  -0.00218,352001383.82526,   0.00000,274640135.82653,   0.00000,   0.00000,   0.00000,-122638752.00127,   0.00000
87493053.60611,-141116349.94930,-168288924.15397,   0.00067,  -0.00081,  -0.00219,353382292.99422,   0.00000,274640135.82653,   0.00000,   0.00000,   0.00000,-121257842.83231,   0.00000
88063087.57899,-142345217.15716,-168626934.24844,   0.00068,  -0.00082,  -0.00219,354764367.47299,   0.00000,274640135.82653,   0.00000,   0.00000,   0.00000,-119875768.35354,   0.00000
88633121.55187,-143574084.36503,-168964944.34291,   0.00068,  -0.00083,  -0.00220,356149160.40743,   0.00000,274640135.82653,   0.00000,   0.00000,   0.00000,-118490975.41910,   0.00000
89203155.52475,-144802951.57289,-169302954.43739,   0.00069,  -0.00083,  -0.00220,357536640.21059,   0.00000,274640135.82653,   0.00000,   0.00000,   0.00000,-117103495.61594,   0.00000
89744544.57437,-146060463.70402,-169635235.54720,   0.00069,  -0.00084,  -0.00221,358920898.73842,   0.00000,274640135.82653,   0.00000,   0.00000,   0.00000,-115719237.08811,   0.00000
90257288.70072,-147346620.75840,-169973245.64167,   0.00070,  -0.00085,  -0.00221,360318226.02151,   0.00000,274640135.82653,   0.00000,   0.00000,   0.00000,-114321909.80502,   0.00000
90790084.27336,-148624184.33581,-170305526.75149,   0.00070,  -0.00085,  -0.00221,361714676.39435,   0.00000,274640135.82653,   0.00000,   0.00000,   0.00000,-112925459.43218,   0.00000
91302828.39972,-149910341.39020,-170637807.86131,   0.00071,  -0.00086,  -0.00222,363109266.64015,   0.00000,274640135.82653,   0.00000,   0.00000,   0.00000,-111530869.18638,   0.00000
91786927.60282,-151225143.36784,-170970088.97113,   0.00071,  -0.00087,  -0.00222,364508832.97913,   0.00000,274640135.82653,   0.00000,   0.00000,   0.00000,-110131302.84740,   0.00000
92271026.80592,-152539945.34549,-171296641.09630,   0.00072,  -0.00087,  -0.00223,365903009.62467,   0.00000,274640135.82653,   0.00000,   0.00000,   0.00000,-108737126.20186,   0.00000
92746532.53204,-153874798.76941,-171628922.20612,   0.00072,  -0.00088,  -0.00223,367314834.76151,   0.00000,274640135.82653,   0.00000,   0.00000,   0.00000,-107325301.06502,   0.00000
93201986.81188,-155218245.67032,-171955474.33128,   0.00073,  -0.00089,  -0.00224,368716718.46835,   0.00000,274640135.82653,   0.00000,   0.00000,   0.00000,-105923417.35817,   0.00000
93648847.61474,-156581744.01751,-172282026.45645,   0.00073,  -0.00090,  -0.00224,370128273.74263,   0.00000,274640135.82653,   0.00000,   0.00000,   0.00000,-104511862.08390,   0.00000
94095708.41760,-157945242.36470,-172608578.58162,   0.00074,  -0.00090,  -0.00224,371542508.46928,   0.00000,274640135.82653,   0.00000,   0.00000,   0.00000,-103097627.35725,   0.00000
94522517.77417,-159317334.18886,-172929401.72213,   0.00074,  -0.00091,  -0.00225,372946817.69917,   0.00000,274640135.82653,   0.00000,   0.00000,   0.00000,-101693318.12736,   0.00000
94920682.20749,-160718070.93629,-173255953.84730,   0.00075,  -0.00092,  -0.00225,374364234.13993,   0.00000,274640135.82653,   0.00000,   0.00000,   0.00000,-100275901.68660,   0.00000
95330304.61011,-162130265.65302,-173576776.98781,   0.00075,  -0.00092,  -0.00226,375788118.70179,   0.00000,274640135.82653,   0.00000,   0.00000,   0.00000,-98852017.12474,   0.00000
95699824.12017,-163559647.32370,-173897600.12833,   0.00075,  -0.00093,  -0.00226,377205474.56592,   0.00000,274640135.82653,   0.00000,   0.00000,   0.00000,-97434661.26061,   0.00000
96069343.63023,-164989028.99439,-174218423.26884,   0.00076,  -0.00094,  -0.00226,378625492.02950,   0.00000,274640135.82653,   0.00000,   0.00000,   0.00000,-96014643.79703,   0.00000
96430269.66331,-166438462.11136,-174539246.40936,   0.00076,  -0.00095,  -0.00227,380055403.81965,   0.00000,274640135.82653,   0.00000,   0.00000,   0.00000,-94584732.00688,   0.00000
96771144.25010,-167896488.70531,-174854340.56522,   0.00077,  -0.00095,  -0.00227,381475480.01166,   0.00000,274640135.82653,   0.00000,   0.00000,   0.00000,-93164655.81487,   0.00000
97103425.35992,-169374566.74554,-175175163.70574,   0.00077,  -0.00096,  -0.00228,382913415.29738,   0.00000,274640135.82653,   0.00000,   0.00000,   0.00000,-91726720.52914,   0.00000
97415655.02346,-170861238.26274,-175490257.86160,   0.00078,  -0.00097,  -0.00228,384341545.81674,   0.00000,274640135.82653,   0.00000,   0.00000,   0.00000,-90298590.00979,   0.00000
97719291.21002,-172367961.22623,-175805352.01746,   0.00078,  -0.00097,  -0.00229,385779748.46299,   0.00000,274640135.82653,   0.00000,   0.00000,   0.00000,-88860387.36354,   0.00000
98022927.39658,-173874684.18972,-176120446.17332,   0.00079,  -0.00098,  -0.00229,387220661.02259,   0.00000,274640135.82653,   0.00000,   0.00000,   0.00000,-87419474.80394,   0.00000
98286460.69057,-175398594.10717,-176435540.32919,   0.00079,  -0.00099,  -0.00229,388654990.79325,   0.00000,274640135.82653,   0.00000,   0.00000,   0.00000,-85985145.03328,   0.00000
98561451.95387,-176933961.99392,-176744905.50040,   0.00079,  -0.00100,  -0.00230,390096321.14803,   0.00000,274640135.82653,   0.00000,   0.00000,   0.00000,-84543814.67850,   0.00000
98787746.84763,-178506568.28090,-177059999.65626,   0.00080,  -0.00100,  -0.00230,391546428.86822,   0.00000,274640135.82653,   0.00000,   0.00000,   0.00000,-83093706.95831,   0.00000
99034093.18766,-180070581.09091,-177369364.82747,   0.00080,  -0.00101,  -0.00231,392996141.50006,   0.00000,274640135.82653,   0.00000,   0.00000,   0.00000,-81643994.32646,   0.00000
99240336.63514,-181651780.85488,-177678729.99868,   0.00081,  -0.00102,  -0.00231,394439337.62678,   0.00000,274640135.82653,   0.00000,   0.00000,   0.00000,-80200798.19975,   0.00000
99437986.60563,-183253032.06513,-177988095.16989,   0.00081,  -0.00103,  -0.00231,395892896.57153,   0.00000,274640135.82653,   0.00000,   0.00000,   0.00000,-78747239.25500,   0.00000
99635636.57613,-184854283.27538,-178297460.34110,   0.00081,  -0.00104,  -0.00232,397349208.38151,   0.00000,274640135.82653,   0.00000,   0.00000,   0.00000,-77290927.44502,   0.00000
99804641.62337,-186484179.40888,-178606825.51231,   0.00082,  -0.00104,  -0.00232,398811354.79380,   0.00000,274640135.82653,   0.00000,   0.00000,   0.00000,-75828781.03273,   0.00000
99973646.67060,-188114075.54239,-178910461.69887,   0.00082,  -0.00105,  -0.00233,400268591.67781,   0.00000,274640135.82653,   0.00000,   0.00000,   0.00000,-74371544.14872,   0.00000
100102548.82527,-189761158.62986,-179219826.87008,   0.00083,  -0.00106,  -0.00233,401727061.92485,   0.00000,274640135.82653,   0.00000,   0.00000,   0.00000,-72913073.90168,   0.00000
100242908.94925,-191419699.68662,-179523463.05664,   0.00083,  -0.00107,  -0.00233,403193044.47504,   0.00000,274640135.82653,   0.00000,   0.00000,   0.00000,-71447091.35149,   0.00000
100363217.62694,-193086834.22037,-179827099.24320,   0.00083,  -0.00107,  -0.00234,404657230.05045,   0.00000,274640135.82653,   0.00000,   0.00000,   0.00000,-69982905.77608,   0.00000
100454881.38137,-194782613.67738,-180130735.42976,   0.00084,  -0.00108,  -0.00234,406127516.52141,   0.00000,274640135.82653,   0.00000,   0.00000,   0.00000,-68512619.30512,   0.00000
100526493.68952,-196486986.61136,-180434371.61632,   0.00084,  -0.00109,  -0.00235,407596058.66901,   0.00000,274640135.82653,   0.00000,   0.00000,   0.00000,-67044077.15752,   0.00000
100589512.52070,-198211410.99163,-180738007.80288,   0.00084,  -0.00110,  -0.00235,409075402.67998,   0.00000,274640135.82653,   0.00000,   0.00000,   0.00000,-65564733.14655,   0.00000
100652531.35187,-199935835.37190,-181041643.98944,   0.00085,  -0.00111,  -0.00235,410557607.22062,   0.00000,274640135.82653,   0.00000,   0.00000,   0.00000,-64082528.60591,   0.00000
100686905.25978,-201688904.67542,-181339551.19134,   0.00085,  -0.00111,  -0.00236,412038587.11994,   0.00000,274640135.82653,   0.00000,   0.00000,   0.00000,-62601548.70658,   0.00000
100709821.19839,-203430516.00965,-181643187.37790,   0.00085,  -0.00112,  -0.00236,413517395.50568,   0.00000,274640135.82653,   0.00000,   0.00000,   0.00000,-61122740.32085,   0.00000
100695498.73676,-205220823.71341,-181941094.57981,   0.00086,  -0.00113,  -0.00237,415003215.45398,   0.00000,274640135.82653,   0.00000,   0.00000,   0.00000,-59636920.37255,   0.00000
100681176.27513,-207011131.41718,-182244730.76637,   0.00086,  -0.00114,  -0.00237,416499529.02279,   0.00000,274640135.82653,   0.00000,   0.00000,   0.00000,-58140606.80374,   0.00000
100666853.81350,-208801439.12094,-182542637.96827,   0.00087,  -0.00115,  -0.00237,417991249.20621,   0.00000,274640135.82653,   0.00000,   0.00000,   0.00000,-56648886.62032,   0.00000
100612428.45930,-210608933.77867,-182840545.17018,   0.00087,  -0.00115,  -0.00238,419476882.44401,   0.00000,274640135.82653,   0.00000,   0.00000,   0.00000,-55163253.38252,   0.00000
100569461.07441,-212427886.40569,-183138452.37209,   0.00087,  -0.00116,  -0.00238,420978217.59363,   0.00000,274640135.82653,   0.00000,   0.00000,   0.00000,-53661918.23289,   0.00000
100477797.31998,-214284077.43296,-183430630.58934,   0.00088,  -0.00117,  -0.00238,422474418.64802,   0.00000,274640135.82653,   0.00000,   0.00000,   0.00000,-52165717.17851,   0.00000
100394727.04253,-216120217.01394,-183728537.79125,   0.00088,  -0.00118,  -0.00239,423972766.12102,   0.00000,274640135.82653,   0.00000,   0.00000,   0.00000,-50667369.70551,   0.00000
100274418.36483,-218005052.96446,-184026444.99315,   0.00088,  -0.00119,  -0.00239,425486415.00464,   0.00000,274640135.82653,   0.00000,   0.00000,   0.00000,-49153720.82188,   0.00000
100142651.71784,-219878430.94568,-184318623.21041,   0.00088,  -0.00120,  -0.00240,426982843.68955,   0.00000,274640135.82653,   0.00000,   0.00000,   0.00000,-47657292.13698,   0.00000
100002291.59386,-221771860.37319,-184616530.41232,   0.00089,  -0.00120,  -0.00240,428498191.98009,   0.00000,274640135.82653,   0.00000,   0.00000,   0.00000,-46141943.84644,   0.00000
99841880.02360,-223673883.27767,-184908708.62957,   0.00089,  -0.00121,  -0.00240,430004790.28372,   0.00000,274640135.82653,   0.00000,   0.00000,   0.00000,-44635345.54281,   0.00000
99672874.97637,-225595957.62843,-185206615.83148,   0.00089,  -0.00122,  -0.00241,431530401.51009,   0.00000,274640135.82653,   0.00000,   0.00000,   0.00000,-43109734.31644,   0.00000
99463767.03657,-227535218.93315,-185498794.04873,   0.00090,  -0.00123,  -0.00241,433042993.93622,   0.00000,274640135.82653,   0.00000,   0.00000,   0.00000,-41597141.89031,   0.00000
99266117.06607,-229485938.20717,-185790972.26599,   0.00090,  -0.00124,  -0.00242,434571733.97025,   0.00000,274640135.82653,   0.00000,   0.00000,   0.00000,-40068401.85628,   0.00000
99028364.20301,-231453844.43515,-186083150.48324,   0.00090,  -0.00125,  -0.00242,436094956.75225,   0.00000,274640135.82653,   0.00000,   0.00000,   0.00000,-38545179.07427,   0.00000
98790611.33995,-233421750.66313,-186375328.70049,   0.00090,  -0.00125,  -0.00242,437621372.26633,   0.00000,274640135.82653,   0.00000,   0.00000,   0.00000,-37018763.56020,   0.00000
98524213.55363,-235418301.81437,-186667506.91775,   0.00091,  -0.00126,  -0.00243,439155410.92486,   0.00000,274640135.82653,   0.00000,   0.00000,   0.00000,-35484724.90167,   0.00000
98237764.32103,-237423446.44259,-186953956.15035,   0.00091,  -0.00127,  -0.00243,440681114.86219,   0.00000,274640135.82653,   0.00000,   0.00000,   0.00000,-33959020.96434,   0.00000
97951315.08843,-239428591.07080,-187246134.36761,   0.00091,  -0.00128,  -0.00243,442217367.61653,   0.00000,274640135.82653,   0.00000,   0.00000,   0.00000,-32422768.21000,   0.00000
97636220.93256,-241462380.62228,-187538312.58486,   0.00092,  -0.00129,  -0.00244,443761471.17189,   0.00000,274640135.82653,   0.00000,   0.00000,   0.00000,-30878664.65464,   0.00000
97301075.33042,-243504763.65074,-187824761.81746,   0.00092,  -0.00130,  -0.00244,445297392.74749,   0.00000,274640135.82653,   0.00000,   0.00000,   0.00000,-29342743.07904,   0.00000
96937284.80501,-245575791.60245,-188116940.03472,   0.00092,  -0.00131,  -0.00245,446848639.29792,   0.00000,274640135.82653,   0.00000,   0.00000,   0.00000,-27791496.52861,   0.00000
96573494.27961,-247646819.55417,-188403389.26732,   0.00092,  -0.00132,  -0.00245,448396049.27618,   0.00000,274640135.82653,   0.00000,   0.00000,   0.00000,-26244086.55035,   0.00000
96189652.30792,-249726440.98286,-188695567.48457,   0.00092,  -0.00132,  -0.00245,449949881.24490,   0.00000,274640135.82653,   0.00000,   0.00000,   0.00000,-24690254.58163,   0.00000
95777165.41297,-251834707.33482,-188982016.71718,   0.00093,  -0.00133,  -0.00246,451504825.64594,   0.00000,274640135.82653,   0.00000,   0.00000,   0.00000,-23135310.18059,   0.00000
95364678.51803,-253942973.68677,-189274194.93443,   0.00093,  -0.00134,  -0.00246,453070423.27381,   0.00000,274640135.82653,   0.00000,   0.00000,   0.00000,-21569712.55272,   0.00000
94932140.17680,-256059833.51571,-189560644.16703,   0.00093,  -0.00135,  -0.00246,454628167.88961,   0.00000,274640135.82653,   0.00000,   0.00000,   0.00000,-20011967.93692,   0.00000
94470956.91231,-258205338.26790,-189847093.39964,   0.00093,  -0.00136,  -0.00247,456194498.44652,   0.00000,274640135.82653,   0.00000,   0.00000,   0.00000,-18445637.38001,   0.00000
93989722.20153,-260359436.49707,-190133542.63224,   0.00094,  -0.00137,  -0.00247,457760316.39184,   0.00000,274640135.82653,   0.00000,   0.00000,   0.00000,-16879819.43469,   0.00000
93488436.04448,-262522128.20322,-190419991.86484,   0.00094,  -0.00138,  -0.00248,459325656.33611,   0.00000,274640135.82653,   0.00000,   0.00000,   0.00000,-15314479.49042,   0.00000
92978556.41045,-264704871.35565,-190706441.09744,   0.00094,  -0.00139,  -0.00248,460903892.05690,   0.00000,274640135.82653,   0.00000,   0.00000,   0.00000,-13736243.76963,   0.00000
92448625.33013,-266896207.98506,-190992890.33005,   0.00094,  -0.00139,  -0.00248,462481755.49545,   0.00000,274640135.82653,   0.00000,   0.00000,   0.00000,-12158380.33108,   0.00000
91910100.77284,-269107596.06075,-191279339.56265,   0.00094,  -0.00140,  -0.00249,464072654.20936,   0.00000,274640135.82653,   0.00000,   0.00000,   0.00000,-10567481.61717,   0.00000
91340066.79996,-271316119.64412,-191565788.79525,   0.00094,  -0.00141,  -0.00249,465649902.16278,   0.00000,274640135.82653,   0.00000,   0.00000,   0.00000,-8990233.66375,   0.00000
90761439.35010,-273544694.67376,-191852238.02785,   0.00095,  -0.00142,  -0.00249,467240294.47505,   0.00000,274640135.82653,   0.00000,   0.00000,   0.00000,-7399841.35148,   0.00000
90154166.97699,-275801914.62667,-192138687.26046,   0.00095,  -0.00143,  -0.00250,468840044.39189,   0.00000,274640135.82653,   0.00000,   0.00000,   0.00000,-5800091.43464,   0.00000
89535436.63457,-278047676.61027,-192425136.49306,   0.00095,  -0.00144,  -0.00250,470430148.34868,   0.00000,274640135.82653,   0.00000,   0.00000,   0.00000,-4209987.47785,   0.00000
88888061.36888,-280322083.51714,-192705856.74101,   0.00095,  -0.00145,  -0.00251,472022760.24668,   0.00000,274640135.82653,   0.00000,   0.00000,   0.00000,-2617375.57985,   0.00000
88232092.62622,-282616541.87028,-192992305.97361,   0.00095,  -0.00146,  -0.00251,473635884.72893,   0.00000,274640135.82653,   0.00000,   0.00000,   0.00000,-1004251.09760,   0.00000
87813901.96654,-284047005.19978,-193171786.94344,   0.00095,  -0.00146,  -0.00251,474640154.45684,   0.00000,274640135.82653,   0.00000,   0.00000,   0.00000,  -5.84473,   0.00000
87433496.06860,-284560983.89875,-193035004.31689,   0.00095,  -0.00147,  -0.00251,474644361.74262,   0.00000,274644368.72515,   0.00000,  -0.00000,  -0.00000,  -6.98254,   1.00000
86386987.20050,-285957037.14004,-192666357.08762,   0.00096,  -0.00148,  -0.00252,474655750.00735,   0.00001,274655755.39257,   0.00000,  -0.00001,  -0.00001,  -5.38521,   1.00000
85314030.79072,-287375654.91107,-192291857.17246,   0.00096,  -0.00149,  -0.00252,474667147.96942,   0.00002,274667154.31909,   0.00001,  -0.00001,  -0.00002,  -6.34967,   1.00000
84233040.07370,-288779937.76771,-191925183.75442,   0.00096,  -0.00149,  -0.00252,474678520.73287,   0.00003,274678526.54490,   0.00001,  -0.00002,  -0.00003,  -5.81203,   1.00000
83144892.44855,-290195945.83165,-191551091.92641,   0.00096,  -0.00150,  -0.00253,474689933.82753,   0.00005,274689938.28324,   0.00001,  -0.00002,  -0.00004,  -4.45572,   1.00000
82038118.25088,-291611921.07119,-191180850.89666,   0.00096,  -0.00151,  -0.00253,474701392.31931,   0.00006,274701392.70867,   0.00002,  -0.00003,  -0.00005,  -0.38936,   1.00000
80914226.95428,-293031796.46328,-190811499.78937,   0.00096,  -0.00152,  -0.00253,474712831.61672,   0.00007,274712841.49867,   0.00002,  -0.00003,  -0.00005,  -9.88195,   1.00000
79764050.66390,-294473705.63852,-190436056.98607,   0.00096,  -0.00153,  -0.00254,474724296.90056,   0.00008,274724306.70593,   0.00002,  -0.00004,  -0.00006,  -9.80537,   1.00000
78614727.16753,-295904646.73452,-190062987.68344,   0.00096,  -0.00154,  -0.00254,474735838.35520,   0.00009,274735840.60289,   0.00003,  -0.00004,  -0.00007,  -2.24769,   1.00000
77430495.36567,-297353889.49055,-189689145.37333,   0.00096,  -0.00155,  -0.00255,474747292.55393,   0.00010,274747297.78308,   0.00003,  -0.00005,  -0.00008,  -5.22915,   1.00000
76236662.82119,-298806052.44755,-189313621.90668,   0.00096,  -0.00156,  -0.00255,474758890.72776,   0.00011,274758894.79018,   0.00004,  -0.00005,  -0.00009,  -4.06243,   1.00000
75027299.19291,-300265695.86920,-188935846.38702,   0.00097,  -0.00157,  -0.00255,474770439.36125,   0.00012,274770441.01696,   0.00004,  -0.00006,  -0.00010,  -1.65571,   1.00000
73799736.93310,-301724632.18751,-188561768.79870,   0.00097,  -0.00158,  -0.00256,474782029.22945,   0.00013,274782032.85086,   0.00004,  -0.00006,  -0.00011,  -3.62141,   1.00000
72556695.57286,-303190942.56263,-188185351.74844,   0.00097,  -0.00159,  -0.00256,474793570.38873,   0.00014,274793575.21382,   0.00005,  -0.00007,  -0.00011,  -4.82509,   1.00000
71305693.07397,-304663727.96686,-187804186.74765,   0.00097,  -0.00160,  -0.00256,474805207.38556,   0.00015,274805211.23707,   0.00005,  -0.00007,  -0.00012,  -3.85152,   1.00000
70027826.78312,-306132313.79532,-187432046.76715,   0.00097,  -0.00161,  -0.00257,474816793.28219,   0.00016,274816799.12387,   0.00005,  -0.00008,  -0.00013,  -5.84169,   1.00000
68743434.49744,-307611271.83815,-187052069.61389,   0.00097,  -0.00162,  -0.00257,474828432.07330,   0.00017,274828434.24963,   0.00006,  -0.00008,  -0.00014,  -2.17634,   1.00000
67430643.26253,-309102697.75495,-186671580.15445,   0.00097,  -0.00163,  -0.00258,474840183.28914,   0.00018,274840189.47998,   0.00006,  -0.00009,  -0.00015,  -6.19084,   1.00000
66113029.92955,-310587459.85023,-186292663.41040,   0.00097,  -0.00164,  -0.00258,474851819.30065,   0.00019,274851826.03315,   0.00006,  -0.00009,  -0.00016,  -6.73250,   1.00000
64786609.76960,-312073950.57418,-185911959.06160,   0.00097,  -0.00164,  -0.00258,474863599.63035,   0.00020,274863605.37944,   0.00007,  -0.00010,  -0.00017,  -5.74909,   1.00000
63425452.90071,-313577740.22845,-185529844.74840,   0.00097,  -0.00165,  -0.00259,474875317.64991,   0.00021,274875318.57285,   0.00007,  -0.00010,  -0.00017,  -0.92294,   1.00000
62066155.58561,-315069481.10570,-185150046.33673,   0.00097,  -0.00166,  -0.00259,474887098.16487,   0.00023,274887102.15746,   0.00007,  -0.00011,  -0.00018,  -3.99259,   1.00000
60681206.05489,-316581274.80808,-184763391.53850,   0.00097,  -0.00167,  -0.00259,474898913.93386,   0.00024,274898915.99200,   0.00008,  -0.00011,  -0.00019,  -2.05815,   1.00000
59290333.33107,-318082127.18089,-184381267.76081,   0.00097,  -0.00168,  -0.00260,474910659.29171,   0.00025,274910659.67394,   0.00008,  -0.00012,  -0.00020,  -0.38222,   1.00000
57871636.40092,-319594393.39505,-183998413.93803,   0.00097,  -0.00169,  -0.00260,474922522.22308,   0.00026,274922527.90530,   0.00008,  -0.00013,  -0.00021,  -5.68221,   1.00000
56437842.04308,-321113045.30551,-183612719.79359,   0.00097,  -0.00170,  -0.00260,474934351.06210,   0.00027,274934355.06352,   0.00009,  -0.00013,  -0.00022,  -4.00142,   1.00000
54976443.19618,-322642683.22103,-183226214.08618,   0.00097,  -0.00171,  -0.00261,474946306.51727,   0.00028,274946308.50817,   0.00009,  -0.00014,  -0.00023,  -1.99090,   1.00000
53529923.66295,-324155064.91980,-182839911.52170,   0.00097,  -0.00172,  -0.00261,474958160.74306,   0.00029,274958166.73929,   0.00009,  -0.00014,  -0.00024,  -5.99623,   1.00000
52055942.40216,-325678208.05613,-182452770.35266,   0.00097,  -0.00173,  -0.00262,474970149.17815,   0.00030,274970151.94793,   0.00010,  -0.00015,  -0.00024,  -2.76977,   1.00000
50566997.22104,-327207381.76413,-182062628.82622,   0.00097,  -0.00174,  -0.00262,474982093.45048,   0.00031,274982098.86902,   0.00010,  -0.00015,  -0.00025,  -5.41854,   1.00000
49061085.31437,-328734015.24405,-181675807.72322,   0.00097,  -0.00175,  -0.00262,474994092.35692,   0.00032,274994098.79903,   0.00010,  -0.00016,  -0.00026,  -6.44211,   1.00000
47540281.61538,-330266529.22180,-181285897.42973,   0.00097,  -0.00176,  -0.00263,475006055.04387,   0.00033,275006061.84808,   0.00011,  -0.00016,  -0.00027,  -6.80421,   1.00000
46002661.51395,-331796306.40801,-180899256.34042,   0.00097,  -0.00177,  -0.00263,475018073.15215,   0.00034,275018078.79750,   0.00011,  -0.00017,  -0.00028,  -5.64535,   1.00000
44440028.85417,-333344468.87685,-180505160.38687,   0.00097,  -0.00178,  -0.00263,475030133.45417,   0.00036,275030136.84805,   0.00011,  -0.00018,  -0.00029,  -3.39388,   1.00000
42880420.70163,-334879386.79283,-180113341.36913,   0.00097,  -0.00179,  -0.00264,475042261.68387,   0.00037,275042266.82929,   0.00012,  -0.00018,  -0.00030,  -5.14541,   1.00000
41316222.43368,-336407269.99297,-179722572.21184,   0.00096,  -0.00180,  -0.00264,475054279.02817,   0.00038,275054285.67397,   0.00012,  -0.00019,  -0.00031,  -6.64581,   1.00000
39725354.81359,-337944570.40412,-179330709.19396,   0.00096,  -0.00181,  -0.00265,475066431.38338,   0.00039,275066436.80207,   0.00012,  -0.00019,  -0.00031,  -5.41869,   1.00000
38108868.02324,-339495304.95248,-178934453.05312,   0.00096,  -0.00182,  -0.00265,475078672.58591,   0.00040,275078676.95346,   0.00013,  -0.00020,  -0.00032,  -4.36755,   1.00000
36487887.44668,-341038800.63588,-178539125.22438,   0.00096,  -0.00183,  -0.00265,475090804.53078,   0.00041,275090807.92315,   0.00013,  -0.00021,  -0.00033,  -3.39237,   1.00000
34850654.75826,-342578782.12987,-178146916.15087,   0.00096,  -0.00184,  -0.00266,475102995.32667,   0.00042,275102995.76193,   0.00013,  -0.00021,  -0.00034,  -0.43526,   1.00000
33208594.79043,-344126030.65490,-177746086.83509,   0.00096,  -0.00185,  -0.00266,475115240.55398,   0.00043,275115245.95546,   0.00014,  -0.00022,  -0.00035,  -5.40148,   1.00000
31530731.33427,-345679485.14667,-177349142.85091,   0.00096,  -0.00186,  -0.00266,475127536.40841,   0.00045,275127539.44910,   0.00014,  -0.00022,  -0.00036,  -3.04068,   1.00000
29857458.53283,-347223367.72409,-176951160.93522,   0.00096,  -0.00187,  -0.00267,475139855.51216,   0.00046,275139861.84743,   0.00014,  -0.00023,  -0.00037,  -6.33527,   1.00000
28169802.23772,-348771992.09443,-176549602.04682,   0.00096,  -0.00188,  -0.00267,475152148.49525,   0.00047,275152155.81555,   0.00015,  -0.00024,  -0.00038,  -7.32030,   1.00000
26466335.38532,-350316500.08158,-176151065.74212,   0.00095,  -0.00189,  -0.00267,475164503.10030,   0.00048,275164508.71188,   0.00015,  -0.00024,  -0.00038,  -5.61158,   1.00000
24747878.43105,-351861172.74710,-175752193.64410,   0.00095,  -0.00190,  -0.00268,475176872.97857,   0.00049,275176877.78690,   0.00015,  -0.00025,  -0.00039,  -4.80832,   1.00000
23014502.61268,-353405902.61577,-175352950.08006,   0.00095,  -0.00191,  -0.00268,475189258.83127,   0.00050,275189263.65485,   0.00016,  -0.00025,  -0.00040,  -4.82358,   1.00000
21286077.92578,-354940781.84736,-174952641.56110,   0.00095,  -0.00192,  -0.00269,475201676.38691,   0.00051,275201678.92372,   0.00016,  -0.00026,  -0.00041,  -2.53681,   1.00000
19513887.19144,-356501461.54333,-174544798.78738,   0.00095,  -0.00193,  -0.00269,475214134.39751,   0.00052,275214137.20134,   0.00016,  -0.00027,  -0.00042,  -2.80383,   1.00000
17755972.60926,-358035939.32469,-174143642.28403,   0.00095,  -0.00194,  -0.00269,475226587.20555,   0.00054,275226588.25563,   0.00017,  -0.00027,  -0.00043,  -1.05008,   1.00000
15973675.35061,-359581678.95839,-173737587.09253,   0.00095,  -0.00195,  -0.00270,475239129.97001,   0.00055,275239138.30988,   0.00017,  -0.00028,  -0.00044,  -8.33988,   1.00000
14176843.46799,-361126890.03418,-173331024.19018,   0.00094,  -0.00196,  -0.00270,475251706.81337,   0.00056,275251707.82586,   0.00017,  -0.00029,  -0.00045,  -1.01249,   1.00000
12365553.60129,-362671437.42618,-172923908.00124,   0.00094,  -0.00197,  -0.00270,475264290.06927,   0.00057,275264297.60988,   0.00018,  -0.00029,  -0.00046,  -7.54060,   1.00000
10549492.12980,-364203873.88609,-172520662.98870,   0.00094,  -0.00198,  -0.00271,475276821.35069,   0.00058,275276827.09883,   0.00018,  -0.00030,  -0.00047,  -5.74814,   1.00000
8709505.53798,-365746843.97773,-172112349.37996,   0.00094,  -0.00199,  -0.00271,475289454.91855,   0.00059,275289458.85296,   0.00018,  -0.00030,  -0.00047,  -3.93441,   1.00000
6875183.33969,-367279280.47290,-171702894.85307,   0.00094,  -0.00200,  -0.00272,475302117.29335,   0.00061,275302121.61378,   0.00019,  -0.00031,  -0.00048,  -4.32043,   1.00000
5026678.18163,-368810700.00349,-171292799.00667,   0.00093,  -0.00201,  -0.00272,475314802.63514,   0.00062,275314806.28236,   0.00019,  -0.00032,  -0.00049,  -3.64722,   1.00000
3144183.57640,-370350429.44234,-170882469.60722,   0.00093,  -0.00202,  -0.00272,475327499.17656,   0.00063,275327505.31210,   0.00019,  -0.00032,  -0.00050,  -6.13554,   1.00000
1258220.27026,-371890382.14691,-170466474.91246,   0.00093,  -0.00203,  -0.00273,475340316.69531,   0.00064,275340318.02619,   0.00020,  -0.00033,  -0.00051,  -1.33088,   1.00000
-632219.12327,-373417871.46707,-170054223.02829,   0.00093,  -0.00204,  -0.00273,475353069.64610,   0.00065,275353072.63924,   0.00020,  -0.00034,  -0.00052,  -2.99314,   1.00000
-2516575.44378,-374934519.88321,-169640814.27885,   0.00092,  -0.00205,  -0.00273,475365852.74273,   0.00066,275365858.63152,   0.00020,  -0.00034,  -0.00053,  -5.88879,   1.00000
-4434653.30791,-376458946.31365,-169226996.81300,   0.00092,  -0.00206,  -0.00274,475378658.38616,   0.00068,275378662.22608,   0.00021,  -0.00035,  -0.00054,  -3.83992,   1.00000
-6346449.87420,-377972361.34345,-168811999.11754,   0.00092,  -0.00207,  -0.00274,475391495.35791,   0.00069,275391497.62458,   0.00021,  -0.00036,  -0.00055,  -2.26667,   1.00000
-8292108.65311,-379488693.71073,-168399990.59745,   0.00092,  -0.00208,  -0.00275,475404392.84779,   0.00070,275404393.11102,   0.00021,  -0.00036,  -0.00056,  -0.26323,   1.00000
-10240139.25565,-381008967.91620,-167978724.49499,   0.00091,  -0.00209,  -0.00275,475417358.58541,   0.00071,275417363.65116,   0.00022,  -0.00037,  -0.00057,  -5.06575,   1.00000
-12192387.71019,-382516558.33349,-167561091.57031,   0.00091,  -0.00209,  -0.00275,475430268.02814,   0.00072,275430277.78007,   0.00022,  -0.00038,  -0.00057,  -9.75193,   1.00000
-14157957.72745,-384021997.98344,-167142529.59176,   0.00091,  -0.00210,  -0.00276,475443215.41415,   0.00074,275443219.11767,   0.00022,  -0.00039,  -0.00058,  -3.70352,   1.00000
-16116795.69861,-385516104.59258,-166722776.82303,   0.00091,  -0.00211,  -0.00276,475456187.93148,   0.00075,275456192.57528,   0.00023,  -0.00039,  -0.00059,  -4.64380,   1.00000
-18108981.53002,-387012348.98274,-166305833.01055,   0.00090,  -0.00212,  -0.00276,475469225.37381,   0.00076,275469229.66663,   0.00023,  -0.00040,  -0.00060,  -4.29282,   1.00000
-20102968.80015,-388511902.66183,-165879548.48373,   0.00090,  -0.00213,  -0.00277,475482343.54421,   0.00077,275482343.65018,   0.00023,  -0.00041,  -0.00061,  -0.10597,   1.00000
-22100950.89246,-389998580.30868,-165456810.98925,   0.00090,  -0.00214,  -0.00277,475495398.62107,   0.00078,275495402.60073,   0.00024,  -0.00041,  -0.00062,  -3.97967,   1.00000
-24111941.55849,-391477981.53524,-165036614.45371,   0.00089,  -0.00215,  -0.00278,475508521.34472,   0.00080,275508530.32461,   0.00024,  -0.00042,  -0.00063,  -8.97990,   1.00000
-26135556.85013,-392959153.28288,-164611743.14104,   0.00089,  -0.00216,  -0.00278,475521645.28027,   0.00081,275521648.84485,   0.00024,  -0.00043,  -0.00064,  -3.56458,   1.00000
-28171917.46996,-394432758.41770,-164189366.74954,   0.00089,  -0.00217,  -0.00278,475534830.68034,   0.00082,275534837.06827,   0.00025,  -0.00043,  -0.00065,  -6.38793,   1.00000
-30200753.26624,-395899150.82699,-163762164.20082,   0.00088,  -0.00218,  -0.00279,475548010.00756,   0.00083,275548018.95042,   0.00025,  -0.00044,  -0.00066,  -8.94286,   1.00000
-32262112.08390,-397366488.95416,-163337508.28031,   0.00088,  -0.00219,  -0.00279,475561261.08895,   0.00084,275561269.66847,   0.00025,  -0.00045,  -0.00067,  -8.57952,   1.00000
-34307140.07980,-398816715.77877,-162912593.66654,   0.00088,  -0.00220,  -0.00279,475574422.39476,   0.00086,275574429.33439,   0.00026,  -0.00046,  -0.00068,  -6.93963,   1.00000
-36373093.49215,-400268737.30301,-162485533.62078,   0.00087,  -0.00221,  -0.00280,475587739.22013,   0.00087,275587744.83310,   0.00026,  -0.00046,  -0.00069,  -5.61297,   1.00000
-38451197.25494,-401721846.09514,-162053598.56196,   0.00087,  -0.00222,  -0.00280,475601047.80713,   0.00088,275601054.85288,   0.00026,  -0.00047,  -0.00070,  -7.04575,   1.00000
-40512851.04282,-403148680.24626,-161628749.53192,   0.00087,  -0.00223,  -0.00281,475614344.90430,   0.00089,275614349.73501,   0.00027,  -0.00048,  -0.00070,  -4.83071,   1.00000
-42615009.69242,-404594463.34097,-161194305.38543,   0.00086,  -0.00224,  -0.00281,475627726.38541,   0.00091,275627726.65084,   0.00027,  -0.00049,  -0.00071,  -0.26544,   1.00000
-44700535.95549,-406013916.92741,-160766959.46577,   0.00086,  -0.00225,  -0.00281,475641088.14211,   0.00092,275641088.17496,   0.00027,  -0.00049,  -0.00072,  -0.03286,   1.00000
-46797979.01890,-407434185.05061,-160334630.19109,   0.00086,  -0.00226,  -0.00282,475654444.38170,   0.00093,275654446.05674,   0.00028,  -0.00050,  -0.00073,  -1.67503,   1.00000
-48915251.78374,-408855074.26394,-159900057.96204,   0.00085,  -0.00227,  -0.00282,475667962.25576,   0.00094,275667962.39339,   0.00028,  -0.00051,  -0.00074,  -0.13763,   1.00000
-51035788.61659,-410262550.98304,-159468777.01737,   0.00085,  -0.00228,  -0.00282,475681418.76660,   0.00096,275681427.56067,   0.00028,  -0.00052,  -0.00075,  -8.79406,   1.00000
-53139823.55689,-411653196.83053,-159037226.05722,   0.00085,  -0.00229,  -0.00283,475694791.72907,   0.00097,275694801.19781,   0.00028,  -0.00052,  -0.00076,  -9.46873,   1.00000
-55263243.71697,-413044086.04764,-158603411.03028,   0.00084,  -0.00230,  -0.00283,475708327.76320,   0.00098,275708333.89278,   0.00029,  -0.00053,  -0.00077,  -6.12957,   1.00000
-57398135.29772,-414435222.61274,-158164471.68585,   0.00084,  -0.00231,  -0.00284,475721863.07658,   0.00099,275721865.69088,   0.00029,  -0.00054,  -0.00078,  -2.61430,   1.00000
-59535938.75306,-415808256.77945,-157732531.39877,   0.00083,  -0.00232,  -0.00284,475735382.20836,   0.00100,275735383.73289,   0.00029,  -0.00055,  -0.00079,  -1.52453,   1.00000
-61692736.15683,-417185546.53088,-157294497.36839,   0.00083,  -0.00233,  -0.00284,475749022.89478,   0.00102,275749025.76438,   0.00030,  -0.00055,  -0.00080,  -2.86960,   1.00000
-63832871.92897,-418546054.69280,-156856182.41858,   0.00082,  -0.00234,  -0.00285,475762571.68973,   0.00103,275762576.27376,   0.00030,  -0.00056,  -0.00081,  -4.58403,   1.00000
-66003523.77135,-419904972.09329,-156419892.35468,   0.00082,  -0.00235,  -0.00285,475776198.54758,   0.00104,275776206.03843,   0.00030,  -0.00057,  -0.00082,  -7.49085,   1.00000
-68164918.74662,-421251155.49116,-155982426.34261,   0.00082,  -0.00236,  -0.00285,475789862.59438,   0.00106,275789867.92448,   0.00030,  -0.00058,  -0.00083,  -5.33010,   1.00000
-70336919.44421,-422592333.20734,-155543463.59014,   0.00081,  -0.00237,  -0.00286,475803558.85684,   0.00107,275803567.98097,   0.00031,  -0.00059,  -0.00084,  -9.12413,   1.00000
-72492236.78811,-423916950.97308,-155104224.66164,   0.00081,  -0.00238,  -0.00286,475817169.98453,   0.00108,275817176.04828,   0.00031,  -0.00059,  -0.00085,  -6.06375,   1.00000
-74665256.60135,-425240246.67053,-154662633.85208,   0.00080,  -0.00239,  -0.00287,475830943.43166,   0.00109,275830945.94769,   0.00031,  -0.00060,  -0.00086,  -2.51603,   1.00000
-76860906.81364,-426557418.24132,-154223765.36155,   0.00080,  -0.00240,  -0.00287,475844669.49382,   0.00111,275844674.71413,   0.00032,  -0.00061,  -0.00086,  -5.22031,   1.00000
-79027395.07755,-427858916.27753,-153780357.27594,   0.00079,  -0.00241,  -0.00287,475858382.97603,   0.00112,275858391.51897,   0.00032,  -0.00062,  -0.00087,  -8.54294,   1.00000
-81223457.83654,-429157783.57187,-153338803.29955,   0.00079,  -0.00242,  -0.00288,475872188.67684,   0.00113,275872191.26392,   0.00032,  -0.00063,  -0.00088,  -2.58707,   1.00000
-83402272.59330,-430435596.66852,-152900816.88577,   0.00078,  -0.00243,  -0.00288,475885925.82563,   0.00114,275885933.86924,   0.00032,  -0.00063,  -0.00089,  -8.04361,   1.00000
-85618651.01331,-431727917.13084,-152452191.38929,   0.00078,  -0.00244,  -0.00288,475899777.20119,   0.00116,275899779.29035,   0.00033,  -0.00064,  -0.00090,  -2.08916,   1.00000
-87797304.60243,-432987242.47372,-152011550.29980,   0.00077,  -0.00245,  -0.00289,475913584.90556,   0.00117,275913592.35271,   0.00033,  -0.00065,  -0.00091,  -7.44715,   1.00000
-90005519.50859,-434248078.89599,-151568772.25387,   0.00077,  -0.00246,  -0.00289,475927454.34347,   0.00118,275927455.77170,   0.00033,  -0.00066,  -0.00092,  -1.42823,   1.00000
-92203452.40783,-435495909.95702,-151124919.44696,   0.00076,  -0.00247,  -0.00290,475941342.65815,   0.00120,275941349.67140,   0.00034,  -0.00067,  -0.00093,  -7.01325,   1.00000
-94404423.04514,-436734720.44403,-150680219.97771,   0.00076,  -0.00248,  -0.00290,475955153.24671,   0.00121,275955161.58448,   0.00034,  -0.00067,  -0.00094,  -8.33777,   1.00000
-96614186.69754,-437962876.07193,-150237783.36809,   0.00075,  -0.00249,  -0.00290,475969042.55119,   0.00122,275969048.98576,   0.00034,  -0.00068,  -0.00095,  -6.43457,   1.00000
-98833820.13734,-439189612.69607,-149789746.33591,   0.00075,  -0.00250,  -0.00291,475982937.75911,   0.00123,275982944.23253,   0.00034,  -0.00069,  -0.00096,  -6.47341,   1.00000
-101042165.06773,-440398586.12752,-149344615.01341,   0.00074,  -0.00251,  -0.00291,475996900.46271,   0.00125,275996903.08536,   0.00035,  -0.00070,  -0.00097,  -2.62265,   1.00000
-103252779.81397,-441593801.99610,-148902491.86855,   0.00074,  -0.00252,  -0.00292,476010809.90871,   0.00126,276010814.93814,   0.00035,  -0.00071,  -0.00098,  -5.02943,   1.00000
-105479734.98828,-442794878.35544,-148450032.41186,   0.00073,  -0.00252,  -0.00292,476024819.45499,   0.00127,276024824.60614,   0.00035,  -0.00072,  -0.00099,  -5.15115,   1.00000
-107688397.45471,-443970712.72529,-148005237.65447,   0.00073,  -0.00253,  -0.00292,476038802.25610,   0.00129,276038807.71646,   0.00035,  -0.00072,  -0.00100,  -5.46036,   1.00000
-109899996.05321,-445137507.86213,-147559459.31695,   0.00072,  -0.00254,  -0.00293,476052709.03836,   0.00130,276052710.91737,   0.00036,  -0.00073,  -0.00101,  -1.87901,   1.00000
-112125999.45799,-446300401.09103,-147111252.68053,   0.00072,  -0.00255,  -0.00293,476066771.82233,   0.00131,276066779.26806,   0.00036,  -0.00074,  -0.00102,  -7.44573,   1.00000
-114353994.65850,-447449411.17098,-146665996.13169,   0.00071,  -0.00256,  -0.00293,476080799.17228,   0.00133,276080801.58594,   0.00036,  -0.00075,  -0.00103,  -2.41367,   1.00000
-116565206.12038,-448582906.08544,-146220469.05386,   0.00071,  -0.00257,  -0.00294,476094726.61542,   0.00134,276094730.20739,   0.00036,  -0.00076,  -0.00104,  -3.59197,   1.00000
-118791095.93595,-449716829.23890,-145768519.57180,   0.00070,  -0.00258,  -0.00294,476108789.94478,   0.00135,276108791.50595,   0.00036,  -0.00077,  -0.00105,  -1.56117,   1.00000
-120998523.84031,-450825977.60026,-145324364.65638,   0.00070,  -0.00259,  -0.00295,476122820.22668,   0.00136,276122823.54355,   0.00037,  -0.00077,  -0.00106,  -3.31687,   1.00000
-123234493.75602,-451939191.94851,-144873569.97173,   0.00069,  -0.00260,  -0.00295,476136881.54895,   0.00138,276136883.23911,   0.00037,  -0.00078,  -0.00107,  -1.69016,   1.00000
-125451899.28329,-453027724.87970,-144430580.57255,   0.00068,  -0.00261,  -0.00295,476150908.68640,   0.00139,276150913.24642,   0.00037,  -0.00079,  -0.00108,  -4.56001,   1.00000
-127658670.47094,-454108034.06423,-143982676.34095,   0.00068,  -0.00262,  -0.00296,476164937.94502,   0.00140,276164938.00970,   0.00037,  -0.00080,  -0.00108,  -0.06468,   1.00000
-129873321.71291,-455181398.01714,-143533011.49078,   0.00067,  -0.00263,  -0.00296,476179000.81168,   0.00142,276179006.76618,   0.00038,  -0.00081,  -0.00109,  -5.95450,   1.00000
-132095678.93061,-456247684.59423,-143081576.95158,   0.00067,  -0.00264,  -0.00296,476193115.68059,   0.00143,276193119.79283,   0.00038,  -0.00082,  -0.00110,  -4.11224,   1.00000
-134318803.75692,-457295451.29677,-142637089.18051,   0.00066,  -0.00265,  -0.00297,476207213.79187,   0.00144,276207219.50125,   0.00038,  -0.00083,  -0.00111,  -5.70939,   1.00000
-136530996.41979,-458334948.75628,-142187693.93101,   0.00066,  -0.00265,  -0.00297,476221305.59578,   0.00146,276221313.85769,   0.00038,  -0.00084,  -0.00112,  -8.26192,   1.00000
-138744943.14278,-459360703.37072,-141741170.94160,   0.00065,  -0.00266,  -0.00298,476235360.92716,   0.00147,276235363.34110,   0.00038,  -0.00084,  -0.00113,  -2.41393,   1.00000
-140946910.56654,-460373617.99317,-141293860.52106,   0.00064,  -0.00267,  -0.00298,476249436.36999,   0.00148,276249438.21419,   0.00039,  -0.00085,  -0.00114,  -1.84420,   1.00000
-143175416.08125,-461384762.74082,-140843703.07912,   0.00064,  -0.00268,  -0.00298,476263571.74530,   0.00150,276263578.01430,   0.00039,  -0.00086,  -0.00115,  -6.26900,   1.00000
-145366967.60334,-462371179.21971,-140398497.25555,   0.00063,  -0.00269,  -0.00299,476277629.65283,   0.00151,276277632.99010,   0.00039,  -0.00087,  -0.00116,  -3.33727,   1.00000
-147584868.58971,-463355669.73200,-139950402.49032,   0.00062,  -0.00270,  -0.00299,476291748.77730,   0.00152,276291753.71082,   0.00039,  -0.00088,  -0.00117,  -4.93352,   1.00000
-149791518.15700,-464331945.07900,-139497438.74914,   0.00062,  -0.00271,  -0.00299,476305861.18917,   0.00153,276305868.56406,   0.00039,  -0.00089,  -0.00118,  -7.37490,   1.00000
-151979470.85635,-465284629.95717,-139052573.71045,   0.00061,  -0.00272,  -0.00300,476319944.30653,   0.00155,276319948.07847,   0.00040,  -0.00090,  -0.00119,  -3.77194,   1.00000
-154174249.47027,-466229879.79932,-138605893.96553,   0.00061,  -0.00273,  -0.00300,476334063.17908,   0.00156,276334072.87619,   0.00040,  -0.00091,  -0.00120,  -9.69711,   1.00000
-156370601.52523,-467161516.55460,-138162024.29022,   0.00060,  -0.00274,  -0.00300,476348144.83294,   0.00157,276348153.65862,   0.00040,  -0.00092,  -0.00121,  -8.82568,   1.00000
-158574689.61560,-468090179.09219,-137712136.75993,   0.00059,  -0.00274,  -0.00301,476362247.58112,   0.00159,276362250.49620,   0.00040,  -0.00092,  -0.00122,  -2.91508,   1.00000
-160760021.16630,-468995584.36394,-137270396.08327,   0.00059,  -0.00275,  -0.00301,476376308.61703,   0.00160,276376310.74877,   0.00040,  -0.00093,  -0.00123,  -2.13174,   1.00000
-162934014.33849,-469893150.54144,-136823836.91306,   0.00058,  -0.00276,  -0.00302,476390360.59640,   0.00161,276390363.91253,   0.00040,  -0.00094,  -0.00124,  -3.31613,   1.00000
-165114394.06823,-470783083.64770,-136375457.87461,   0.00057,  -0.00277,  -0.00302,476404458.32803,   0.00163,276404462.84057,   0.00041,  -0.00095,  -0.00125,  -4.51255,   1.00000
-167295014.17961,-471654858.78779,-135934060.09661,   0.00057,  -0.00278,  -0.00302,476418542.23125,   0.00164,276418547.67093,   0.00041,  -0.00096,  -0.00126,  -5.43968,   1.00000
-169464132.60644,-472518848.84892,-135487859.83166,   0.00056,  -0.00279,  -0.00303,476432616.83315,   0.00165,276432625.12455,   0.00041,  -0.00097,  -0.00127,  -8.29140,   1.00000
-171634757.79081,-473369380.58857,-135044427.28388,   0.00055,  -0.00280,  -0.00303,476446653.46616,   0.00167,276446659.31619,   0.00041,  -0.00098,  -0.00127,  -5.85003,   1.00000
-173792560.24053,-474207627.18929,-134600446.03696,   0.00055,  -0.00281,  -0.00303,476460712.21527,   0.00168,276460714.64626,   0.00041,  -0.00099,  -0.00128,  -2.43099,   1.00000
-175951879.11244,-475032496.72224,-134159216.15862,   0.00054,  -0.00281,  -0.00304,476474723.47282,   0.00169,276474726.90718,   0.00041,  -0.00100,  -0.00129,  -3.43436,   1.00000
-178117030.76226,-475849539.49140,-133716123.79552,   0.00053,  -0.00282,  -0.00304,476488781.72171,   0.00171,276488785.72762,   0.00042,  -0.00101,  -0.00130,  -4.00591,   1.00000
-180270501.74688,-476658938.21917,-133268270.35634,   0.00053,  -0.00283,  -0.00305,476502829.87692,   0.00172,276502836.60921,   0.00042,  -0.00101,  -0.00131,  -6.73230,   1.00000
-182405381.94112,-477446191.56391,-132828796.96205,   0.00052,  -0.00284,  -0.00305,476516843.54131,   0.00173,276516846.38289,   0.00042,  -0.00102,  -0.00132,  -2.84158,   1.00000
-184541801.95749,-478220240.89645,-132392045.67050,   0.00051,  -0.00285,  -0.00305,476530808.82107,   0.00174,276530813.41720,   0.00042,  -0.00103,  -0.00133,  -4.59613,   1.00000
-186685187.13993,-478990991.04510,-131949146.51043,   0.00051,  -0.00286,  -0.00306,476544790.75186,   0.00176,276544799.22225,   0.00042,  -0.00104,  -0.00134,  -8.47039,   1.00000
-188815431.71790,-479749772.85743,-131505816.47655,   0.00050,  -0.00287,  -0.00306,476558800.81520,   0.00177,276558804.21569,   0.00042,  -0.00105,  -0.00135,  -3.40049,   1.00000
-190945671.19111,-480490767.59841,-131069487.70257,   0.00049,  -0.00287,  -0.00306,476572792.75423,   0.00178,276572794.71367,   0.00042,  -0.00106,  -0.00136,  -1.95944,   1.00000
-193060348.96644,-481219296.53035,-130632977.99903,   0.00048,  -0.00288,  -0.00307,476586685.92540,   0.00180,276586687.39309,   0.00042,  -0.00107,  -0.00137,  -1.46769,   1.00000
-195161930.56561,-481936182.24869,-130196083.50902,   0.00048,  -0.00289,  -0.00307,476600595.51865,   0.00181,276600598.18557,   0.00043,  -0.00108,  -0.00138,  -2.66692,   1.00000
-197268759.31154,-482645183.75222,-129757351.84295,   0.00047,  -0.00290,  -0.00307,476614552.11200,   0.00182,276614555.61670,   0.00043,  -0.00109,  -0.00139,  -3.50469,   1.00000
-199378548.60508,-483345609.14664,-129316965.29931,   0.00046,  -0.00291,  -0.00308,476628440.23576,   0.00184,276628444.20453,   0.00043,  -0.00110,  -0.00140,  -3.96877,   1.00000
-201470002.53211,-484024899.22462,-128885092.13630,   0.00046,  -0.00291,  -0.00308,476642285.41145,   0.00185,276642288.67572,   0.00043,  -0.00111,  -0.00141,  -3.26427,   1.00000
-203548259.19961,-484692821.15264,-128452891.04052,   0.00045,  -0.00292,  -0.00308,476656144.78147,   0.00186,276656150.12113,   0.00043,  -0.00111,  -0.00141,  -5.33966,   1.00000
-205629664.18484,-485352379.82746,-128018986.61524,   0.00044,  -0.00293,  -0.00309,476669935.40991,   0.00188,276669943.30655,   0.00043,  -0.00112,  -0.00142,  -7.89664,   1.00000
-207697830.81087,-486000671.27971,-127584795.38303,   0.00043,  -0.00294,  -0.00309,476683748.67331,   0.00189,276683752.93837,   0.00043,  -0.00113,  -0.00143,  -4.26506,   1.00000
-209767605.95142,-486636138.16004,-127153247.44096,   0.00043,  -0.00295,  -0.00310,476697521.28889,   0.00190,276697521.30782,   0.00043,  -0.00114,  -0.00144,  -0.01892,   1.00000
-211824089.17689,-487260456.96824,-126721434.21183,   0.00042,  -0.00295,  -0.00310,476711297.17830,   0.00191,276711305.69598,   0.00043,  -0.00115,  -0.00145,  -8.51768,   1.00000
-213882190.26276,-487872028.39199,-126292247.96302,   0.00041,  -0.00296,  -0.00310,476725041.38670,   0.00193,276725049.05062,   0.00043,  -0.00116,  -0.00146,  -7.66392,   1.00000
-215926960.33607,-488472607.19316,-125862828.04124,   0.00040,  -0.00297,  -0.00311,476738806.21051,   0.00194,276738807.80008,   0.00043,  -0.00117,  -0.00147,  -1.58958,   1.00000
-217974986.79601,-489064925.53683,-125431608.23195,   0.00040,  -0.00298,  -0.00311,476752494.07187,   0.00195,276752500.08358,   0.00043,  -0.00118,  -0.00148,  -6.01171,   1.00000
-220005127.72808,-489637229.70705,-125009039.59975,   0.00039,  -0.00299,  -0.00311,476766139.34367,   0.00197,276766145.21801,   0.00044,  -0.00119,  -0.00149,  -5.87433,   1.00000
-222023669.76516,-490203284.96072,-124581857.20977,   0.00038,  -0.00299,  -0.00312,476779776.94305,   0.00198,276779779.27491,   0.00044,  -0.00120,  -0.00150,  -2.33186,   1.00000
-224043969.25414,-490756811.64659,-124157260.59750,   0.00037,  -0.00300,  -0.00312,476793372.85044,   0.00199,276793373.02440,   0.00044,  -0.00121,  -0.00151,  -0.17396,   1.00000
-226050957.57343,-491299746.29197,-123732501.41198,   0.00037,  -0.00301,  -0.00312,476806977.44321,   0.00200,276806980.89957,   0.00044,  -0.00121,  -0.00151,  -3.45635,   1.00000
-228042087.21865,-491827657.97367,-123312023.19261,   0.00036,  -0.00302,  -0.00313,476820509.42288,   0.00202,276820514.88887,   0.00044,  -0.00122,  -0.00152,  -5.46599,   1.00000
-230036833.27584,-492347635.73851,-122889651.05683,   0.00035,  -0.00302,  -0.00313,476833982.73965,   0.00203,276833983.86101,   0.00044,  -0.00123,  -0.00153,  -1.12136,   1.00000
-232016600.28407,-492852907.63260,-122471617.99954,   0.00034,  -0.00303,  -0.00313,476847488.14115,   0.00204,276847491.09487,   0.00044,  -0.00124,  -0.00154,  -2.95372,   1.00000
-234000007.40456,-493350271.27243,-122051650.86123,   0.00034,  -0.00304,  -0.00314,476860926.19649,   0.00205,276860933.99242,   0.00044,  -0.00125,  -0.00155,  -7.79592,   1.00000
-235970139.40923,-493837459.19010,-121631593.97843,   0.00033,  -0.00305,  -0.00314,476874388.76790,   0.00207,276874389.72020,   0.00044,  -0.00126,  -0.00156,  -0.95230,   1.00000
-237924800.06125,-494310168.50826,-121215835.93064,   0.00032,  -0.00305,  -0.00314,476887766.46646,   0.00208,276887771.00161,   0.00044,  -0.00127,  -0.00157,  -4.53515,   1.00000
-239881482.41951,-494770743.51758,-120802585.80084,   0.00031,  -0.00306,  -0.00315,476901110.34095,   0.00209,276901113.16398,   0.00044,  -0.00128,  -0.00158,  -2.82303,   1.00000
-241826754.22990,-495225761.47487,-120384775.62704,   0.00030,  -0.00307,  -0.00315,476914434.66261,   0.00210,276914443.27978,   0.00044,  -0.00129,  -0.00158,  -8.61718,   1.00000
-243755034.29965,-495662336.92405,-119975783.07302,   0.00030,  -0.00308,  -0.00315,476927714.25597,   0.00212,276927722.65283,   0.00044,  -0.00130,  -0.00159,  -8.39686,   1.00000
-245689209.07877,-496095532.06836,-119560429.19779,   0.00029,  -0.00308,  -0.00316,476941017.51100,   0.00213,276941025.82453,   0.00044,  -0.00131,  -0.00160,  -8.31352,   1.00000
-247606451.90570,-496510539.99321,-119153700.58276,   0.00028,  -0.00309,  -0.00316,476954160.58136,   0.00214,276954167.76995,   0.00044,  -0.00131,  -0.00161,  -7.18858,   1.00000
-249512457.19182,-496920308.86494,-118742653.92166,   0.00027,  -0.00310,  -0.00316,476967405.53626,   0.00215,276967407.06059,   0.00044,  -0.00132,  -0.00162,  -1.52433,   1.00000
-251420780.54953,-497318242.66925,-118333833.13054,   0.00026,  -0.00310,  -0.00317,476980493.12361,   0.00217,276980498.54858,   0.00044,  -0.00133,  -0.00163,  -5.42497,   1.00000
-253316039.88275,-497706790.02188,-117925025.00676,   0.00026,  -0.00311,  -0.00317,476993591.56408,   0.00218,276993600.96697,   0.00044,  -0.00134,  -0.00164,  -9.40289,   1.00000
-255194807.06272,-498077654.68823,-117525082.34981,   0.00025,  -0.00312,  -0.00317,477006649.43487,   0.00219,277006651.36361,   0.00044,  -0.00135,  -0.00164,  -1.92874,   1.00000
-257064437.20254,-498447943.90868,-117116068.98206,   0.00024,  -0.00313,  -0.00318,477019662.41113,   0.00220,277019665.49033,   0.00044,  -0.00136,  -0.00165,  -3.07920,   1.00000
-258933130.19255,-498798144.27399,-116718299.51475,   0.00023,  -0.00313,  -0.00318,477032571.35780,   0.00222,277032579.81630,   0.00044,  -0.00137,  -0.00166,  -8.45850,   1.00000
-260790322.83588,-499143494.75082,-116316330.79716,   0.00022,  -0.00314,  -0.00318,477045589.15240,   0.00223,277045589.54023,   0.00044,  -0.00138,  -0.00167,  -0.38784,   1.00000
-262633899.07445,-499476040.99193,-115918342.65285,   0.00022,  -0.00315,  -0.00319,477058410.27927,   0.00224,277058415.43740,   0.00044,  -0.00139,  -0.00168,  -5.15813,   1.00000
-264481315.40793,-499801086.55417,-115518497.69991,   0.00021,  -0.00315,  -0.00319,477071287.58605,   0.00225,277071289.81224,   0.00044,  -0.00139,  -0.00169,  -2.22619,   1.00000
-266298152.63863,-500112185.00513,-115124913.64028,   0.00020,  -0.00316,  -0.00319,477084049.12810,   0.00226,277084049.34276,   0.00044,  -0.00140,  -0.00169,  -0.21466,   1.00000
-268119703.09736,-500416077.85014,-114729083.35087,   0.00019,  -0.00317,  -0.00319,477096744.53008,   0.00228,277096749.96017,   0.00044,  -0.00141,  -0.00170,  -5.43009,   1.00000
-269943020.71809,-500708308.78322,-114335996.04744,   0.00018,  -0.00317,  -0.00320,477109517.32684,   0.00229,277109521.73864,   0.00044,  -0.00142,  -0.00171,  -4.41179,   1.00000
-271738190.36772,-500991287.35228,-113944575.08474,   0.00018,  -0.00318,  -0.00320,477122150.88574,   0.00230,277122155.64854,   0.00044,  -0.00143,  -0.00172,  -4.76280,   1.00000
-273537116.52963,-501266892.37857,-113551304.26119,   0.00017,  -0.00319,  -0.00320,477134831.32073,   0.00231,277134838.23540,   0.00044,  -0.00144,  -0.00173,  -6.91467,   1.00000
-275307465.21508,-501529669.25335,-113163885.77921,   0.00016,  -0.00319,  -0.00321,477147296.65605,   0.00232,277147298.13713,   0.00043,  -0.00145,  -0.00174,  -1.48108,   1.00000
-277095819.33170,-501781799.86410,-112777222.80356,   0.00015,  -0.00320,  -0.00321,477159862.89370,   0.00234,277159869.55992,   0.00043,  -0.00145,  -0.00174,  -6.66623,   1.00000
-278856744.14124,-502025327.76148,-112392222.45188,   0.00014,  -0.00320,  -0.00321,477172296.02533,   0.00235,277172302.64574,   0.00043,  -0.00146,  -0.00175,  -6.62041,   1.00000
-280605315.81173,-502260945.34698,-112007392.32094,   0.00014,  -0.00321,  -0.00322,477184741.05661,   0.00236,277184743.60747,   0.00043,  -0.00147,  -0.00176,  -2.55086,   1.00000
-282358430.02420,-502485670.88654,-111624288.72212,   0.00013,  -0.00322,  -0.00322,477197037.72028,   0.00237,277197044.65524,   0.00043,  -0.00148,  -0.00177,  -6.93496,   1.00000
-284099221.91047,-502702589.08772,-111241349.84275,   0.00012,  -0.00322,  -0.00322,477209346.40673,   0.00238,277209353.67341,   0.00043,  -0.00149,  -0.00178,  -7.26668,   1.00000
-285825672.68630,-502907711.13612,-110863265.52185,   0.00011,  -0.00323,  -0.00322,477221685.57039,   0.00239,277221691.61414,   0.00043,  -0.00150,  -0.00178,  -6.04375,   1.00000
-287543222.47504,-503105736.53371,-110484203.72173,   0.00010,  -0.00323,  -0.00323,477233821.11073,   0.00241,277233827.91507,   0.00043,  -0.00151,  -0.00179,  -6.80433,   1.00000
-289246613.93868,-503292208.33812,-110110017.07400,   0.00009,  -0.00324,  -0.00323,477245985.99196,   0.00242,277245992.70015,   0.00043,  -0.00151,  -0.00180,  -6.70818,   1.00000
-290939778.11284,-503471568.67338,-109735417.19718,   0.00009,  -0.00325,  -0.00323,477258057.90698,   0.00243,277258060.55859,   0.00043,  -0.00152,  -0.00181,  -2.65161,   1.00000
-292636623.43382,-503643848.90533,-109358945.62862,   0.00008,  -0.00325,  -0.00324,477270176.65580,   0.00244,277270178.03313,   0.00043,  -0.00153,  -0.00181,  -1.37733,   1.00000
-294305529.07893,-503801113.88046,-108992875.29438,   0.00007,  -0.00326,  -0.00324,477282090.61024,   0.00245,277282094.31370,   0.00043,  -0.00154,  -0.00182,  -3.70345,   1.00000
-295980302.50586,-503955446.02492,-108620206.69910,   0.00006,  -0.00326,  -0.00324,477294032.64211,   0.00246,277294039.77002,   0.00042,  -0.00155,  -0.00183,  -7.12791,   1.00000
-297643172.49212,-504098922.80149,-108251790.40289,   0.00005,  -0.00327,  -0.00324,477305908.03445,   0.00247,277305909.61002,   0.00042,  -0.00156,  -0.00184,  -1.57556,   1.00000
-299294289.97977,-504231656.86120,-107887604.58337,   0.00004,  -0.00327,  -0.00325,477317698.95752,   0.00249,277317704.01051,   0.00042,  -0.00156,  -0.00184,  -5.05299,   1.00000
-300935850.84848,-504361527.48343,-107518929.36349,   0.00004,  -0.00328,  -0.00325,477329479.32981,   0.00250,277329484.60282,   0.00042,  -0.00157,  -0.00185,  -5.27301,   1.00000
-302565912.03579,-504480843.11269,-107154497.77980,   0.00003,  -0.00329,  -0.00325,477341182.98769,   0.00251,277341189.63053,   0.00042,  -0.00158,  -0.00186,  -6.64284,   1.00000
-304199834.73412,-504589506.15957,-106792144.53375,   0.00002,  -0.00329,  -0.00326,477352858.16539,   0.00252,277352863.28601,   0.00042,  -0.00159,  -0.00187,  -5.12063,   1.00000
-305807263.70668,-504688034.96910,-106436142.42156,   0.00001,  -0.00330,  -0.00326,477364415.74345,   0.00253,277364417.57294,   0.00042,  -0.00160,  -0.00187,  -1.82949,   1.00000
-307420558.66933,-504783691.16219,-106073479.91014,   0.00000,  -0.00330,  -0.00326,477375994.19365,   0.00254,277376002.55590,   0.00042,  -0.00160,  -0.00188,  -8.36225,   1.00000
-309008119.36982,-504865771.02475,-105721121.16125,  -0.00001,  -0.00331,  -0.00326,477387377.84855,   0.00255,277387386.56834,   0.00042,  -0.00161,  -0.00189,  -8.71979,   1.00000
-310599454.41931,-504941122.11659,-105366834.56655,  -0.00001,  -0.00331,  -0.00327,477398816.84643,   0.00256,277398821.44756,   0.00041,  -0.00162,  -0.00190,  -4.60113,   1.00000
-312167263.35121,-505010856.29834,-105014133.21859,  -0.00002,  -0.00332,  -0.00327,477410109.69712,   0.00257,277410116.84967,   0.00041,  -0.00163,  -0.00190,  -7.15255,   1.00000
-313738845.00328,-505073896.08326,-104659520.64971,  -0.00003,  -0.00332,  -0.00327,477421457.78979,   0.00258,277421463.16075,   0.00041,  -0.00164,  -0.00191,  -5.37095,   1.00000
-315302663.70360,-505127226.30133,-104308188.92719,  -0.00004,  -0.00333,  -0.00327,477432633.32040,   0.00259,277432634.69650,   0.00041,  -0.00164,  -0.00192,  -1.37610,   1.00000
-316838520.23741,-505171295.08339,-103964100.67111,  -0.00005,  -0.00333,  -0.00328,477443779.27341,   0.00260,277443785.95898,   0.00041,  -0.00165,  -0.00192,  -6.68557,   1.00000
-318381115.34951,-505208929.78908,-103617159.15230,  -0.00006,  -0.00334,  -0.00328,477454879.34612,   0.00262,277454888.96243,   0.00041,  -0.00166,  -0.00193,  -9.61631,   1.00000
-319915780.37844,-505240810.88392,-103269552.57860,  -0.00006,  -0.00334,  -0.00328,477465890.60809,   0.00263,277465898.45915,   0.00041,  -0.00167,  -0.00194,  -7.85106,   1.00000
-321439599.01162,-505266861.83122,-102922228.86856,  -0.00007,  -0.00335,  -0.00328,477476905.83153,   0.00264,277476913.62873,   0.00040,  -0.00168,  -0.00194,  -7.79721,   1.00000
-322939934.43610,-505280634.07392,-102585081.32083,  -0.00008,  -0.00335,  -0.00329,477487719.54143,   0.00265,277487728.51613,   0.00040,  -0.00168,  -0.00195,  -8.97470,   1.00000
-324444162.27937,-505287925.76353,-102245973.71012,  -0.00009,  -0.00336,  -0.00329,477498588.47450,   0.00266,277498595.27313,   0.00040,  -0.00169,  -0.00196,  -6.79863,   1.00000
-325940990.44419,-505289742.37273,-101906137.09958,  -0.00010,  -0.00336,  -0.00329,477509367.70314,   0.00267,277509369.33616,   0.00040,  -0.00170,  -0.00197,  -1.63302,   1.00000
-327427256.51874,-505286043.80775,-101566586.39883,  -0.00011,  -0.00337,  -0.00329,477520141.68538,   0.00268,277520148.89612,   0.00040,  -0.00171,  -0.00197,  -7.21074,   1.00000
-328893247.87102,-505274362.98990,-101232321.76925,  -0.00012,  -0.00337,  -0.00329,477530703.71722,   0.00269,277530710.03826,   0.00040,  -0.00171,  -0.00198,  -6.32104,   1.00000
-330363151.34002,-505256258.06762,-100896093.39001,  -0.00012,  -0.00338,  -0.00330,477541321.15914,   0.00270,277541323.52687,   0.00039,  -0.00172,  -0.00198,  -2.36773,   1.00000
-331825098.39759,-505225401.44276,-100567668.43719,  -0.00013,  -0.00338,  -0.00330,477551778.81309,   0.00271,277551784.88993,   0.00039,  -0.00173,  -0.00199,  -6.07684,   1.00000
-333265055.07960,-505194364.22195,-100236928.72090,  -0.00014,  -0.00338,  -0.00330,477562185.05938,   0.00272,277562186.09597,   0.00039,  -0.00173,  -0.00200,  -1.03658,   1.00000
-334708921.17806,-505156947.03484,-99904219.38560,  -0.00015,  -0.00339,  -0.00330,477572638.91396,   0.00273,277572639.99991,   0.00039,  -0.00174,  -0.00200,  -1.08595,   1.00000
-336131431.87008,-505108328.92213,-99581528.98540,  -0.00016,  -0.00339,  -0.00331,477582893.67674,   0.00274,277582894.83528,   0.00039,  -0.00175,  -0.00201,  -1.15855,   1.00000
-337560161.08468,-505057099.19228,-99251979.56811,  -0.00017,  -0.00340,  -0.00331,477593180.83521,   0.00275,277593184.78006,   0.00039,  -0.00176,  -0.00202,  -3.94485,   1.00000
-338968002.07014,-504994867.03292,-98932401.76740,  -0.00017,  -0.00340,  -0.00331,477603267.76687,   0.00276,277603276.12567,   0.00038,  -0.00176,  -0.00202,  -8.35880,   1.00000
-340368383.61676,-504931538.88556,-98608225.55697,  -0.00018,  -0.00340,  -0.00331,477613348.05689,   0.00277,277613354.94223,   0.00038,  -0.00177,  -0.00203,  -6.88534,   1.00000
-341774243.17197,-504858140.56833,-98285726.48535,  -0.00019,  -0.00341,  -0.00331,477623406.65444,   0.00278,277623409.61794,   0.00038,  -0.00178,  -0.00204,  -2.96350,   1.00000
-343156711.43339,-504781581.54727,-97965804.39095,  -0.00020,  -0.00341,  -0.00332,477633418.68543,   0.00278,277633421.20861,   0.00038,  -0.00178,  -0.00204,  -2.52319,   1.00000
-344535155.07079,-504696496.09596,-97648594.13945,  -0.00021,  -0.00342,  -0.00332,477643260.72637,   0.00279,277643265.76345,   0.00038,  -0.00179,  -0.00205,  -5.03707,   1.00000
-345904088.69481,-504606848.14160,-97331660.73530,  -0.00022,  -0.00342,  -0.00332,477653110.90381,   0.00280,277653115.59962,   0.00037,  -0.00180,  -0.00205,  -4.69582,   1.00000
-347254187.62446,-504514265.33892,-97016057.73571,  -0.00022,  -0.00342,  -0.00332,477662820.17100,   0.00281,277662827.35704,   0.00037,  -0.00181,  -0.00206,  -7.18604,   1.00000
-348610152.17237,-504411712.72821,-96702053.12623,  -0.00023,  -0.00343,  -0.00332,477672514.84655,   0.00282,277672516.34393,   0.00037,  -0.00181,  -0.00207,  -1.49738,   1.00000
-349945314.60060,-504302771.13122,-96394240.70966,  -0.00024,  -0.00343,  -0.00333,477682075.45401,   0.00283,277682084.89686,   0.00037,  -0.00182,  -0.00207,  -9.44285,   1.00000
-351288769.77038,-504187476.52510,-96083063.11813,  -0.00025,  -0.00343,  -0.00333,477691613.85133,   0.00284,277691614.29648,   0.00037,  -0.00183,  -0.00208,  -0.44515,   1.00000
-352612157.56505,-504073356.50220,-95769562.50208,  -0.00026,  -0.00344,  -0.00333,477701073.78600,   0.00285,277701082.69624,   0.00036,  -0.00183,  -0.00208,  -8.91023,   1.00000
-353926147.44091,-503947651.52505,-95464847.62476,  -0.00027,  -0.00344,  -0.00333,477710491.72054,   0.00286,277710496.93367,   0.00036,  -0.00184,  -0.00209,  -5.21313,   1.00000
-355235504.37364,-503817545.58567,-95159036.72509,  -0.00027,  -0.00344,  -0.00333,477719823.43261,   0.00287,277719823.50259,   0.00036,  -0.00184,  -0.00209,  -0.06998,   1.00000
-356540316.56994,-503683023.26676,-94852110.52734,  -0.00028,  -0.00345,  -0.00333,477729054.29226,   0.00288,277729062.81195,   0.00036,  -0.00185,  -0.00210,  -8.51969,   1.00000
-357825459.25114,-503542690.07236,-94551327.69504,  -0.00029,  -0.00345,  -0.00334,477738177.65863,   0.00288,277738181.79505,   0.00036,  -0.00186,  -0.00211,  -4.13643,   1.00000
-359119267.11174,-503395924.82056,-94247048.91822,  -0.00030,  -0.00345,  -0.00334,477747263.97710,   0.00289,277747264.05495,   0.00035,  -0.00186,  -0.00211,  -0.07785,   1.00000
-360389192.22600,-503243869.60751,-93950315.18256,  -0.00031,  -0.00346,  -0.00334,477756314.11738,   0.00290,277756318.16655,   0.00035,  -0.00187,  -0.00212,  -4.04917,   1.00000
-361657464.39767,-503091081.15365,-93647447.87134,  -0.00031,  -0.00346,  -0.00334,477765262.65336,   0.00291,277765269.38194,   0.00035,  -0.00188,  -0.00212,  -6.72858,   1.00000
-362919475.05234,-502930555.07445,-93348341.20163,  -0.00032,  -0.00346,  -0.00334,477774145.36541,   0.00292,277774150.89070,   0.00035,  -0.00188,  -0.00213,  -5.52529,   1.00000
-364175323.98528,-502762331.96332,-93052968.54857,  -0.00033,  -0.00347,  -0.00334,477782962.00026,   0.00293,277782962.97641,   0.00035,  -0.00189,  -0.00213,  -0.97614,   1.00000
-365412563.62981,-502588792.58383,-92763656.69871,  -0.00034,  -0.00347,  -0.00334,477791654.33488,   0.00294,277791655.22077,   0.00034,  -0.00189,  -0.00214,  -0.88589,   1.00000
-366661165.53464,-502412192.80547,-92465742.42856,  -0.00035,  -0.00347,  -0.00335,477800295.27675,   0.00294,277800296.96588,   0.00034,  -0.00190,  -0.00214,  -1.68913,   1.00000
-367886667.93826,-502230913.27451,-92175406.68713,  -0.00036,  -0.00347,  -0.00335,477808905.59818,   0.00295,277808909.51431,   0.00034,  -0.00191,  -0.00215,  -3.91613,   1.00000
-369108859.21211,-502045541.38231,-91883771.24766,  -0.00036,  -0.00348,  -0.00335,477817434.56539,   0.00296,277817437.28091,   0.00034,  -0.00191,  -0.00215,  -2.71551,   1.00000
-370315516.51563,-501858560.53087,-91593182.18729,  -0.00037,  -0.00348,  -0.00335,477825823.45365,   0.00297,277825829.44355,   0.00033,  -0.00192,  -0.00216,  -5.98990,   1.00000
-371529043.48810,-501661591.93754,-91303877.37871,  -0.00038,  -0.00348,  -0.00335,477834203.09390,   0.00298,277834204.50721,   0.00033,  -0.00192,  -0.00216,  -1.41331,   1.00000
-372724962.31775,-501459708.07827,-91020561.12473,  -0.00039,  -0.00348,  -0.00335,477842456.47049,   0.00298,277842460.25552,   0.00033,  -0.00193,  -0.00217,  -3.78503,   1.00000
-373915437.99528,-501257861.59082,-90732476.38771,  -0.00040,  -0.00349,  -0.00335,477850701.08438,   0.00299,277850705.95047,   0.00033,  -0.00194,  -0.00217,  -4.86609,   1.00000
-375091081.35084,-501054636.26838,-90445380.46031,  -0.00040,  -0.00349,  -0.00335,477858810.78102,   0.00300,277858816.54551,   0.00033,  -0.00194,  -0.00218,  -5.76448,   1.00000
-376276482.42602,-500837291.46581,-90162859.97904,  -0.00041,  -0.00349,  -0.00336,477866836.48060,   0.00301,277866838.05593,   0.00032,  -0.00195,  -0.00218,  -1.57533,   1.00000
-377439520.61732,-500623499.87507,-89879580.86540,  -0.00042,  -0.00349,  -0.00336,477874882.91184,   0.00301,277874886.74760,   0.00032,  -0.00195,  -0.00219,  -3.83575,   1.00000
-378602914.30892,-500401627.22567,-89598193.99087,  -0.00043,  -0.00350,  -0.00336,477882778.47190,   0.00302,277882779.80199,   0.00032,  -0.00196,  -0.00219,  -1.33010,   1.00000
-379752159.90164,-500178553.85341,-89317705.26864,  -0.00044,  -0.00350,  -0.00336,477890531.34154,   0.00303,277890538.64022,   0.00032,  -0.00196,  -0.00220,  -7.29868,   1.00000
-380903460.04658,-499946253.23021,-89040067.84165,  -0.00044,  -0.00350,  -0.00336,477898362.98674,   0.00304,277898370.75989,   0.00031,  -0.00197,  -0.00220,  -7.77315,   1.00000
-382043266.33152,-499716148.23056,-88758277.91617,  -0.00045,  -0.00350,  -0.00336,477906049.69906,   0.00304,277906053.65711,   0.00031,  -0.00197,  -0.00221,  -3.95805,   1.00000
-383169958.82005,-499477503.90606,-88485659.65168,  -0.00046,  -0.00350,  -0.00336,477913544.00052,   0.00305,277913545.57861,   0.00031,  -0.00198,  -0.00221,  -1.57809,   1.00000
-384298211.16185,-499237169.86819,-88207568.51657,  -0.00047,  -0.00351,  -0.00336,477921166.07780,   0.00306,277921168.14705,   0.00031,  -0.00198,  -0.00222,  -2.06924,   1.00000
-385416055.93046,-498991621.52662,-87933567.05475,  -0.00048,  -0.00351,  -0.00336,477928580.91616,   0.00307,277928585.19295,   0.00031,  -0.00199,  -0.00222,  -4.27678,   1.00000
-386532257.17582,-498742140.47059,-87657966.56555,  -0.00048,  -0.00351,  -0.00336,477935916.75144,   0.00307,277935921.66841,   0.00030,  -0.00199,  -0.00222,  -4.91697,   1.00000
-387639065.25950,-498486508.59099,-87387598.96002,  -0.00049,  -0.00351,  -0.00337,477943278.31219,   0.00308,277943279.22047,   0.00030,  -0.00200,  -0.00223,  -0.90828,   1.00000
-388735392.20622,-498233234.44906,-87112939.21862,  -0.00050,  -0.00351,  -0.00337,477950480.48672,   0.00309,277950489.02474,   0.00030,  -0.00200,  -0.00223,  -8.53802,   1.00000
-389827997.58682,-497972831.75331,-86841691.62520,  -0.00051,  -0.00351,  -0.00337,477957629.11048,   0.00309,277957633.61006,   0.00030,  -0.00201,  -0.00224,  -4.49958,   1.00000
-390905707.96519,-497708431.30145,-86576220.25388,  -0.00051,  -0.00352,  -0.00337,477964657.84671,   0.00310,277964660.22518,   0.00029,  -0.00201,  -0.00224,  -2.37847,   1.00000
-391979172.32200,-497444495.19956,-86305856.87959,  -0.00052,  -0.00352,  -0.00337,477971671.36692,   0.00311,277971678.51320,   0.00029,  -0.00202,  -0.00225,  -7.14628,   1.00000
-393051608.21095,-497176661.04707,-86033800.28513,  -0.00053,  -0.00352,  -0.00337,477978615.83143,   0.00311,277978617.55133,   0.00029,  -0.00202,  -0.00225,  -1.71990,   1.00000
-394120655.66278,-496901702.44772,-85765093.02521,  -0.00054,  -0.00352,  -0.00337,477985482.92989,   0.00312,277985492.28343,   0.00029,  -0.00203,  -0.00225,  -9.35354,   1.00000
-395177787.79797,-496626054.85896,-85497038.78202,  -0.00054,  -0.00352,  -0.00337,477992225.38987,   0.00313,277992235.02533,   0.00028,  -0.00203,  -0.00226,  -9.63546,   1.00000
-396231784.77785,-496343332.86682,-85232296.64190,  -0.00055,  -0.00352,  -0.00337,477998912.00476,   0.00313,277998913.81449,   0.00028,  -0.00204,  -0.00226,  -1.80973,   1.00000
-397282689.66919,-496053512.84848,-84970835.15909,  -0.00056,  -0.00352,  -0.00337,478005520.67807,   0.00314,278005529.07052,   0.00028,  -0.00204,  -0.00227,  -8.39245,   1.00000
-398318805.17991,-495767571.26812,-84706829.94215,  -0.00057,  -0.00353,  -0.00337,478012081.18951,   0.00315,278012083.02274,   0.00028,  -0.00205,  -0.00227,  -1.83323,   1.00000
-399354445.23893,-495477678.08824,-84441002.93294,  -0.00057,  -0.00353,  -0.00337,478018554.12062,   0.00315,278018559.47787,   0.00028,  -0.00205,  -0.00227,  -5.35725,   1.00000
-400376550.52909,-495184110.36913,-84180825.98485,  -0.00058,  -0.00353,  -0.00337,478024909.16238,   0.00316,278024918.87944,   0.00027,  -0.00205,  -0.00228,  -9.71706,   1.00000
-401394987.44324,-494891156.18560,-83915696.61031,  -0.00059,  -0.00353,  -0.00337,478031270.32148,   0.00316,278031270.84232,   0.00027,  -0.00206,  -0.00228,  -0.52084,   1.00000
-402416657.66077,-494589633.57103,-83651772.82790,  -0.00060,  -0.00353,  -0.00337,478037469.27958,   0.00317,278037476.61434,   0.00027,  -0.00206,  -0.00228,  -7.33476,   1.00000
-403421741.97840,-494289102.99965,-83390381.52060,  -0.00060,  -0.00353,  -0.00337,478043633.42950,   0.00318,278043635.06448,   0.00027,  -0.00207,  -0.00229,  -1.63497,   1.00000
-404424421.94919,-493981522.11887,-83132178.79817,  -0.00061,  -0.00353,  -0.00337,478049728.77567,   0.00318,278049731.12681,   0.00026,  -0.00207,  -0.00229,  -2.35113,   1.00000
-405416719.46150,-493673470.65580,-82874429.78615,  -0.00062,  -0.00353,  -0.00337,478055693.85476,   0.00319,278055696.92040,   0.00026,  -0.00208,  -0.00229,  -3.06564,   1.00000
-406416019.71187,-493362488.84501,-82609285.65809,  -0.00063,  -0.00353,  -0.00337,478061700.74278,   0.00319,278061710.41254,   0.00026,  -0.00208,  -0.00230,  -9.66977,   1.00000
-407396008.11439,-493046917.76015,-82355115.13585,  -0.00063,  -0.00353,  -0.00337,478067484.14722,   0.00320,278067484.28104,   0.00026,  -0.00208,  -0.00230,  -0.13382,   1.00000
-408380630.09173,-492725373.74801,-82098641.11888,  -0.00064,  -0.00353,  -0.00337,478073315.50353,   0.00320,278073319.93404,   0.00026,  -0.00209,  -0.00230,  -4.43051,   1.00000
-409343916.16906,-492414766.15510,-81836823.94016,  -0.00065,  -0.00353,  -0.00337,478079022.89542,   0.00321,278079026.18344,   0.00025,  -0.00209,  -0.00231,  -3.28802,   1.00000
-410316803.45277,-492085701.34879,-81583836.91014,  -0.00066,  -0.00353,  -0.00337,478084670.32558,   0.00322,278084670.96729,   0.00025,  -0.00210,  -0.00231,  -0.64171,   1.00000
-411278805.35250,-491763957.99174,-81323070.16591,  -0.00066,  -0.00353,  -0.00337,478090240.62122,   0.00322,278090241.38435,   0.00025,  -0.00210,  -0.00231,  -0.76314,   1.00000
-412239051.48298,-491435110.60274,-81065376.94151,  -0.00067,  -0.00353,  -0.00337,478095749.46491,   0.00323,278095750.94969,   0.00025,  -0.00210,  -0.00232,  -1.48478,   1.00000
-413187596.36888,-491102888.32402,-80813126.99996,  -0.00068,  -0.00353,  -0.00337,478101139.09445,   0.00323,278101144.92867,   0.00025,  -0.00211,  -0.00232,  -5.83423,   1.00000
-414136979.64918,-490766514.07945,-80558755.53077,  -0.00068,  -0.00353,  -0.00337,478106459.56609,   0.00324,278106465.28393,   0.00024,  -0.00211,  -0.00232,  -5.71784,   1.00000
-415073550.62131,-490434603.59137,-80301709.68933,  -0.00069,  -0.00354,  -0.00337,478111717.38629,   0.00324,278111724.71921,   0.00024,  -0.00211,  -0.00233,  -7.33292,   1.00000
-416008726.36912,-490095580.45123,-80047673.03385,  -0.00070,  -0.00354,  -0.00337,478116920.89366,   0.00325,278116923.99258,   0.00024,  -0.00212,  -0.00233,  -3.09892,   1.00000
-416944926.15275,-489752312.24201,-79791463.13743,  -0.00070,  -0.00354,  -0.00337,478122044.98315,   0.00325,278122050.43053,   0.00024,  -0.00212,  -0.00233,  -5.44737,   1.00000
-417866211.74406,-489410681.72336,-79537718.29201,  -0.00071,  -0.00354,  -0.00337,478127121.83763,   0.00326,278127129.00398,   0.00024,  -0.00212,  -0.00233,  -7.16635,   1.00000
-418779038.96069,-489068682.41446,-79284164.76390,  -0.00072,  -0.00354,  -0.00337,478132077.07817,   0.00326,278132079.50545,   0.00023,  -0.00213,  -0.00234,  -2.42729,   1.00000
-419693180.41670,-488722391.58577,-79028385.88473,  -0.00073,  -0.00353,  -0.00337,478136951.28776,   0.00327,278136957.76678,   0.00023,  -0.00213,  -0.00234,  -6.47902,   1.00000
-420606277.03203,-488368900.14862,-78775530.98784,  -0.00073,  -0.00353,  -0.00337,478141768.56726,   0.00327,278141776.94348,   0.00023,  -0.00213,  -0.00234,  -8.37622,   1.00000
-421507301.51200,-488020048.52642,-78519943.59081,  -0.00074,  -0.00353,  -0.00337,478146529.71453,   0.00327,278146535.33985,   0.00023,  -0.00214,  -0.00235,  -5.62532,   1.00000
-422407437.46910,-487663985.25229,-78267256.48565,  -0.00075,  -0.00353,  -0.00337,478151233.08253,   0.00328,278151234.90770,   0.00022,  -0.00214,  -0.00235,  -1.82517,   1.00000
-423309095.78668,-487303500.55000,-78012263.88092,  -0.00075,  -0.00353,  -0.00337,478155861.59745,   0.00328,278155863.33899,   0.00022,  -0.00214,  -0.00235,  -1.74154,   1.00000
-424189601.22861,-486951702.39631,-77756897.97058,  -0.00076,  -0.00353,  -0.00336,478160365.72063,   0.00329,278160375.17425,   0.00022,  -0.00215,  -0.00235,  -9.45362,   1.00000
-425078779.79531,-486588636.72219,-77502008.38137,  -0.00077,  -0.00353,  -0.00336,478164877.80757,   0.00329,278164884.62579,   0.00022,  -0.00215,  -0.00236,  -6.81821,   1.00000
-425958039.38287,-486222320.32880,-77252331.98860,  -0.00077,  -0.00353,  -0.00336,478169277.79020,   0.00330,278169280.02520,   0.00022,  -0.00215,  -0.00236,  -2.23499,   1.00000
-426832308.26427,-485858327.35143,-76997451.66833,  -0.00078,  -0.00353,  -0.00336,478173530.18790,   0.00330,278173536.66270,   0.00022,  -0.00215,  -0.00236,  -6.47480,   1.00000
-427699650.53554,-485489482.93912,-76747794.69795,  -0.00079,  -0.00353,  -0.00336,478177810.95945,   0.00330,278177813.61144,   0.00021,  -0.00216,  -0.00236,  -2.65199,   1.00000
-428567199.42660,-485124097.17361,-76487760.32322,  -0.00079,  -0.00353,  -0.00336,478182068.69414,   0.00331,278182073.86889,   0.00021,  -0.00216,  -0.00237,  -5.17476,   1.00000
-429429448.89360,-484750169.05132,-76235634.44159,  -0.00080,  -0.00353,  -0.00336,478186151.93426,   0.00331,278186155.06126,   0.00021,  -0.00216,  -0.00237,  -3.12701,   1.00000
-430280650.70517,-484381059.73992,-75980681.05425,  -0.00081,  -0.00353,  -0.00336,478190175.04784,   0.00332,278190175.72107,   0.00021,  -0.00216,  -0.00237,  -0.67323,   1.00000
-431131659.07835,-484004551.29107,-75728468.15531,  -0.00081,  -0.00353,  -0.00336,478194134.84272,   0.00332,278194139.37970,   0.00021,  -0.00217,  -0.00237,  -4.53698,   1.00000
-431980681.22507,-483628715.71704,-75471047.16449,  -0.00082,  -0.00353,  -0.00336,478198095.37748,   0.00332,278198099.06701,   0.00020,  -0.00217,  -0.00237,  -3.68952,   1.00000
-432820735.35900,-483249624.68230,-75218707.24437,  -0.00082,  -0.00353,  -0.00335,478201937.00348,   0.00333,278201945.49535,   0.00020,  -0.00217,  -0.00238,  -8.49187,   1.00000
-433663125.60322,-482865774.18463,-74963838.35670,  -0.00083,  -0.00353,  -0.00335,478205722.14336,   0.00333,278205723.44521,   0.00020,  -0.00217,  -0.00238,  -1.30185,   1.00000
-434499132.42652,-482481314.14143,-74708774.37369,  -0.00084,  -0.00352,  -0.00335,478209373.67835,   0.00333,278209376.58998,   0.00020,  -0.00218,  -0.00238,  -2.91163,   1.00000
-435322298.96145,-482099072.54899,-74456053.61882,  -0.00084,  -0.00352,  -0.00335,478212980.68741,   0.00334,278212981.23201,   0.00020,  -0.00218,  -0.00238,  -0.54460,   1.00000
-436143727.45812,-481717489.57725,-74198088.87347,  -0.00085,  -0.00352,  -0.00335,478216581.11896,   0.00334,278216582.26348,   0.00020,  -0.00218,  -0.00238,  -1.14452,   1.00000
-436971997.00246,-481325438.85779,-73940172.56229,  -0.00086,  -0.00352,  -0.00335,478220047.03464,   0.00334,278220051.63667,   0.00019,  -0.00218,  -0.00239,  -4.60204,   1.00000
-437783339.08629,-480941220.12416,-73681947.34196,  -0.00086,  -0.00352,  -0.00335,478223529.36485,   0.00335,278223536.45380,   0.00019,  -0.00219,  -0.00239,  -7.08895,   1.00000
-438601674.96494,-480546424.92962,-73423714.14406,  -0.00087,  -0.00352,  -0.00334,478226885.81705,   0.00335,278226890.23492,   0.00019,  -0.00219,  -0.00239,  -4.41787,   1.00000
-439407577.62959,-480153924.74481,-73167791.65217,  -0.00087,  -0.00352,  -0.00334,478230190.35864,   0.00335,278230195.45638,   0.00019,  -0.00219,  -0.00239,  -5.09774,   1.00000
-440207901.96169,-479760724.21949,-72911529.34375,  -0.00088,  -0.00352,  -0.00334,478233374.96935,   0.00336,278233376.76833,   0.00019,  -0.00219,  -0.00239,  -1.79898,   1.00000
-441006699.35306,-479368107.75374,-72649973.12355,  -0.00089,  -0.00352,  -0.00334,478236552.77973,   0.00336,278236555.09650,   0.00019,  -0.00219,  -0.00239,  -2.31677,   1.00000
-441806016.19331,-478967763.55744,-72390959.29257,  -0.00089,  -0.00351,  -0.00334,478239676.24130,   0.00336,278239678.66815,   0.00018,  -0.00220,  -0.00240,  -2.42685,   1.00000
-442595594.53709,-478572367.45656,-72128973.97820,  -0.00090,  -0.00351,  -0.00334,478242737.90054,   0.00337,278242742.07648,   0.00018,  -0.00220,  -0.00240,  -4.17594,   1.00000
-443377654.26023,-478173620.17840,-71871830.90325,  -0.00090,  -0.00351,  -0.00333,478245687.40361,   0.00337,278245693.50714,   0.00018,  -0.00220,  -0.00240,  -6.10353,   1.00000
-444162768.46434,-477769630.01533,-71611908.23621,  -0.00091,  -0.00351,  -0.00333,478248574.38657,   0.00337,278248579.33576,   0.00018,  -0.00220,  -0.00240,  -4.94919,   1.00000
-444946472.58453,-477366148.12044,-71346653.02641,  -0.00092,  -0.00351,  -0.00333,478251454.56498,   0.00337,278251462.71963,   0.00018,  -0.00220,  -0.00240,  -8.15465,   1.00000
-445722910.92512,-476959243.99171,-71086179.54328,  -0.00092,  -0.00351,  -0.00333,478254227.26229,   0.00338,278254234.57108,   0.00018,  -0.00220,  -0.00240,  -7.30878,   1.00000
-446490066.88601,-476557320.19525,-70822676.89976,  -0.00093,  -0.00350,  -0.00333,478256943.68227,   0.00338,278256946.32769,   0.00018,  -0.00221,  -0.00241,  -2.64542,   1.00000
-447258125.33044,-476147480.51446,-70561602.03288,  -0.00093,  -0.00350,  -0.00332,478259598.33860,   0.00338,278259604.44222,   0.00017,  -0.00221,  -0.00241,  -6.10362,   1.00000
-448017060.44238,-475742629.46053,-70297476.43216,  -0.00094,  -0.00350,  -0.00332,478262194.96591,   0.00339,278262202.49439,   0.00017,  -0.00221,  -0.00241,  -7.52849,   1.00000
-448779304.66558,-475332287.34912,-70030462.79269,  -0.00094,  -0.00350,  -0.00332,478264729.46257,   0.00339,278264736.19634,   0.00017,  -0.00221,  -0.00241,  -6.73377,   1.00000
-449530263.00077,-474924455.30211,-69765668.08170,  -0.00095,  -0.00350,  -0.00332,478267211.53425,   0.00339,278267220.84758,   0.00017,  -0.00221,  -0.00241,  -9.31332,   1.00000
-450284617.97985,-474511058.56650,-69497947.98568,  -0.00095,  -0.00350,  -0.00332,478269636.79497,   0.00339,278269641.53317,   0.00017,  -0.00221,  -0.00241,  -4.73821,   1.00000
-451030141.06574,-474102633.08435,-69227133.72851,  -0.00096,  -0.00349,  -0.00331,478271999.49445,   0.00339,278272002.29583,   0.00017,  -0.00222,  -0.00241,  -2.80138,   1.00000
-451776824.18242,-473686103.23798,-68958655.33813,  -0.00097,  -0.00349,  -0.00331,478274302.39045,   0.00340,278274310.36451,   0.00017,  -0.00222,  -0.00241,  -7.97407,   1.00000
-452519417.13462,-473268422.37177,-68689470.62318,  -0.00097,  -0.00349,  -0.00331,478276491.14472,   0.00340,278276497.07817,   0.00017,  -0.00222,  -0.00242,  -5.93345,   1.00000
-453256342.90583,-472857269.99737,-68412469.33480,  -0.00098,  -0.00349,  -0.00331,478278737.91310,   0.00340,278278743.56066,   0.00016,  -0.00222,  -0.00242,  -5.64756,   1.00000
-453991663.27616,-472436330.32634,-68142427.06861,  -0.00098,  -0.00349,  -0.00330,478280808.98144,   0.00340,278280818.29648,   0.00016,  -0.00222,  -0.00242,  -9.31504,   1.00000
-454723700.17359,-472013367.88581,-67872266.26343,  -0.00099,  -0.00348,  -0.00330,478282898.88855,   0.00341,278282902.14137,   0.00016,  -0.00222,  -0.00242,  -3.25282,   1.00000
-455449612.57228,-471597733.63200,-67593620.13597,  -0.00099,  -0.00348,  -0.00330,478284914.39274,   0.00341,278284915.73270,   0.00016,  -0.00222,  -0.00242,  -1.33996,   1.00000
-456169607.85704,-471178431.66317,-67319473.38105,  -0.00100,  -0.00348,  -0.00330,478286817.38412,   0.00341,278286819.11391,   0.00016,  -0.00223,  -0.00242,  -1.72979,   1.00000
-456893686.98111,-470752458.19918,-67042942.95848,  -0.00100,  -0.00348,  -0.00329,478288783.50147,   0.00341,278288790.14135,   0.00016,  -0.00223,  -0.00242,  -6.63988,   1.00000
-457602341.32751,-470336104.13857,-66765468.83235,  -0.00101,  -0.00348,  -0.00329,478290638.27887,   0.00341,278290642.85218,   0.00016,  -0.00223,  -0.00242,  -4.57331,   1.00000
-458314800.48243,-469913707.65178,-66484857.78766,  -0.00101,  -0.00347,  -0.00329,478292432.26194,   0.00341,278292433.81793,   0.00016,  -0.00223,  -0.00242,  -1.55599,   1.00000
-459023913.24472,-469489847.85232,-66203321.13100,  -0.00102,  -0.00347,  -0.00329,478294095.89015,   0.00342,278294104.81605,   0.00016,  -0.00223,  -0.00242,  -8.92590,   1.00000
-459729947.72123,-469063942.11741,-65921638.68134,  -0.00102,  -0.00347,  -0.00328,478295779.17669,   0.00342,278295785.05930,   0.00015,  -0.00223,  -0.00243,  -5.88261,   1.00000
-460432890.82762,-468635990.52474,-65639812.93780,  -0.00103,  -0.00347,  -0.00328,478297470.02816,   0.00342,278297474.57229,   0.00015,  -0.00223,  -0.00243,  -4.54413,   1.00000
-461127942.64704,-468213463.31060,-65353873.08556,  -0.00103,  -0.00346,  -0.00328,478298967.00807,   0.00342,278298975.62288,   0.00015,  -0.00223,  -0.00243,  -8.61481,   1.00000
-461824731.25076,-467781920.36570,-65070905.76807,  -0.00104,  -0.00346,  -0.00327,478300549.95937,   0.00342,278300554.79305,   0.00015,  -0.00223,  -0.00243,  -4.83368,   1.00000
-462520741.59124,-467350987.68873,-64781538.95718,  -0.00104,  -0.00346,  -0.00327,478301996.70871,   0.00342,278302004.78515,   0.00015,  -0.00223,  -0.00243,  -8.07644,   1.00000
-463202171.44195,-466929293.32002,-64491986.18015,  -0.00105,  -0.00346,  -0.00327,478303463.14611,   0.00342,278303464.78818,   0.00015,  -0.00223,  -0.00243,  -1.64207,   1.00000
-463892354.69806,-466494568.48832,-64201356.67180,  -0.00105,  -0.00345,  -0.00326,478304796.06837,   0.00343,278304805.25247,   0.00015,  -0.00224,  -0.00243,  -9.18410,   1.00000
-464568079.15793,-466069148.91518,-63910542.28945,  -0.00106,  -0.00345,  -0.00326,478306151.66848,   0.00343,278306155.45360,   0.00015,  -0.00224,  -0.00243,  -3.78512,   1.00000
-465241162.92987,-465641980.24454,-63618580.89124,  -0.00106,  -0.00345,  -0.00326,478307378.73913,   0.00343,278307386.83550,   0.00015,  -0.00224,  -0.00243,  -8.09637,   1.00000
-465918361.14021,-465208240.48925,-63323251.82094,  -0.00107,  -0.00345,  -0.00325,478308548.88089,   0.00343,278308558.76711,   0.00015,  -0.00224,  -0.00243,  -9.88622,   1.00000
-466592687.20273,-464772398.25193,-63027731.56782,  -0.00107,  -0.00344,  -0.00325,478309732.84018,   0.00343,278309740.24082,   0.00015,  -0.00224,  -0.00243,  -7.40065,   1.00000
-467259746.66470,-464341405.14519,-62728819.01517,  -0.00107,  -0.00344,  -0.00325,478310859.43810,   0.00343,278310862.40070,   0.00015,  -0.00224,  -0.00243,  -2.96260,   1.00000
-467923975.19767,-463908324.99667,-62429717.15113,  -0.00108,  -0.00344,  -0.00324,478311992.06897,   0.00343,278311994.02906,   0.00015,  -0.00224,  -0.00243,  -1.96009,   1.00000
-468585863.87950,-463473280.95629,-62129334.24357,  -0.00108,  -0.00344,  -0.00324,478313002.92462,   0.00343,278313007.68720,   0.00014,  -0.00224,  -0.00243,  -4.76258,   1.00000
-469240687.87519,-463043062.17830,-61825513.12459,  -0.00109,  -0.00343,  -0.00324,478313953.16885,   0.00343,278313962.08356,   0.00014,  -0.00224,  -0.00243,  -8.91471,   1.00000
-469892777.29610,-462610759.17804,-61521488.48052,  -0.00109,  -0.00343,  -0.00323,478314920.17255,   0.00344,278314925.92051,   0.00014,  -0.00224,  -0.00243,  -5.74795,   1.00000
-470549086.09005,-462171555.59966,-61213961.82553,  -0.00110,  -0.00343,  -0.00323,478315830.27168,   0.00344,278315831.67814,   0.00014,  -0.00224,  -0.00243,  -1.40646,   1.00000
-471193612.61996,-461744055.27317,-60900873.93307,  -0.00110,  -0.00342,  -0.00323,478316728.72841,   0.00344,278316736.52190,   0.00014,  -0.00224,  -0.00244,  -7.79349,   1.00000
-471838868.45475,-461305378.42806,-60593839.45306,  -0.00111,  -0.00342,  -0.00322,478317470.22319,   0.00344,278317475.18501,   0.00014,  -0.00224,  -0.00244,  -4.96182,   1.00000
-472476599.15093,-460871565.82403,-60284518.22160,  -0.00111,  -0.00342,  -0.00322,478318279.26189,   0.00344,278318281.40004,   0.00014,  -0.00224,  -0.00244,  -2.13815,   1.00000
-473114572.86088,-460437568.85749,-59968316.55346,  -0.00111,  -0.00342,  -0.00322,478318959.60790,   0.00344,278318961.51420,   0.00014,  -0.00224,  -0.00244,  -1.90630,   1.00000
-473749890.15153,-460001428.34573,-59651878.72946,  -0.00112,  -0.00341,  -0.00321,478319648.62237,   0.00344,278319651.30957,   0.00014,  -0.00224,  -0.00244,  -2.68720,   1.00000
-474382545.48767,-459563151.53467,-59335208.85365,  -0.00112,  -0.00341,  -0.00321,478320345.69272,   0.00344,278320350.76901,   0.00014,  -0.00224,  -0.00244,  -5.07628,   1.00000
-475008604.34030,-459129625.49213,-59014979.13791,  -0.00113,  -0.00341,  -0.00320,478320988.32636,   0.00344,278320991.14521,   0.00014,  -0.00225,  -0.00244,  -2.81885,   1.00000
-475633014.77829,-458693692.51784,-58693160.04954,  -0.00113,  -0.00341,  -0.00320,478321508.59071,   0.00344,278321515.14614,   0.00014,  -0.00225,  -0.00244,  -6.55543,   1.00000
-476254835.52534,-458255606.73446,-58371088.78660,  -0.00113,  -0.00340,  -0.00320,478322038.87063,   0.00344,278322048.85646,   0.00014,  -0.00225,  -0.00244,  -9.98584,   1.00000
-476870237.62638,-457822231.53539,-58045402.53854,  -0.00114,  -0.00340,  -0.00319,478322515.82645,   0.00344,278322523.58231,   0.00014,  -0.00225,  -0.00244,  -7.75586,   1.00000
-477485136.69608,-457388664.92938,-57714032.17775,  -0.00114,  -0.00340,  -0.00319,478322993.28503,   0.00344,278322999.28095,   0.00014,  -0.00225,  -0.00244,  -5.99592,   1.00000
-478096553.55290,-456950573.44185,-57386387.06059,  -0.00115,  -0.00339,  -0.00318,478323362.42445,   0.00344,278323367.86785,   0.00014,  -0.00225,  -0.00244,  -5.44340,   1.00000
-478707472.93713,-456512234.29137,-57053033.61679,  -0.00115,  -0.00339,  -0.00318,478323732.00133,   0.00344,278323737.66171,   0.00014,  -0.00225,  -0.00244,  -5.66038,   1.00000
-479305211.93803,-456083948.28187,-56719528.10603,  -0.00115,  -0.00339,  -0.00318,478324111.02126,   0.00344,278324113.80434,   0.00014,  -0.00225,  -0.00244,  -2.78308,   1.00000
-479907389.94528,-455648080.84755,-56382215.72326,  -0.00116,  -0.00338,  -0.00317,478324427.60183,   0.00344,278324434.56077,   0.00014,  -0.00225,  -0.00244,  -6.95894,   1.00000
-480511972.88098,-455202662.10318,-56046514.55618,  -0.00116,  -0.00338,  -0.00317,478324707.51740,   0.00345,278324708.67988,   0.00014,  -0.00225,  -0.00244,  -1.16248,   1.00000
-481099900.12931,-454774151.28553,-55707205.54040,  -0.00116,  -0.00338,  -0.00316,478324912.65290,   0.00345,278324920.34190,   0.00014,  -0.00225,  -0.00244,  -7.68900,   1.00000
-481692939.81313,-454340431.76948,-55360172.59051,  -0.00117,  -0.00338,  -0.00316,478325186.54054,   0.00345,278325193.54263,   0.00014,  -0.00225,  -0.00244,  -7.00209,   1.00000
-482282885.35541,-453901985.29372,-55016685.77739,  -0.00117,  -0.00337,  -0.00315,478325351.37300,   0.00345,278325360.26098,   0.00014,  -0.00225,  -0.00244,  -8.88798,   1.00000
-482866869.38200,-453468109.24946,-54669414.98468,  -0.00118,  -0.00337,  -0.00315,478325462.60835,   0.00345,278325468.35916,   0.00014,  -0.00225,  -0.00244,  -5.75081,   1.00000
-483448409.06266,-453032035.23320,-54321844.04244,  -0.00118,  -0.00337,  -0.00315,478325580.23312,   0.00345,278325586.29203,   0.00014,  -0.00225,  -0.00244,  -6.05890,   1.00000
-484031400.98943,-452597369.68532,-53963038.82940,  -0.00118,  -0.00336,  -0.00314,478325690.23214,   0.00345,278325697.97889,   0.00014,  -0.00225,  -0.00244,  -7.74675,   1.00000
-484599288.75714,-452168585.33380,-53613287.72695,  -0.00119,  -0.00336,  -0.00314,478325704.13715,   0.00345,278325706.78972,   0.00014,  -0.00225,  -0.00244,  -2.65257,   1.00000
-485172036.88599,-451734456.20216,-53255822.62181,  -0.00119,  -0.00336,  -0.00313,478325773.90158,   0.00345,278325777.80495,   0.00014,  -0.00225,  -0.00244,  -3.90337,   1.00000
-485738997.46772,-451304833.06258,-52894497.80331,  -0.00119,  -0.00335,  -0.00313,478325780.75620,   0.00345,278325790.36577,   0.00014,  -0.00225,  -0.00244,  -9.60957,   1.00000
-486303550.34336,-450873018.34612,-52532866.39423,  -0.00120,  -0.00335,  -0.00312,478325807.71702,   0.00345,278325812.71722,   0.00014,  -0.00225,  -0.00244,  -5.00020,   1.00000
-486844939.39298,-450417564.06629,-52166211.37650,  -0.00120,  -0.00335,  -0.00312,478303675.69224,   0.00345,278325812.71722,   0.00014,  -0.00225,  -0.00244,-22137.02498,   0.00000
-487374870.47330,-449973567.75575,-51793827.37412,  -0.00120,  -0.00334,  -0.00311,478280742.25136,   0.00345,278325812.71722,   0.00014,  -0.00225,  -0.00244,-45070.46586,   0.00000
-487924852.99989,-449538164.92220,-51421443.37173,  -0.00121,  -0.00334,  -0.00311,478274895.19562,   0.00345,278325812.71722,   0.00014,  -0.00225,  -0.00244,-50917.52161,   0.00000
-488426139.15695,-449065523.68840,-51049059.36935,  -0.00121,  -0.00334,  -0.00310,478228624.61501,   0.00345,278325812.71722,   0.00014,  -0.00225,  -0.00244,-97188.10221,   0.00000
-488956070.23726,-448621527.37787,-50670946.38232,  -0.00121,  -0.00334,  -0.00310,478210966.85463,   0.00345,278325812.71722,   0.00014,  -0.00225,  -0.00244,-114845.86260,   0.00000
-489437304.94804,-448140292.66710,-50287104.41063,  -0.00122,  -0.00333,  -0.00309,478151021.03306,   0.00345,278325812.71722,   0.00014,  -0.00225,  -0.00244,-174791.68416,   0.00000
-489947184.58207,-447687702.87958,-49903262.43894,  -0.00122,  -0.00333,  -0.00309,478121532.87399,   0.00345,278325812.71722,   0.00014,  -0.00225,  -0.00244,-204279.84323,   0.00000
-490428419.29284,-447206468.16881,-49513691.48260,  -0.00122,  -0.00333,  -0.00308,478064551.36648,   0.00345,278325812.71722,   0.00014,  -0.00225,  -0.00244,-261261.35074,   0.00000
-490898196.03431,-446736691.42734,-49118391.54161,  -0.00123,  -0.00332,  -0.00308,478006614.57356,   0.00345,278325812.71722,   0.00014,  -0.00225,  -0.00244,-319198.14366,   0.00000
-491359379.29880,-446246863.23959,-48723091.60062,  -0.00123,  -0.00332,  -0.00307,477937799.09733,   0.00345,278325812.71722,   0.00014,  -0.00225,  -0.00244,-388013.61989,   0.00000
-491829156.04027,-445777086.49813,-48327791.65963,  -0.00123,  -0.00332,  -0.00307,477884596.61687,   0.00345,278325812.71722,   0.00014,  -0.00225,  -0.00244,-441216.10035,   0.00000
-492270287.85847,-445278664.83340,-47926762.73398,  -0.00123,  -0.00331,  -0.00306,477803927.26283,   0.00345,278325812.71722,   0.00014,  -0.00225,  -0.00244,-521885.45439,   0.00000
-492720013.15366,-444800294.61495,-47520004.82369,  -0.00124,  -0.00331,  -0.00306,477737123.33624,   0.00345,278325812.71722,   0.00014,  -0.00225,  -0.00244,-588689.38098,   0.00000
-493149687.00256,-444313330.91953,-47113246.91339,  -0.00124,  -0.00331,  -0.00305,477657768.54738,   0.00345,278325812.71722,   0.00014,  -0.00225,  -0.00244,-668044.16984,   0.00000
-493579360.85147,-443826367.22410,-46700760.01845,  -0.00124,  -0.00330,  -0.00305,477579080.35977,   0.00345,278325812.71722,   0.00014,  -0.00225,  -0.00244,-746732.35745,   0.00000
-494000441.22339,-443319352.08240,-46288273.12350,  -0.00125,  -0.00330,  -0.00304,477489623.98607,   0.00345,278325812.71722,   0.00014,  -0.00225,  -0.00244,-836188.73115,   0.00000
-494410063.62601,-442823794.90999,-45870057.24390,  -0.00125,  -0.00330,  -0.00304,477399068.06704,   0.00345,278325812.71722,   0.00014,  -0.00225,  -0.00244,-926744.65018,   0.00000
-494819686.02864,-442328237.73759,-45451841.36430,  -0.00125,  -0.00330,  -0.00303,477310885.60059,   0.00345,278325812.71722,   0.00014,  -0.00225,  -0.00244,-1014927.11663,   0.00000
-495217850.46195,-441844138.53449,-45027896.50005,  -0.00125,  -0.00329,  -0.00302,477221533.50288,   0.00345,278325812.71722,   0.00014,  -0.00225,  -0.00244,-1104279.21434,   0.00000
-495607421.41829,-441339987.88511,-44603951.63579,  -0.00126,  -0.00329,  -0.00302,477121436.54565,   0.00345,278325812.71722,   0.00014,  -0.00225,  -0.00244,-1204376.17157,   0.00000
-495976940.92835,-440827243.75875,-44174277.78689,  -0.00126,  -0.00329,  -0.00301,477007062.20057,   0.00345,278325812.71722,   0.00014,  -0.00225,  -0.00244,-1318750.51665,   0.00000
-496355053.91539,-440334551.07868,-43744603.93799,  -0.00126,  -0.00328,  -0.00301,476908112.42903,   0.00345,278325812.71722,   0.00014,  -0.00225,  -0.00244,-1417700.28820,   0.00000
-496733166.90242,-439841858.39860,-43309201.10443,  -0.00127,  -0.00328,  -0.00300,476809942.16016,   0.00345,278325812.71722,   0.00014,  -0.00225,  -0.00244,-1515870.55706,   0.00000
-497102686.41248,-439329114.27224,-42868069.28622,  -0.00127,  -0.00328,  -0.00300,476699572.74449,   0.00345,278325812.71722,   0.00014,  -0.00225,  -0.00244,-1626239.97274,   0.00000
-497469341.43021,-438847879.56147,-42426937.46802,  -0.00127,  -0.00327,  -0.00299,476602535.13159,   0.00345,278325812.71722,   0.00014,  -0.00225,  -0.00244,-1723277.58563,   0.00000
-497807351.52468,-438337999.92744,-41985805.64981,  -0.00127,  -0.00327,  -0.00299,476479701.79651,   0.00345,278325812.71722,   0.00014,  -0.00225,  -0.00244,-1846110.92071,   0.00000
-498145361.61915,-437828120.29341,-41538944.84695,  -0.00128,  -0.00327,  -0.00298,476357710.89459,   0.00345,278325812.71722,   0.00014,  -0.00225,  -0.00244,-1968101.82263,   0.00000
-498491965.19060,-437338292.10566,-41086355.05944,  -0.00128,  -0.00327,  -0.00297,476249579.66684,   0.00345,278325812.71722,   0.00014,  -0.00225,  -0.00244,-2076233.05038,   0.00000
-498829975.28507,-436828412.47162,-40633765.27192,  -0.00128,  -0.00326,  -0.00297,476130873.42544,   0.00345,278325812.71722,   0.00014,  -0.00225,  -0.00244,-2194939.29179,   0.00000
-499156527.41024,-436329990.80689,-40181175.48441,  -0.00128,  -0.00326,  -0.00296,476012307.93711,   0.00345,278325812.71722,   0.00014,  -0.00225,  -0.00244,-2313504.78012,   0.00000
-499491673.01238,-435851620.58845,-39722856.71225,  -0.00129,  -0.00326,  -0.00296,475907582.89982,   0.00345,278325812.71722,   0.00014,  -0.00225,  -0.00244,-2418229.81740,   0.00000
-499798173.69127,-435344605.44674,-39258808.95543,  -0.00129,  -0.00325,  -0.00295,475775644.00658,   0.00345,278325812.71722,   0.00014,  -0.00225,  -0.00244,-2550168.71064,   0.00000
-500113267.84713,-434857641.75132,-38794761.19862,  -0.00129,  -0.00325,  -0.00294,475658988.65792,   0.00345,278325812.71722,   0.00014,  -0.00225,  -0.00244,-2666824.05930,   0.00000
-500428362.00299,-434370678.05589,-38330713.44180,  -0.00129,  -0.00325,  -0.00294,475544693.28231,   0.00345,278325812.71722,   0.00014,  -0.00225,  -0.00244,-2781119.43491,   0.00000
-500743456.15886,-433883714.36047,-37860936.70033,  -0.00130,  -0.00325,  -0.00293,475431390.79864,   0.00345,278325812.71722,   0.00014,  -0.00225,  -0.00244,-2894421.91858,   0.00000
-501038498.86844,-433388157.18807,-37385430.97421,  -0.00130,  -0.00324,  -0.00293,475303831.01940,   0.00345,278325812.71722,   0.00014,  -0.00225,  -0.00244,-3021981.69782,   0.00000
-501342135.05500,-432912651.46195,-36909925.24809,  -0.00130,  -0.00324,  -0.00292,475191513.96729,   0.00345,278325812.71722,   0.00014,  -0.00225,  -0.00244,-3134298.74993,   0.00000
-501625719.79527,-432428552.25885,-36434419.52197,  -0.00130,  -0.00324,  -0.00291,475066240.18093,   0.00345,278325812.71722,   0.00014,  -0.00225,  -0.00244,-3259572.53629,   0.00000
-501909304.53555,-431944453.05575,-35953184.81120,  -0.00130,  -0.00323,  -0.00291,474942012.21622,   0.00345,278325812.71722,   0.00014,  -0.00225,  -0.00244,-3383800.50100,   0.00000
-502201482.75280,-431480405.29893,-35466221.11577,  -0.00131,  -0.00323,  -0.00290,474831684.53341,   0.00345,278325812.71722,   0.00014,  -0.00225,  -0.00244,-3494128.18381,   0.00000
-502493660.97006,-431016357.54212,-34979257.42035,  -0.00131,  -0.00323,  -0.00289,474723748.81997,   0.00345,278325812.71722,   0.00014,  -0.00225,  -0.00244,-3602063.89725,   0.00000
-502765787.74103,-430543716.30832,-34492293.72493,  -0.00131,  -0.00323,  -0.00289,474602816.32957,   0.00345,278325812.71722,   0.00014,  -0.00225,  -0.00244,-3722996.38766,   0.00000
-503046507.98898,-430091126.52081,-33999601.04485,  -0.00131,  -0.00322,  -0.00288,474495780.39445,   0.00345,278325812.71722,   0.00014,  -0.00225,  -0.00244,-3830032.32278,   0.00000
-503298583.31367,-429609891.81004,-33506908.36477,  -0.00132,  -0.00322,  -0.00288,474362953.76594,   0.00345,278325812.71722,   0.00014,  -0.00225,  -0.00244,-3962858.95128,   0.00000
-503587897.03860,-429177353.46881,-33008486.70005,  -0.00132,  -0.00322,  -0.00287,474272211.35861,   0.00345,278325812.71722,   0.00014,  -0.00225,  -0.00244,-4053601.35862,   0.00000
-503848565.84027,-428716170.20432,-32510065.03532,  -0.00132,  -0.00322,  -0.00286,474155688.95646,   0.00345,278325812.71722,   0.00014,  -0.00225,  -0.00244,-4170123.76076,   0.00000
-504117828.11891,-428275038.38611,-32005914.38594,  -0.00132,  -0.00321,  -0.00286,474053105.26379,   0.00345,278325812.71722,   0.00014,  -0.00225,  -0.00244,-4272707.45343,   0.00000
-504375632.42826,-427845364.53721,-31501763.73656,  -0.00132,  -0.00321,  -0.00285,473950146.72323,   0.00345,278325812.71722,   0.00014,  -0.00225,  -0.00244,-4375665.99399,   0.00000
-504644894.70690,-427404232.71900,-30991884.10252,  -0.00133,  -0.00321,  -0.00284,473851215.59701,   0.00345,278325812.71722,   0.00014,  -0.00225,  -0.00244,-4474597.12021,   0.00000
-504911292.49322,-426994610.31638,-30482004.46849,  -0.00133,  -0.00321,  -0.00284,473764569.94290,   0.00345,278325812.71722,   0.00014,  -0.00225,  -0.00244,-4561242.77432,   0.00000
-505149045.35628,-426556342.99050,-29972124.83446,  -0.00133,  -0.00320,  -0.00283,473652116.13456,   0.00345,278325812.71722,   0.00014,  -0.00225,  -0.00244,-4673696.58266,   0.00000
-505415443.14260,-426146720.58788,-29456516.21577,  -0.00133,  -0.00320,  -0.00282,473569132.27939,   0.00345,278325812.71722,   0.00014,  -0.00225,  -0.00244,-4756680.43783,   0.00000
-505670382.95962,-425748556.15456,-28940907.59709,  -0.00133,  -0.00320,  -0.00282,473485651.55944,   0.00345,278325812.71722,   0.00014,  -0.00225,  -0.00244,-4840161.15778,   0.00000
-505916729.29966,-425330340.27496,-28419569.99375,  -0.00134,  -0.00320,  -0.00281,473390870.84115,   0.00345,278325812.71722,   0.00014,  -0.00225,  -0.00244,-4934941.87607,   0.00000
-506180262.59365,-424952227.28792,-27898232.39042,  -0.00134,  -0.00319,  -0.00280,473323734.69911,   0.00345,278325812.71722,   0.00014,  -0.00225,  -0.00244,-5002078.01811,   0.00000
-506435202.41067,-424554062.85461,-27371165.80243,  -0.00134,  -0.00319,  -0.00280,473245376.01882,   0.00345,278325812.71722,   0.00014,  -0.00225,  -0.00244,-5080436.69840,   0.00000
-506687277.73536,-424187407.83687,-26844099.21444,  -0.00134,  -0.00319,  -0.00279,473179044.81037,   0.00345,278325812.71722,   0.00014,  -0.00225,  -0.00244,-5146767.90685,   0.00000
-506930759.58307,-423800701.37286,-26311303.64180,  -0.00134,  -0.00319,  -0.00278,473101545.26783,   0.00345,278325812.71722,   0.00014,  -0.00225,  -0.00244,-5224267.44939,   0.00000
-507182834.90776,-423434046.35513,-25778508.06916,  -0.00135,  -0.00319,  -0.00277,473039040.72043,   0.00345,278325812.71722,   0.00014,  -0.00225,  -0.00244,-5286771.99679,   0.00000
-507443503.70943,-423087442.78368,-25245712.49652,  -0.00135,  -0.00318,  -0.00277,472991498.18458,   0.00345,278325812.71722,   0.00014,  -0.00225,  -0.00244,-5334314.53264,   0.00000
-507684121.06481,-422732245.73525,-24707187.93922,  -0.00135,  -0.00318,  -0.00276,472929809.96281,   0.00345,278325812.71722,   0.00014,  -0.00225,  -0.00244,-5396002.75441,   0.00000
-507933331.89718,-422397100.13311,-24168663.38193,  -0.00135,  -0.00318,  -0.00275,472883057.70848,   0.00345,278325812.71722,   0.00014,  -0.00225,  -0.00244,-5442755.00874,   0.00000
-508202594.17583,-422070548.00794,-23630138.82464,  -0.00135,  -0.00318,  -0.00275,472854340.34439,   0.00345,278325812.71722,   0.00014,  -0.00225,  -0.00244,-5471472.37283,   0.00000
-508431753.56191,-421726808.92882,-23085885.28269,  -0.00135,  -0.00318,  -0.00274,472795857.33108,   0.00345,278325812.71722,   0.00014,  -0.00225,  -0.00244,-5529955.38614,   0.00000
-508698151.34823,-421431766.21924,-22535902.75610,  -0.00136,  -0.00317,  -0.00273,472779634.82760,   0.00345,278325812.71722,   0.00014,  -0.00225,  -0.00244,-5546177.88962,   0.00000
-508955955.65757,-421116672.06338,-21985920.22950,  -0.00136,  -0.00317,  -0.00273,472753339.57647,   0.00345,278325812.71722,   0.00014,  -0.00225,  -0.00244,-5572473.14075,   0.00000
-509210895.47459,-420833087.32310,-21435937.70290,  -0.00136,  -0.00317,  -0.00272,472738752.89678,   0.00345,278325812.71722,   0.00014,  -0.00225,  -0.00244,-5587059.82044,   0.00000
-509457241.81462,-420529451.13654,-20885955.17631,  -0.00136,  -0.00317,  -0.00271,472714073.83703,   0.00345,278325812.71722,   0.00014,  -0.00225,  -0.00244,-5611738.88019,   0.00000
-509720775.10862,-420265917.84255,-20330243.66506,  -0.00136,  -0.00317,  -0.00270,472715979.53250,   0.00345,278325812.71722,   0.00014,  -0.00225,  -0.00244,-5609833.18472,   0.00000
-509984308.40261,-420002384.54855,-19774532.15381,  -0.00136,  -0.00316,  -0.00270,472720285.79026,   0.00345,278325812.71722,   0.00014,  -0.00225,  -0.00244,-5605526.92696,   0.00000
-510247841.69661,-419738851.25456,-19213091.65791,  -0.00137,  -0.00316,  -0.00269,472726293.90891,   0.00345,278325812.71722,   0.00014,  -0.00225,  -0.00244,-5599518.80831,   0.00000
-510519968.46758,-419495369.40685,-18651651.16201,  -0.00137,  -0.00316,  -0.00268,472747176.26788,   0.00345,278325812.71722,   0.00014,  -0.00225,  -0.00244,-5578636.44934,   0.00000
-510780637.26925,-419263345.52844,-18084481.68145,  -0.00137,  -0.00316,  -0.00267,472766495.14669,   0.00345,278325812.71722,   0.00014,  -0.00225,  -0.00244,-5559317.57053,   0.00000
-511061357.51720,-419039915.12701,-17523041.18555,  -0.00137,  -0.00316,  -0.00267,472804636.88023,   0.00345,278325812.71722,   0.00014,  -0.00225,  -0.00244,-5521175.83699,   0.00000
-511330619.79584,-418827942.69488,-16950142.72035,  -0.00137,  -0.00316,  -0.00266,472840584.98775,   0.00345,278325812.71722,   0.00014,  -0.00225,  -0.00244,-5485227.72947,   0.00000
-511608475.55147,-418636021.70904,-16382973.23980,  -0.00137,  -0.00315,  -0.00265,472891974.43761,   0.00345,278325812.71722,   0.00014,  -0.00225,  -0.00244,-5433838.27961,   0.00000
-511886331.30709,-418444100.72319,-15810074.77459,  -0.00138,  -0.00315,  -0.00264,472945178.03433,   0.00345,278325812.71722,   0.00014,  -0.00225,  -0.00244,-5380634.68289,   0.00000
-512172780.53970,-418272231.18363,-15237176.30939,  -0.00138,  -0.00315,  -0.00264,473013191.63728,   0.00345,278325812.71722,   0.00014,  -0.00225,  -0.00244,-5312621.07994,   0.00000
-512459229.77230,-418100361.64407,-14658548.85953,  -0.00138,  -0.00315,  -0.00263,473083084.09209,   0.00345,278325812.71722,   0.00014,  -0.00225,  -0.00244,-5242728.62513,   0.00000
-512734221.03560,-417939950.07381,-14079921.40967,  -0.00138,  -0.00315,  -0.00262,473151985.21050,   0.00345,278325812.71722,   0.00014,  -0.00225,  -0.00244,-5173827.50672,   0.00000
-513037857.22216,-417808183.42682,-13501293.95981,  -0.00138,  -0.00315,  -0.00261,473251477.27409,   0.00345,278325812.71722,   0.00014,  -0.00225,  -0.00244,-5074335.44313,   0.00000
-513330035.43941,-417687874.74912,-12916937.52531,  -0.00138,  -0.00315,  -0.00261,473349444.14691,   0.00345,278325812.71722,   0.00014,  -0.00225,  -0.00244,-4976368.57032,   0.00000
-513642265.10295,-417576159.54841,-12332581.09080,  -0.00139,  -0.00315,  -0.00260,473465667.97280,   0.00345,278325812.71722,   0.00014,  -0.00225,  -0.00244,-4860144.74442,   0.00000
-513934443.32020,-417455850.87072,-11748224.65629,  -0.00139,  -0.00315,  -0.00259,473568497.13295,   0.00345,278325812.71722,   0.00014,  -0.00225,  -0.00244,-4757315.58427,   0.00000
-514243808.49141,-417375645.08559,-11158139.23713,  -0.00139,  -0.00314,  -0.00258,473697999.35792,   0.00345,278325812.71722,   0.00014,  -0.00225,  -0.00244,-4627813.35930,   0.00000
-514573225.10891,-417304032.77744,-10568053.81797,  -0.00139,  -0.00314,  -0.00258,473845786.15680,   0.00345,278325812.71722,   0.00014,  -0.00225,  -0.00244,-4480026.56042,   0.00000
-514891183.75709,-417243878.43859,-9977968.39880,  -0.00139,  -0.00314,  -0.00257,473992479.13940,   0.00345,278325812.71722,   0.00014,  -0.00225,  -0.00244,-4333333.57782,   0.00000
-515217735.88226,-417203775.54603,-9382153.99499,  -0.00139,  -0.00314,  -0.00256,474153556.87784,   0.00345,278325812.71722,   0.00014,  -0.00225,  -0.00244,-4172255.83938,   0.00000
-515544288.00743,-417163672.65346,-8786339.59118,  -0.00140,  -0.00314,  -0.00255,474317081.04216,   0.00345,278325812.71722,   0.00014,  -0.00225,  -0.00244,-4008731.67506,   0.00000
-515879433.60957,-417143621.20718,-8190525.18736,  -0.00140,  -0.00314,  -0.00255,474495342.23373,   0.00345,278325812.71722,   0.00014,  -0.00225,  -0.00244,-3830470.48350,   0.00000
-516223172.68870,-417143621.20718,-7588981.79890,  -0.00140,  -0.00314,  -0.00254,474688043.94300,   0.00345,278325812.71722,   0.00014,  -0.00225,  -0.00244,-3637768.77422,   0.00000
-516575505.24480,-417163672.65346,-6993167.39509,  -0.00140,  -0.00314,  -0.00253,474895736.55756,   0.00345,278325812.71722,   0.00014,  -0.00225,  -0.00244,-3430076.15966,   0.00000
-516927837.80090,-417183724.09974,-6385895.02197,  -0.00140,  -0.00314,  -0.00252,475105364.78589,   0.00345,278325812.71722,   0.00014,  -0.00225,  -0.00244,-3220447.93133,   0.00000
-517288763.83398,-417223826.99231,-5784351.63350,  -0.00140,  -0.00314,  -0.00251,475329954.30913,   0.00345,278325812.71722,   0.00014,  -0.00225,  -0.00244,-2995858.40809,   0.00000
-517638231.89775,-417275387.85418,-5177079.26039,  -0.00140,  -0.00314,  -0.00251,475553152.54638,   0.00345,278325812.71722,   0.00014,  -0.00225,  -0.00244,-2772660.17084,   0.00000
-518007751.40781,-417335542.19302,-4569806.88727,  -0.00141,  -0.00314,  -0.00250,475794691.97030,   0.00345,278325812.71722,   0.00014,  -0.00225,  -0.00244,-2531120.74692,   0.00000
-518394457.87182,-417435799.42443,-3962534.51415,  -0.00141,  -0.00314,  -0.00249,476063189.81176,   0.00345,278325812.71722,   0.00014,  -0.00225,  -0.00244,-2262622.90547,   0.00000
-518781164.33584,-417536056.65584,-3349533.15638,  -0.00141,  -0.00314,  -0.00248,476333991.61759,   0.00345,278325812.71722,   0.00014,  -0.00225,  -0.00244,-1991821.09963,   0.00000
-519176464.27683,-417656365.33354,-2736531.79861,  -0.00141,  -0.00314,  -0.00248,476619503.73950,   0.00345,278325812.71722,   0.00014,  -0.00225,  -0.00244,-1706308.97772,   0.00000
-519580357.69480,-417796725.45751,-2123530.44084,  -0.00141,  -0.00314,  -0.00247,476919708.11966,   0.00345,278325812.71722,   0.00014,  -0.00225,  -0.00244,-1406104.59756,   0.00000
-519984251.11277,-417937085.58149,-1504800.09842,  -0.00141,  -0.00314,  -0.00246,477222295.91808,   0.00345,278325812.71722,   0.00014,  -0.00225,  -0.00244,-1103516.79915,   0.00000
-520405331.48469,-418117548.59803,-886069.75600,  -0.00142,  -0.00314,  -0.00245,477551826.88838,   0.00345,278325812.71722,   0.00014,  -0.00225,  -0.00244,-773985.82884,   0.00000
-520806360.41034,-418289418.13759,-267339.41358,  -0.00142,  -0.00314,  -0.00244,477867897.35494,   0.00345,278325812.71722,   0.00014,  -0.00225,  -0.00244,-457915.36228,   0.00000
-521236034.25924,-418489932.60041,351390.92884,  -0.00142,  -0.00314,  -0.00243,478214559.25023,   0.00345,278325812.71722,   0.00014,  -0.00225,  -0.00244,-111253.46699,   0.00000
-521372136.80771,-418558428.65421,545314.82143,  -0.00142,  -0.00314,  -0.00243,478326512.97556,   0.00345,278325812.71722,   0.00014,  -0.00225,  -0.00244,  -4.59907,   0.00000
-521399285.61322,-418499358.29168,975244.86675,  -0.00142,  -0.00314,  -0.00243,478326786.61486,   0.00345,278326792.57183,   0.00014,  -0.00225,  -0.00244,  -5.95697,   1.00000
-521435165.59116,-418417759.77599,1598149.39633,  -0.00142,  -0.00314,  -0.00242,478328320.29940,   0.00345,278328328.32398,   0.00013,  -0.00225,  -0.00244,  -8.02458,   1.00000
-521465785.83231,-418339014.84527,2220522.74309,  -0.00142,  -0.00314,  -0.00241,478329809.00063,   0.00345,278329811.44069,   0.00013,  -0.00225,  -0.00244,  -2.44006,   1.00000
-521484013.92227,-418277754.00310,2842122.53471,  -0.00142,  -0.00314,  -0.00240,478331398.88569,   0.00345,278331400.07577,   0.00013,  -0.00225,  -0.00244,  -1.19008,   1.00000
-521499416.06000,-418214400.67752,3468798.82306,  -0.00143,  -0.00314,  -0.00239,478332998.90306,   0.00345,278332998.95252,   0.00013,  -0.00225,  -0.00244,  -0.04946,   1.00000
-521507254.39400,-418158771.77979,4094692.20878,  -0.00143,  -0.00314,  -0.00239,478334654.13156,   0.00345,278334655.63923,   0.00013,  -0.00225,  -0.00244,  -1.50767,   1.00000
-521510083.05764,-418106044.16431,4719571.74550,  -0.00143,  -0.00314,  -0.00238,478336425.69939,   0.00346,278336432.57618,   0.00013,  -0.00225,  -0.00244,  -6.87679,   1.00000
-521502862.86658,-418065892.56055,5343766.11293,  -0.00143,  -0.00314,  -0.00237,478338200.61971,   0.00346,278338204.84136,   0.00013,  -0.00225,  -0.00244,  -4.22165,   1.00000
-521490443.29796,-418028475.24833,5972527.83492,  -0.00143,  -0.00314,  -0.00236,478340095.50459,   0.00346,278340098.21499,   0.00012,  -0.00225,  -0.00244,  -2.71040,   1.00000
-521472775.51584,-417993834.14347,6600757.20477,  -0.00143,  -0.00314,  -0.00235,478341934.32510,   0.00346,278341939.27130,   0.00012,  -0.00225,  -0.00244,  -4.94621,   1.00000
-521445313.71295,-417971842.49316,7227488.84946,  -0.00144,  -0.00314,  -0.00234,478343942.74780,   0.00346,278343948.68990,   0.00012,  -0.00226,  -0.00244,  -5.94210,   1.00000
-521410366.19658,-417957561.25086,7853139.57590,  -0.00144,  -0.00314,  -0.00234,478346007.94945,   0.00347,278346016.14479,   0.00012,  -0.00226,  -0.00244,  -8.19534,   1.00000
-521372441.28570,-417940980.17852,8483637.16086,  -0.00144,  -0.00314,  -0.00233,478348087.26932,   0.00347,278348094.95587,   0.00012,  -0.00226,  -0.00244,  -7.68655,   1.00000
-521327379.81208,-417932357.40526,9107261.66721,  -0.00144,  -0.00314,  -0.00232,478350225.38774,   0.00347,278350230.73997,   0.00012,  -0.00226,  -0.00244,  -5.35223,   1.00000
-521274505.57157,-417931154.06296,9735405.18391,  -0.00144,  -0.00314,  -0.00231,478352420.64867,   0.00347,278352426.02956,   0.00011,  -0.00226,  -0.00244,  -5.38090,   1.00000
-521208955.89191,-417947062.69465,10367699.45568,  -0.00144,  -0.00315,  -0.00230,478354720.18980,   0.00347,278354729.06243,   0.00011,  -0.00226,  -0.00244,  -8.87263,   1.00000
-521141191.72386,-417961175.33445,10993297.46156,  -0.00145,  -0.00315,  -0.00229,478357040.87789,   0.00348,278357041.09785,   0.00011,  -0.00226,  -0.00244,  -0.21996,   1.00000
-521068124.93484,-417977784.40329,11622811.41769,  -0.00145,  -0.00315,  -0.00229,478359475.63533,   0.00348,278359475.77908,   0.00011,  -0.00226,  -0.00244,  -0.14376,   1.00000
-520985051.97565,-418006821.21668,12251396.24853,  -0.00145,  -0.00315,  -0.00228,478361904.43859,   0.00348,278361906.56045,   0.00011,  -0.00226,  -0.00244,  -2.12186,   1.00000
-520901952.85582,-418028908.53765,12878431.49463,  -0.00145,  -0.00315,  -0.00227,478364400.89959,   0.00348,278364410.62818,   0.00010,  -0.00226,  -0.00244,  -9.72859,   1.00000
-520806681.79818,-418068378.95305,13503578.80044,  -0.00145,  -0.00315,  -0.00226,478367018.09389,   0.00349,278367021.41356,   0.00010,  -0.00227,  -0.00244,  -3.31967,   1.00000
-520703488.17745,-418115006.95982,14132886.22349,  -0.00145,  -0.00315,  -0.00225,478369683.90658,   0.00349,278369693.06915,   0.00010,  -0.00227,  -0.00244,  -9.16257,   1.00000
-520593508.42241,-418169633.48499,14754898.16374,  -0.00146,  -0.00316,  -0.00224,478372415.41327,   0.00349,278372421.65375,   0.00010,  -0.00227,  -0.00244,  -6.24048,   1.00000
-520478233.13114,-418226563.67559,15380376.33215,  -0.00146,  -0.00316,  -0.00224,478375265.60764,   0.00349,278375273.99322,   0.00009,  -0.00227,  -0.00244,  -8.38558,   1.00000
-520357818.09540,-418286092.41065,16005264.66219,  -0.00146,  -0.00316,  -0.00223,478378073.34935,   0.00350,278378074.75614,   0.00009,  -0.00227,  -0.00244,  -1.40679,   1.00000
-520227926.34775,-418358069.48325,16627289.88176,  -0.00146,  -0.00316,  -0.00222,478381039.55126,   0.00350,278381045.60749,   0.00009,  -0.00227,  -0.00243,  -6.05623,   1.00000
-520094894.65235,-418427306.31668,17253741.15454,  -0.00146,  -0.00316,  -0.00221,478384028.85957,   0.00350,278384030.04468,   0.00009,  -0.00227,  -0.00243,  -1.18511,   1.00000
-519949769.62307,-418513718.97646,17877824.81561,  -0.00147,  -0.00316,  -0.00220,478387117.29843,   0.00351,278387122.34865,   0.00008,  -0.00227,  -0.00243,  -5.05022,   1.00000
-519798116.03619,-418608115.39805,18494335.51646,  -0.00147,  -0.00317,  -0.00219,478390266.73742,   0.00351,278390271.70758,   0.00008,  -0.00228,  -0.00243,  -4.97016,   1.00000
-519643313.00760,-418699663.21800,19115197.47003,  -0.00147,  -0.00317,  -0.00218,478393428.99497,   0.00351,278393435.11595,   0.00008,  -0.00228,  -0.00243,  -6.12097,   1.00000
-519478433.26249,-418802933.03480,19738418.57575,  -0.00147,  -0.00317,  -0.00218,478396763.52204,   0.00351,278396772.21932,   0.00008,  -0.00228,  -0.00243,  -8.69728,   1.00000
-519311929.94528,-418904464.51252,20354529.74518,  -0.00147,  -0.00317,  -0.00217,478400110.45856,   0.00352,278400118.20737,   0.00007,  -0.00228,  -0.00243,  -7.74881,   1.00000
-519133497.23463,-419023056.30555,20967950.69192,  -0.00147,  -0.00318,  -0.00216,478403563.83864,   0.00352,278403572.66993,   0.00007,  -0.00228,  -0.00243,  -8.83129,   1.00000
-518951893.00534,-419138637.99921,21585588.84278,  -0.00148,  -0.00318,  -0.00215,478407032.17381,   0.00352,278407041.95620,   0.00007,  -0.00228,  -0.00243,  -9.78238,   1.00000
-518758383.94265,-419271187.89625,22200402.98753,  -0.00148,  -0.00318,  -0.00214,478410618.32110,   0.00353,278410620.16578,   0.00006,  -0.00228,  -0.00243,  -1.84468,   1.00000
-518560541.75652,-419406185.99672,22812114.61734,  -0.00148,  -0.00318,  -0.00213,478414321.49611,   0.00353,278414321.69866,   0.00006,  -0.00229,  -0.00243,  -0.20255,   1.00000
-518357632.05005,-419543523.19787,23423184.02349,  -0.00148,  -0.00319,  -0.00212,478417967.87373,   0.00353,278417972.66445,   0.00006,  -0.00229,  -0.00243,  -4.79071,   1.00000
-518145705.11565,-419692938.95125,24030313.08353,  -0.00148,  -0.00319,  -0.00212,478421789.62821,   0.00354,278421795.76047,   0.00006,  -0.00229,  -0.00243,  -6.13226,   1.00000
-517928649.14233,-419843996.75838,24639792.47712,  -0.00149,  -0.00319,  -0.00211,478425742.66527,   0.00354,278425746.03004,   0.00005,  -0.00229,  -0.00243,  -3.36477,   1.00000
-517706535.69729,-419997311.90331,25248600.49716,  -0.00149,  -0.00319,  -0.00210,478429640.84937,   0.00355,278429646.10331,   0.00005,  -0.00229,  -0.00243,  -5.25394,   1.00000
-517476531.68703,-420163354.67450,25847531.84288,  -0.00149,  -0.00320,  -0.00209,478433709.77213,   0.00355,278433715.30879,   0.00005,  -0.00229,  -0.00243,  -5.53666,   1.00000
-517238619.03866,-420335679.93937,26449633.00929,  -0.00149,  -0.00320,  -0.00208,478437849.13986,   0.00355,278437849.58848,   0.00004,  -0.00230,  -0.00242,  -0.44863,   1.00000
-516993794.97787,-420515005.17044,27049194.01495,  -0.00149,  -0.00320,  -0.00207,478442036.13551,   0.00356,278442045.54587,   0.00004,  -0.00230,  -0.00242,  -9.41036,   1.00000
-516745813.00835,-420690894.87433,27652666.84051,  -0.00150,  -0.00321,  -0.00206,478446251.67824,   0.00356,278446258.24755,   0.00004,  -0.00230,  -0.00242,  -6.56931,   1.00000
-516490213.19945,-420879393.78822,28245919.45492,  -0.00150,  -0.00321,  -0.00205,478450637.49041,   0.00357,278450640.67616,   0.00003,  -0.00230,  -0.00242,  -3.18576,   1.00000
-516227833.50374,-421074815.98976,28836502.48159,  -0.00150,  -0.00321,  -0.00205,478455085.00747,   0.00357,278455085.10496,   0.00003,  -0.00230,  -0.00242,  -0.09748,   1.00000
-515957557.91594,-421276223.30915,29430015.51692,  -0.00150,  -0.00322,  -0.00204,478459594.89756,   0.00357,278459595.94561,   0.00002,  -0.00231,  -0.00242,  -1.04805,   1.00000
-515680523.53083,-421484440.82285,30020766.01960,  -0.00150,  -0.00322,  -0.00203,478464166.13824,   0.00358,278464169.28535,   0.00002,  -0.00231,  -0.00242,  -3.14710,   1.00000
-515399784.44496,-421694664.26509,30607529.10709,  -0.00151,  -0.00322,  -0.00202,478468861.18729,   0.00358,278468868.01956,   0.00002,  -0.00231,  -0.00242,  -6.83227,   1.00000
-515112385.30241,-421911645.80876,31191441.13221,  -0.00151,  -0.00323,  -0.00201,478473625.29328,   0.00359,278473629.47969,   0.00001,  -0.00231,  -0.00242,  -4.18641,   1.00000
-514818348.97977,-422135335.09491,31772466.43147,  -0.00151,  -0.00323,  -0.00200,478478449.03588,   0.00359,278478453.85216,   0.00001,  -0.00231,  -0.00242,  -4.81628,   1.00000
-514516039.96874,-422370407.85953,32348327.92138,  -0.00151,  -0.00323,  -0.00199,478483448.12187,   0.00360,278483453.47656,   0.00000,  -0.00232,  -0.00241,  -5.35469,   1.00000
-514208846.06418,-422607376.64830,32923484.03458,  -0.00151,  -0.00324,  -0.00198,478488399.11393,   0.00360,278488404.04256,   0.00000,  -0.00232,  -0.00241,  -4.92863,   1.00000
-513896966.13283,-422845141.08926,33499966.65719,  -0.00152,  -0.00324,  -0.00198,478493483.01899,   0.00361,278493485.57998,  -0.00000,  -0.00232,  -0.00241,  -2.56099,   1.00000
-513576975.01219,-423094100.44991,34071026.46174,  -0.00152,  -0.00325,  -0.00197,478498739.15831,   0.00361,278498743.23098,  -0.00001,  -0.00232,  -0.00241,  -4.07267,   1.00000
-513253452.11124,-423345914.12466,34635756.40884,  -0.00152,  -0.00325,  -0.00196,478503943.67708,   0.00362,278503947.20577,  -0.00001,  -0.00233,  -0.00241,  -3.52870,   1.00000
-512920618.80246,-423607749.84490,35200543.96353,  -0.00152,  -0.00326,  -0.00195,478509323.44875,   0.00362,278509332.67192,  -0.00002,  -0.00233,  -0.00241,  -9.22317,   1.00000
-512586184.27419,-423866563.19624,35763240.10870,  -0.00153,  -0.00326,  -0.00194,478514726.48562,   0.00363,278514732.39980,  -0.00002,  -0.00233,  -0.00241,  -5.91418,   1.00000
-512243920.53546,-424136349.26987,36320214.86116,  -0.00153,  -0.00326,  -0.00193,478520307.33146,   0.00363,278520309.09207,  -0.00002,  -0.00233,  -0.00240,  -1.76061,   1.00000
-511892087.12597,-424417166.92545,36875342.08613,  -0.00153,  -0.00327,  -0.00192,478525886.04542,   0.00364,278525887.51686,  -0.00003,  -0.00234,  -0.00240,  -1.47144,   1.00000
-511535875.21962,-424698280.39935,37431330.96178,  -0.00153,  -0.00327,  -0.00191,478531595.67079,   0.00364,278531598.82362,  -0.00003,  -0.00234,  -0.00240,  -3.15283,   1.00000
-511178244.81294,-424981957.26326,37976927.35673,  -0.00154,  -0.00328,  -0.00190,478537430.10628,   0.00365,278537432.27957,  -0.00004,  -0.00234,  -0.00240,  -2.17329,   1.00000
-510811100.48291,-425276535.26889,38520632.36222,  -0.00154,  -0.00328,  -0.00190,478543262.60994,   0.00366,278543267.91871,  -0.00004,  -0.00234,  -0.00240,  -5.30878,   1.00000
-510439754.76195,-425571235.25303,39065026.71099,  -0.00154,  -0.00329,  -0.00189,478549236.22938,   0.00366,278549237.07603,  -0.00005,  -0.00235,  -0.00239,  -0.84664,   1.00000
-510062307.99908,-425871939.85642,39605966.56282,  -0.00154,  -0.00329,  -0.00188,478555263.68992,   0.00367,278555271.72322,  -0.00005,  -0.00235,  -0.00239,  -8.03330,   1.00000
-509683824.52223,-426175100.59071,40136324.26721,  -0.00155,  -0.00330,  -0.00187,478561423.15792,   0.00367,278561428.73097,  -0.00006,  -0.00235,  -0.00239,  -5.57304,   1.00000
-509297837.51939,-426482967.96337,40668748.06084,  -0.00155,  -0.00330,  -0.00186,478567651.59033,   0.00368,278567657.20953,  -0.00006,  -0.00235,  -0.00239,  -5.61920,   1.00000
-508901161.75050,-426805919.55866,41196349.80759,  -0.00155,  -0.00331,  -0.00185,478574001.39198,   0.00368,278574002.22293,  -0.00007,  -0.00236,  -0.00239,  -0.83095,   1.00000
-508503331.84314,-427125438.86362,41721653.63379,  -0.00155,  -0.00331,  -0.00184,478580358.33987,   0.00369,278580362.62298,  -0.00007,  -0.00236,  -0.00238,  -4.28312,   1.00000
-508098484.15552,-427455141.10798,42240437.35272,  -0.00156,  -0.00332,  -0.00183,478586900.84725,   0.00370,278586902.71453,  -0.00008,  -0.00236,  -0.00238,  -1.86728,   1.00000
-507692597.93680,-427781371.18097,42756896.22491,  -0.00156,  -0.00332,  -0.00182,478593456.25470,   0.00370,278593458.25760,  -0.00008,  -0.00237,  -0.00238,  -2.00290,   1.00000
-507278217.78610,-428116311.95131,43272243.17477,  -0.00156,  -0.00333,  -0.00182,478600196.56843,   0.00371,278600200.32854,  -0.00009,  -0.00237,  -0.00238,  -3.76010,   1.00000
-506859798.23715,-428458168.35099,43778316.96394,  -0.00156,  -0.00333,  -0.00181,478606998.94677,   0.00372,278607002.78586,  -0.00009,  -0.00237,  -0.00238,  -3.83909,   1.00000
-506434063.53218,-428804170.47725,44286189.29926,  -0.00157,  -0.00334,  -0.00180,478613872.02839,   0.00372,278613878.61201,  -0.00010,  -0.00238,  -0.00237,  -6.58362,   1.00000
-506004403.46028,-429156999.14709,44784749.28981,  -0.00157,  -0.00334,  -0.00179,478620806.27649,   0.00373,278620815.00618,  -0.00010,  -0.00238,  -0.00237,  -8.72969,   1.00000
-505571267.41676,-429509080.28713,45283338.68587,  -0.00157,  -0.00335,  -0.00178,478627881.22541,   0.00374,278627887.80469,  -0.00011,  -0.00238,  -0.00237,  -6.57928,   1.00000
-505134353.89996,-429867930.56223,45772570.87058,  -0.00157,  -0.00336,  -0.00177,478635016.04169,   0.00374,278635021.26203,  -0.00011,  -0.00239,  -0.00237,  -5.22035,   1.00000
-504690253.13550,-430230644.91255,46263487.33192,  -0.00158,  -0.00336,  -0.00176,478642222.46330,   0.00375,278642228.98150,  -0.00012,  -0.00239,  -0.00236,  -6.51820,   1.00000
-504239870.69002,-430602801.53989,46747296.85192,  -0.00158,  -0.00337,  -0.00175,478649609.01388,   0.00376,278649618.67308,  -0.00013,  -0.00239,  -0.00236,  -9.65920,   1.00000
-503788901.80754,-430971142.70935,47228664.15856,  -0.00158,  -0.00337,  -0.00174,478657022.18914,   0.00377,278657024.49685,  -0.00013,  -0.00240,  -0.00236,  -2.30771,   1.00000
-503336575.34697,-431339866.26723,47704304.98746,  -0.00159,  -0.00338,  -0.00173,478664558.28575,   0.00377,278664560.84543,  -0.00014,  -0.00240,  -0.00235,  -2.55969,   1.00000
-502874275.71258,-431722580.61830,48174482.54447,  -0.00159,  -0.00339,  -0.00173,478672211.49474,   0.00378,278672217.22376,  -0.00014,  -0.00240,  -0.00235,  -5.72902,   1.00000
-502406796.90190,-432110252.30362,48640676.77492,  -0.00159,  -0.00339,  -0.00172,478679933.00551,   0.00379,278679941.91631,  -0.00015,  -0.00241,  -0.00235,  -8.91080,   1.00000
-501938930.76850,-432493978.38925,49104412.37429,  -0.00159,  -0.00340,  -0.00171,478687681.51201,   0.00379,278687682.90372,  -0.00015,  -0.00241,  -0.00235,  -1.39171,   1.00000
-501465308.11240,-432886681.86397,49560722.34298,  -0.00160,  -0.00341,  -0.00170,478695599.38887,   0.00380,278695607.12643,  -0.00016,  -0.00241,  -0.00234,  -7.73757,   1.00000
-500984803.92226,-433282614.77763,50018473.36587,  -0.00160,  -0.00341,  -0.00169,478703598.54071,   0.00381,278703607.49452,  -0.00017,  -0.00242,  -0.00234,  -8.95381,   1.00000
-500505364.80999,-433680112.16704,50464772.97794,  -0.00160,  -0.00342,  -0.00168,478711726.48781,   0.00382,278711731.71077,  -0.00017,  -0.00242,  -0.00234,  -5.22296,   1.00000
-500016814.68643,-434087034.78490,50908898.42985,  -0.00161,  -0.00343,  -0.00167,478719855.57914,   0.00383,278719862.50700,  -0.00018,  -0.00243,  -0.00233,  -6.92786,   1.00000
-499529961.33503,-434487477.72304,51350573.74827,  -0.00161,  -0.00343,  -0.00166,478728192.08272,   0.00383,278728194.70782,  -0.00018,  -0.00243,  -0.00233,  -2.62510,   1.00000
-499035950.30506,-434898859.34572,51784574.80922,  -0.00161,  -0.00344,  -0.00165,478736523.11205,   0.00384,278736526.19490,  -0.00019,  -0.00243,  -0.00233,  -3.08285,   1.00000
-498539546.20157,-435308354.04469,52217972.83662,  -0.00162,  -0.00345,  -0.00164,478744987.44767,   0.00385,278744997.11626,  -0.00020,  -0.00244,  -0.00232,  -9.66860,   1.00000
-498033713.22286,-435730943.67657,52645538.56866,  -0.00162,  -0.00345,  -0.00164,478753582.89211,   0.00386,278753590.53000,  -0.00020,  -0.00244,  -0.00232,  -7.63789,   1.00000
-497534314.83564,-436146161.91226,53063176.92911,  -0.00162,  -0.00346,  -0.00163,478762247.25012,   0.00387,278762254.94074,  -0.00021,  -0.00245,  -0.00232,  -7.69062,   1.00000
-497023643.62595,-436572644.63288,53480406.82671,  -0.00163,  -0.00347,  -0.00162,478771042.94763,   0.00388,278771050.03584,  -0.00022,  -0.00245,  -0.00231,  -7.08821,   1.00000
-496513170.85593,-436994762.43797,53895136.09448,  -0.00163,  -0.00347,  -0.00161,478779858.77650,   0.00388,278779861.87686,  -0.00022,  -0.00245,  -0.00231,  -3.10035,   1.00000
-495993467.47062,-437429616.50178,54303922.18168,  -0.00163,  -0.00348,  -0.00160,478788789.33858,   0.00389,278788797.12856,  -0.00023,  -0.00246,  -0.00230,  -7.78998,   1.00000
-495478601.59849,-437855301.61071,54708196.56780,  -0.00164,  -0.00349,  -0.00159,478797804.46567,   0.00390,278797811.23737,  -0.00023,  -0.00246,  -0.00230,  -6.77171,   1.00000
-494959230.00183,-438288861.83924,55104448.61497,  -0.00164,  -0.00350,  -0.00158,478807005.97787,   0.00391,278807011.05867,  -0.00024,  -0.00247,  -0.00230,  -5.08080,   1.00000
-494430949.70522,-438731140.02152,55498494.44235,  -0.00164,  -0.00350,  -0.00157,478816219.10812,   0.00392,278816219.14199,  -0.00025,  -0.00247,  -0.00229,  -0.03387,   1.00000
-493907769.65789,-439164150.93112,55888007.98018,  -0.00165,  -0.00351,  -0.00156,478825498.90265,   0.00393,278825506.00534,  -0.00025,  -0.00248,  -0.00229,  -7.10269,   1.00000
-493380380.69180,-439604796.54016,56269398.38249,  -0.00165,  -0.00352,  -0.00155,478834972.51637,   0.00394,278834978.99599,  -0.00026,  -0.00248,  -0.00228,  -6.47962,   1.00000
-492844132.68410,-440053987.10478,56648596.06350,  -0.00165,  -0.00353,  -0.00154,478844458.44869,   0.00395,278844460.59243,  -0.00027,  -0.00249,  -0.00228,  -2.14374,   1.00000
-492308553.68814,-440502169.50709,57021423.88441,  -0.00166,  -0.00354,  -0.00154,478854065.19508,   0.00396,278854074.82102,  -0.00027,  -0.00249,  -0.00228,  -9.62594,   1.00000
-491773787.74968,-440949342.67152,57387872.62018,  -0.00166,  -0.00354,  -0.00153,478863818.26195,   0.00396,278863821.49491,  -0.00028,  -0.00250,  -0.00227,  -3.23295,   1.00000
-491232958.07252,-441398318.01004,57755437.67668,  -0.00166,  -0.00355,  -0.00152,478873641.51531,   0.00397,278873647.66972,  -0.00029,  -0.00250,  -0.00227,  -6.15441,   1.00000
-490690327.63756,-441852732.69305,58113279.38924,  -0.00167,  -0.00356,  -0.00151,478883527.15121,   0.00398,278883536.06886,  -0.00029,  -0.00251,  -0.00226,  -8.91765,   1.00000
-490143841.66851,-442310668.47868,58466828.57219,  -0.00167,  -0.00357,  -0.00150,478893487.99747,   0.00399,278893495.36731,  -0.00030,  -0.00251,  -0.00226,  -7.36984,   1.00000
-489596393.08731,-442765456.72023,58819332.36821,  -0.00167,  -0.00358,  -0.00149,478903590.27222,   0.00400,278903596.26678,  -0.00031,  -0.00252,  -0.00225,  -5.99456,   1.00000
-489047339.58249,-443225556.09012,59162118.09334,  -0.00168,  -0.00358,  -0.00148,478913753.75441,   0.00401,278913759.38495,  -0.00032,  -0.00252,  -0.00225,  -5.63054,   1.00000
-488492440.26678,-443687086.51443,59505989.26136,  -0.00168,  -0.00359,  -0.00147,478923997.73355,   0.00402,278924002.65811,  -0.00032,  -0.00253,  -0.00224,  -4.92455,   1.00000
-487936454.89618,-444157220.60241,59836043.68983,  -0.00168,  -0.00360,  -0.00146,478934418.64830,   0.00403,278934424.58671,  -0.00033,  -0.00253,  -0.00224,  -5.93841,   1.00000
-487379436.74325,-444620493.94857,60169123.58103,  -0.00169,  -0.00361,  -0.00145,478944864.66775,   0.00404,278944871.92539,  -0.00034,  -0.00254,  -0.00224,  -7.25764,   1.00000
-486824076.35923,-445082247.88367,60495687.86568,  -0.00169,  -0.00362,  -0.00144,478955445.97109,   0.00405,278955452.10318,  -0.00034,  -0.00254,  -0.00223,  -6.13209,   1.00000
-486262211.27783,-445553805.49641,60814751.03772,  -0.00169,  -0.00363,  -0.00143,478966026.80831,   0.00406,278966033.04195,  -0.00035,  -0.00255,  -0.00223,  -6.23363,   1.00000
-485705253.77255,-446017041.87616,61130483.16455,  -0.00170,  -0.00364,  -0.00143,478976807.98831,   0.00407,278976817.30426,  -0.00036,  -0.00255,  -0.00222,  -9.31595,   1.00000
-485139649.15376,-446488022.04699,61444108.50721,  -0.00170,  -0.00365,  -0.00142,478987605.32603,   0.00408,278987611.69592,  -0.00037,  -0.00256,  -0.00222,  -6.36988,   1.00000
-484571393.01147,-446965179.68633,61749184.59050,  -0.00171,  -0.00365,  -0.00141,478998593.33996,   0.00410,278998594.39358,  -0.00037,  -0.00257,  -0.00221,  -1.05362,   1.00000
-484004577.59969,-447437251.44004,62051968.38782,  -0.00171,  -0.00366,  -0.00140,479009590.26984,   0.00411,279009593.17116,  -0.00038,  -0.00257,  -0.00220,  -2.90132,   1.00000
-483434560.89712,-447912166.18819,62350442.78223,  -0.00171,  -0.00367,  -0.00139,479020662.44886,   0.00412,279020663.57637,  -0.00039,  -0.00258,  -0.00220,  -1.12751,   1.00000
-482869086.39386,-448387209.49009,62637025.22400,  -0.00172,  -0.00368,  -0.00138,479031849.48259,   0.00413,279031857.13211,  -0.00039,  -0.00258,  -0.00219,  -7.64952,   1.00000
-482298299.34307,-448862966.64064,62924698.78051,  -0.00172,  -0.00369,  -0.00137,479043129.65707,   0.00414,279043131.63320,  -0.00040,  -0.00259,  -0.00219,  -1.97613,   1.00000
-481730018.59745,-449336722.53916,63205830.64129,  -0.00173,  -0.00370,  -0.00136,479054531.77691,   0.00415,279054538.75675,  -0.00041,  -0.00259,  -0.00218,  -6.97983,   1.00000
-481150918.00467,-449815732.20296,63490283.08514,  -0.00173,  -0.00371,  -0.00135,479065960.47968,   0.00416,279065966.31893,  -0.00042,  -0.00260,  -0.00218,  -5.83925,   1.00000
-480576765.71188,-450294695.52325,63762818.53265,  -0.00173,  -0.00372,  -0.00134,479077512.77676,   0.00417,279077516.95309,  -0.00042,  -0.00261,  -0.00217,  -4.17632,   1.00000
-480005413.28858,-450771514.62629,64028821.40508,  -0.00174,  -0.00373,  -0.00133,479089196.20409,   0.00418,279089200.00114,  -0.00043,  -0.00261,  -0.00217,  -3.79705,   1.00000
-479425518.10686,-451255488.76140,64292854.63105,  -0.00174,  -0.00374,  -0.00132,479100887.62301,   0.00419,279100893.91634,  -0.00044,  -0.00262,  -0.00216,  -6.29333,   1.00000
-478848600.25013,-451737186.92328,64550356.58677,  -0.00175,  -0.00375,  -0.00132,479112715.31672,   0.00421,279112720.24075,  -0.00045,  -0.00263,  -0.00215,  -4.92403,   1.00000
-478274767.87313,-452216595.65357,64801342.09056,  -0.00175,  -0.00376,  -0.00131,479124678.41286,   0.00422,279124678.75172,  -0.00045,  -0.00263,  -0.00215,  -0.33886,   1.00000
-477690127.93463,-452700841.19583,65055724.26222,  -0.00175,  -0.00377,  -0.00130,479136649.58602,   0.00423,279136658.35514,  -0.00046,  -0.00264,  -0.00214,  -8.76913,   1.00000
-477111043.83338,-453184816.91214,65298240.14962,  -0.00176,  -0.00378,  -0.00129,479148751.30902,   0.00424,279148760.31064,  -0.00047,  -0.00265,  -0.00214,  -9.00163,   1.00000
-476534034.61924,-453663507.84048,65538732.82946,  -0.00176,  -0.00379,  -0.00128,479160869.90546,   0.00425,279160876.97042,  -0.00048,  -0.00265,  -0.00213,  -7.06496,   1.00000
-475953509.24888,-454145076.54746,65775861.07332,  -0.00177,  -0.00380,  -0.00127,479173186.15253,   0.00426,279173192.66593,  -0.00049,  -0.00266,  -0.00212,  -6.51340,   1.00000
-475366811.63773,-454635579.73310,66005792.58366,  -0.00177,  -0.00381,  -0.00126,479185500.54740,   0.00428,279185509.65567,  -0.00049,  -0.00267,  -0.00212,  -9.10827,   1.00000
-474786064.25641,-455113862.42201,66236747.83016,  -0.00177,  -0.00382,  -0.00125,479197908.32415,   0.00429,279197911.60827,  -0.00050,  -0.00267,  -0.00211,  -3.28412,   1.00000
-474211329.96727,-455591796.34939,66455899.13648,  -0.00178,  -0.00383,  -0.00124,479210432.16032,   0.00430,279210435.16271,  -0.00051,  -0.00268,  -0.00211,  -3.00238,   1.00000
-473621179.25060,-456081543.92749,66676334.23291,  -0.00178,  -0.00384,  -0.00123,479223035.87876,   0.00431,279223037.64286,  -0.00052,  -0.00269,  -0.00210,  -1.76410,   1.00000
-473039543.57575,-456561207.38874,66892511.41363,  -0.00179,  -0.00385,  -0.00122,479235709.19822,   0.00433,279235714.56784,  -0.00052,  -0.00269,  -0.00209,  -5.36962,   1.00000
-472457989.59896,-457045037.84724,67099261.34359,  -0.00179,  -0.00386,  -0.00121,479248444.37698,   0.00434,279248452.71882,  -0.00053,  -0.00270,  -0.00209,  -8.34184,   1.00000
-471878171.17767,-457523884.32682,67304886.15587,  -0.00180,  -0.00387,  -0.00121,479261330.02633,   0.00435,279261332.50629,  -0.00054,  -0.00271,  -0.00208,  -2.47996,   1.00000
-471294512.65768,-458001983.14559,67511009.97342,  -0.00180,  -0.00388,  -0.00120,479274161.81824,   0.00436,279274166.26361,  -0.00055,  -0.00271,  -0.00207,  -4.44537,   1.00000
-470710456.06496,-458484482.15852,67708421.60616,  -0.00180,  -0.00389,  -0.00119,479287184.47575,   0.00438,279287189.23552,  -0.00056,  -0.00272,  -0.00207,  -4.75977,   1.00000
-470124346.67845,-458968704.94644,67901764.44664,  -0.00181,  -0.00390,  -0.00118,479300281.39586,   0.00439,279300283.69991,  -0.00056,  -0.00273,  -0.00206,  -2.30405,   1.00000
-469549584.26576,-459445148.42343,68085711.56297,  -0.00181,  -0.00391,  -0.00117,479313436.50679,   0.00440,279313440.67603,  -0.00057,  -0.00274,  -0.00205,  -4.16924,   1.00000
-468964021.19548,-459925640.87803,68273296.86014,  -0.00182,  -0.00392,  -0.00116,479326610.47379,   0.00441,279326619.74465,  -0.00058,  -0.00274,  -0.00205,  -9.27086,   1.00000
-468383018.95760,-460403170.83266,68454497.90959,  -0.00182,  -0.00393,  -0.00115,479339921.05865,   0.00443,279339929.74125,  -0.00059,  -0.00275,  -0.00204,  -8.68261,   1.00000
-467800122.43031,-460882319.40890,68631698.36297,  -0.00183,  -0.00394,  -0.00114,479353305.51134,   0.00444,279353311.00638,  -0.00060,  -0.00276,  -0.00203,  -5.49504,   1.00000
-467219605.99186,-461356120.20212,68807825.88328,  -0.00183,  -0.00396,  -0.00113,479366828.09381,   0.00445,279366833.57313,  -0.00060,  -0.00277,  -0.00203,  -5.47932,   1.00000
-466633017.41714,-461838366.20237,68977047.58429,  -0.00183,  -0.00397,  -0.00112,479380348.30458,   0.00447,279380357.52764,  -0.00061,  -0.00277,  -0.00202,  -9.22306,   1.00000
-466055902.83033,-462310541.08816,69142291.13505,  -0.00184,  -0.00398,  -0.00111,479393944.07900,   0.00448,279393953.36505,  -0.00062,  -0.00278,  -0.00201,  -9.28605,   1.00000
-465472477.76244,-462791126.42414,69301263.23209,  -0.00184,  -0.00399,  -0.00110,479407673.28528,   0.00449,279407678.85242,  -0.00063,  -0.00279,  -0.00200,  -5.56714,   1.00000
-464898682.68205,-463261637.53927,69456320.85545,  -0.00185,  -0.00400,  -0.00109,479421470.59374,   0.00451,279421475.66991,  -0.00064,  -0.00280,  -0.00200,  -5.07617,   1.00000
