# sigma_xx, sigma_yy, sigma_xy, epsilon_xx, epsilon_yy, epsilon_xy, vonMises, epsPlastic, hardening, epsilonP__xx, epsilonP__yy, epsilonP__xy, yieldValue, iteration
   0.00000,   0.00000,   0.00000,   0.00000,   0.00000,   0.00000,1181185.37500,   0.00000,274640576.00000,   0.00000,   0.00000,   0.00000,-473459392.00000,   0.00000
   0.00000,   0.00000,   0.00000,   0.00000,   0.00000,   0.00000,1181185.37500,   0.00000,274640576.00000,   0.00000,   0.00000,   0.00000,-473459392.00000,   0.00000
-2226361.94284,-2944682.80292,-359160.43004,  -0.00000,  -0.00001,  -0.00000,2354540.25000,   0.00000,274640576.00000,   0.00000,   0.00000,   0.00000,-472286048.00000,   0.00000
-4452723.88568,-5889365.60585,-713993.62598,  -0.00001,  -0.00002,  -0.00001,4939294.50000,   0.00000,274640576.00000,   0.00000,   0.00000,   0.00000,-469701280.00000,   0.00000
-6657449.65804,-8812412.23828,-1068826.82193,  -0.00001,  -0.00003,  -0.00001,7392023.00000,   0.00000,274640576.00000,   0.00000,   0.00000,   0.00000,-467248560.00000,   0.00000
-8862175.43040,-11735458.87072,-1419332.78377,  -0.00002,  -0.00004,  -0.00002,10111197.00000,   0.00000,274640576.00000,   0.00000,   0.00000,   0.00000,-464529376.00000,   0.00000
-11045265.03227,-14636869.33268,-1765511.51152,  -0.00002,  -0.00005,  -0.00002,12885336.00000,   0.00000,274640576.00000,   0.00000,   0.00000,   0.00000,-461755232.00000,   0.00000
-13228354.63414,-17538279.79463,-2107363.00518,  -0.00003,  -0.00005,  -0.00003,15659721.00000,   0.00000,274640576.00000,   0.00000,   0.00000,   0.00000,-458980848.00000,   0.00000
-15411444.23602,-20439690.25658,-2449214.49883,  -0.00003,  -0.00006,  -0.00003,18425544.00000,   0.00000,274640576.00000,   0.00000,   0.00000,   0.00000,-456215040.00000,   0.00000
-17572897.66740,-23319464.54805,-2782411.52429,  -0.00003,  -0.00007,  -0.00004,21155840.00000,   0.00000,274640576.00000,   0.00000,   0.00000,   0.00000,-453484736.00000,   0.00000
-19719205.77945,-26192747.98838,-3115608.54975,  -0.00004,  -0.00008,  -0.00004,23863056.00000,   0.00000,274640576.00000,   0.00000,   0.00000,   0.00000,-450777520.00000,   0.00000
-21859023.04036,-29050886.10936,-3448805.57521,  -0.00004,  -0.00009,  -0.00004,26541564.00000,   0.00000,274640576.00000,   0.00000,   0.00000,   0.00000,-448099008.00000,   0.00000
-23998840.30126,-31909024.23035,-3773348.13247,  -0.00005,  -0.00010,  -0.00005,29200216.00000,   0.00000,274640576.00000,   0.00000,   0.00000,   0.00000,-445440352.00000,   0.00000
-26123512.24283,-34760671.50019,-4097890.68974,  -0.00005,  -0.00011,  -0.00005,31836158.00000,   0.00000,274640576.00000,   0.00000,   0.00000,   0.00000,-442804416.00000,   0.00000
-28226548.01391,-37590682.59954,-4418106.01291,  -0.00006,  -0.00012,  -0.00006,34440160.00000,   0.00000,274640576.00000,   0.00000,   0.00000,   0.00000,-440200416.00000,   0.00000
-30344729.10433,-40427184.55004,-4733994.10198,  -0.00006,  -0.00012,  -0.00006,37045932.00000,   0.00000,274640576.00000,   0.00000,   0.00000,   0.00000,-437594640.00000,   0.00000
-32426128.70492,-43235559.47891,-5045554.95695,  -0.00006,  -0.00013,  -0.00007,39620288.00000,   0.00000,274640576.00000,   0.00000,   0.00000,   0.00000,-435020288.00000,   0.00000
-34507528.30552,-46043934.40779,-5357115.81193,  -0.00007,  -0.00014,  -0.00007,42196608.00000,   0.00000,274640576.00000,   0.00000,   0.00000,   0.00000,-432443968.00000,   0.00000
-36588927.90612,-48852309.33666,-5660022.19871,  -0.00007,  -0.00015,  -0.00007,44773208.00000,   0.00000,274640576.00000,   0.00000,   0.00000,   0.00000,-429867360.00000,   0.00000
-38648691.33623,-51639048.09504,-5962928.58549,  -0.00008,  -0.00016,  -0.00008,47332876.00000,   0.00000,274640576.00000,   0.00000,   0.00000,   0.00000,-427307696.00000,   0.00000
-40701963.91519,-54410641.53409,-6261507.73818,  -0.00008,  -0.00017,  -0.00008,49881880.00000,   0.00000,274640576.00000,   0.00000,   0.00000,   0.00000,-424758688.00000,   0.00000
-42746582.02597,-57190889.44133,-6560086.89086,  -0.00008,  -0.00018,  -0.00009,52436400.00000,   0.00000,274640576.00000,   0.00000,   0.00000,   0.00000,-422204176.00000,   0.00000
-44784709.28560,-59955992.02923,-6850011.57535,  -0.00009,  -0.00019,  -0.00009,54976428.00000,   0.00000,274640576.00000,   0.00000,   0.00000,   0.00000,-419664144.00000,   0.00000
-46801200.37474,-62699458.44665,-7139936.25984,  -0.00009,  -0.00019,  -0.00009,57495708.00000,   0.00000,274640576.00000,   0.00000,   0.00000,   0.00000,-417144864.00000,   0.00000
-48817691.46388,-65442924.86407,-7425533.71024,  -0.00009,  -0.00020,  -0.00010,60012596.00000,   0.00000,274640576.00000,   0.00000,   0.00000,   0.00000,-414627984.00000,   0.00000
-50819037.23369,-68179900.43034,-7706803.92653,  -0.00010,  -0.00021,  -0.00010,62518184.00000,   0.00000,274640576.00000,   0.00000,   0.00000,   0.00000,-412122400.00000,   0.00000
-52813892.15234,-70901730.67728,-7983746.90873,  -0.00010,  -0.00022,  -0.00010,65008940.00000,   0.00000,274640576.00000,   0.00000,   0.00000,   0.00000,-409631632.00000,   0.00000
-54793601.75166,-73617070.07307,-8260689.89093,  -0.00011,  -0.00023,  -0.00011,67490032.00000,   0.00000,274640576.00000,   0.00000,   0.00000,   0.00000,-407150544.00000,   0.00000
-56751675.18050,-76310773.29837,-8528978.40494,  -0.00011,  -0.00024,  -0.00011,69946360.00000,   0.00000,274640576.00000,   0.00000,   0.00000,   0.00000,-404694208.00000,   0.00000
-58724893.92867,-79010967.37482,-8797266.91894,  -0.00011,  -0.00024,  -0.00011,72410160.00000,   0.00000,274640576.00000,   0.00000,   0.00000,   0.00000,-402230416.00000,   0.00000
-60667822.03817,-81698179.74898,-9061228.19885,  -0.00012,  -0.00025,  -0.00012,74854872.00000,   0.00000,274640576.00000,   0.00000,   0.00000,   0.00000,-399785696.00000,   0.00000
-62604259.29652,-84370246.80380,-9325189.47876,  -0.00012,  -0.00026,  -0.00012,77286712.00000,   0.00000,274640576.00000,   0.00000,   0.00000,   0.00000,-397353856.00000,   0.00000
-64540696.55487,-87042313.85862,-9580496.29048,  -0.00012,  -0.00027,  -0.00012,79714736.00000,   0.00000,274640576.00000,   0.00000,   0.00000,   0.00000,-394925840.00000,   0.00000
-66455497.64274,-89692744.74295,-9835803.10219,  -0.00013,  -0.00028,  -0.00013,82121576.00000,   0.00000,274640576.00000,   0.00000,   0.00000,   0.00000,-392519008.00000,   0.00000
-68355153.41127,-92336684.77614,-10082455.44572,  -0.00013,  -0.00029,  -0.00013,84516288.00000,   0.00000,274640576.00000,   0.00000,   0.00000,   0.00000,-390124288.00000,   0.00000
-70248318.32865,-94965479.48999,-10329107.78924,  -0.00013,  -0.00030,  -0.00013,86898232.00000,   0.00000,274640576.00000,   0.00000,   0.00000,   0.00000,-387742336.00000,   0.00000
-72147974.09718,-97609419.52318,-10571432.89866,  -0.00014,  -0.00030,  -0.00014,89290312.00000,   0.00000,274640576.00000,   0.00000,   0.00000,   0.00000,-385350272.00000,   0.00000
-74019502.84407,-100216578.06655,-10813758.00809,  -0.00014,  -0.00031,  -0.00014,91649528.00000,   0.00000,274640576.00000,   0.00000,   0.00000,   0.00000,-382991040.00000,   0.00000
-75882377.12278,-102832391.07811,-11047428.64932,  -0.00014,  -0.00032,  -0.00014,94009448.00000,   0.00000,274640576.00000,   0.00000,   0.00000,   0.00000,-380631136.00000,   0.00000
-77738760.55034,-105433058.77033,-11281099.29055,  -0.00015,  -0.00033,  -0.00015,96357672.00000,   0.00000,274640576.00000,   0.00000,   0.00000,   0.00000,-378282912.00000,   0.00000
-79573507.80741,-108012090.29207,-11510442.69768,  -0.00015,  -0.00034,  -0.00015,98684784.00000,   0.00000,274640576.00000,   0.00000,   0.00000,   0.00000,-375955792.00000,   0.00000
-81408255.06449,-110591121.81380,-11735458.87072,  -0.00015,  -0.00034,  -0.00015,101011552.00000,   0.00000,274640576.00000,   0.00000,   0.00000,   0.00000,-373629024.00000,   0.00000
-83227857.00222,-113163662.48439,-11956147.80966,  -0.00016,  -0.00035,  -0.00016,103330208.00000,   0.00000,274640576.00000,   0.00000,   0.00000,   0.00000,-371310368.00000,   0.00000
-85040968.08881,-115721057.83565,-12172509.51451,  -0.00016,  -0.00036,  -0.00016,105637296.00000,   0.00000,274640576.00000,   0.00000,   0.00000,   0.00000,-369003280.00000,   0.00000
-86838933.85606,-118271962.33575,-12384543.98525,  -0.00016,  -0.00037,  -0.00016,107936760.00000,   0.00000,274640576.00000,   0.00000,   0.00000,   0.00000,-366703808.00000,   0.00000
-88615263.45283,-120801230.66538,-12596578.45600,  -0.00017,  -0.00038,  -0.00016,110218160.00000,   0.00000,274640576.00000,   0.00000,   0.00000,   0.00000,-364422416.00000,   0.00000
-90391593.04960,-123330498.99500,-12804285.69265,  -0.00017,  -0.00038,  -0.00017,112500600.00000,   0.00000,274640576.00000,   0.00000,   0.00000,   0.00000,-362139968.00000,   0.00000
-92167922.64636,-125859767.32462,-13007665.69520,  -0.00017,  -0.00039,  -0.00017,114783920.00000,   0.00000,274640576.00000,   0.00000,   0.00000,   0.00000,-359856656.00000,   0.00000
-93907470.75331,-128360908.63262,-13206718.46366,  -0.00018,  -0.00040,  -0.00017,117038888.00000,   0.00000,274640576.00000,   0.00000,   0.00000,   0.00000,-357601696.00000,   0.00000
-95662164.17959,-130868540.79175,-13401443.99802,  -0.00018,  -0.00041,  -0.00017,119302400.00000,   0.00000,274640576.00000,   0.00000,   0.00000,   0.00000,-355338176.00000,   0.00000
-97386566.96719,-133363191.24860,-13596169.53238,  -0.00018,  -0.00042,  -0.00018,121550328.00000,   0.00000,274640576.00000,   0.00000,   0.00000,   0.00000,-353090240.00000,   0.00000
-99119624.22299,-135849187.23726,-13782240.59854,  -0.00019,  -0.00042,  -0.00018,123792088.00000,   0.00000,274640576.00000,   0.00000,   0.00000,   0.00000,-350848480.00000,   0.00000
-100815899.98897,-138307056.20428,-13968311.66471,  -0.00019,  -0.00043,  -0.00018,126004800.00000,   0.00000,274640576.00000,   0.00000,   0.00000,   0.00000,-348635776.00000,   0.00000
-102518666.60609,-140780070.49064,-14150055.49678,  -0.00019,  -0.00044,  -0.00018,128227416.00000,   0.00000,274640576.00000,   0.00000,   0.00000,   0.00000,-346413152.00000,   0.00000
-104199797.05272,-143231448.60652,-14327472.09475,  -0.00019,  -0.00045,  -0.00019,130426680.00000,   0.00000,274640576.00000,   0.00000,   0.00000,   0.00000,-344213888.00000,   0.00000
-105874436.64821,-145667681.40306,-14500561.45862,  -0.00020,  -0.00046,  -0.00019,132610248.00000,   0.00000,274640576.00000,   0.00000,   0.00000,   0.00000,-342030336.00000,   0.00000
-107549076.24370,-148103914.19960,-14673650.82250,  -0.00020,  -0.00046,  -0.00019,134791520.00000,   0.00000,274640576.00000,   0.00000,   0.00000,   0.00000,-339849056.00000,   0.00000
-109193425.20051,-150527165.29385,-14838085.71818,  -0.00020,  -0.00047,  -0.00019,136950528.00000,   0.00000,274640576.00000,   0.00000,   0.00000,   0.00000,-337690048.00000,   0.00000
-110831283.30618,-152935271.06876,-15002520.61386,  -0.00021,  -0.00048,  -0.00020,139094592.00000,   0.00000,274640576.00000,   0.00000,   0.00000,   0.00000,-335545984.00000,   0.00000
-112469141.41185,-155343376.84367,-15162628.27545,  -0.00021,  -0.00049,  -0.00020,141234368.00000,   0.00000,274640576.00000,   0.00000,   0.00000,   0.00000,-333406208.00000,   0.00000
-114091854.19817,-157744991.76744,-15318408.70293,  -0.00021,  -0.00050,  -0.00020,143361888.00000,   0.00000,274640576.00000,   0.00000,   0.00000,   0.00000,-331278688.00000,   0.00000
-115692930.81402,-160124970.52072,-15469861.89632,  -0.00021,  -0.00050,  -0.00020,145465536.00000,   0.00000,274640576.00000,   0.00000,   0.00000,   0.00000,-329175040.00000,   0.00000
-117287516.57872,-162489803.95466,-15616987.85562,  -0.00022,  -0.00051,  -0.00020,147553840.00000,   0.00000,274640576.00000,   0.00000,   0.00000,   0.00000,-327086736.00000,   0.00000
-118873447.87522,-164863291.85679,-15759786.58081,  -0.00022,  -0.00052,  -0.00020,149643808.00000,   0.00000,274640576.00000,   0.00000,   0.00000,   0.00000,-324996768.00000,   0.00000
-120452888.32058,-167221634.43959,-15902585.30601,  -0.00022,  -0.00053,  -0.00021,151721280.00000,   0.00000,274640576.00000,   0.00000,   0.00000,   0.00000,-322919296.00000,   0.00000
-122002038.12726,-169566995.32010,-16041056.79711,  -0.00022,  -0.00053,  -0.00021,153781456.00000,   0.00000,274640576.00000,   0.00000,   0.00000,   0.00000,-320859120.00000,   0.00000
-123559842.40213,-171903701.73241,-16175201.05411,  -0.00023,  -0.00054,  -0.00021,155837456.00000,   0.00000,274640576.00000,   0.00000,   0.00000,   0.00000,-318803120.00000,   0.00000
-125102501.35767,-174233917.29357,-16305018.07702,  -0.00023,  -0.00055,  -0.00021,157885872.00000,   0.00000,274640576.00000,   0.00000,   0.00000,   0.00000,-316754704.00000,   0.00000
-126623524.14272,-176542496.68426,-16430507.86583,  -0.00023,  -0.00056,  -0.00021,159915184.00000,   0.00000,274640576.00000,   0.00000,   0.00000,   0.00000,-314725392.00000,   0.00000
-128129401.60843,-178844585.22379,-16551670.42054,  -0.00023,  -0.00056,  -0.00022,161938208.00000,   0.00000,274640576.00000,   0.00000,   0.00000,   0.00000,-312702368.00000,   0.00000
-129635279.07414,-181146673.76333,-16672832.97525,  -0.00024,  -0.00057,  -0.00022,163964928.00000,   0.00000,274640576.00000,   0.00000,   0.00000,   0.00000,-310675648.00000,   0.00000
-131134665.68871,-183433616.98353,-16789668.29587,  -0.00024,  -0.00058,  -0.00022,165982192.00000,   0.00000,274640576.00000,   0.00000,   0.00000,   0.00000,-308658384.00000,   0.00000
-132603761.66460,-185707578.50144,-16897849.14829,  -0.00024,  -0.00059,  -0.00022,167984736.00000,   0.00000,274640576.00000,   0.00000,   0.00000,   0.00000,-306655840.00000,   0.00000
-134072857.64049,-187981540.01934,-17006030.00071,  -0.00024,  -0.00059,  -0.00022,169991536.00000,   0.00000,274640576.00000,   0.00000,   0.00000,   0.00000,-304649040.00000,   0.00000
-135535462.76523,-190240356.21791,-17114210.85314,  -0.00025,  -0.00060,  -0.00022,171989744.00000,   0.00000,274640576.00000,   0.00000,   0.00000,   0.00000,-302650832.00000,   0.00000
-136982922.57064,-192492681.56533,-17213737.23736,  -0.00025,  -0.00061,  -0.00022,173979888.00000,   0.00000,274640576.00000,   0.00000,   0.00000,   0.00000,-300660688.00000,   0.00000
-138415237.05670,-194738516.06161,-17308936.38750,  -0.00025,  -0.00062,  -0.00023,175961600.00000,   0.00000,274640576.00000,   0.00000,   0.00000,   0.00000,-298678976.00000,   0.00000
-139841060.69162,-196969205.23855,-17404135.53763,  -0.00025,  -0.00062,  -0.00023,177930016.00000,   0.00000,274640576.00000,   0.00000,   0.00000,   0.00000,-296710560.00000,   0.00000
-141251739.00720,-199193403.56434,-17495007.45366,  -0.00025,  -0.00063,  -0.00023,179885712.00000,   0.00000,274640576.00000,   0.00000,   0.00000,   0.00000,-294754864.00000,   0.00000
-142640781.15230,-201395965.71965,-17581552.13560,  -0.00026,  -0.00064,  -0.00023,181814352.00000,   0.00000,274640576.00000,   0.00000,   0.00000,   0.00000,-292826224.00000,   0.00000
-144036314.14854,-203613673.19430,-17663769.58344,  -0.00026,  -0.00065,  -0.00023,183747856.00000,   0.00000,274640576.00000,   0.00000,   0.00000,   0.00000,-290892720.00000,   0.00000
-145403720.12315,-205794599.17912,-17741659.79718,  -0.00026,  -0.00065,  -0.00023,185641968.00000,   0.00000,274640576.00000,   0.00000,   0.00000,   0.00000,-288998608.00000,   0.00000
-146777616.94891,-207990670.48329,-17815222.77683,  -0.00026,  -0.00066,  -0.00023,187545088.00000,   0.00000,274640576.00000,   0.00000,   0.00000,   0.00000,-287095488.00000,   0.00000
-148129877.60418,-210165105.61697,-17888785.75648,  -0.00026,  -0.00067,  -0.00023,189429200.00000,   0.00000,274640576.00000,   0.00000,   0.00000,   0.00000,-285211376.00000,   0.00000
-149466992.94012,-212333049.89950,-17958021.50203,  -0.00027,  -0.00067,  -0.00023,191307632.00000,   0.00000,274640576.00000,   0.00000,   0.00000,   0.00000,-283332944.00000,   0.00000
-150797617.42491,-214485848.86269,-18022930.01348,  -0.00027,  -0.00068,  -0.00023,193176176.00000,   0.00000,274640576.00000,   0.00000,   0.00000,   0.00000,-281464400.00000,   0.00000
-152113096.59036,-216632156.97474,-18083511.29084,  -0.00027,  -0.00069,  -0.00024,195037616.00000,   0.00000,274640576.00000,   0.00000,   0.00000,   0.00000,-279602960.00000,   0.00000
-153413430.43647,-218771974.23565,-18139765.33409,  -0.00027,  -0.00070,  -0.00024,196890400.00000,   0.00000,274640576.00000,   0.00000,   0.00000,   0.00000,-277750176.00000,   0.00000
-154707273.43143,-220896646.17721,-18191692.14326,  -0.00027,  -0.00070,  -0.00024,198728896.00000,   0.00000,274640576.00000,   0.00000,   0.00000,   0.00000,-275911680.00000,   0.00000
-155985971.10706,-223014827.26763,-18243618.95242,  -0.00027,  -0.00071,  -0.00024,200558592.00000,   0.00000,274640576.00000,   0.00000,   0.00000,   0.00000,-274081984.00000,   0.00000
-157264668.78268,-225133008.35805,-18291218.52749,  -0.00028,  -0.00072,  -0.00024,202386368.00000,   0.00000,274640576.00000,   0.00000,   0.00000,   0.00000,-272254208.00000,   0.00000
-158528221.13897,-227244698.59733,-18334490.86845,  -0.00028,  -0.00072,  -0.00024,204204704.00000,   0.00000,274640576.00000,   0.00000,   0.00000,   0.00000,-270435872.00000,   0.00000
-159770137.32477,-229334752.66612,-18373435.97533,  -0.00028,  -0.00073,  -0.00024,206001904.00000,   0.00000,274640576.00000,   0.00000,   0.00000,   0.00000,-268638672.00000,   0.00000
-161005562.65943,-231409661.41557,-18408053.84810,  -0.00028,  -0.00074,  -0.00024,207786480.00000,   0.00000,274640576.00000,   0.00000,   0.00000,   0.00000,-266854096.00000,   0.00000
-162232333.52590,-233493224.63321,-18442671.72088,  -0.00028,  -0.00075,  -0.00024,209576848.00000,   0.00000,274640576.00000,   0.00000,   0.00000,   0.00000,-265063728.00000,   0.00000
-163437468.22187,-235555151.68037,-18468635.12546,  -0.00028,  -0.00075,  -0.00024,211346368.00000,   0.00000,274640576.00000,   0.00000,   0.00000,   0.00000,-263294208.00000,   0.00000
-164642602.91785,-237617078.72753,-18494598.53004,  -0.00029,  -0.00076,  -0.00024,213118016.00000,   0.00000,274640576.00000,   0.00000,   0.00000,   0.00000,-261522560.00000,   0.00000
-165826101.44335,-239657369.60421,-18516234.70052,  -0.00029,  -0.00077,  -0.00024,214870128.00000,   0.00000,274640576.00000,   0.00000,   0.00000,   0.00000,-259770448.00000,   0.00000
-166994454.64950,-241691169.62974,-18533543.63691,  -0.00029,  -0.00077,  -0.00024,216615376.00000,   0.00000,274640576.00000,   0.00000,   0.00000,   0.00000,-258025200.00000,   0.00000
-168162807.85566,-243724969.65527,-18546525.33920,  -0.00029,  -0.00078,  -0.00024,218361920.00000,   0.00000,274640576.00000,   0.00000,   0.00000,   0.00000,-256278656.00000,   0.00000
-169316015.74248,-245752278.82966,-18559507.04149,  -0.00029,  -0.00079,  -0.00024,220102512.00000,   0.00000,274640576.00000,   0.00000,   0.00000,   0.00000,-254538064.00000,   0.00000
-170462732.77815,-247764442.68470,-18568161.50969,  -0.00029,  -0.00079,  -0.00024,221831584.00000,   0.00000,274640576.00000,   0.00000,   0.00000,   0.00000,-252808992.00000,   0.00000
-171579159.17514,-249763624.83746,-18572488.74378,  -0.00029,  -0.00080,  -0.00024,223545472.00000,   0.00000,274640576.00000,   0.00000,   0.00000,   0.00000,-251095104.00000,   0.00000
-172704240.04033,-251754152.52202,-18572488.74378,  -0.00029,  -0.00081,  -0.00024,225255136.00000,   0.00000,274640576.00000,   0.00000,   0.00000,   0.00000,-249385440.00000,   0.00000
-173805521.11798,-253746843.82363,-18568161.50969,  -0.00030,  -0.00082,  -0.00024,226961648.00000,   0.00000,274640576.00000,   0.00000,   0.00000,   0.00000,-247678928.00000,   0.00000
-174900311.34449,-255724389.80590,-18563834.27559,  -0.00030,  -0.00082,  -0.00024,228655840.00000,   0.00000,274640576.00000,   0.00000,   0.00000,   0.00000,-245984736.00000,   0.00000
-175973465.40052,-257680299.61769,-18550852.57330,  -0.00030,  -0.00083,  -0.00024,230326960.00000,   0.00000,274640576.00000,   0.00000,   0.00000,   0.00000,-244313616.00000,   0.00000
-177053110.30769,-259651354.74881,-18537870.87101,  -0.00030,  -0.00084,  -0.00024,232008240.00000,   0.00000,274640576.00000,   0.00000,   0.00000,   0.00000,-242632336.00000,   0.00000
-178111119.04437,-261600773.70946,-18520561.93462,  -0.00030,  -0.00084,  -0.00024,233663424.00000,   0.00000,274640576.00000,   0.00000,   0.00000,   0.00000,-240977152.00000,   0.00000
-179153982.46172,-263543701.81895,-18498925.76414,  -0.00030,  -0.00085,  -0.00024,235303296.00000,   0.00000,274640576.00000,   0.00000,   0.00000,   0.00000,-239337280.00000,   0.00000
-180190355.02792,-265471484.60911,-18477289.59365,  -0.00030,  -0.00086,  -0.00024,236923184.00000,   0.00000,274640576.00000,   0.00000,   0.00000,   0.00000,-237717392.00000,   0.00000
-181211582.27478,-267392776.54812,-18451326.18907,  -0.00030,  -0.00086,  -0.00024,238528752.00000,   0.00000,274640576.00000,   0.00000,   0.00000,   0.00000,-236111824.00000,   0.00000
-182217664.20231,-269307577.63599,-18421035.55039,  -0.00030,  -0.00087,  -0.00024,240124544.00000,   0.00000,274640576.00000,   0.00000,   0.00000,   0.00000,-234516032.00000,   0.00000
-183223746.12983,-271222378.72386,-18386417.67762,  -0.00030,  -0.00088,  -0.00024,241722016.00000,   0.00000,274640576.00000,   0.00000,   0.00000,   0.00000,-232918560.00000,   0.00000
-184214682.73801,-273130688.96058,-18347472.57074,  -0.00031,  -0.00088,  -0.00024,243314608.00000,   0.00000,274640576.00000,   0.00000,   0.00000,   0.00000,-231325968.00000,   0.00000
-185183983.17571,-275017363.02681,-18308527.46387,  -0.00031,  -0.00089,  -0.00024,244889248.00000,   0.00000,274640576.00000,   0.00000,   0.00000,   0.00000,-229751328.00000,   0.00000
-186153283.61341,-276904037.09305,-18260927.88881,  -0.00031,  -0.00090,  -0.00024,246462784.00000,   0.00000,274640576.00000,   0.00000,   0.00000,   0.00000,-228177792.00000,   0.00000
-187100947.88063,-278769074.98880,-18213328.31374,  -0.00031,  -0.00090,  -0.00024,248017104.00000,   0.00000,274640576.00000,   0.00000,   0.00000,   0.00000,-226623472.00000,   0.00000
-188033466.82851,-280627622.03341,-18165728.73868,  -0.00031,  -0.00091,  -0.00024,249565408.00000,   0.00000,274640576.00000,   0.00000,   0.00000,   0.00000,-225075168.00000,   0.00000
-188972476.62753,-282501314.39736,-18109474.69542,  -0.00031,  -0.00092,  -0.00024,251127136.00000,   0.00000,274640576.00000,   0.00000,   0.00000,   0.00000,-223513440.00000,   0.00000
-189883359.40492,-284338225.27148,-18053220.65216,  -0.00031,  -0.00092,  -0.00023,252659264.00000,   0.00000,274640576.00000,   0.00000,   0.00000,   0.00000,-221981312.00000,   0.00000
-190785587.71412,-286183790.61380,-17992639.37480,  -0.00031,  -0.00093,  -0.00023,254198688.00000,   0.00000,274640576.00000,   0.00000,   0.00000,   0.00000,-220441888.00000,   0.00000
-191681325.17217,-288014210.63677,-17927730.86335,  -0.00031,  -0.00094,  -0.00023,255727456.00000,   0.00000,274640576.00000,   0.00000,   0.00000,   0.00000,-218913120.00000,   0.00000
-192561917.31088,-289838139.80861,-17858495.11780,  -0.00031,  -0.00094,  -0.00023,257250096.00000,   0.00000,274640576.00000,   0.00000,   0.00000,   0.00000,-217390480.00000,   0.00000
-193442509.44960,-291662068.98044,-17789259.37225,  -0.00031,  -0.00095,  -0.00023,258774800.00000,   0.00000,274640576.00000,   0.00000,   0.00000,   0.00000,-215865776.00000,   0.00000
-194286320.09849,-293457871.13064,-17715696.39260,  -0.00031,  -0.00096,  -0.00023,260272032.00000,   0.00000,274640576.00000,   0.00000,   0.00000,   0.00000,-214368544.00000,   0.00000
-195151766.91786,-295275309.45133,-17637806.17886,  -0.00031,  -0.00096,  -0.00023,261789856.00000,   0.00000,274640576.00000,   0.00000,   0.00000,   0.00000,-212850720.00000,   0.00000
-195980432.24741,-297064620.75039,-17555588.73102,  -0.00031,  -0.00097,  -0.00023,263279552.00000,   0.00000,274640576.00000,   0.00000,   0.00000,   0.00000,-211361024.00000,   0.00000
-196802606.72582,-298838786.73010,-17473371.28318,  -0.00031,  -0.00098,  -0.00023,264757232.00000,   0.00000,274640576.00000,   0.00000,   0.00000,   0.00000,-209883344.00000,   0.00000
-197616126.73603,-300621607.17802,-17386826.60124,  -0.00031,  -0.00098,  -0.00023,266239328.00000,   0.00000,274640576.00000,   0.00000,   0.00000,   0.00000,-208401248.00000,   0.00000
-198408010.57576,-302382791.45544,-17295954.68520,  -0.00031,  -0.00099,  -0.00022,267700480.00000,   0.00000,274640576.00000,   0.00000,   0.00000,   0.00000,-206940096.00000,   0.00000
-199199894.41549,-304143975.73287,-17200755.53507,  -0.00031,  -0.00100,  -0.00022,269160800.00000,   0.00000,274640576.00000,   0.00000,   0.00000,   0.00000,-205479776.00000,   0.00000
-199976632.93588,-305898669.15915,-17105556.38494,  -0.00031,  -0.00100,  -0.00022,270613504.00000,   0.00000,274640576.00000,   0.00000,   0.00000,   0.00000,-204027072.00000,   0.00000
-200753371.45627,-307653362.58544,-17006030.00071,  -0.00031,  -0.00101,  -0.00022,272065344.00000,   0.00000,274640576.00000,   0.00000,   0.00000,   0.00000,-202575232.00000,   0.00000
-201493328.48683,-309379928.99009,-16902176.38239,  -0.00031,  -0.00101,  -0.00022,273488576.00000,   0.00000,274640576.00000,   0.00000,   0.00000,   0.00000,-201152000.00000,   0.00000
-202233285.51740,-311106495.39474,-16798322.76406,  -0.00031,  -0.00102,  -0.00022,274911840.00000,   0.00000,274640576.00000,   0.00000,   0.00000,   0.00000,-199728736.00000,   0.00000
-202973242.54796,-312833061.79939,-16685814.67755,  -0.00031,  -0.00103,  -0.00022,276333696.00000,   0.00000,274640576.00000,   0.00000,   0.00000,   0.00000,-198306880.00000,   0.00000
-203698054.25919,-314553137.35290,-16573306.59103,  -0.00031,  -0.00103,  -0.00022,277748480.00000,   0.00000,274640576.00000,   0.00000,   0.00000,   0.00000,-196892096.00000,   0.00000
-204401229.79993,-316251576.73592,-16460798.50451,  -0.00031,  -0.00104,  -0.00021,279143776.00000,   0.00000,274640576.00000,   0.00000,   0.00000,   0.00000,-195496800.00000,   0.00000
-205089260.02133,-317943525.26780,-16339635.94980,  -0.00031,  -0.00105,  -0.00021,280531072.00000,   0.00000,274640576.00000,   0.00000,   0.00000,   0.00000,-194109504.00000,   0.00000
-205777290.24274,-319635473.79968,-16218473.39508,  -0.00031,  -0.00105,  -0.00021,281919776.00000,   0.00000,274640576.00000,   0.00000,   0.00000,   0.00000,-192720800.00000,   0.00000
-206450175.14480,-321320931.48041,-16092983.60627,  -0.00031,  -0.00106,  -0.00021,283302176.00000,   0.00000,274640576.00000,   0.00000,   0.00000,   0.00000,-191338400.00000,   0.00000
-207107914.72752,-322999898.31000,-15967493.81746,  -0.00031,  -0.00107,  -0.00021,284679392.00000,   0.00000,274640576.00000,   0.00000,   0.00000,   0.00000,-189961184.00000,   0.00000
-207759163.45910,-324663719.82025,-15837676.79456,  -0.00031,  -0.00107,  -0.00021,286045824.00000,   0.00000,274640576.00000,   0.00000,   0.00000,   0.00000,-188594752.00000,   0.00000
-208395266.87134,-326321050.47935,-15703532.53755,  -0.00031,  -0.00108,  -0.00020,287406976.00000,   0.00000,274640576.00000,   0.00000,   0.00000,   0.00000,-187233600.00000,   0.00000
-209031370.28359,-327978381.13845,-15565061.04646,  -0.00031,  -0.00108,  -0.00020,288770144.00000,   0.00000,274640576.00000,   0.00000,   0.00000,   0.00000,-185870432.00000,   0.00000
-209637183.05715,-329622730.09526,-15426589.55536,  -0.00031,  -0.00109,  -0.00020,290121056.00000,   0.00000,274640576.00000,   0.00000,   0.00000,   0.00000,-184519520.00000,   0.00000
-210236504.97956,-331251933.73274,-15283790.83016,  -0.00031,  -0.00110,  -0.00020,291460256.00000,   0.00000,274640576.00000,   0.00000,   0.00000,   0.00000,-183180320.00000,   0.00000
-210842317.75313,-332896282.68955,-15136664.87086,  -0.00031,  -0.00110,  -0.00020,292812896.00000,   0.00000,274640576.00000,   0.00000,   0.00000,   0.00000,-181827680.00000,   0.00000
-211426494.35620,-334518995.47588,-14989538.91157,  -0.00031,  -0.00111,  -0.00019,294145568.00000,   0.00000,274640576.00000,   0.00000,   0.00000,   0.00000,-180495008.00000,   0.00000
-211995525.63994,-336135217.41106,-14838085.71818,  -0.00031,  -0.00112,  -0.00019,295470112.00000,   0.00000,274640576.00000,   0.00000,   0.00000,   0.00000,-179170464.00000,   0.00000
-212542920.75320,-337729803.17576,-14682305.29069,  -0.00031,  -0.00112,  -0.00019,296773376.00000,   0.00000,274640576.00000,   0.00000,   0.00000,   0.00000,-177867200.00000,   0.00000
-213096806.71760,-339339534.25979,-14526524.86321,  -0.00031,  -0.00113,  -0.00019,298089120.00000,   0.00000,274640576.00000,   0.00000,   0.00000,   0.00000,-176551456.00000,   0.00000
-213629056.51151,-340927629.17335,-14366417.20162,  -0.00031,  -0.00113,  -0.00019,299383840.00000,   0.00000,274640576.00000,   0.00000,   0.00000,   0.00000,-175256736.00000,   0.00000
-214146160.98609,-342509233.23575,-14201982.30594,  -0.00031,  -0.00114,  -0.00018,300670752.00000,   0.00000,274640576.00000,   0.00000,   0.00000,   0.00000,-173969824.00000,   0.00000
-214663265.46067,-344090837.29816,-14037547.41026,  -0.00031,  -0.00115,  -0.00018,301958240.00000,   0.00000,274640576.00000,   0.00000,   0.00000,   0.00000,-172682336.00000,   0.00000
-215165224.61590,-345665950.50942,-13868785.28048,  -0.00030,  -0.00115,  -0.00018,303238592.00000,   0.00000,274640576.00000,   0.00000,   0.00000,   0.00000,-171401984.00000,   0.00000
-215667183.77114,-347241063.72069,-13700023.15070,  -0.00030,  -0.00116,  -0.00018,304520064.00000,   0.00000,274640576.00000,   0.00000,   0.00000,   0.00000,-170120512.00000,   0.00000
-216132361.43656,-348788049.91032,-13522606.55273,  -0.00030,  -0.00117,  -0.00018,305774336.00000,   0.00000,274640576.00000,   0.00000,   0.00000,   0.00000,-168866240.00000,   0.00000
-216597539.10197,-350335036.09995,-13349517.18886,  -0.00030,  -0.00117,  -0.00017,307030752.00000,   0.00000,274640576.00000,   0.00000,   0.00000,   0.00000,-167609824.00000,   0.00000
-217069207.61853,-351897167.60892,-13167773.35679,  -0.00030,  -0.00118,  -0.00017,308300224.00000,   0.00000,274640576.00000,   0.00000,   0.00000,   0.00000,-166340352.00000,   0.00000
-217497603.79412,-353416026.77692,-12986029.52472,  -0.00030,  -0.00118,  -0.00017,309531360.00000,   0.00000,274640576.00000,   0.00000,   0.00000,   0.00000,-165109216.00000,   0.00000
-217932490.82085,-354950031.26427,-12799958.45855,  -0.00030,  -0.00119,  -0.00017,310776352.00000,   0.00000,274640576.00000,   0.00000,   0.00000,   0.00000,-163864224.00000,   0.00000
-218367377.84759,-356484035.75161,-12613887.39239,  -0.00030,  -0.00120,  -0.00016,312023104.00000,   0.00000,274640576.00000,   0.00000,   0.00000,   0.00000,-162617472.00000,   0.00000
-218780628.70384,-357996404.06847,-12423489.09212,  -0.00030,  -0.00120,  -0.00016,313251200.00000,   0.00000,274640576.00000,   0.00000,   0.00000,   0.00000,-161389376.00000,   0.00000
-219178734.24075,-359502281.53418,-12228763.55777,  -0.00030,  -0.00121,  -0.00016,314473472.00000,   0.00000,274640576.00000,   0.00000,   0.00000,   0.00000,-160167104.00000,   0.00000
-219561694.45833,-361001668.14874,-12034038.02341,  -0.00030,  -0.00121,  -0.00016,315690656.00000,   0.00000,274640576.00000,   0.00000,   0.00000,   0.00000,-158949920.00000,   0.00000
-219944654.67590,-362501054.76331,-11834985.25495,  -0.00029,  -0.00122,  -0.00015,316909344.00000,   0.00000,274640576.00000,   0.00000,   0.00000,   0.00000,-157731232.00000,   0.00000
-220312469.57414,-363993950.52673,-11635932.48649,  -0.00029,  -0.00123,  -0.00015,318122848.00000,   0.00000,274640576.00000,   0.00000,   0.00000,   0.00000,-156517728.00000,   0.00000
-220665139.15303,-365480355.43901,-11432552.48394,  -0.00029,  -0.00123,  -0.00015,319330880.00000,   0.00000,274640576.00000,   0.00000,   0.00000,   0.00000,-155309696.00000,   0.00000
-221011317.88078,-366951615.03195,-11224845.24729,  -0.00029,  -0.00124,  -0.00015,320527328.00000,   0.00000,274640576.00000,   0.00000,   0.00000,   0.00000,-154113248.00000,   0.00000
-221342351.28919,-368416383.77374,-11017138.01064,  -0.00029,  -0.00124,  -0.00014,321718400.00000,   0.00000,274640576.00000,   0.00000,   0.00000,   0.00000,-152922176.00000,   0.00000
-221664730.22941,-369889806.98372,-10809430.77399,  -0.00029,  -0.00125,  -0.00014,322916992.00000,   0.00000,274640576.00000,   0.00000,   0.00000,   0.00000,-151723584.00000,   0.00000
-221974127.46733,-371332939.55503,-10593069.06915,  -0.00029,  -0.00126,  -0.00014,324090272.00000,   0.00000,274640576.00000,   0.00000,   0.00000,   0.00000,-150550304.00000,   0.00000
-222274870.23707,-372784726.59453,-10376707.36430,  -0.00028,  -0.00126,  -0.00013,325270432.00000,   0.00000,274640576.00000,   0.00000,   0.00000,   0.00000,-149370144.00000,   0.00000
-222575613.00680,-374236513.63403,-10160345.65946,  -0.00028,  -0.00127,  -0.00013,326451488.00000,   0.00000,274640576.00000,   0.00000,   0.00000,   0.00000,-148189088.00000,   0.00000
-222839574.28671,-375660173.65190,-9939656.72052,  -0.00028,  -0.00127,  -0.00013,327605888.00000,   0.00000,274640576.00000,   0.00000,   0.00000,   0.00000,-147034688.00000,   0.00000
-223110026.41776,-377098978.98911,-9714640.54748,  -0.00028,  -0.00128,  -0.00013,328773088.00000,   0.00000,274640576.00000,   0.00000,   0.00000,   0.00000,-145867488.00000,   0.00000
-223373987.69767,-378522639.00699,-9489624.37444,  -0.00028,  -0.00129,  -0.00012,329927552.00000,   0.00000,274640576.00000,   0.00000,   0.00000,   0.00000,-144713024.00000,   0.00000
-223622803.65824,-379939808.17371,-9264608.20141,  -0.00028,  -0.00129,  -0.00012,331075424.00000,   0.00000,274640576.00000,   0.00000,   0.00000,   0.00000,-143565152.00000,   0.00000
-223856474.29947,-381350486.48929,-9030937.56018,  -0.00027,  -0.00130,  -0.00012,332216032.00000,   0.00000,274640576.00000,   0.00000,   0.00000,   0.00000,-142424544.00000,   0.00000
-224074999.62137,-382754673.95373,-8801594.15304,  -0.00027,  -0.00130,  -0.00011,333350752.00000,   0.00000,274640576.00000,   0.00000,   0.00000,   0.00000,-141289824.00000,   0.00000
-224293524.94326,-384158861.41816,-8563596.27771,  -0.00027,  -0.00131,  -0.00011,334485696.00000,   0.00000,274640576.00000,   0.00000,   0.00000,   0.00000,-140154880.00000,   0.00000
-224490414.09467,-385541412.71212,-8329925.63648,  -0.00027,  -0.00132,  -0.00011,335603008.00000,   0.00000,274640576.00000,   0.00000,   0.00000,   0.00000,-139037568.00000,   0.00000
-224693794.09722,-386939109.32541,-8087600.52706,  -0.00027,  -0.00132,  -0.00011,336734624.00000,   0.00000,274640576.00000,   0.00000,   0.00000,   0.00000,-137905952.00000,   0.00000
-224860392.60995,-388308678.91707,-7845275.41763,  -0.00027,  -0.00133,  -0.00010,337842752.00000,   0.00000,274640576.00000,   0.00000,   0.00000,   0.00000,-136797824.00000,   0.00000
-225026991.12268,-389678248.50873,-7602950.30821,  -0.00026,  -0.00133,  -0.00010,338954240.00000,   0.00000,274640576.00000,   0.00000,   0.00000,   0.00000,-135686336.00000,   0.00000
-225193589.63541,-391047818.10039,-7356297.96469,  -0.00026,  -0.00134,  -0.00010,340069088.00000,   0.00000,274640576.00000,   0.00000,   0.00000,   0.00000,-134571488.00000,   0.00000
-225345042.82880,-392410896.84090,-7109645.62116,  -0.00026,  -0.00135,  -0.00009,341181056.00000,   0.00000,274640576.00000,   0.00000,   0.00000,   0.00000,-133459520.00000,   0.00000
-225481350.70285,-393767484.73027,-6858666.04354,  -0.00026,  -0.00135,  -0.00009,342290112.00000,   0.00000,274640576.00000,   0.00000,   0.00000,   0.00000,-132350464.00000,   0.00000
-225611167.72576,-395108927.30030,-6607686.46593,  -0.00026,  -0.00136,  -0.00009,343389696.00000,   0.00000,274640576.00000,   0.00000,   0.00000,   0.00000,-131250880.00000,   0.00000
-225717184.96113,-396452533.48738,-6352379.65421,  -0.00025,  -0.00136,  -0.00008,344492320.00000,   0.00000,274640576.00000,   0.00000,   0.00000,   0.00000,-130148256.00000,   0.00000
-225831856.66470,-397787485.20627,-6092745.60840,  -0.00025,  -0.00137,  -0.00008,345591360.00000,   0.00000,274640576.00000,   0.00000,   0.00000,   0.00000,-129049216.00000,   0.00000
-225916237.72959,-399109455.22286,-5837438.79668,  -0.00025,  -0.00138,  -0.00008,346680192.00000,   0.00000,274640576.00000,   0.00000,   0.00000,   0.00000,-127960384.00000,   0.00000
-226000618.79448,-400431425.23946,-5573477.51677,  -0.00025,  -0.00138,  -0.00007,347770848.00000,   0.00000,274640576.00000,   0.00000,   0.00000,   0.00000,-126869728.00000,   0.00000
-226069854.54003,-401746904.40491,-5309516.23686,  -0.00025,  -0.00139,  -0.00007,348857056.00000,   0.00000,274640576.00000,   0.00000,   0.00000,   0.00000,-125783520.00000,   0.00000
-226139090.28558,-403062383.57036,-5045554.95695,  -0.00024,  -0.00139,  -0.00007,349944832.00000,   0.00000,274640576.00000,   0.00000,   0.00000,   0.00000,-124695744.00000,   0.00000
-226193180.71179,-404371371.88466,-4781593.67705,  -0.00024,  -0.00140,  -0.00006,351027648.00000,   0.00000,274640576.00000,   0.00000,   0.00000,   0.00000,-123612928.00000,   0.00000
-226232125.81866,-405673869.34782,-4508977.92894,  -0.00024,  -0.00140,  -0.00006,352105088.00000,   0.00000,274640576.00000,   0.00000,   0.00000,   0.00000,-122535488.00000,   0.00000
-226264580.07439,-406961221.49164,-4240689.41494,  -0.00024,  -0.00141,  -0.00006,353170816.00000,   0.00000,274640576.00000,   0.00000,   0.00000,   0.00000,-121469760.00000,   0.00000
-226288379.86192,-408257228.10365,-3968073.66683,  -0.00023,  -0.00142,  -0.00005,354244384.00000,   0.00000,274640576.00000,   0.00000,   0.00000,   0.00000,-120396192.00000,   0.00000
-226290543.47897,-409531598.54518,-3691130.68463,  -0.00023,  -0.00142,  -0.00005,355299648.00000,   0.00000,274640576.00000,   0.00000,   0.00000,   0.00000,-119340928.00000,   0.00000
-226292707.09601,-410805968.98671,-3414187.70243,  -0.00023,  -0.00143,  -0.00004,356356448.00000,   0.00000,274640576.00000,   0.00000,   0.00000,   0.00000,-118284128.00000,   0.00000
-226279725.39372,-412073848.57710,-3137244.72023,  -0.00023,  -0.00143,  -0.00004,357408448.00000,   0.00000,274640576.00000,   0.00000,   0.00000,   0.00000,-117232128.00000,   0.00000
-226266743.69143,-413341728.16748,-2855974.50394,  -0.00022,  -0.00144,  -0.00004,358461824.00000,   0.00000,274640576.00000,   0.00000,   0.00000,   0.00000,-116178752.00000,   0.00000
-226223471.35046,-414596626.05557,-2574704.28764,  -0.00022,  -0.00145,  -0.00003,359504960.00000,   0.00000,274640576.00000,   0.00000,   0.00000,   0.00000,-115135616.00000,   0.00000
-226195344.32884,-415858014.79481,-2289106.83725,  -0.00022,  -0.00145,  -0.00003,360556096.00000,   0.00000,274640576.00000,   0.00000,   0.00000,   0.00000,-114084480.00000,   0.00000
-226130435.81738,-417091276.51242,-2003509.38685,  -0.00022,  -0.00146,  -0.00003,361584096.00000,   0.00000,274640576.00000,   0.00000,   0.00000,   0.00000,-113056480.00000,   0.00000
-226072018.15707,-418339683.54937,-1717911.93646,  -0.00021,  -0.00146,  -0.00002,362627712.00000,   0.00000,274640576.00000,   0.00000,   0.00000,   0.00000,-112012864.00000,   0.00000
-225991964.32628,-419566454.41583,-1427987.25197,  -0.00021,  -0.00147,  -0.00002,363654528.00000,   0.00000,274640576.00000,   0.00000,   0.00000,   0.00000,-110986048.00000,   0.00000
-225911910.49549,-420793225.28230,-1138062.56748,  -0.00021,  -0.00147,  -0.00001,364684128.00000,   0.00000,274640576.00000,   0.00000,   0.00000,   0.00000,-109956448.00000,   0.00000
-225816711.34536,-422013505.29762,-843810.64889,  -0.00020,  -0.00148,  -0.00001,365710368.00000,   0.00000,274640576.00000,   0.00000,   0.00000,   0.00000,-108930208.00000,   0.00000
-225712857.72703,-423242439.78113,-553885.96440,  -0.00020,  -0.00149,  -0.00001,366746464.00000,   0.00000,274640576.00000,   0.00000,   0.00000,   0.00000,-107894112.00000,   0.00000
-225596022.40642,-424441083.62596,-255306.81172,  -0.00020,  -0.00149,  -0.00000,367759264.00000,   0.00000,274640576.00000,   0.00000,   0.00000,   0.00000,-106881312.00000,   0.00000
-225470532.61761,-425648381.93899,43272.34097,  -0.00020,  -0.00150,   0.00000,368781856.00000,   0.00000,274640576.00000,   0.00000,   0.00000,   0.00000,-105858720.00000,   0.00000
-225329897.50946,-426849189.40087,341851.49365,  -0.00019,  -0.00150,   0.00000,369801344.00000,   0.00000,274640576.00000,   0.00000,   0.00000,   0.00000,-104839232.00000,   0.00000
-225189262.40131,-428049996.86276,640430.64634,  -0.00019,  -0.00151,   0.00001,370823552.00000,   0.00000,274640576.00000,   0.00000,   0.00000,   0.00000,-103817024.00000,   0.00000
-225026991.12268,-429229168.15415,943337.03312,  -0.00019,  -0.00151,   0.00001,371829568.00000,   0.00000,274640576.00000,   0.00000,   0.00000,   0.00000,-102811008.00000,   0.00000
-224871210.69519,-430423484.76489,1246243.41990,  -0.00018,  -0.00152,   0.00002,372851072.00000,   0.00000,274640576.00000,   0.00000,   0.00000,   0.00000,-101789504.00000,   0.00000
-224693794.09722,-431596165.20514,1553477.04078,  -0.00018,  -0.00153,   0.00002,373856096.00000,   0.00000,274640576.00000,   0.00000,   0.00000,   0.00000,-100784480.00000,   0.00000
-224501232.17991,-432762354.79425,1856383.42756,  -0.00018,  -0.00153,   0.00002,374857728.00000,   0.00000,274640576.00000,   0.00000,   0.00000,   0.00000,-99782848.00000,   0.00000
-224308670.26260,-433928544.38336,2167944.28253,  -0.00017,  -0.00154,   0.00003,375861792.00000,   0.00000,274640576.00000,   0.00000,   0.00000,   0.00000,-98778784.00000,   0.00000
-224100963.02595,-435088243.12132,2475177.90341,  -0.00017,  -0.00154,   0.00003,376862336.00000,   0.00000,274640576.00000,   0.00000,   0.00000,   0.00000,-97778240.00000,   0.00000
-223878110.46996,-436241451.00814,2786738.75839,  -0.00017,  -0.00155,   0.00004,377859232.00000,   0.00000,274640576.00000,   0.00000,   0.00000,   0.00000,-96781344.00000,   0.00000
-223655257.91397,-437394658.89495,3098299.61336,  -0.00016,  -0.00155,   0.00004,378858560.00000,   0.00000,274640576.00000,   0.00000,   0.00000,   0.00000,-95782016.00000,   0.00000
-223417260.03864,-438541375.93063,3409860.46834,  -0.00016,  -0.00156,   0.00004,379854208.00000,   0.00000,274640576.00000,   0.00000,   0.00000,   0.00000,-94786368.00000,   0.00000
-223157625.99283,-439666456.79581,3725748.55741,  -0.00016,  -0.00157,   0.00005,380833280.00000,   0.00000,274640576.00000,   0.00000,   0.00000,   0.00000,-93807296.00000,   0.00000
-222904482.79816,-440806682.98034,4041636.64648,  -0.00015,  -0.00157,   0.00005,381827808.00000,   0.00000,274640576.00000,   0.00000,   0.00000,   0.00000,-92812768.00000,   0.00000
-222644848.75235,-441931763.84553,4361851.96965,  -0.00015,  -0.00158,   0.00006,382811424.00000,   0.00000,274640576.00000,   0.00000,   0.00000,   0.00000,-91829152.00000,   0.00000
-222354924.06786,-443043863.00842,4677740.05872,  -0.00015,  -0.00158,   0.00006,383785536.00000,   0.00000,274640576.00000,   0.00000,   0.00000,   0.00000,-90855040.00000,   0.00000
-222064999.38337,-444155962.17132,4997955.38189,  -0.00014,  -0.00159,   0.00006,384762240.00000,   0.00000,274640576.00000,   0.00000,   0.00000,   0.00000,-89878336.00000,   0.00000
-221775074.69888,-445268061.33422,5318170.70506,  -0.00014,  -0.00159,   0.00007,385741056.00000,   0.00000,274640576.00000,   0.00000,   0.00000,   0.00000,-88899520.00000,   0.00000
-221470004.69505,-446373669.64597,5642713.26232,  -0.00014,  -0.00160,   0.00007,386716640.00000,   0.00000,274640576.00000,   0.00000,   0.00000,   0.00000,-87923936.00000,   0.00000
-221149789.37188,-447472787.10657,5967255.81959,  -0.00013,  -0.00160,   0.00008,387689056.00000,   0.00000,274640576.00000,   0.00000,   0.00000,   0.00000,-86951520.00000,   0.00000
-220829574.04871,-448571904.56718,6291798.37685,  -0.00013,  -0.00161,   0.00008,388663744.00000,   0.00000,274640576.00000,   0.00000,   0.00000,   0.00000,-85976832.00000,   0.00000
-220487722.55506,-449649385.85730,6616340.93412,  -0.00013,  -0.00162,   0.00009,389621920.00000,   0.00000,274640576.00000,   0.00000,   0.00000,   0.00000,-85018656.00000,   0.00000
-220137216.59321,-450735521.61562,6945210.72548,  -0.00012,  -0.00162,   0.00009,390590560.00000,   0.00000,274640576.00000,   0.00000,   0.00000,   0.00000,-84050016.00000,   0.00000
-219780219.78022,-451806512.05459,7269753.28275,  -0.00012,  -0.00163,   0.00009,391548320.00000,   0.00000,274640576.00000,   0.00000,   0.00000,   0.00000,-83092256.00000,   0.00000
-219414568.49903,-452886156.96176,7598623.07411,  -0.00012,  -0.00163,   0.00010,392516384.00000,   0.00000,274640576.00000,   0.00000,   0.00000,   0.00000,-82124192.00000,   0.00000
-219042426.36670,-453950656.54959,7931820.09957,  -0.00011,  -0.00164,   0.00010,393474240.00000,   0.00000,274640576.00000,   0.00000,   0.00000,   0.00000,-81166336.00000,   0.00000
-218639993.59569,-455002174.43513,8260689.89093,  -0.00011,  -0.00164,   0.00011,394423584.00000,   0.00000,274640576.00000,   0.00000,   0.00000,   0.00000,-80216992.00000,   0.00000
-218252706.14402,-456060183.17182,8593886.91639,  -0.00010,  -0.00165,   0.00011,395381376.00000,   0.00000,274640576.00000,   0.00000,   0.00000,   0.00000,-79259200.00000,   0.00000
-217850273.37301,-457111701.05736,8927083.94185,  -0.00010,  -0.00166,   0.00012,396336448.00000,   0.00000,274640576.00000,   0.00000,   0.00000,   0.00000,-78304128.00000,   0.00000
-217426204.43152,-458141582.77242,9260280.96731,  -0.00010,  -0.00166,   0.00012,397275808.00000,   0.00000,274640576.00000,   0.00000,   0.00000,   0.00000,-77364768.00000,   0.00000
-216993481.02183,-459180118.95567,9593477.99277,  -0.00009,  -0.00167,   0.00012,398225920.00000,   0.00000,274640576.00000,   0.00000,   0.00000,   0.00000,-76414656.00000,   0.00000
-216560757.61215,-460218655.13891,9931002.25233,  -0.00009,  -0.00167,   0.00013,399179264.00000,   0.00000,274640576.00000,   0.00000,   0.00000,   0.00000,-75461312.00000,   0.00000
-216121543.35131,-461242046.00283,10268526.51188,  -0.00008,  -0.00168,   0.00013,400122528.00000,   0.00000,274640576.00000,   0.00000,   0.00000,   0.00000,-74518048.00000,   0.00000
-215667183.77114,-462258946.01559,10606050.77144,  -0.00008,  -0.00168,   0.00014,401063424.00000,   0.00000,274640576.00000,   0.00000,   0.00000,   0.00000,-73577152.00000,   0.00000
-215197678.87163,-463269355.17721,10943575.03099,  -0.00008,  -0.00169,   0.00014,402002304.00000,   0.00000,274640576.00000,   0.00000,   0.00000,   0.00000,-72638272.00000,   0.00000
-214719519.50393,-464288418.80702,11281099.29055,  -0.00007,  -0.00169,   0.00015,402952256.00000,   0.00000,274640576.00000,   0.00000,   0.00000,   0.00000,-71688320.00000,   0.00000
-214228378.43393,-465277191.79816,11622950.78420,  -0.00007,  -0.00170,   0.00015,403879488.00000,   0.00000,274640576.00000,   0.00000,   0.00000,   0.00000,-70761088.00000,   0.00000
-213743728.21508,-466281110.10864,11960475.04376,  -0.00006,  -0.00170,   0.00016,404822592.00000,   0.00000,274640576.00000,   0.00000,   0.00000,   0.00000,-69817984.00000,   0.00000
-213243932.67689,-467278537.56796,12302326.53741,  -0.00006,  -0.00171,   0.00016,405764256.00000,   0.00000,274640576.00000,   0.00000,   0.00000,   0.00000,-68876320.00000,   0.00000
-212728991.81936,-468269474.17615,12644178.03107,  -0.00005,  -0.00172,   0.00016,406704096.00000,   0.00000,274640576.00000,   0.00000,   0.00000,   0.00000,-67936480.00000,   0.00000
-212207560.11069,-469245265.46499,12986029.52472,  -0.00005,  -0.00172,   0.00017,407634112.00000,   0.00000,274640576.00000,   0.00000,   0.00000,   0.00000,-67006464.00000,   0.00000
-211670983.08268,-470214565.90269,13332208.25247,  -0.00005,  -0.00173,   0.00017,408562912.00000,   0.00000,274640576.00000,   0.00000,   0.00000,   0.00000,-66077664.00000,   0.00000
-211125751.58647,-471192520.80859,13674059.74612,  -0.00004,  -0.00173,   0.00018,409502720.00000,   0.00000,274640576.00000,   0.00000,   0.00000,   0.00000,-65137856.00000,   0.00000
-210574029.23912,-472155330.39514,14020238.47387,  -0.00004,  -0.00174,   0.00018,410433280.00000,   0.00000,274640576.00000,   0.00000,   0.00000,   0.00000,-64207296.00000,   0.00000
-210022306.89177,-473118139.98170,14366417.20162,  -0.00003,  -0.00174,   0.00019,411366944.00000,   0.00000,274640576.00000,   0.00000,   0.00000,   0.00000,-63273632.00000,   0.00000
-209433803.05459,-474052822.54662,14708268.69527,  -0.00003,  -0.00175,   0.00019,412280864.00000,   0.00000,274640576.00000,   0.00000,   0.00000,   0.00000,-62359712.00000,   0.00000
-208866935.38790,-475009141.28203,15054447.42302,  -0.00002,  -0.00175,   0.00020,413216320.00000,   0.00000,274640576.00000,   0.00000,   0.00000,   0.00000,-61424256.00000,   0.00000
-208269777.08254,-475952478.31515,15404953.38487,  -0.00002,  -0.00176,   0.00020,414146176.00000,   0.00000,274640576.00000,   0.00000,   0.00000,   0.00000,-60494400.00000,   0.00000
-207666127.92602,-476880670.02893,15751132.11262,  -0.00001,  -0.00176,   0.00020,415065600.00000,   0.00000,274640576.00000,   0.00000,   0.00000,   0.00000,-59574976.00000,   0.00000
-207062478.76951,-477808861.74271,16097310.84037,  -0.00001,  -0.00177,   0.00021,415988224.00000,   0.00000,274640576.00000,   0.00000,   0.00000,   0.00000,-58652352.00000,   0.00000
-206450175.14480,-478745707.92468,16447816.80222,  -0.00001,  -0.00178,   0.00021,416923040.00000,   0.00000,274640576.00000,   0.00000,   0.00000,   0.00000,-57717536.00000,   0.00000
-205816235.34961,-479660917.93617,16793995.52997,  -0.00000,  -0.00178,   0.00022,417842912.00000,   0.00000,274640576.00000,   0.00000,   0.00000,   0.00000,-56797664.00000,   0.00000
-205175804.70327,-480560982.62832,17144501.49181,   0.00000,  -0.00179,   0.00022,418753216.00000,   0.00000,274640576.00000,   0.00000,   0.00000,   0.00000,-55887360.00000,   0.00000
-204526719.58874,-481469701.78866,17495007.45366,   0.00001,  -0.00179,   0.00023,419675200.00000,   0.00000,274640576.00000,   0.00000,   0.00000,   0.00000,-54965376.00000,   0.00000
-203877634.47421,-482378420.94901,17841186.18141,   0.00001,  -0.00180,   0.00023,420599776.00000,   0.00000,274640576.00000,   0.00000,   0.00000,   0.00000,-54040800.00000,   0.00000
-203206913.18919,-483265503.93886,18191692.14326,   0.00002,  -0.00180,   0.00024,421510304.00000,   0.00000,274640576.00000,   0.00000,   0.00000,   0.00000,-53130272.00000,   0.00000
-202527537.43598,-484161241.39692,18542198.10510,   0.00002,  -0.00181,   0.00024,422432512.00000,   0.00000,274640576.00000,   0.00000,   0.00000,   0.00000,-52208064.00000,   0.00000
-201841670.83163,-485041833.53563,18892704.06695,   0.00003,  -0.00181,   0.00025,423344448.00000,   0.00000,274640576.00000,   0.00000,   0.00000,   0.00000,-51296128.00000,   0.00000
-201155804.22727,-485922425.67435,19243210.02880,   0.00003,  -0.00182,   0.00025,424259456.00000,   0.00000,274640576.00000,   0.00000,   0.00000,   0.00000,-50381120.00000,   0.00000
-200454792.30358,-486796526.96191,19593715.99064,   0.00004,  -0.00182,   0.00025,425173024.00000,   0.00000,274640576.00000,   0.00000,   0.00000,   0.00000,-49467552.00000,   0.00000
-199732144.20940,-487648992.07900,19948549.18659,   0.00004,  -0.00183,   0.00026,426072672.00000,   0.00000,274640576.00000,   0.00000,   0.00000,   0.00000,-48567904.00000,   0.00000
-199015986.96637,-488516602.51542,20299055.14843,   0.00005,  -0.00183,   0.00026,426987680.00000,   0.00000,274640576.00000,   0.00000,   0.00000,   0.00000,-47652896.00000,   0.00000
-198278193.55285,-489362576.78136,20649561.11028,   0.00005,  -0.00184,   0.00027,427888448.00000,   0.00000,274640576.00000,   0.00000,   0.00000,   0.00000,-46752128.00000,   0.00000
-197546890.99048,-490223696.36664,21004394.30623,   0.00006,  -0.00185,   0.00027,428805856.00000,   0.00000,274640576.00000,   0.00000,   0.00000,   0.00000,-45834720.00000,   0.00000
-196793952.25763,-491063179.78143,21354900.26807,   0.00006,  -0.00185,   0.00028,429708384.00000,   0.00000,274640576.00000,   0.00000,   0.00000,   0.00000,-44932192.00000,   0.00000
-196041013.52477,-491902663.19622,21705406.22992,   0.00007,  -0.00186,   0.00028,430614016.00000,   0.00000,274640576.00000,   0.00000,   0.00000,   0.00000,-44026560.00000,   0.00000
-195266438.62143,-492720510.44053,22060239.42586,   0.00007,  -0.00186,   0.00029,431506432.00000,   0.00000,274640576.00000,   0.00000,   0.00000,   0.00000,-43134144.00000,   0.00000
-194483209.24990,-493547012.15304,22410745.38771,   0.00008,  -0.00187,   0.00029,432410592.00000,   0.00000,274640576.00000,   0.00000,   0.00000,   0.00000,-42229984.00000,   0.00000
-193693489.02722,-494358368.54620,22765578.58365,   0.00008,  -0.00187,   0.00030,433305952.00000,   0.00000,274640576.00000,   0.00000,   0.00000,   0.00000,-41334624.00000,   0.00000
-192910259.65568,-495184870.25870,23116084.54550,   0.00009,  -0.00188,   0.00030,434217696.00000,   0.00000,274640576.00000,   0.00000,   0.00000,   0.00000,-40422880.00000,   0.00000
-192105394.11366,-495989735.80072,23466590.50735,   0.00009,  -0.00188,   0.00031,435116064.00000,   0.00000,274640576.00000,   0.00000,   0.00000,   0.00000,-39524512.00000,   0.00000
-191285383.25231,-496788110.49160,23821423.70329,   0.00010,  -0.00189,   0.00031,436015200.00000,   0.00000,274640576.00000,   0.00000,   0.00000,   0.00000,-38625376.00000,   0.00000
-190458881.53980,-497571339.86313,24171929.66514,   0.00010,  -0.00189,   0.00031,436904608.00000,   0.00000,274640576.00000,   0.00000,   0.00000,   0.00000,-37735968.00000,   0.00000
-189623725.35911,-498363223.70286,24526762.86108,   0.00011,  -0.00190,   0.00032,437808032.00000,   0.00000,274640576.00000,   0.00000,   0.00000,   0.00000,-36832544.00000,   0.00000
-188782078.32726,-499139962.22325,24877268.82293,   0.00011,  -0.00190,   0.00032,438701536.00000,   0.00000,274640576.00000,   0.00000,   0.00000,   0.00000,-35939040.00000,   0.00000
-187931776.82723,-499925355.21183,25227774.78477,   0.00012,  -0.00191,   0.00033,439607936.00000,   0.00000,274640576.00000,   0.00000,   0.00000,   0.00000,-35032640.00000,   0.00000
-187074984.47605,-500695602.88107,25582607.98072,   0.00013,  -0.00191,   0.00033,440505344.00000,   0.00000,274640576.00000,   0.00000,   0.00000,   0.00000,-34135232.00000,   0.00000
-186196555.95438,-501444214.37983,25933113.94256,   0.00013,  -0.00192,   0.00034,441387776.00000,   0.00000,274640576.00000,   0.00000,   0.00000,   0.00000,-33252800.00000,   0.00000
-185324618.28386,-502207971.19793,26283619.90441,   0.00014,  -0.00192,   0.00034,442286240.00000,   0.00000,274640576.00000,   0.00000,   0.00000,   0.00000,-32354336.00000,   0.00000
-184431044.44286,-502950091.84554,26638453.10036,   0.00014,  -0.00193,   0.00035,443170720.00000,   0.00000,274640576.00000,   0.00000,   0.00000,   0.00000,-31469856.00000,   0.00000
-183543961.45300,-503707357.81250,26988959.06220,   0.00015,  -0.00193,   0.00035,444070080.00000,   0.00000,274640576.00000,   0.00000,   0.00000,   0.00000,-30570496.00000,   0.00000
-182635242.29266,-504442987.60897,27339465.02405,   0.00015,  -0.00194,   0.00036,444954336.00000,   0.00000,274640576.00000,   0.00000,   0.00000,   0.00000,-29686240.00000,   0.00000
-181720032.28117,-505163472.08609,27689970.98590,   0.00016,  -0.00194,   0.00036,445827744.00000,   0.00000,274640576.00000,   0.00000,   0.00000,   0.00000,-28812832.00000,   0.00000
-180796167.80148,-505892611.03142,28040476.94774,   0.00016,  -0.00195,   0.00036,446712896.00000,   0.00000,274640576.00000,   0.00000,   0.00000,   0.00000,-27927680.00000,   0.00000
-179865812.47066,-506606604.65740,28390982.90959,   0.00017,  -0.00195,   0.00037,447587488.00000,   0.00000,274640576.00000,   0.00000,   0.00000,   0.00000,-27053088.00000,   0.00000
-178926802.67163,-507329252.75158,28741488.87144,   0.00018,  -0.00196,   0.00037,448474816.00000,   0.00000,274640576.00000,   0.00000,   0.00000,   0.00000,-26165760.00000,   0.00000
-177981302.02147,-508036755.52642,29091994.83328,   0.00018,  -0.00196,   0.00038,449352352.00000,   0.00000,274640576.00000,   0.00000,   0.00000,   0.00000,-25288224.00000,   0.00000
-177014165.20082,-508722622.13077,29438173.56103,   0.00019,  -0.00197,   0.00038,450216000.00000,   0.00000,274640576.00000,   0.00000,   0.00000,   0.00000,-24424576.00000,   0.00000
-176038373.91197,-509417143.20332,29788679.52288,   0.00019,  -0.00197,   0.00039,451094400.00000,   0.00000,274640576.00000,   0.00000,   0.00000,   0.00000,-23546176.00000,   0.00000
-175056091.77198,-510096518.95653,30134858.25063,   0.00020,  -0.00198,   0.00039,451963456.00000,   0.00000,274640576.00000,   0.00000,   0.00000,   0.00000,-22677120.00000,   0.00000
-174073809.63199,-510775894.70974,30485364.21248,   0.00020,  -0.00198,   0.00040,452838368.00000,   0.00000,274640576.00000,   0.00000,   0.00000,   0.00000,-21802208.00000,   0.00000
-173076382.17266,-511448779.61180,30831542.94023,   0.00021,  -0.00199,   0.00040,453713920.00000,   0.00000,274640576.00000,   0.00000,   0.00000,   0.00000,-20926656.00000,   0.00000
-172078954.71333,-512121664.51387,31177721.66798,   0.00022,  -0.00199,   0.00041,454594304.00000,   0.00000,274640576.00000,   0.00000,   0.00000,   0.00000,-20046272.00000,   0.00000
-171059891.08352,-512772913.24545,31528227.62982,   0.00022,  -0.00200,   0.00041,455464256.00000,   0.00000,274640576.00000,   0.00000,   0.00000,   0.00000,-19176320.00000,   0.00000
-170040827.45370,-513424161.97703,31874406.35757,   0.00023,  -0.00200,   0.00041,456338048.00000,   0.00000,274640576.00000,   0.00000,   0.00000,   0.00000,-18302528.00000,   0.00000
-169006618.50455,-514068919.85746,32216257.85123,   0.00023,  -0.00201,   0.00042,457212288.00000,   0.00000,274640576.00000,   0.00000,   0.00000,   0.00000,-17428288.00000,   0.00000
-167972409.55540,-514713677.73790,32562436.57898,   0.00024,  -0.00201,   0.00042,458091840.00000,   0.00000,274640576.00000,   0.00000,   0.00000,   0.00000,-16548736.00000,   0.00000
-166916564.43576,-515336799.44784,32908615.30673,   0.00025,  -0.00202,   0.00043,458959520.00000,   0.00000,274640576.00000,   0.00000,   0.00000,   0.00000,-15681056.00000,   0.00000
-165860719.31612,-515959921.15779,33250466.80038,   0.00025,  -0.00202,   0.00043,459830304.00000,   0.00000,274640576.00000,   0.00000,   0.00000,   0.00000,-14810272.00000,   0.00000
-164789728.87715,-516576552.01660,33596645.52813,   0.00026,  -0.00203,   0.00044,460702816.00000,   0.00000,274640576.00000,   0.00000,   0.00000,   0.00000,-13937760.00000,   0.00000
-163718738.43817,-517193182.87540,33938497.02178,   0.00026,  -0.00203,   0.00044,461578304.00000,   0.00000,274640576.00000,   0.00000,   0.00000,   0.00000,-13062272.00000,   0.00000
-162626111.82871,-517788177.56372,34280348.51543,   0.00027,  -0.00204,   0.00045,462441600.00000,   0.00000,274640576.00000,   0.00000,   0.00000,   0.00000,-12198976.00000,   0.00000
-161533485.21925,-518383172.25204,34622200.00909,   0.00028,  -0.00204,   0.00045,463308576.00000,   0.00000,274640576.00000,   0.00000,   0.00000,   0.00000,-11332000.00000,   0.00000
-160425713.29045,-518971676.08922,34964051.50274,   0.00028,  -0.00205,   0.00045,464176384.00000,   0.00000,274640576.00000,   0.00000,   0.00000,   0.00000,-10464192.00000,   0.00000
-159311450.51051,-519545034.60705,35305902.99639,   0.00029,  -0.00205,   0.00046,465035008.00000,   0.00000,274640576.00000,   0.00000,   0.00000,   0.00000,-9605568.00000,   0.00000
-158203678.58171,-520133538.44423,35643427.25595,   0.00029,  -0.00206,   0.00046,465909440.00000,   0.00000,274640576.00000,   0.00000,   0.00000,   0.00000,-8731136.00000,   0.00000
-157074270.48242,-520700406.11092,35980951.51551,   0.00030,  -0.00206,   0.00047,466771936.00000,   0.00000,274640576.00000,   0.00000,   0.00000,   0.00000,-7868640.00000,   0.00000
-155923226.21265,-521245637.60713,36322803.00916,   0.00031,  -0.00207,   0.00047,467623488.00000,   0.00000,274640576.00000,   0.00000,   0.00000,   0.00000,-7017088.00000,   0.00000
-154778672.79403,-521806014.42267,36660327.26871,   0.00031,  -0.00207,   0.00048,468491008.00000,   0.00000,274640576.00000,   0.00000,   0.00000,   0.00000,-6149568.00000,   0.00000
-153627628.52426,-522351245.91888,36993524.29417,   0.00032,  -0.00208,   0.00048,469348704.00000,   0.00000,274640576.00000,   0.00000,   0.00000,   0.00000,-5291872.00000,   0.00000
-152461438.93515,-522889986.56394,37331048.55373,   0.00033,  -0.00208,   0.00049,470208608.00000,   0.00000,274640576.00000,   0.00000,   0.00000,   0.00000,-4431968.00000,   0.00000
-151288758.49490,-523413581.88966,37668572.81329,   0.00033,  -0.00209,   0.00049,471059648.00000,   0.00000,274640576.00000,   0.00000,   0.00000,   0.00000,-3580928.00000,   0.00000
-150107423.58645,-523945831.68358,38001769.83875,   0.00034,  -0.00209,   0.00049,471924192.00000,   0.00000,274640576.00000,   0.00000,   0.00000,   0.00000,-2716384.00000,   0.00000
-148919597.82686,-524462936.15815,38334966.86420,   0.00035,  -0.00210,   0.00050,472779872.00000,   0.00000,274640576.00000,   0.00000,   0.00000,   0.00000,-1860704.00000,   0.00000
-147710135.89679,-524958404.46224,38668163.88966,   0.00035,  -0.00210,   0.00050,473624320.00000,   0.00000,274640576.00000,   0.00000,   0.00000,   0.00000,-1016256.00000,   0.00000
-146500673.96671,-525453872.76634,39001360.91512,   0.00036,  -0.00211,   0.00051,474472960.00000,   0.00000,274640576.00000,   0.00000,   0.00000,   0.00000,-167616.00000,   0.00000
-146262088.70316,-525551611.63101,39066235.62006,   0.00036,  -0.00211,   0.00051,474640704.00000,   0.00000,274640576.00000,   0.00000,   0.00000,   0.00000, 128.00000,   0.00000
-145151861.80294,-525214611.23732,39268879.45349,   0.00036,  -0.00211,   0.00051,474640704.00000,   0.00000,274643456.00000,   0.00000,  -0.00000,   0.00000, -64.00000,   2.00000
-143756113.77599,-524788280.37448,39520751.83528,   0.00037,  -0.00211,   0.00052,475496736.00000,   0.00001,274647072.00000,   0.00000,  -0.00001,   0.00000,  64.00000,   2.00000
-142343546.01074,-524353223.80410,39773154.32036,   0.00038,  -0.00212,   0.00052,475489216.00000,   0.00001,274650656.00000,   0.00000,  -0.00001,   0.00000,  64.00000,   2.00000
-140936760.31655,-523916402.12670,40023559.55163,   0.00038,  -0.00212,   0.00052,475509632.00000,   0.00001,274654272.00000,   0.00000,  -0.00001,   0.00000, -32.00000,   2.00000
-139523703.14427,-523473481.59356,40275478.10282,   0.00039,  -0.00213,   0.00053,475491552.00000,   0.00002,274657824.00000,   0.00000,  -0.00002,   0.00000,   0.00000,   2.00000
-138116684.07950,-523030225.87203,40521186.51073,   0.00040,  -0.00213,   0.00053,475510752.00000,   0.00002,274661472.00000,   0.00001,  -0.00002,   0.00001,   0.00000,   2.00000
-136677884.38687,-522574160.21006,40767676.40585,   0.00040,  -0.00214,   0.00054,475501120.00000,   0.00002,274665024.00000,   0.00001,  -0.00003,   0.00001,  96.00000,   2.00000
-135251374.60477,-522117510.88772,41014328.77111,   0.00041,  -0.00214,   0.00054,475498272.00000,   0.00003,274668576.00000,   0.00001,  -0.00003,   0.00001, -32.00000,   2.00000
-133816001.27009,-521655094.53952,41259165.29516,   0.00042,  -0.00215,   0.00055,475516384.00000,   0.00003,274672160.00000,   0.00001,  -0.00003,   0.00001,  32.00000,   2.00000
-132378139.23039,-521188090.61577,41504392.66783,   0.00042,  -0.00215,   0.00055,475511104.00000,   0.00003,274675744.00000,   0.00001,  -0.00004,   0.00001,   0.00000,   2.00000
-130923178.04363,-520713511.40331,41746016.78567,   0.00043,  -0.00215,   0.00055,475502688.00000,   0.00004,274679264.00000,   0.00001,  -0.00004,   0.00001, -32.00000,   2.00000
-129469903.35786,-520235798.76240,41986831.36079,   0.00044,  -0.00216,   0.00056,475510208.00000,   0.00004,274682816.00000,   0.00001,  -0.00004,   0.00001,   0.00000,   2.00000
-128003566.38149,-519750724.50631,42227040.51810,   0.00044,  -0.00216,   0.00056,475515808.00000,   0.00004,274686368.00000,   0.00001,  -0.00005,   0.00001, -32.00000,   2.00000
-126539157.41664,-519263720.08588,42462231.59935,   0.00045,  -0.00217,   0.00057,475522336.00000,   0.00004,274689920.00000,   0.00001,  -0.00005,   0.00001,  32.00000,   2.00000
-125057295.01241,-518767470.05028,42698050.20372,   0.00046,  -0.00217,   0.00057,475515200.00000,   0.00005,274693440.00000,   0.00002,  -0.00006,   0.00002, -32.00000,   2.00000
-123592044.03046,-518272536.30544,42932890.36213,   0.00046,  -0.00218,   0.00057,475524736.00000,   0.00005,274696992.00000,   0.00002,  -0.00006,   0.00002,  32.00000,   2.00000
-122094479.15193,-517763767.59817,43168564.01308,   0.00047,  -0.00218,   0.00058,475515936.00000,   0.00005,274700480.00000,   0.00002,  -0.00006,   0.00002, 128.00000,   2.00000
-120613604.46170,-517256159.00465,43403255.66989,   0.00048,  -0.00219,   0.00058,475525568.00000,   0.00006,274704032.00000,   0.00002,  -0.00007,   0.00002,  64.00000,   2.00000
-119119977.69321,-516741989.93581,43633143.95765,   0.00049,  -0.00219,   0.00059,475530240.00000,   0.00006,274707552.00000,   0.00002,  -0.00007,   0.00002,   0.00000,   2.00000
-117608852.05413,-516217999.11081,43863689.03464,   0.00049,  -0.00219,   0.00059,475523584.00000,   0.00006,274711040.00000,   0.00002,  -0.00007,   0.00002,  96.00000,   2.00000
-116099732.57444,-515690464.46247,44093446.21916,   0.00050,  -0.00220,   0.00059,475531328.00000,   0.00007,274714560.00000,   0.00002,  -0.00008,   0.00002, 128.00000,   2.00000
-114588153.61137,-515158784.26635,44319491.78769,   0.00051,  -0.00220,   0.00060,475525248.00000,   0.00007,274718048.00000,   0.00002,  -0.00008,   0.00002, -32.00000,   2.00000
-113063798.41107,-514618995.59329,44544952.70692,   0.00051,  -0.00221,   0.00060,475531456.00000,   0.00007,274721536.00000,   0.00002,  -0.00009,   0.00002, 192.00000,   2.00000
-111541562.89853,-514075374.44746,44769616.74119,   0.00052,  -0.00221,   0.00061,475539456.00000,   0.00008,274725056.00000,   0.00003,  -0.00009,   0.00002, -96.00000,   2.00000
-110016687.80434,-513526248.04120,44994792.13588,   0.00053,  -0.00221,   0.00061,475534816.00000,   0.00008,274728544.00000,   0.00003,  -0.00009,   0.00003, -32.00000,   2.00000
-108474352.59879,-512967992.27874,45216446.47131,   0.00053,  -0.00222,   0.00061,475527328.00000,   0.00008,274731968.00000,   0.00003,  -0.00010,   0.00003,  96.00000,   2.00000
-106939087.18809,-512407971.68121,45436025.95531,   0.00054,  -0.00222,   0.00062,475547968.00000,   0.00009,274735488.00000,   0.00003,  -0.00010,   0.00003,   0.00000,   2.00000
-105386282.20591,-511838795.34256,45652092.98766,   0.00055,  -0.00223,   0.00062,475540672.00000,   0.00009,274738976.00000,   0.00003,  -0.00010,   0.00003,  96.00000,   2.00000
-103830466.44243,-511262417.29549,45872848.57393,   0.00056,  -0.00223,   0.00063,475537440.00000,   0.00009,274742432.00000,   0.00003,  -0.00011,   0.00003,  32.00000,   2.00000
-102276925.05376,-510683798.89090,46088629.84106,   0.00056,  -0.00223,   0.00063,475543968.00000,   0.00010,274745888.00000,   0.00003,  -0.00011,   0.00003, -32.00000,   2.00000
-100725505.80664,-510101804.72872,46303640.03770,   0.00057,  -0.00224,   0.00063,475551840.00000,   0.00010,274749376.00000,   0.00003,  -0.00011,   0.00003,   0.00000,   2.00000
-99141215.50268,-509505284.21510,46515255.90537,   0.00058,  -0.00224,   0.00064,475543328.00000,   0.00010,274752832.00000,   0.00004,  -0.00012,   0.00003, -32.00000,   2.00000
-97573977.44670,-508910404.47506,46725939.25063,   0.00058,  -0.00225,   0.00064,475552512.00000,   0.00011,274756288.00000,   0.00004,  -0.00012,   0.00003,  96.00000,   2.00000
-95988569.41298,-508304803.99639,46937279.66910,   0.00059,  -0.00225,   0.00065,475546656.00000,   0.00011,274759712.00000,   0.00004,  -0.00012,   0.00004, 128.00000,   2.00000
-94405154.21499,-507695600.36973,47147791.05018,   0.00060,  -0.00225,   0.00065,475554624.00000,   0.00011,274763168.00000,   0.00004,  -0.00013,   0.00004, -32.00000,   2.00000
-92818590.72201,-507082325.42965,47354650.15428,   0.00061,  -0.00226,   0.00065,475548512.00000,   0.00011,274766560.00000,   0.00004,  -0.00013,   0.00004,  32.00000,   2.00000
-91218977.54856,-506460348.84928,47560808.91656,   0.00061,  -0.00226,   0.00066,475555264.00000,   0.00012,274770016.00000,   0.00004,  -0.00014,   0.00004,   0.00000,   2.00000
-89615985.36638,-505832782.74278,47767480.00626,   0.00062,  -0.00227,   0.00066,475550656.00000,   0.00012,274773408.00000,   0.00004,  -0.00014,   0.00004,   0.00000,   2.00000
-88000041.00736,-505197827.05448,47969248.03642,   0.00063,  -0.00227,   0.00066,475556128.00000,   0.00012,274776800.00000,   0.00004,  -0.00014,   0.00004,  96.00000,   2.00000
-86380621.51963,-504557041.10861,48171506.29698,   0.00064,  -0.00227,   0.00067,475551488.00000,   0.00013,274780160.00000,   0.00005,  -0.00015,   0.00004,  96.00000,   2.00000
-84763172.88657,-503912944.18458,48372919.13111,   0.00064,  -0.00228,   0.00067,475559264.00000,   0.00013,274783552.00000,   0.00005,  -0.00015,   0.00004, -64.00000,   2.00000
-83132761.53181,-503261519.77521,48569419.46739,   0.00065,  -0.00228,   0.00068,475564800.00000,   0.00013,274786976.00000,   0.00005,  -0.00015,   0.00004,  32.00000,   2.00000
-81508249.88652,-502607197.45988,48767661.48141,   0.00066,  -0.00228,   0.00068,475548768.00000,   0.00014,274790304.00000,   0.00005,  -0.00016,   0.00005, -32.00000,   2.00000
-79861163.91526,-501941126.52167,48963906.12819,   0.00067,  -0.00229,   0.00068,475567232.00000,   0.00014,274793696.00000,   0.00005,  -0.00016,   0.00005,  32.00000,   2.00000
-78225571.71804,-501276041.29243,49156375.60701,   0.00067,  -0.00229,   0.00069,475562208.00000,   0.00014,274797024.00000,   0.00005,  -0.00016,   0.00005,  32.00000,   2.00000
-76571179.38763,-500599589.35863,49349476.25999,   0.00068,  -0.00230,   0.00069,475556672.00000,   0.00015,274800352.00000,   0.00005,  -0.00017,   0.00005,   0.00000,   2.00000
-74918714.18805,-499919718.46536,49541719.38357,   0.00069,  -0.00230,   0.00069,475564608.00000,   0.00015,274803680.00000,   0.00005,  -0.00017,   0.00005, -32.00000,   2.00000
-73247435.85790,-499229696.45090,49730432.98911,   0.00070,  -0.00230,   0.00070,475557664.00000,   0.00015,274806976.00000,   0.00006,  -0.00017,   0.00005,  64.00000,   2.00000
-71578085.31933,-498536377.02473,49918322.29918,   0.00070,  -0.00231,   0.00070,475565472.00000,   0.00015,274810304.00000,   0.00006,  -0.00018,   0.00005,   0.00000,   2.00000
-69904922.18344,-497838556.18825,50102630.72863,   0.00071,  -0.00231,   0.00070,475559392.00000,   0.00016,274813568.00000,   0.00006,  -0.00018,   0.00005,  32.00000,   2.00000
-68218516.53185,-497130137.09200,50290368.94323,   0.00072,  -0.00231,   0.00071,475567840.00000,   0.00016,274816896.00000,   0.00006,  -0.00018,   0.00005,   0.00000,   2.00000
-66528253.18180,-496417172.58951,50474557.28591,   0.00073,  -0.00232,   0.00071,475561664.00000,   0.00016,274820160.00000,   0.00006,  -0.00019,   0.00006, -64.00000,   2.00000
-64840036.03295,-495702369.80354,50653814.65840,   0.00073,  -0.00232,   0.00071,475568096.00000,   0.00017,274823424.00000,   0.00006,  -0.00019,   0.00006,  64.00000,   2.00000
-63147866.93607,-494981273.68089,50833694.43412,   0.00074,  -0.00232,   0.00072,475563456.00000,   0.00017,274826656.00000,   0.00006,  -0.00019,   0.00006, -96.00000,   2.00000
-61442670.88693,-494251097.14392,51012903.57076,   0.00075,  -0.00233,   0.00072,475570592.00000,   0.00017,274829920.00000,   0.00006,  -0.00020,   0.00006,  96.00000,   2.00000
-59733584.96493,-493514338.06564,51192728.03657,   0.00076,  -0.00233,   0.00072,475566464.00000,   0.00018,274833184.00000,   0.00007,  -0.00020,   0.00006,  32.00000,   2.00000
-58020693.67107,-492772460.04795,51369028.57651,   0.00076,  -0.00233,   0.00073,475560768.00000,   0.00018,274836352.00000,   0.00007,  -0.00020,   0.00006, -32.00000,   2.00000
-56295016.33544,-492020777.12044,51544594.99971,   0.00077,  -0.00234,   0.00073,475568480.00000,   0.00018,274839584.00000,   0.00007,  -0.00021,   0.00006, -32.00000,   2.00000
-54565684.04893,-491263666.31027,51716619.58954,   0.00078,  -0.00234,   0.00074,475563232.00000,   0.00018,274842784.00000,   0.00007,  -0.00021,   0.00006, -32.00000,   2.00000
-52838955.02559,-490502419.51476,51887811.83891,   0.00079,  -0.00234,   0.00074,475571840.00000,   0.00019,274845984.00000,   0.00007,  -0.00021,   0.00006,  96.00000,   2.00000
-51093619.15203,-489727538.55231,52059582.29634,   0.00079,  -0.00234,   0.00074,475568384.00000,   0.00019,274849184.00000,   0.00007,  -0.00022,   0.00006, -32.00000,   2.00000
-49351265.03256,-488949475.01596,52226287.24406,   0.00080,  -0.00235,   0.00074,475576160.00000,   0.00019,274852384.00000,   0.00007,  -0.00022,   0.00007, -96.00000,   2.00000
-47599329.11385,-488160393.63663,52394891.58694,   0.00081,  -0.00235,   0.00075,475561504.00000,   0.00020,274855520.00000,   0.00008,  -0.00022,   0.00007,   0.00000,   2.00000
-45857146.07378,-487370784.95217,52556919.77798,   0.00082,  -0.00235,   0.00075,475582208.00000,   0.00020,274858720.00000,   0.00008,  -0.00023,   0.00007,  64.00000,   2.00000
-44096948.47531,-486564865.18872,52723489.67647,   0.00083,  -0.00236,   0.00075,475581920.00000,   0.00020,274861920.00000,   0.00008,  -0.00023,   0.00007, 160.00000,   2.00000
-42334009.77013,-485752500.91786,52882024.60924,   0.00083,  -0.00236,   0.00076,475577888.00000,   0.00020,274865120.00000,   0.00008,  -0.00023,   0.00007, -64.00000,   2.00000
-40568481.43128,-484929654.35748,53044995.70008,   0.00084,  -0.00236,   0.00076,475578272.00000,   0.00021,274868288.00000,   0.00008,  -0.00024,   0.00007,   0.00000,   2.00000
-38792034.28091,-484095366.22033,53202571.54040,   0.00085,  -0.00237,   0.00076,475588608.00000,   0.00021,274871488.00000,   0.00008,  -0.00024,   0.00007,   0.00000,   2.00000
-37013287.91049,-483251259.29364,53360306.68450,   0.00086,  -0.00237,   0.00077,475588608.00000,   0.00021,274874688.00000,   0.00008,  -0.00024,   0.00007,  32.00000,   2.00000
-35239098.68499,-482401963.83495,53512578.24399,   0.00087,  -0.00237,   0.00077,475599584.00000,   0.00022,274877920.00000,   0.00008,  -0.00025,   0.00007, -32.00000,   2.00000
-33462737.59734,-481542525.45850,53664949.07370,   0.00087,  -0.00237,   0.00077,475600096.00000,   0.00022,274881120.00000,   0.00009,  -0.00025,   0.00008, -32.00000,   2.00000
-31669082.82534,-480665844.14889,53817333.29927,   0.00088,  -0.00238,   0.00078,475601344.00000,   0.00022,274884352.00000,   0.00009,  -0.00025,   0.00008,   0.00000,   2.00000
-29880160.15803,-479783955.10013,53964201.04534,   0.00089,  -0.00238,   0.00078,475612576.00000,   0.00023,274887616.00000,   0.00009,  -0.00025,   0.00008,   0.00000,   2.00000
-28088912.21765,-478893212.75093,54106969.01955,   0.00090,  -0.00238,   0.00078,475612032.00000,   0.00023,274890848.00000,   0.00009,  -0.00026,   0.00008,  32.00000,   2.00000
-26303317.16253,-477994301.27799,54252362.38964,   0.00090,  -0.00238,   0.00079,475626656.00000,   0.00023,274894144.00000,   0.00009,  -0.00026,   0.00008, -32.00000,   2.00000
-24497847.75148,-477072314.09745,54394152.91065,   0.00091,  -0.00239,   0.00079,475619328.00000,   0.00023,274897440.00000,   0.00009,  -0.00026,   0.00008,  96.00000,   2.00000
-22738024.03394,-476143120.28223,54530295.85171,   0.00092,  -0.00239,   0.00079,475660736.00000,   0.00024,274900896.00000,   0.00010,  -0.00027,   0.00008, -96.00000,   2.00000
-20961881.04461,-475159329.37691,54658370.10456,   0.00093,  -0.00239,   0.00079,475687168.00000,   0.00024,274904544.00000,   0.00010,  -0.00027,   0.00008, -64.00000,   2.00000
-19178758.44828,-474175248.80878,54786242.86522,   0.00094,  -0.00239,   0.00080,475693632.00000,   0.00024,274908128.00000,   0.00010,  -0.00027,   0.00009,  64.00000,   2.00000
-17350016.66460,-473234994.12824,54919117.61225,   0.00094,  -0.00240,   0.00080,475626304.00000,   0.00025,274911296.00000,   0.00010,  -0.00028,   0.00009,   0.00000,   2.00000
-15498424.91181,-472305385.73009,55055995.43652,   0.00095,  -0.00240,   0.00080,475596480.00000,   0.00025,274914336.00000,   0.00010,  -0.00028,   0.00009,   0.00000,   2.00000
-13658953.21236,-471361917.50513,55190332.41709,   0.00096,  -0.00240,   0.00081,475618592.00000,   0.00025,274917472.00000,   0.00010,  -0.00028,   0.00009, -64.00000,   2.00000
-11805380.71151,-470393674.01619,55319444.41806,   0.00097,  -0.00240,   0.00081,475628352.00000,   0.00026,274920640.00000,   0.00011,  -0.00029,   0.00009,   0.00000,   2.00000
-9962957.63282,-469421035.05087,55448892.38223,   0.00098,  -0.00241,   0.00081,475628576.00000,   0.00026,274923808.00000,   0.00011,  -0.00029,   0.00009,  64.00000,   2.00000
-8106299.21403,-468438370.14648,55577788.48101,   0.00099,  -0.00241,   0.00081,475636352.00000,   0.00026,274927008.00000,   0.00011,  -0.00029,   0.00009,  32.00000,   2.00000
-6241298.34834,-467452642.71890,55703999.71126,   0.00099,  -0.00241,   0.00082,475626528.00000,   0.00026,274930112.00000,   0.00011,  -0.00030,   0.00009, -32.00000,   2.00000
-4367104.14513,-466465533.99897,55827830.24151,   0.00100,  -0.00241,   0.00082,475614656.00000,   0.00027,274933184.00000,   0.00011,  -0.00030,   0.00009, 128.00000,   2.00000
-2490959.46367,-465479212.84522,55956268.76964,   0.00101,  -0.00242,   0.00082,475616256.00000,   0.00027,274936224.00000,   0.00011,  -0.00030,   0.00010,  64.00000,   2.00000
-589511.10952,-464485818.90685,56082558.83921,   0.00102,  -0.00242,   0.00083,475602720.00000,   0.00027,274939168.00000,   0.00011,  -0.00031,   0.00010, -32.00000,   2.00000
1307495.34619,-463501158.86180,56207121.27071,   0.00103,  -0.00242,   0.00083,475585792.00000,   0.00028,274942048.00000,   0.00012,  -0.00031,   0.00010,   0.00000,   2.00000
3230412.81871,-462509933.59173,56334017.97452,   0.00103,  -0.00242,   0.00083,475571200.00000,   0.00028,274944832.00000,   0.00012,  -0.00031,   0.00010, -32.00000,   2.00000
5172089.84192,-461517098.63850,56461944.62918,   0.00104,  -0.00242,   0.00083,475567392.00000,   0.00028,274947584.00000,   0.00012,  -0.00031,   0.00010,  32.00000,   2.00000
7116783.36780,-460530877.79530,56589926.01396,   0.00105,  -0.00243,   0.00084,475535840.00000,   0.00028,274950176.00000,   0.00012,  -0.00032,   0.00010, -64.00000,   2.00000
9071954.08217,-459547133.14203,56717506.83042,   0.00106,  -0.00243,   0.00084,475544064.00000,   0.00028,274952800.00000,   0.00012,  -0.00032,   0.00010, -32.00000,   2.00000
11027336.17173,-458565862.23697,56848854.05695,   0.00107,  -0.00243,   0.00084,475517632.00000,   0.00029,274955296.00000,   0.00012,  -0.00032,   0.00010,  32.00000,   2.00000
12996394.45455,-457578243.26124,56976225.84714,   0.00107,  -0.00243,   0.00084,475519840.00000,   0.00029,274957760.00000,   0.00012,  -0.00032,   0.00010,  32.00000,   2.00000
14975346.21021,-456576494.28242,57105998.00173,   0.00108,  -0.00243,   0.00085,475505472.00000,   0.00029,274960192.00000,   0.00012,  -0.00033,   0.00010,  64.00000,   2.00000
16960786.33339,-455556125.94932,57230324.33722,   0.00109,  -0.00243,   0.00085,475522848.00000,   0.00029,274962720.00000,   0.00013,  -0.00033,   0.00010,  32.00000,   2.00000
18916944.35690,-454523142.68962,57352859.47522,   0.00110,  -0.00244,   0.00085,475549472.00000,   0.00030,274965344.00000,   0.00013,  -0.00033,   0.00011, -32.00000,   2.00000
20883534.28260,-453445859.85454,57475207.78080,   0.00111,  -0.00244,   0.00085,475566080.00000,   0.00030,274968096.00000,   0.00013,  -0.00033,   0.00011, -96.00000,   2.00000
22828820.50002,-452339772.05676,57590070.35448,   0.00112,  -0.00244,   0.00086,475607328.00000,   0.00030,274971040.00000,   0.00013,  -0.00034,   0.00011, -32.00000,   2.00000
24767678.34903,-451205671.86469,57702857.95830,   0.00112,  -0.00244,   0.00086,475629600.00000,   0.00030,274974080.00000,   0.00013,  -0.00034,   0.00011,  96.00000,   2.00000
26710736.47322,-450056873.99208,57810015.28004,   0.00113,  -0.00244,   0.00086,475633824.00000,   0.00031,274977120.00000,   0.00013,  -0.00034,   0.00011, -64.00000,   2.00000
28656087.08883,-448908138.32731,57915429.08978,   0.00114,  -0.00244,   0.00086,475636736.00000,   0.00031,274980160.00000,   0.00014,  -0.00034,   0.00011, -64.00000,   2.00000
30636812.78337,-447744723.55298,58021990.08793,   0.00115,  -0.00244,   0.00087,475614688.00000,   0.00031,274983072.00000,   0.00014,  -0.00035,   0.00011,  32.00000,   2.00000
32605761.55078,-446595117.74765,58123665.41242,   0.00116,  -0.00245,   0.00087,475609504.00000,   0.00032,274985952.00000,   0.00014,  -0.00035,   0.00011, -32.00000,   2.00000
34599007.85731,-445434285.36040,58225407.79787,   0.00117,  -0.00245,   0.00087,475601376.00000,   0.00032,274988800.00000,   0.00014,  -0.00035,   0.00011,  32.00000,   2.00000
36592408.79877,-444275247.43918,58321902.39240,   0.00117,  -0.00245,   0.00087,475603232.00000,   0.00032,274991616.00000,   0.00014,  -0.00036,   0.00011,  32.00000,   2.00000
38601525.29402,-443104955.18641,58420080.53302,   0.00118,  -0.00245,   0.00087,475585952.00000,   0.00032,274994336.00000,   0.00014,  -0.00036,   0.00012,  96.00000,   2.00000
40609360.33245,-441932936.73914,58517191.48262,   0.00119,  -0.00245,   0.00088,475592032.00000,   0.00033,274997056.00000,   0.00014,  -0.00036,   0.00012,   0.00000,   2.00000
42647565.36936,-440741780.97714,58611869.30078,   0.00120,  -0.00245,   0.00088,475576352.00000,   0.00033,274999712.00000,   0.00015,  -0.00036,   0.00012,  96.00000,   2.00000
44669566.72215,-439556811.50260,58706041.99477,   0.00121,  -0.00245,   0.00088,475580704.00000,   0.00033,275002368.00000,   0.00015,  -0.00037,   0.00012, -32.00000,   2.00000
46713610.10312,-438357855.47988,58796710.32464,   0.00122,  -0.00245,   0.00088,475576160.00000,   0.00033,275004992.00000,   0.00015,  -0.00037,   0.00012,  32.00000,   2.00000
48756033.93320,-437156741.59176,58886910.74453,   0.00122,  -0.00246,   0.00089,475582720.00000,   0.00034,275007648.00000,   0.00015,  -0.00037,   0.00012, -64.00000,   2.00000
50813171.74349,-435942257.97836,58979529.16587,   0.00123,  -0.00246,   0.00089,475567552.00000,   0.00034,275010208.00000,   0.00015,  -0.00037,   0.00012,  64.00000,   2.00000
52867827.63077,-434725721.61703,59067488.70282,   0.00124,  -0.00246,   0.00089,475574176.00000,   0.00034,275012768.00000,   0.00015,  -0.00038,   0.00012,  64.00000,   2.00000
54935701.45430,-433493527.34980,59157518.77374,   0.00125,  -0.00246,   0.00089,475561920.00000,   0.00034,275015264.00000,   0.00015,  -0.00038,   0.00012,   0.00000,   2.00000
56999268.43475,-432256796.86382,59242382.23496,   0.00126,  -0.00246,   0.00089,475572064.00000,   0.00034,275017824.00000,   0.00016,  -0.00038,   0.00012,  32.00000,   2.00000
59080615.02143,-430998719.42015,59326981.43776,   0.00127,  -0.00246,   0.00090,475576832.00000,   0.00035,275020352.00000,   0.00016,  -0.00038,   0.00012,  64.00000,   2.00000
61150004.28649,-429735609.14972,59411689.03028,   0.00127,  -0.00246,   0.00090,475577824.00000,   0.00035,275022912.00000,   0.00016,  -0.00039,   0.00013, -64.00000,   2.00000
63228471.37491,-428457444.91733,59490282.29645,   0.00128,  -0.00246,   0.00090,475593024.00000,   0.00035,275025536.00000,   0.00016,  -0.00039,   0.00013,  32.00000,   2.00000
65304263.29867,-427168686.00781,59570322.14159,   0.00129,  -0.00246,   0.00090,475582560.00000,   0.00035,275028064.00000,   0.00016,  -0.00039,   0.00013, -32.00000,   2.00000
67390158.57436,-425866022.20813,59644400.30113,   0.00130,  -0.00246,   0.00090,475595936.00000,   0.00036,275030688.00000,   0.00016,  -0.00039,   0.00013,  64.00000,   2.00000
69489549.23523,-424545708.52030,59719940.01957,   0.00131,  -0.00246,   0.00091,475585472.00000,   0.00036,275033216.00000,   0.00016,  -0.00039,   0.00013, -96.00000,   2.00000
71585415.14867,-423220637.15697,59794347.27047,   0.00132,  -0.00246,   0.00091,475595328.00000,   0.00036,275035808.00000,   0.00017,  -0.00040,   0.00013, -64.00000,   2.00000
73687393.17251,-421886741.58503,59865058.08721,   0.00133,  -0.00246,   0.00091,475591840.00000,   0.00036,275038368.00000,   0.00017,  -0.00040,   0.00013,   0.00000,   2.00000
75795342.71791,-420543028.20418,59936301.32811,   0.00133,  -0.00246,   0.00091,475589568.00000,   0.00037,275040896.00000,   0.00017,  -0.00040,   0.00013, 160.00000,   2.00000
77923629.17968,-419180226.19139,60007697.09938,   0.00134,  -0.00246,   0.00091,475590240.00000,   0.00037,275043424.00000,   0.00017,  -0.00040,   0.00013, -64.00000,   2.00000
80043698.04734,-417817785.03121,60075992.57265,   0.00135,  -0.00246,   0.00091,475583360.00000,   0.00037,275045920.00000,   0.00017,  -0.00041,   0.00013,  64.00000,   2.00000
82174880.77432,-416442258.92702,60143154.58809,   0.00136,  -0.00246,   0.00092,475595104.00000,   0.00037,275048448.00000,   0.00017,  -0.00041,   0.00013, 128.00000,   2.00000
84306648.91529,-415060157.44210,60208668.71309,   0.00137,  -0.00246,   0.00092,475578176.00000,   0.00037,275050880.00000,   0.00017,  -0.00041,   0.00014,   0.00000,   2.00000
86458445.55021,-413658347.22703,60274534.32146,   0.00138,  -0.00246,   0.00092,475579584.00000,   0.00038,275053312.00000,   0.00018,  -0.00041,   0.00014, 128.00000,   2.00000
88592415.56220,-412261394.27987,60340172.40825,   0.00138,  -0.00246,   0.00092,475585440.00000,   0.00038,275055776.00000,   0.00018,  -0.00042,   0.00014,-128.00000,   2.00000
90755656.22394,-410839486.63269,60403180.72309,   0.00139,  -0.00246,   0.00092,475575232.00000,   0.00038,275058176.00000,   0.00018,  -0.00042,   0.00014, -32.00000,   2.00000
92914500.74894,-409412651.16461,60464912.50832,   0.00140,  -0.00246,   0.00093,475586112.00000,   0.00038,275060608.00000,   0.00018,  -0.00042,   0.00014,  32.00000,   2.00000
95077820.29092,-407974597.89585,60522105.67743,   0.00141,  -0.00246,   0.00093,475586400.00000,   0.00039,275063040.00000,   0.00018,  -0.00042,   0.00014, -96.00000,   2.00000
97231490.31076,-406533215.93743,60579371.55626,   0.00142,  -0.00246,   0.00093,475585024.00000,   0.00039,275065440.00000,   0.00018,  -0.00042,   0.00014,   0.00000,   2.00000
99406671.47671,-405071763.64684,60636784.18936,   0.00143,  -0.00246,   0.00093,475586976.00000,   0.00039,275067840.00000,   0.00018,  -0.00043,   0.00014,  32.00000,   2.00000
101594584.62541,-403605992.97895,60692599.48686,   0.00144,  -0.00246,   0.00093,475575008.00000,   0.00039,275070176.00000,   0.00019,  -0.00043,   0.00014, -32.00000,   2.00000
103800033.87311,-402142078.89778,60752921.23427,   0.00144,  -0.00246,   0.00093,475553184.00000,   0.00039,275072384.00000,   0.00019,  -0.00043,   0.00014, -96.00000,   2.00000
106025530.06591,-400686348.38029,60818773.65893,   0.00145,  -0.00246,   0.00093,475523008.00000,   0.00040,275074432.00000,   0.00019,  -0.00043,   0.00014,   0.00000,   2.00000
108269974.39202,-399241673.74958,60885684.74909,   0.00146,  -0.00246,   0.00094,475490368.00000,   0.00040,275076320.00000,   0.00019,  -0.00043,   0.00015, -64.00000,   2.00000
110543072.13602,-397793127.14785,60956007.67017,   0.00147,  -0.00246,   0.00094,475469376.00000,   0.00040,275078080.00000,   0.00019,  -0.00044,   0.00015, -96.00000,   2.00000
112810812.63941,-396351247.79568,61024415.24629,   0.00148,  -0.00246,   0.00094,475452768.00000,   0.00040,275079776.00000,   0.00019,  -0.00044,   0.00015,  32.00000,   2.00000
115082218.52912,-394896248.81202,61092814.49441,   0.00149,  -0.00246,   0.00094,475453376.00000,   0.00040,275081472.00000,   0.00019,  -0.00044,   0.00015,   0.00000,   2.00000
117343331.40167,-393426706.28211,61158151.08482,   0.00149,  -0.00246,   0.00094,475475776.00000,   0.00040,275083296.00000,   0.00019,  -0.00044,   0.00015, -64.00000,   2.00000
119604609.64017,-391920775.20784,61220168.21490,   0.00150,  -0.00246,   0.00094,475491456.00000,   0.00041,275085152.00000,   0.00019,  -0.00044,   0.00015,   0.00000,   2.00000
121857738.71453,-390362661.97753,61268223.51363,   0.00151,  -0.00246,   0.00095,475544672.00000,   0.00041,275087296.00000,   0.00020,  -0.00044,   0.00015, -64.00000,   2.00000
124088112.17797,-388766796.44147,61307690.21205,   0.00152,  -0.00246,   0.00095,475584384.00000,   0.00041,275089600.00000,   0.00020,  -0.00045,   0.00015, -96.00000,   2.00000
126347387.36177,-387196828.57939,61361528.67505,   0.00153,  -0.00246,   0.00095,475538016.00000,   0.00041,275091712.00000,   0.00020,  -0.00045,   0.00015,   0.00000,   2.00000
128621640.06246,-385628699.88334,61411569.91703,   0.00154,  -0.00246,   0.00095,475506656.00000,   0.00041,275093632.00000,   0.00020,  -0.00045,   0.00015,  64.00000,   2.00000
130910278.28552,-384025253.58341,61453419.57541,   0.00155,  -0.00245,   0.00095,475526752.00000,   0.00042,275095680.00000,   0.00020,  -0.00045,   0.00015, -64.00000,   2.00000
133183737.49720,-382430198.88733,61495154.70791,   0.00155,  -0.00245,   0.00095,475526720.00000,   0.00042,275097696.00000,   0.00020,  -0.00045,   0.00015, 128.00000,   2.00000
135472105.90008,-380816839.32636,61538312.75756,   0.00156,  -0.00245,   0.00095,475515360.00000,   0.00042,275099648.00000,   0.00020,  -0.00046,   0.00015,   0.00000,   2.00000
137763459.16258,-379188491.56364,61580866.16641,   0.00157,  -0.00245,   0.00095,475519520.00000,   0.00042,275101632.00000,   0.00021,  -0.00046,   0.00015,  32.00000,   2.00000
140061440.99444,-377542746.02478,61616638.74605,   0.00158,  -0.00245,   0.00096,475538304.00000,   0.00042,275103680.00000,   0.00021,  -0.00046,   0.00015,  64.00000,   2.00000
142356356.98780,-375881611.36356,61653406.36767,   0.00159,  -0.00245,   0.00096,475532864.00000,   0.00042,275105728.00000,   0.00021,  -0.00046,   0.00016, -64.00000,   2.00000
144652496.32492,-374203834.93842,61685198.78103,   0.00160,  -0.00245,   0.00096,475540512.00000,   0.00043,275107776.00000,   0.00021,  -0.00046,   0.00016, 128.00000,   2.00000
146939012.57443,-372515367.94955,61714765.19608,   0.00161,  -0.00245,   0.00096,475560288.00000,   0.00043,275109888.00000,   0.00021,  -0.00046,   0.00016, 128.00000,   2.00000
149235297.55255,-370800495.04214,61744708.03714,   0.00161,  -0.00244,   0.00096,475561152.00000,   0.00043,275112032.00000,   0.00021,  -0.00047,   0.00016,-160.00000,   2.00000
151532184.88549,-369068558.51099,61769672.24439,   0.00162,  -0.00244,   0.00096,475569728.00000,   0.00043,275114176.00000,   0.00021,  -0.00047,   0.00016, -32.00000,   2.00000
153818558.45313,-367325278.65017,61796590.59602,   0.00163,  -0.00244,   0.00096,475591232.00000,   0.00043,275116448.00000,   0.00021,  -0.00047,   0.00016,  96.00000,   2.00000
156116444.44918,-365558457.36125,61815724.16679,   0.00164,  -0.00244,   0.00096,475588320.00000,   0.00044,275118656.00000,   0.00022,  -0.00047,   0.00016, -96.00000,   2.00000
158414461.85600,-363773182.58607,61838208.64147,   0.00165,  -0.00244,   0.00097,475598784.00000,   0.00044,275120928.00000,   0.00022,  -0.00047,   0.00016,  32.00000,   2.00000
160714160.54202,-361972076.81498,61855855.70193,   0.00166,  -0.00244,   0.00097,475605696.00000,   0.00044,275123232.00000,   0.00022,  -0.00048,   0.00016,   0.00000,   2.00000
163015562.17894,-360154735.55704,61872912.89489,   0.00166,  -0.00243,   0.00097,475612896.00000,   0.00044,275125536.00000,   0.00022,  -0.00048,   0.00016,-128.00000,   2.00000
165319933.15141,-358322953.54843,61885395.35434,   0.00167,  -0.00243,   0.00097,475617632.00000,   0.00045,275127872.00000,   0.00022,  -0.00048,   0.00016,  32.00000,   2.00000
167627102.13189,-356475865.31375,61897484.62079,   0.00168,  -0.00243,   0.00097,475623296.00000,   0.00045,275130208.00000,   0.00022,  -0.00048,   0.00016,  32.00000,   2.00000
169937770.34146,-354614134.91167,61909327.51350,   0.00169,  -0.00243,   0.00097,475627648.00000,   0.00045,275132544.00000,   0.00023,  -0.00048,   0.00017,  64.00000,   2.00000
172240347.81469,-352749723.12294,61917661.19395,   0.00170,  -0.00243,   0.00097,475624096.00000,   0.00045,275134880.00000,   0.00023,  -0.00049,   0.00017, -64.00000,   2.00000
174560687.39393,-350861551.67994,61925319.59678,   0.00171,  -0.00243,   0.00097,475631552.00000,   0.00045,275137216.00000,   0.00023,  -0.00049,   0.00017,-128.00000,   2.00000
176873569.71540,-348970608.74138,61933853.19026,   0.00172,  -0.00242,   0.00097,475627648.00000,   0.00046,275139520.00000,   0.00023,  -0.00049,   0.00017, 128.00000,   2.00000
179205181.55587,-347056681.83380,61941920.54602,   0.00172,  -0.00242,   0.00097,475633696.00000,   0.00046,275141856.00000,   0.00023,  -0.00049,   0.00017,  32.00000,   2.00000
181541199.48254,-345132797.41047,61948125.80911,   0.00173,  -0.00242,   0.00097,475617600.00000,   0.00046,275144096.00000,   0.00023,  -0.00049,   0.00017,  64.00000,   2.00000
183873570.35016,-343205809.48138,61953583.82922,   0.00174,  -0.00242,   0.00098,475625696.00000,   0.00046,275146368.00000,   0.00024,  -0.00050,   0.00017,  64.00000,   2.00000
186226261.27733,-341257820.65176,61954697.71700,   0.00175,  -0.00241,   0.00098,475628704.00000,   0.00046,275148640.00000,   0.00024,  -0.00050,   0.00017, 160.00000,   2.00000
188583095.18505,-339298818.17462,61958136.69712,   0.00176,  -0.00241,   0.00098,475613600.00000,   0.00047,275150848.00000,   0.00024,  -0.00050,   0.00017, -96.00000,   2.00000
190936365.08314,-337336944.56402,61960885.82432,   0.00177,  -0.00241,   0.00098,475621312.00000,   0.00047,275153056.00000,   0.00024,  -0.00050,   0.00017,  64.00000,   2.00000
193306370.35663,-335353623.05114,61965191.75923,   0.00177,  -0.00241,   0.00098,475612224.00000,   0.00047,275155232.00000,   0.00024,  -0.00050,   0.00017,  32.00000,   2.00000
195670480.76536,-333369042.39736,61966434.65312,   0.00178,  -0.00240,   0.00098,475605216.00000,   0.00047,275157344.00000,   0.00024,  -0.00051,   0.00017, -64.00000,   2.00000
198052979.62592,-331361198.35145,61967165.19412,   0.00179,  -0.00240,   0.00098,475611456.00000,   0.00047,275159488.00000,   0.00024,  -0.00051,   0.00018, -32.00000,   2.00000
200440813.54076,-329340104.50194,61968036.65697,   0.00180,  -0.00240,   0.00098,475612960.00000,   0.00048,275161632.00000,   0.00025,  -0.00051,   0.00018, 128.00000,   2.00000
202821577.25347,-327316584.37898,61965546.55955,   0.00181,  -0.00240,   0.00098,475607968.00000,   0.00048,275163744.00000,   0.00025,  -0.00051,   0.00018, -96.00000,   2.00000
205219398.13481,-325268720.26886,61962241.37445,   0.00182,  -0.00239,   0.00098,475616672.00000,   0.00048,275165856.00000,   0.00025,  -0.00051,   0.00018,  64.00000,   2.00000
207608769.91234,-323216727.13436,61959528.90072,   0.00183,  -0.00239,   0.00098,475614464.00000,   0.00048,275168000.00000,   0.00025,  -0.00051,   0.00018, -32.00000,   2.00000
210001979.31644,-321150087.78675,61956601.67371,   0.00183,  -0.00239,   0.00098,475618368.00000,   0.00048,275170112.00000,   0.00025,  -0.00052,   0.00018,  64.00000,   2.00000
212399521.78458,-319069635.98673,61949298.79157,   0.00184,  -0.00238,   0.00099,475621248.00000,   0.00049,275172224.00000,   0.00025,  -0.00052,   0.00018, -64.00000,   2.00000
214810906.26926,-316964513.82111,61942814.21060,   0.00185,  -0.00238,   0.00099,475617568.00000,   0.00049,275174336.00000,   0.00025,  -0.00052,   0.00018, -64.00000,   2.00000
217215116.87936,-314853945.61798,61934927.48232,   0.00186,  -0.00238,   0.00099,475631104.00000,   0.00049,275176480.00000,   0.00026,  -0.00052,   0.00018,  64.00000,   2.00000
219621383.53312,-312729742.63975,61924487.84630,   0.00187,  -0.00237,   0.00099,475620160.00000,   0.00049,275178592.00000,   0.00026,  -0.00052,   0.00018, 160.00000,   2.00000
222042735.00909,-310579621.41018,61912891.27622,   0.00188,  -0.00237,   0.00099,475631776.00000,   0.00049,275180704.00000,   0.00026,  -0.00052,   0.00018,  64.00000,   2.00000
224454638.19124,-308424332.28235,61901721.38584,   0.00188,  -0.00237,   0.00099,475631232.00000,   0.00050,275182848.00000,   0.00026,  -0.00053,   0.00018,  96.00000,   2.00000
226869931.01410,-306254459.53915,61886041.43897,   0.00189,  -0.00236,   0.00099,475635136.00000,   0.00050,275184960.00000,   0.00026,  -0.00053,   0.00018, 160.00000,   2.00000
229286679.59898,-304067674.71309,61873989.00410,   0.00190,  -0.00236,   0.00099,475643040.00000,   0.00050,275187136.00000,   0.00026,  -0.00053,   0.00019,  32.00000,   2.00000
231706441.03724,-301866051.12018,61857298.84672,   0.00191,  -0.00236,   0.00099,475647744.00000,   0.00050,275189312.00000,   0.00027,  -0.00053,   0.00019, -96.00000,   2.00000
234129311.80272,-299649675.48981,61835938.83063,   0.00192,  -0.00235,   0.00099,475652320.00000,   0.00050,275191488.00000,   0.00027,  -0.00053,   0.00019,  32.00000,   2.00000
236542081.96762,-297427173.24383,61818952.91827,   0.00193,  -0.00235,   0.00099,475653664.00000,   0.00051,275193664.00000,   0.00027,  -0.00053,   0.00019, -32.00000,   2.00000
238981115.83855,-295169546.72333,61797443.72175,   0.00193,  -0.00235,   0.00099,475656128.00000,   0.00051,275195840.00000,   0.00027,  -0.00054,   0.00019,   0.00000,   2.00000
241412467.16512,-292907666.70849,61776277.44781,   0.00194,  -0.00234,   0.00099,475653952.00000,   0.00051,275198016.00000,   0.00027,  -0.00054,   0.00019,  64.00000,   2.00000
243838630.86047,-290642236.29760,61753682.39165,   0.00195,  -0.00234,   0.00099,475664544.00000,   0.00051,275200224.00000,   0.00027,  -0.00054,   0.00019,  64.00000,   2.00000
246283154.42370,-288354434.45840,61727794.64266,   0.00196,  -0.00233,   0.00099,475655872.00000,   0.00051,275202368.00000,   0.00028,  -0.00054,   0.00019,   0.00000,   2.00000
248724578.30444,-286065186.67037,61702777.32645,   0.00197,  -0.00233,   0.00099,475647552.00000,   0.00052,275204448.00000,   0.00028,  -0.00054,   0.00019,-128.00000,   2.00000
251187825.86519,-283754520.87467,61677035.35832,   0.00198,  -0.00233,   0.00099,475650464.00000,   0.00052,275206528.00000,   0.00028,  -0.00055,   0.00019, -32.00000,   2.00000
253661601.28019,-281434072.51782,61653691.88388,   0.00198,  -0.00232,   0.00099,475629792.00000,   0.00052,275208512.00000,   0.00028,  -0.00055,   0.00019,  64.00000,   2.00000
256138402.04390,-279116070.67591,61625767.22161,   0.00199,  -0.00232,   0.00099,475628000.00000,   0.00052,275210464.00000,   0.00028,  -0.00055,   0.00019,  96.00000,   2.00000
258638966.64444,-276779118.08950,61599652.10522,   0.00200,  -0.00231,   0.00100,475610944.00000,   0.00052,275212352.00000,   0.00028,  -0.00055,   0.00019,  64.00000,   2.00000
261142293.34421,-274444309.03229,61573169.18905,   0.00201,  -0.00231,   0.00100,475609120.00000,   0.00052,275214176.00000,   0.00028,  -0.00055,   0.00020,  64.00000,   2.00000
263656932.43131,-272100854.94121,61549461.62071,   0.00202,  -0.00230,   0.00100,475585280.00000,   0.00053,275215904.00000,   0.00029,  -0.00055,   0.00020,  64.00000,   2.00000
266195624.10592,-269738554.78774,61521205.08596,   0.00202,  -0.00230,   0.00100,475582272.00000,   0.00053,275217632.00000,   0.00029,  -0.00055,   0.00020,  96.00000,   2.00000
268731098.78541,-267374788.24982,61498156.17243,   0.00203,  -0.00230,   0.00100,475572384.00000,   0.00053,275219264.00000,   0.00029,  -0.00056,   0.00020,  96.00000,   2.00000
271274714.78342,-264999600.92857,61470800.98592,   0.00204,  -0.00229,   0.00100,475568256.00000,   0.00053,275220928.00000,   0.00029,  -0.00056,   0.00020, -32.00000,   2.00000
273811994.99631,-262621368.01887,61439637.78892,   0.00205,  -0.00229,   0.00100,475561504.00000,   0.00053,275222528.00000,   0.00029,  -0.00056,   0.00020,  32.00000,   2.00000
276371336.50175,-260203734.55763,61411141.76636,   0.00206,  -0.00228,   0.00100,475569280.00000,   0.00053,275224160.00000,   0.00029,  -0.00056,   0.00020, -32.00000,   2.00000
278917256.47485,-257777896.31646,61377416.83640,   0.00206,  -0.00228,   0.00100,475572704.00000,   0.00054,275225824.00000,   0.00029,  -0.00056,   0.00020,  96.00000,   2.00000
281445615.89238,-255340584.74915,61339433.21277,   0.00207,  -0.00227,   0.00100,475597856.00000,   0.00054,275227584.00000,   0.00029,  -0.00056,   0.00020,  64.00000,   2.00000
283972698.32171,-252867549.24408,61298675.49045,   0.00208,  -0.00227,   0.00100,475614464.00000,   0.00054,275229472.00000,   0.00030,  -0.00056,   0.00020, -64.00000,   2.00000
286472442.71107,-250378397.56009,61254402.50021,   0.00209,  -0.00226,   0.00100,475636800.00000,   0.00054,275231424.00000,   0.00030,  -0.00056,   0.00020,  96.00000,   2.00000
288952963.33516,-247862634.60799,61200912.96200,   0.00210,  -0.00226,   0.00100,475668992.00000,   0.00054,275233568.00000,   0.00030,  -0.00057,   0.00020,  32.00000,   2.00000
291419864.37612,-245307065.13112,61142906.91604,   0.00211,  -0.00225,   0.00100,475700480.00000,   0.00054,275235872.00000,   0.00030,  -0.00057,   0.00020,  64.00000,   2.00000
293850043.62037,-242735749.50080,61078337.72711,   0.00211,  -0.00225,   0.00100,475746944.00000,   0.00055,275238368.00000,   0.00030,  -0.00057,   0.00021, 160.00000,   2.00000
296263291.18953,-240125843.73635,61009452.14698,   0.00212,  -0.00224,   0.00100,475781792.00000,   0.00055,275241024.00000,   0.00031,  -0.00057,   0.00021,   0.00000,   2.00000
298640672.51677,-237501474.43142,60937193.06749,   0.00213,  -0.00224,   0.00100,475813280.00000,   0.00055,275243840.00000,   0.00031,  -0.00057,   0.00021,  96.00000,   2.00000
300986071.55551,-234867484.57469,60856270.07953,   0.00214,  -0.00223,   0.00100,475852800.00000,   0.00055,275246816.00000,   0.00031,  -0.00058,   0.00021, -64.00000,   2.00000
303333741.77068,-232187490.05546,60774397.06899,   0.00215,  -0.00223,   0.00100,475872896.00000,   0.00056,275249888.00000,   0.00031,  -0.00058,   0.00021,  32.00000,   2.00000
305648710.20364,-229510961.64074,60691284.48416,   0.00215,  -0.00222,   0.00100,475895744.00000,   0.00056,275253024.00000,   0.00031,  -0.00058,   0.00021, 128.00000,   2.00000
307956906.75044,-226816686.78266,60607599.94081,   0.00216,  -0.00222,   0.00100,475914656.00000,   0.00056,275256224.00000,   0.00032,  -0.00058,   0.00021, 224.00000,   2.00000
310274489.58027,-224093179.71749,60525046.04766,   0.00217,  -0.00221,   0.00100,475921856.00000,   0.00057,275259456.00000,   0.00032,  -0.00058,   0.00021, -64.00000,   2.00000
312588212.29018,-221368274.12215,60438841.30119,   0.00218,  -0.00220,   0.00100,475931552.00000,   0.00057,275262688.00000,   0.00032,  -0.00059,   0.00022,  64.00000,   2.00000
314912874.17638,-218626910.80233,60356384.33619,   0.00218,  -0.00220,   0.00100,475918432.00000,   0.00057,275265824.00000,   0.00033,  -0.00059,   0.00022, -96.00000,   2.00000
317251189.80880,-215872742.85327,60276111.42089,   0.00219,  -0.00219,   0.00100,475914336.00000,   0.00057,275268928.00000,   0.00033,  -0.00059,   0.00022,  32.00000,   2.00000
319605635.38289,-213106638.69835,60198222.98114,   0.00220,  -0.00219,   0.00100,475906976.00000,   0.00058,275271968.00000,   0.00033,  -0.00059,   0.00022,  32.00000,   2.00000
321977410.15735,-210329273.35767,60122731.64349,   0.00221,  -0.00218,   0.00100,475897472.00000,   0.00058,275274976.00000,   0.00033,  -0.00060,   0.00022,  32.00000,   2.00000
324368442.25977,-207539355.14241,60047254.51342,   0.00222,  -0.00217,   0.00100,475872000.00000,   0.00058,275277824.00000,   0.00034,  -0.00060,   0.00022, -32.00000,   2.00000
326763631.35494,-204750345.11745,59976960.64964,   0.00222,  -0.00217,   0.00100,475870368.00000,   0.00059,275280640.00000,   0.00034,  -0.00060,   0.00022, -32.00000,   2.00000
329183206.99888,-201937936.39098,59904635.22468,   0.00223,  -0.00216,   0.00100,475856672.00000,   0.00059,275283392.00000,   0.00034,  -0.00060,   0.00022, -96.00000,   2.00000
331602995.36767,-199123540.79657,59834178.45830,   0.00224,  -0.00216,   0.00100,475845376.00000,   0.00059,275286048.00000,   0.00034,  -0.00060,   0.00022,-128.00000,   2.00000
334029486.31932,-196296509.99290,59759668.67942,   0.00225,  -0.00215,   0.00100,475845536.00000,   0.00059,275288736.00000,   0.00034,  -0.00061,   0.00022, 224.00000,   2.00000
336455686.42142,-193453842.92896,59688561.90391,   0.00226,  -0.00214,   0.00100,475854112.00000,   0.00060,275291424.00000,   0.00035,  -0.00061,   0.00023, -64.00000,   2.00000
338880403.89448,-190592960.15428,59618175.05985,   0.00226,  -0.00214,   0.00100,475851392.00000,   0.00060,275294112.00000,   0.00035,  -0.00061,   0.00023, -32.00000,   2.00000
341290191.77383,-187728767.15699,59541294.67015,   0.00227,  -0.00213,   0.00100,475870240.00000,   0.00060,275296864.00000,   0.00035,  -0.00061,   0.00023,   0.00000,   2.00000
343703031.98727,-184834501.39183,59463345.86529,   0.00228,  -0.00212,   0.00100,475882304.00000,   0.00060,275299648.00000,   0.00035,  -0.00061,   0.00023,  32.00000,   2.00000
346090078.27612,-181946079.41925,59384206.80889,   0.00229,  -0.00212,   0.00100,475895712.00000,   0.00061,275302496.00000,   0.00036,  -0.00062,   0.00023,   0.00000,   2.00000
348483283.30548,-179027927.71683,59304481.74865,   0.00229,  -0.00211,   0.00100,475905024.00000,   0.00061,275305344.00000,   0.00036,  -0.00062,   0.00023,  64.00000,   2.00000
350875836.90889,-176093940.86737,59223835.67415,   0.00230,  -0.00210,   0.00100,475915744.00000,   0.00061,275308256.00000,   0.00036,  -0.00062,   0.00023, -64.00000,   2.00000
353280506.44517,-173132632.57639,59138786.06912,   0.00231,  -0.00210,   0.00100,475918144.00000,   0.00061,275311168.00000,   0.00036,  -0.00062,   0.00023, -32.00000,   2.00000
355663594.72662,-170179669.82419,59052499.19833,   0.00232,  -0.00209,   0.00100,475926240.00000,   0.00062,275314080.00000,   0.00037,  -0.00062,   0.00023,  32.00000,   2.00000
358044953.06765,-167196913.24341,58968012.05363,   0.00232,  -0.00208,   0.00100,475943264.00000,   0.00062,275317056.00000,   0.00037,  -0.00062,   0.00024, 128.00000,   2.00000
360391252.08629,-164220416.84950,58876192.64784,   0.00233,  -0.00208,   0.00100,475965344.00000,   0.00062,275320128.00000,   0.00037,  -0.00063,   0.00024, 160.00000,   2.00000
362729075.12405,-161212364.64799,58781569.89803,   0.00234,  -0.00207,   0.00100,475989856.00000,   0.00062,275323296.00000,   0.00037,  -0.00063,   0.00024,  96.00000,   2.00000
365053640.06124,-158186618.92617,58684696.52893,   0.00235,  -0.00206,   0.00100,476013664.00000,   0.00063,275326560.00000,   0.00038,  -0.00063,   0.00024,  32.00000,   2.00000
367366080.66966,-155154824.89990,58584131.46775,   0.00235,  -0.00206,   0.00100,476018496.00000,   0.00063,275329824.00000,   0.00038,  -0.00063,   0.00024, -64.00000,   2.00000
369677997.59147,-152107051.57532,58487764.32312,   0.00236,  -0.00205,   0.00100,476029568.00000,   0.00063,275333120.00000,   0.00038,  -0.00064,   0.00024, 160.00000,   2.00000
372005043.05427,-149031610.50983,58388414.49194,   0.00237,  -0.00204,   0.00100,476029248.00000,   0.00064,275336384.00000,   0.00039,  -0.00064,   0.00024,  64.00000,   2.00000
374317816.50803,-145964649.17343,58294429.87941,   0.00238,  -0.00203,   0.00100,476030656.00000,   0.00064,275339648.00000,   0.00039,  -0.00064,   0.00024,   0.00000,   2.00000
376645789.93440,-142870435.85257,58197349.38286,   0.00238,  -0.00203,   0.00100,476029920.00000,   0.00064,275342912.00000,   0.00039,  -0.00064,   0.00024,  96.00000,   2.00000
378967987.44898,-139771557.51293,58101593.20811,   0.00239,  -0.00202,   0.00100,476027584.00000,   0.00065,275346112.00000,   0.00039,  -0.00064,   0.00025, -32.00000,   2.00000
381297699.15747,-136648372.81934,58004324.80969,   0.00240,  -0.00201,   0.00100,476046336.00000,   0.00065,275349408.00000,   0.00040,  -0.00065,   0.00025,   0.00000,   2.00000
383609425.34749,-133530038.89590,57908834.68318,   0.00241,  -0.00200,   0.00100,476039040.00000,   0.00065,275352640.00000,   0.00040,  -0.00065,   0.00025, 128.00000,   2.00000
385924100.74579,-130387622.11477,57806732.63804,   0.00241,  -0.00200,   0.00100,476062336.00000,   0.00065,275355968.00000,   0.00040,  -0.00065,   0.00025,   0.00000,   2.00000
388230977.14891,-127225657.47385,57708723.52493,   0.00242,  -0.00199,   0.00100,476068640.00000,   0.00066,275359296.00000,   0.00041,  -0.00065,   0.00025,  32.00000,   2.00000
390510360.51021,-124072836.82517,57604848.70239,   0.00243,  -0.00198,   0.00100,476083200.00000,   0.00066,275362656.00000,   0.00041,  -0.00065,   0.00025,  64.00000,   2.00000
392790150.80458,-120881581.40554,57500890.48040,   0.00244,  -0.00197,   0.00100,476116928.00000,   0.00066,275366176.00000,   0.00041,  -0.00066,   0.00025, 192.00000,   2.00000
395045032.91141,-117686259.99219,57389474.06941,   0.00244,  -0.00196,   0.00100,476136128.00000,   0.00067,275369728.00000,   0.00042,  -0.00066,   0.00025, 128.00000,   2.00000
397270394.05930,-114486411.41533,57273887.77374,   0.00245,  -0.00196,   0.00100,476161248.00000,   0.00067,275373376.00000,   0.00042,  -0.00066,   0.00026, 128.00000,   2.00000
399472554.11959,-111272098.78422,57153229.52619,   0.00246,  -0.00195,   0.00100,476197056.00000,   0.00067,275377152.00000,   0.00042,  -0.00066,   0.00026,  96.00000,   2.00000
401656049.39218,-108042218.80471,57029617.05527,   0.00246,  -0.00194,   0.00100,476226784.00000,   0.00068,275381024.00000,   0.00043,  -0.00067,   0.00026, -96.00000,   2.00000
403823572.47037,-104805509.51197,56907275.55791,   0.00247,  -0.00193,   0.00100,476234656.00000,   0.00068,275384928.00000,   0.00043,  -0.00067,   0.00026,-160.00000,   2.00000
405998914.83231,-101538930.22214,56787112.89085,   0.00248,  -0.00192,   0.00100,476239968.00000,   0.00068,275388864.00000,   0.00043,  -0.00067,   0.00026,  64.00000,   2.00000
408161066.10315,-98281218.88249,56669894.17062,   0.00249,  -0.00192,   0.00100,476236992.00000,   0.00069,275392768.00000,   0.00044,  -0.00067,   0.00026, 128.00000,   2.00000
410335495.06106,-94995640.95185,56550179.30687,   0.00249,  -0.00191,   0.00100,476237632.00000,   0.00069,275396672.00000,   0.00044,  -0.00068,   0.00026, -32.00000,   2.00000
412508290.36333,-91696142.50156,56434836.46539,   0.00250,  -0.00190,   0.00100,476247968.00000,   0.00070,275400576.00000,   0.00044,  -0.00068,   0.00027, 224.00000,   2.00000
414673156.84004,-88392550.10331,56315919.61843,   0.00251,  -0.00189,   0.00100,476247584.00000,   0.00070,275404480.00000,   0.00045,  -0.00068,   0.00027, 192.00000,   2.00000
416833725.92686,-85075390.28577,56195762.20369,   0.00251,  -0.00188,   0.00100,476261472.00000,   0.00070,275408416.00000,   0.00045,  -0.00068,   0.00027,   0.00000,   2.00000
418982240.81969,-81753355.14195,56079583.04969,   0.00252,  -0.00187,   0.00100,476266848.00000,   0.00071,275412384.00000,   0.00046,  -0.00068,   0.00027,  64.00000,   2.00000
421126933.17152,-78418073.03756,55957694.91809,   0.00253,  -0.00186,   0.00100,476280288.00000,   0.00071,275416352.00000,   0.00046,  -0.00069,   0.00027, -32.00000,   2.00000
423275357.59362,-75054829.80944,55834636.90998,   0.00253,  -0.00186,   0.00100,476292576.00000,   0.00071,275420384.00000,   0.00046,  -0.00069,   0.00027, -32.00000,   2.00000
425403314.12633,-71701651.25494,55711087.16146,   0.00254,  -0.00185,   0.00100,476299904.00000,   0.00072,275424416.00000,   0.00047,  -0.00069,   0.00027, 160.00000,   2.00000
427527279.89632,-68329531.54540,55587701.54213,   0.00255,  -0.00184,   0.00100,476302784.00000,   0.00072,275428416.00000,   0.00047,  -0.00069,   0.00027,  32.00000,   2.00000
429634186.82355,-64959064.44539,55462508.98455,   0.00256,  -0.00183,   0.00100,476322976.00000,   0.00073,275432512.00000,   0.00047,  -0.00070,   0.00028, -32.00000,   2.00000
431740853.47754,-61561745.64405,55331902.62946,   0.00256,  -0.00182,   0.00100,476338112.00000,   0.00073,275436640.00000,   0.00048,  -0.00070,   0.00028,  32.00000,   2.00000
433827930.85839,-58160528.22977,55205020.37729,   0.00257,  -0.00181,   0.00100,476350240.00000,   0.00073,275440832.00000,   0.00048,  -0.00070,   0.00028,  32.00000,   2.00000
435900226.05161,-54747397.93706,55076246.35581,   0.00258,  -0.00180,   0.00100,476373568.00000,   0.00074,275445056.00000,   0.00049,  -0.00070,   0.00028,  64.00000,   2.00000
437957567.48139,-51323051.55386,54941334.90550,   0.00258,  -0.00179,   0.00100,476396768.00000,   0.00074,275449408.00000,   0.00049,  -0.00071,   0.00028,  64.00000,   2.00000
439991057.32384,-47895645.07533,54809843.67275,   0.00259,  -0.00178,   0.00100,476412992.00000,   0.00074,275453760.00000,   0.00049,  -0.00071,   0.00028, 128.00000,   2.00000
442011587.54150,-44450904.75806,54673701.00882,   0.00260,  -0.00177,   0.00100,476424032.00000,   0.00075,275458176.00000,   0.00050,  -0.00071,   0.00028, 192.00000,   2.00000
444005943.39295,-41009558.38900,54539488.71980,   0.00260,  -0.00177,   0.00100,476452544.00000,   0.00075,275462656.00000,   0.00050,  -0.00071,   0.00029,  32.00000,   2.00000
445995225.94126,-37542367.05380,54399559.94862,   0.00261,  -0.00176,   0.00099,476472640.00000,   0.00076,275467232.00000,   0.00051,  -0.00072,   0.00029,   0.00000,   2.00000
447958485.76353,-34086541.32671,54259064.04137,   0.00262,  -0.00175,   0.00099,476484800.00000,   0.00076,275471840.00000,   0.00051,  -0.00072,   0.00029,-160.00000,   2.00000
449913957.06069,-30611778.16328,54122881.65568,   0.00262,  -0.00174,   0.00099,476492224.00000,   0.00077,275476448.00000,   0.00052,  -0.00072,   0.00029,  32.00000,   2.00000
451855018.54155,-27139772.50011,53981116.02326,   0.00263,  -0.00173,   0.00099,476509408.00000,   0.00077,275481088.00000,   0.00052,  -0.00072,   0.00029, -32.00000,   2.00000
453798495.91587,-23640337.83905,53838512.81413,   0.00264,  -0.00172,   0.00099,476522464.00000,   0.00077,275485792.00000,   0.00053,  -0.00073,   0.00029, -64.00000,   2.00000
455732559.86668,-20136299.43082,53696295.72229,   0.00264,  -0.00171,   0.00099,476524832.00000,   0.00078,275490496.00000,   0.00053,  -0.00073,   0.00030,  32.00000,   2.00000
457661662.11976,-16619869.62762,53553170.11831,   0.00265,  -0.00170,   0.00099,476538112.00000,   0.00078,275495200.00000,   0.00053,  -0.00073,   0.00030, -64.00000,   2.00000
459580282.63480,-13099366.39557,53410489.91953,   0.00266,  -0.00169,   0.00099,476540448.00000,   0.00079,275499936.00000,   0.00054,  -0.00073,   0.00030,  64.00000,   2.00000
461490951.85567,-9567445.08652,53266861.85788,   0.00266,  -0.00168,   0.00099,476556064.00000,   0.00079,275504704.00000,   0.00054,  -0.00073,   0.00030, -96.00000,   2.00000
463387172.64139,-6032525.00626,53123542.94918,   0.00267,  -0.00167,   0.00099,476562112.00000,   0.00080,275509472.00000,   0.00055,  -0.00074,   0.00030, 160.00000,   2.00000
465270972.66474,-2487431.79866,52979008.29812,   0.00267,  -0.00166,   0.00099,476581632.00000,   0.00080,275514304.00000,   0.00055,  -0.00074,   0.00030, 192.00000,   2.00000
467149522.70771,1081996.56066,52829009.64734,   0.00268,  -0.00165,   0.00099,476600896.00000,   0.00081,275519200.00000,   0.00056,  -0.00074,   0.00031,  32.00000,   2.00000
468994673.26277,4630296.69276,52683860.34492,   0.00269,  -0.00164,   0.00099,476604448.00000,   0.00081,275524096.00000,   0.00056,  -0.00074,   0.00031, -32.00000,   2.00000
470826395.23051,8194148.92204,52535164.06308,   0.00269,  -0.00163,   0.00099,476642176.00000,   0.00081,275529120.00000,   0.00057,  -0.00075,   0.00031,  64.00000,   2.00000
472635302.18494,11757770.32481,52380911.90099,   0.00270,  -0.00162,   0.00099,476657920.00000,   0.00082,275534176.00000,   0.00057,  -0.00075,   0.00031, 192.00000,   2.00000
474423930.41227,15335651.84425,52229144.22436,   0.00271,  -0.00161,   0.00099,476677536.00000,   0.00082,275539264.00000,   0.00058,  -0.00075,   0.00031, -64.00000,   2.00000
476180882.87328,18903881.33506,52073920.75186,   0.00271,  -0.00160,   0.00099,476711136.00000,   0.00083,275544480.00000,   0.00058,  -0.00075,   0.00031,  64.00000,   2.00000
477916229.89193,22484685.88302,51912519.05121,   0.00272,  -0.00159,   0.00099,476731520.00000,   0.00083,275549760.00000,   0.00059,  -0.00076,   0.00032, 128.00000,   2.00000
479615479.74835,26054371.19413,51751875.75453,   0.00273,  -0.00158,   0.00099,476768768.00000,   0.00084,275555136.00000,   0.00059,  -0.00076,   0.00032,   0.00000,   2.00000
481291295.30946,29635878.95230,51585448.47365,   0.00273,  -0.00157,   0.00099,476790368.00000,   0.00084,275560576.00000,   0.00060,  -0.00076,   0.00032, 128.00000,   2.00000
482931245.94861,33205878.21166,51420559.90108,   0.00274,  -0.00155,   0.00099,476826560.00000,   0.00085,275566144.00000,   0.00060,  -0.00076,   0.00032, -64.00000,   2.00000
484550183.85722,36788485.03769,51250896.10128,   0.00274,  -0.00154,   0.00099,476845536.00000,   0.00085,275571744.00000,   0.00061,  -0.00077,   0.00032, 160.00000,   2.00000
486144270.25781,40376124.86010,51083941.27137,   0.00275,  -0.00153,   0.00099,476877088.00000,   0.00086,275577472.00000,   0.00062,  -0.00077,   0.00032,   0.00000,   2.00000
487714028.62617,43955011.22455,50911988.35094,   0.00276,  -0.00152,   0.00099,476901888.00000,   0.00086,275583264.00000,   0.00062,  -0.00077,   0.00033, 128.00000,   2.00000
489267188.91603,47544311.19127,50746423.50347,   0.00276,  -0.00151,   0.00099,476901376.00000,   0.00087,275589024.00000,   0.00063,  -0.00077,   0.00033,  96.00000,   2.00000
490807396.59611,51134163.64986,50575266.01250,   0.00277,  -0.00150,   0.00099,476930016.00000,   0.00087,275594912.00000,   0.00063,  -0.00078,   0.00033, -32.00000,   2.00000
492340268.57899,54737122.61171,50406695.59771,   0.00277,  -0.00149,   0.00099,476920736.00000,   0.00088,275600704.00000,   0.00064,  -0.00078,   0.00033, 128.00000,   2.00000
493868844.32023,58357041.03373,50240855.57346,   0.00278,  -0.00148,   0.00099,476946880.00000,   0.00089,275606624.00000,   0.00065,  -0.00078,   0.00033, 128.00000,   2.00000
495381354.48240,61959973.32338,50073061.03338,   0.00279,  -0.00147,   0.00099,476932896.00000,   0.00089,275612448.00000,   0.00065,  -0.00078,   0.00034, 128.00000,   2.00000
496893013.52505,65587268.75523,49904420.28399,   0.00279,  -0.00146,   0.00099,476946688.00000,   0.00090,275618336.00000,   0.00066,  -0.00079,   0.00034,  64.00000,   2.00000
498386741.59427,69206729.27731,49738676.49159,   0.00280,  -0.00145,   0.00099,476964160.00000,   0.00090,275624256.00000,   0.00066,  -0.00079,   0.00034,  32.00000,   2.00000
499869982.12291,72840407.04815,49568146.26021,   0.00280,  -0.00143,   0.00099,476972192.00000,   0.00091,275630208.00000,   0.00067,  -0.00079,   0.00034,  64.00000,   2.00000
501332893.16961,76476606.24307,49395258.62218,   0.00281,  -0.00142,   0.00099,476998496.00000,   0.00091,275636224.00000,   0.00068,  -0.00079,   0.00034,  32.00000,   2.00000
502762594.74396,80092275.40966,49221004.23176,   0.00281,  -0.00141,   0.00098,477016672.00000,   0.00092,275642272.00000,   0.00068,  -0.00080,   0.00035,-128.00000,   2.00000
504168235.62477,83721429.28368,49047803.20065,   0.00282,  -0.00140,   0.00098,477053728.00000,   0.00092,275648416.00000,   0.00069,  -0.00080,   0.00035, 224.00000,   2.00000
505536674.25101,87327682.28210,48868596.49193,   0.00283,  -0.00139,   0.00098,477077088.00000,   0.00093,275654656.00000,   0.00070,  -0.00080,   0.00035,  32.00000,   2.00000
506872470.77691,90926133.64788,48687463.22632,   0.00283,  -0.00138,   0.00098,477103200.00000,   0.00094,275660928.00000,   0.00070,  -0.00080,   0.00035,  96.00000,   2.00000
508184807.22955,94537811.35019,48503010.19490,   0.00284,  -0.00137,   0.00098,477142016.00000,   0.00094,275667296.00000,   0.00071,  -0.00081,   0.00035,  96.00000,   2.00000
509462329.02958,98128833.75324,48321105.40655,   0.00284,  -0.00135,   0.00098,477165248.00000,   0.00095,275673728.00000,   0.00072,  -0.00081,   0.00036,  96.00000,   2.00000
510719261.97706,101721376.37572,48132187.59735,   0.00285,  -0.00134,   0.00098,477196128.00000,   0.00095,275680224.00000,   0.00072,  -0.00081,   0.00036, 224.00000,   2.00000
511957302.62009,105316856.78990,47940635.75887,   0.00285,  -0.00133,   0.00098,477225152.00000,   0.00096,275686816.00000,   0.00073,  -0.00081,   0.00036, 128.00000,   2.00000
513180268.67868,108921840.14782,47749243.90879,   0.00286,  -0.00132,   0.00098,477227616.00000,   0.00097,275693376.00000,   0.00074,  -0.00081,   0.00036, -96.00000,   2.00000
514386733.54738,112521689.39558,47554614.41616,   0.00286,  -0.00131,   0.00098,477262240.00000,   0.00097,275700032.00000,   0.00074,  -0.00082,   0.00036, -64.00000,   2.00000
515575905.60007,116117040.31529,47360858.14496,   0.00287,  -0.00130,   0.00098,477259936.00000,   0.00098,275706656.00000,   0.00075,  -0.00082,   0.00037, -64.00000,   2.00000
516749566.73542,119716365.28373,47169651.87230,   0.00288,  -0.00128,   0.00098,477284448.00000,   0.00098,275713344.00000,   0.00076,  -0.00082,   0.00037,   0.00000,   2.00000
517903862.97582,123303758.45106,46972997.51880,   0.00288,  -0.00127,   0.00098,477305728.00000,   0.00099,275720064.00000,   0.00076,  -0.00082,   0.00037, 128.00000,   2.00000
519041601.24075,126902343.46434,46776103.73816,   0.00289,  -0.00126,   0.00098,477321696.00000,   0.00100,275726816.00000,   0.00077,  -0.00082,   0.00037,-128.00000,   2.00000
520157689.15488,130499938.39070,46577901.94584,   0.00289,  -0.00125,   0.00098,477350656.00000,   0.00100,275733664.00000,   0.00078,  -0.00083,   0.00037, -96.00000,   2.00000
521243133.82012,134075845.88742,46379837.28165,   0.00290,  -0.00124,   0.00098,477367488.00000,   0.00101,275740512.00000,   0.00079,  -0.00083,   0.00038, -32.00000,   2.00000
522304928.24265,137658652.76385,46181303.88021,   0.00290,  -0.00122,   0.00098,477390112.00000,   0.00102,275747424.00000,   0.00079,  -0.00083,   0.00038,  32.00000,   2.00000
523335905.23471,141222662.77610,45981201.03251,   0.00291,  -0.00121,   0.00098,477421280.00000,   0.00102,275754400.00000,   0.00080,  -0.00083,   0.00038,  32.00000,   2.00000
524337773.67170,144778469.40505,45784552.47861,   0.00291,  -0.00120,   0.00098,477442688.00000,   0.00103,275761408.00000,   0.00081,  -0.00084,   0.00038, -64.00000,   2.00000
525319647.91243,148345447.53334,45581191.43013,   0.00292,  -0.00119,   0.00098,477475680.00000,   0.00104,275768544.00000,   0.00082,  -0.00084,   0.00039, -64.00000,   2.00000
526272182.04074,151890747.23021,45377028.67954,   0.00292,  -0.00117,   0.00098,477491072.00000,   0.00104,275775680.00000,   0.00082,  -0.00084,   0.00039,  32.00000,   2.00000
527198214.94985,155418494.61960,45170783.77359,   0.00293,  -0.00116,   0.00098,477517856.00000,   0.00105,275782880.00000,   0.00083,  -0.00084,   0.00039,  32.00000,   2.00000
528104392.36909,158954202.57285,44963357.47970,   0.00293,  -0.00115,   0.00098,477536768.00000,   0.00106,275790144.00000,   0.00084,  -0.00084,   0.00039, 128.00000,   2.00000
528988171.70504,162486564.89355,44753846.24212,   0.00294,  -0.00114,   0.00098,477565920.00000,   0.00106,275797472.00000,   0.00085,  -0.00084,   0.00040, -64.00000,   2.00000
529845381.34024,165997626.01669,44544135.23159,   0.00294,  -0.00112,   0.00098,477579488.00000,   0.00107,275804800.00000,   0.00086,  -0.00085,   0.00040, -96.00000,   2.00000
530682363.18065,169515900.88753,44333813.71542,   0.00295,  -0.00111,   0.00098,477599872.00000,   0.00108,275812160.00000,   0.00086,  -0.00085,   0.00040, 224.00000,   2.00000
531492006.59550,173015146.66256,44126513.26723,   0.00295,  -0.00110,   0.00098,477628704.00000,   0.00108,275819616.00000,   0.00087,  -0.00085,   0.00040,  32.00000,   2.00000
532278937.76226,176506978.80569,43914972.42154,   0.00296,  -0.00109,   0.00098,477645856.00000,   0.00109,275827072.00000,   0.00088,  -0.00085,   0.00041, 160.00000,   2.00000
533042563.40841,179993748.81892,43702139.69217,   0.00296,  -0.00107,   0.00098,477677472.00000,   0.00110,275834592.00000,   0.00089,  -0.00085,   0.00041, -64.00000,   2.00000
533779116.18385,183458238.00551,43489671.38412,   0.00297,  -0.00106,   0.00098,477693216.00000,   0.00110,275842144.00000,   0.00090,  -0.00085,   0.00041,  64.00000,   2.00000
534495256.80428,186931388.88025,43275596.30928,   0.00297,  -0.00105,   0.00098,477728480.00000,   0.00111,275849760.00000,   0.00090,  -0.00086,   0.00041,  32.00000,   2.00000
535184517.46581,190382074.71897,43061822.44392,   0.00298,  -0.00103,   0.00097,477744224.00000,   0.00112,275857408.00000,   0.00091,  -0.00086,   0.00041, 128.00000,   2.00000
535850458.90807,193826819.24572,42846666.07840,   0.00298,  -0.00102,   0.00097,477775904.00000,   0.00112,275865152.00000,   0.00092,  -0.00086,   0.00042, -64.00000,   2.00000
536492564.61430,197262987.26644,42631364.62544,   0.00299,  -0.00101,   0.00097,477794624.00000,   0.00113,275872896.00000,   0.00093,  -0.00086,   0.00042,  96.00000,   2.00000
537109280.66029,200689941.75364,42420013.20531,   0.00299,  -0.00100,   0.00097,477814464.00000,   0.00114,275880672.00000,   0.00094,  -0.00086,   0.00042,  96.00000,   2.00000
537701609.44146,204096540.89486,42203245.38088,   0.00300,  -0.00098,   0.00097,477840672.00000,   0.00115,275888480.00000,   0.00095,  -0.00086,   0.00042,  96.00000,   2.00000
538272038.37397,207507519.87930,41985743.36892,   0.00300,  -0.00097,   0.00097,477862656.00000,   0.00115,275896352.00000,   0.00096,  -0.00086,   0.00043, 224.00000,   2.00000
538816181.11655,210896667.70140,41766899.86670,   0.00301,  -0.00096,   0.00097,477889984.00000,   0.00116,275904288.00000,   0.00096,  -0.00087,   0.00043,   0.00000,   2.00000
539335823.86255,214275365.17936,41547597.15403,   0.00301,  -0.00094,   0.00097,477908128.00000,   0.00117,275912224.00000,   0.00097,  -0.00087,   0.00043,  96.00000,   2.00000
539828615.65558,217630994.59293,41326894.71029,   0.00301,  -0.00093,   0.00097,477935456.00000,   0.00118,275920256.00000,   0.00098,  -0.00087,   0.00043,  32.00000,   2.00000
540297880.66482,220988500.73052,41105307.94908,   0.00302,  -0.00092,   0.00097,477957824.00000,   0.00118,275928288.00000,   0.00099,  -0.00087,   0.00044,  64.00000,   2.00000
540739607.39198,224320205.33047,40883677.36484,   0.00302,  -0.00090,   0.00097,477972448.00000,   0.00119,275936352.00000,   0.00100,  -0.00087,   0.00044, 192.00000,   2.00000
541156080.61257,227640924.44699,40660464.40684,   0.00303,  -0.00089,   0.00097,478004416.00000,   0.00120,275944512.00000,   0.00101,  -0.00087,   0.00044, 160.00000,   2.00000
541546280.69203,230949993.11769,40440017.33970,   0.00303,  -0.00088,   0.00097,478037504.00000,   0.00121,275952736.00000,   0.00102,  -0.00087,   0.00045, 128.00000,   2.00000
541911132.61558,234233694.60697,40215695.64133,   0.00304,  -0.00086,   0.00097,478051616.00000,   0.00121,275960960.00000,   0.00103,  -0.00087,   0.00045,  96.00000,   2.00000
542251542.84671,237505412.59925,39991409.40020,   0.00304,  -0.00085,   0.00097,478071008.00000,   0.00122,275969184.00000,   0.00104,  -0.00087,   0.00045, 192.00000,   2.00000
542568450.89941,240766649.84851,39765997.81559,   0.00305,  -0.00084,   0.00097,478103328.00000,   0.00123,275977504.00000,   0.00105,  -0.00087,   0.00045, 256.00000,   2.00000
542862084.52619,244016733.50647,39540696.45485,   0.00305,  -0.00082,   0.00097,478122496.00000,   0.00124,275985824.00000,   0.00106,  -0.00087,   0.00046, 128.00000,   2.00000
543132151.88019,247243148.43236,39315925.96172,   0.00305,  -0.00081,   0.00097,478136736.00000,   0.00124,275994176.00000,   0.00106,  -0.00087,   0.00046, 224.00000,   2.00000
543380904.84746,250460919.99348,39088787.65773,   0.00306,  -0.00080,   0.00097,478181120.00000,   0.00125,276002624.00000,   0.00107,  -0.00088,   0.00046,  64.00000,   2.00000
543607676.12390,253667801.25598,38862787.37550,   0.00306,  -0.00078,   0.00097,478186656.00000,   0.00126,276011040.00000,   0.00108,  -0.00088,   0.00046, 160.00000,   2.00000
543813115.96139,256865110.72184,38635421.31843,   0.00307,  -0.00077,   0.00097,478217888.00000,   0.00127,276019520.00000,   0.00109,  -0.00088,   0.00047, 128.00000,   2.00000
543996476.62793,260039267.20522,38408270.71018,   0.00307,  -0.00075,   0.00097,478230848.00000,   0.00128,276028000.00000,   0.00110,  -0.00088,   0.00047, 128.00000,   2.00000
544158688.72478,263203133.25389,38179628.52309,   0.00307,  -0.00074,   0.00097,478261664.00000,   0.00128,276036544.00000,   0.00111,  -0.00088,   0.00047, 256.00000,   2.00000
544298751.25205,266343146.68979,37949935.95955,   0.00308,  -0.00073,   0.00097,478287712.00000,   0.00129,276045152.00000,   0.00112,  -0.00088,   0.00047,  32.00000,   2.00000
544415873.50022,269470279.18404,37721060.92674,   0.00308,  -0.00071,   0.00097,478293504.00000,   0.00130,276053696.00000,   0.00113,  -0.00088,   0.00048,  64.00000,   2.00000
544509844.32442,272583896.82261,37490702.66056,   0.00309,  -0.00070,   0.00097,478325728.00000,   0.00131,276062336.00000,   0.00114,  -0.00088,   0.00048, -32.00000,   2.00000
544580047.78110,275682695.62624,37258976.77644,   0.00309,  -0.00068,   0.00097,478358688.00000,   0.00132,276071008.00000,   0.00115,  -0.00088,   0.00048,  32.00000,   2.00000
544625348.70513,278753143.78121,37027656.25601,   0.00309,  -0.00067,   0.00097,478374144.00000,   0.00132,276079712.00000,   0.00116,  -0.00088,   0.00048, 192.00000,   2.00000
544645372.30118,281806577.14147,36795185.37180,   0.00310,  -0.00066,   0.00097,478408992.00000,   0.00133,276088480.00000,   0.00117,  -0.00088,   0.00049,  96.00000,   2.00000
544640418.34327,284830806.11058,36563376.92146,   0.00310,  -0.00064,   0.00097,478425312.00000,   0.00134,276097248.00000,   0.00118,  -0.00088,   0.00049, 160.00000,   2.00000
544609951.58012,287837765.43745,36331740.14555,   0.00311,  -0.00063,   0.00096,478448096.00000,   0.00135,276106048.00000,   0.00119,  -0.00088,   0.00049,   0.00000,   2.00000
544555232.96829,290827626.04827,36099226.12849,   0.00311,  -0.00061,   0.00096,478483520.00000,   0.00136,276114912.00000,   0.00120,  -0.00088,   0.00050, 256.00000,   2.00000
544476782.54947,293789424.02150,35867467.46292,   0.00311,  -0.00060,   0.00096,478499872.00000,   0.00136,276123776.00000,   0.00121,  -0.00087,   0.00050,  64.00000,   2.00000
544375863.68676,296735530.42735,35634857.24753,   0.00312,  -0.00059,   0.00096,478534752.00000,   0.00137,276132704.00000,   0.00122,  -0.00087,   0.00050, 192.00000,   2.00000
544253861.38661,299666849.89282,35397125.93968,   0.00312,  -0.00057,   0.00096,478568160.00000,   0.00138,276141696.00000,   0.00123,  -0.00087,   0.00050, -96.00000,   2.00000
544109839.02944,302573082.65420,35165477.98914,   0.00312,  -0.00056,   0.00096,478571040.00000,   0.00139,276150624.00000,   0.00124,  -0.00087,   0.00051, 224.00000,   2.00000
543945700.28352,305464471.94907,34931835.18938,   0.00313,  -0.00054,   0.00096,478617504.00000,   0.00140,276159680.00000,   0.00125,  -0.00087,   0.00051,  96.00000,   2.00000
543761593.60992,308332348.20039,34699991.75580,   0.00313,  -0.00053,   0.00096,478618656.00000,   0.00141,276168672.00000,   0.00126,  -0.00087,   0.00051,   0.00000,   2.00000
543558876.51696,311187029.40581,34463039.76689,   0.00314,  -0.00051,   0.00096,478650784.00000,   0.00142,276177728.00000,   0.00127,  -0.00087,   0.00051, -64.00000,   2.00000
543335523.11447,314027115.91927,34229485.27736,   0.00314,  -0.00050,   0.00096,478684704.00000,   0.00142,276186848.00000,   0.00128,  -0.00087,   0.00052,   0.00000,   2.00000
543093022.08582,316842527.97328,33996705.61170,   0.00314,  -0.00048,   0.00096,478698528.00000,   0.00143,276195936.00000,   0.00129,  -0.00087,   0.00052,  64.00000,   2.00000
542831632.82748,319643369.17319,33758896.92799,   0.00315,  -0.00047,   0.00096,478730720.00000,   0.00144,276205088.00000,   0.00130,  -0.00087,   0.00052, -32.00000,   2.00000
542550039.47960,322418214.41301,33526184.51925,   0.00315,  -0.00046,   0.00096,478745312.00000,   0.00145,276214240.00000,   0.00131,  -0.00086,   0.00052,  96.00000,   2.00000
542249025.15623,325167141.81440,33294329.01070,   0.00315,  -0.00044,   0.00096,478759008.00000,   0.00146,276223392.00000,   0.00132,  -0.00086,   0.00053,  32.00000,   2.00000
541927305.76129,327910555.82560,33056997.07560,   0.00316,  -0.00043,   0.00096,478798464.00000,   0.00147,276232608.00000,   0.00133,  -0.00086,   0.00053,  32.00000,   2.00000
541586562.23336,330625600.43217,32819621.18076,   0.00316,  -0.00041,   0.00096,478825376.00000,   0.00147,276241888.00000,   0.00134,  -0.00086,   0.00053,  96.00000,   2.00000
541224982.19028,333312816.02047,32587492.14044,   0.00316,  -0.00040,   0.00096,478839968.00000,   0.00148,276251136.00000,   0.00135,  -0.00086,   0.00054,  32.00000,   2.00000
540843819.73280,335984249.16019,32351680.05850,   0.00317,  -0.00038,   0.00096,478859520.00000,   0.00149,276260416.00000,   0.00136,  -0.00086,   0.00054,  32.00000,   2.00000
540442814.93844,338626162.21351,32120264.26785,   0.00317,  -0.00037,   0.00096,478886752.00000,   0.00150,276269728.00000,   0.00137,  -0.00085,   0.00054, -96.00000,   2.00000
540022665.51566,341252441.12636,31885332.25082,   0.00317,  -0.00035,   0.00096,478906144.00000,   0.00151,276279040.00000,   0.00138,  -0.00085,   0.00054,  64.00000,   2.00000
539584598.36675,343850297.53086,31650752.29892,   0.00318,  -0.00034,   0.00096,478931840.00000,   0.00152,276288416.00000,   0.00139,  -0.00085,   0.00055,   0.00000,   2.00000
539127711.92490,346430620.69830,31416049.47738,   0.00318,  -0.00032,   0.00096,478964192.00000,   0.00153,276297824.00000,   0.00140,  -0.00085,   0.00055,  32.00000,   2.00000
538652663.10515,348987407.11463,31183693.69491,   0.00318,  -0.00031,   0.00096,478963584.00000,   0.00154,276307200.00000,   0.00141,  -0.00085,   0.00055,  64.00000,   2.00000
538159657.75988,351524879.56919,30954413.61561,   0.00319,  -0.00029,   0.00096,479008448.00000,   0.00154,276316672.00000,   0.00142,  -0.00084,   0.00055,  96.00000,   2.00000
537651634.18939,354038595.36831,30722076.48172,   0.00319,  -0.00028,   0.00096,479019008.00000,   0.00155,276326144.00000,   0.00143,  -0.00084,   0.00056,  96.00000,   2.00000
537125811.28370,356538146.23338,30490161.54978,   0.00319,  -0.00026,   0.00096,479037632.00000,   0.00156,276335584.00000,   0.00144,  -0.00084,   0.00056, -32.00000,   2.00000
536586753.55913,359012316.84977,30253874.18526,   0.00320,  -0.00025,   0.00096,479060320.00000,   0.00157,276345088.00000,   0.00145,  -0.00084,   0.00056,  96.00000,   2.00000
536029675.08159,361471830.89101,30021843.51538,   0.00320,  -0.00023,   0.00095,479080128.00000,   0.00158,276354592.00000,   0.00146,  -0.00083,   0.00056,   0.00000,   2.00000
535458705.01376,363904905.76415,29789286.20799,   0.00320,  -0.00022,   0.00095,479103904.00000,   0.00159,276364128.00000,   0.00148,  -0.00083,   0.00057, 160.00000,   2.00000
534874136.81128,366311277.89936,29556172.25631,   0.00320,  -0.00020,   0.00095,479127840.00000,   0.00160,276373696.00000,   0.00149,  -0.00083,   0.00057,  96.00000,   2.00000
534273188.65338,368702730.38440,29318660.38923,   0.00321,  -0.00019,   0.00095,479146656.00000,   0.00161,276383296.00000,   0.00150,  -0.00083,   0.00057,  64.00000,   2.00000
533653896.24635,371077408.54016,29085409.31036,   0.00321,  -0.00017,   0.00095,479167488.00000,   0.00162,276392896.00000,   0.00151,  -0.00082,   0.00058,  96.00000,   2.00000
533023678.88087,373414483.58333,28848406.02878,   0.00321,  -0.00016,   0.00095,479183584.00000,   0.00162,276402496.00000,   0.00152,  -0.00082,   0.00058, 160.00000,   2.00000
532374545.42903,375733430.81860,28616172.14601,   0.00322,  -0.00014,   0.00095,479204704.00000,   0.00163,276412096.00000,   0.00153,  -0.00082,   0.00058,  32.00000,   2.00000
531709458.52169,378032223.49009,28379569.81928,   0.00322,  -0.00013,   0.00095,479236736.00000,   0.00164,276421792.00000,   0.00154,  -0.00081,   0.00058, 224.00000,   2.00000
531030102.01190,380300738.12619,28143629.22384,   0.00322,  -0.00011,   0.00095,479261536.00000,   0.00165,276431488.00000,   0.00155,  -0.00081,   0.00059,  96.00000,   2.00000
530334864.87007,382541385.49513,27913572.85169,   0.00323,  -0.00010,   0.00095,479274624.00000,   0.00166,276441184.00000,   0.00156,  -0.00081,   0.00059, 128.00000,   2.00000
529624347.65036,384761502.20768,27679417.70663,   0.00323,  -0.00008,   0.00095,479306624.00000,   0.00167,276450944.00000,   0.00157,  -0.00080,   0.00059,  96.00000,   2.00000
528899872.13808,386955104.18649,27446769.96180,   0.00323,  -0.00007,   0.00095,479318816.00000,   0.00168,276460672.00000,   0.00158,  -0.00080,   0.00059, 160.00000,   2.00000
528161823.21023,389122698.34727,27215441.25089,   0.00323,  -0.00005,   0.00095,479331008.00000,   0.00169,276470432.00000,   0.00159,  -0.00079,   0.00060,  96.00000,   2.00000
527411424.72954,391267791.79149,26978756.94968,   0.00324,  -0.00004,   0.00095,479375040.00000,   0.00170,276480256.00000,   0.00160,  -0.00079,   0.00060,  96.00000,   2.00000
526646163.83415,393390513.82151,26748174.93201,   0.00324,  -0.00002,   0.00095,479375616.00000,   0.00171,276490016.00000,   0.00161,  -0.00079,   0.00060,  32.00000,   2.00000
525872022.82840,395482858.69715,26516925.65750,   0.00324,  -0.00001,   0.00095,479411584.00000,   0.00172,276499872.00000,   0.00162,  -0.00078,   0.00060, 160.00000,   2.00000
525083801.80558,397560467.17420,26281954.85635,   0.00324,   0.00001,   0.00095,479431264.00000,   0.00173,276509728.00000,   0.00163,  -0.00078,   0.00061, 160.00000,   2.00000
524283310.97829,399614748.08338,26052718.14901,   0.00325,   0.00002,   0.00095,479443488.00000,   0.00173,276519584.00000,   0.00164,  -0.00077,   0.00061,  96.00000,   2.00000
523474006.44958,401644440.96066,25820456.69305,   0.00325,   0.00004,   0.00095,479466016.00000,   0.00174,276529440.00000,   0.00165,  -0.00077,   0.00061, 128.00000,   2.00000
522653501.49044,403653095.01929,25590918.73395,   0.00325,   0.00005,   0.00095,479476672.00000,   0.00175,276539296.00000,   0.00166,  -0.00076,   0.00061, 160.00000,   2.00000
521822180.98919,405642632.17179,25362719.72572,   0.00325,   0.00007,   0.00095,479519200.00000,   0.00176,276549248.00000,   0.00167,  -0.00076,   0.00062, 160.00000,   2.00000
520978378.45158,407615984.81029,25139075.39361,   0.00326,   0.00008,   0.00095,479516672.00000,   0.00177,276559136.00000,   0.00168,  -0.00075,   0.00062, 160.00000,   2.00000
520124493.81046,409571025.58237,24917329.64222,   0.00326,   0.00010,   0.00094,479558144.00000,   0.00178,276569120.00000,   0.00169,  -0.00075,   0.00062,  64.00000,   2.00000
519262724.71261,411503474.02794,24700348.28811,   0.00326,   0.00011,   0.00094,479545664.00000,   0.00179,276579008.00000,   0.00170,  -0.00074,   0.00062, 160.00000,   2.00000
518392840.66120,413418801.81916,24480172.50938,   0.00326,   0.00013,   0.00094,479586144.00000,   0.00180,276588992.00000,   0.00171,  -0.00074,   0.00063, 192.00000,   2.00000
517510150.19057,415323401.73992,24266219.34703,   0.00327,   0.00015,   0.00094,479604288.00000,   0.00181,276599008.00000,   0.00172,  -0.00073,   0.00063, 192.00000,   2.00000
516625105.82677,417200127.10184,24049888.86817,   0.00327,   0.00016,   0.00094,479614880.00000,   0.00182,276608992.00000,   0.00173,  -0.00073,   0.00063,  32.00000,   2.00000
515728347.72987,419067035.54475,23834839.56655,   0.00327,   0.00018,   0.00094,479632256.00000,   0.00183,276618976.00000,   0.00174,  -0.00072,   0.00063, 160.00000,   2.00000
514827879.08834,420903755.98477,23625382.45128,   0.00327,   0.00019,   0.00094,479644192.00000,   0.00184,276628960.00000,   0.00175,  -0.00072,   0.00063,  32.00000,   2.00000
513912516.03179,422734148.48787,23407460.78074,   0.00328,   0.00021,   0.00094,479670432.00000,   0.00185,276639008.00000,   0.00176,  -0.00071,   0.00064,  32.00000,   2.00000
512993092.41496,424527429.53286,23194415.11016,   0.00328,   0.00022,   0.00094,479683968.00000,   0.00186,276649024.00000,   0.00177,  -0.00071,   0.00064, 128.00000,   2.00000
512066619.55774,426288483.70894,22981196.78345,   0.00328,   0.00024,   0.00094,479707520.00000,   0.00186,276659072.00000,   0.00178,  -0.00070,   0.00064,  32.00000,   2.00000
511127973.43171,428028898.40045,22763844.37855,   0.00328,   0.00025,   0.00094,479728768.00000,   0.00187,276669184.00000,   0.00179,  -0.00070,   0.00064,  64.00000,   2.00000
510182722.68146,429740440.80794,22551262.96634,   0.00329,   0.00027,   0.00094,479753408.00000,   0.00188,276679296.00000,   0.00180,  -0.00069,   0.00065,  96.00000,   2.00000
509230373.19310,431431832.42306,22336094.31183,   0.00329,   0.00029,   0.00094,479764480.00000,   0.00189,276689376.00000,   0.00181,  -0.00068,   0.00065,  32.00000,   2.00000
508273652.71486,433101321.57571,22122223.83852,   0.00329,   0.00030,   0.00094,479787168.00000,   0.00190,276699520.00000,   0.00182,  -0.00068,   0.00065,  32.00000,   2.00000
507309214.02087,434756468.34714,21909001.86328,   0.00329,   0.00032,   0.00094,479819648.00000,   0.00191,276709696.00000,   0.00183,  -0.00067,   0.00065, -64.00000,   2.00000
506345006.73866,436384686.04913,21697092.77690,   0.00329,   0.00033,   0.00094,479833024.00000,   0.00192,276719840.00000,   0.00184,  -0.00067,   0.00065,  64.00000,   2.00000
505370911.96410,438003062.54748,21481445.56242,   0.00330,   0.00035,   0.00094,479853856.00000,   0.00193,276730016.00000,   0.00185,  -0.00066,   0.00066,  96.00000,   2.00000
504389607.55542,439604104.61844,21270935.57637,   0.00330,   0.00036,   0.00093,479865952.00000,   0.00194,276740192.00000,   0.00186,  -0.00065,   0.00066,  32.00000,   2.00000
503411616.74685,441174296.91539,21056319.72085,   0.00330,   0.00038,   0.00093,479889760.00000,   0.00195,276750368.00000,   0.00187,  -0.00065,   0.00066,  64.00000,   2.00000
502419299.13605,442739704.06870,20841719.42213,   0.00330,   0.00039,   0.00093,479919936.00000,   0.00196,276760608.00000,   0.00188,  -0.00064,   0.00066,  32.00000,   2.00000
501427334.66579,444277521.57003,20628209.24489,   0.00330,   0.00041,   0.00093,479931744.00000,   0.00197,276770848.00000,   0.00189,  -0.00063,   0.00066, -64.00000,   2.00000
500429042.56929,445797959.43902,20416020.20390,   0.00331,   0.00043,   0.00093,479941504.00000,   0.00198,276781056.00000,   0.00190,  -0.00063,   0.00067,   0.00000,   2.00000
499428430.17876,447297757.92455,20200435.37995,   0.00331,   0.00044,   0.00093,479961472.00000,   0.00199,276791296.00000,   0.00191,  -0.00062,   0.00067, 160.00000,   2.00000
498420918.46485,448782204.75721,19985329.89833,   0.00331,   0.00046,   0.00093,479992032.00000,   0.00200,276801600.00000,   0.00192,  -0.00061,   0.00067,  64.00000,   2.00000
497411423.19859,450243759.87577,19776586.94429,   0.00331,   0.00047,   0.00093,479991456.00000,   0.00201,276811840.00000,   0.00193,  -0.00061,   0.00067, 192.00000,   2.00000
496396529.48574,451691285.97204,19559827.87305,   0.00331,   0.00049,   0.00093,480020640.00000,   0.00202,276822144.00000,   0.00194,  -0.00060,   0.00067, 128.00000,   2.00000
495379171.21561,453118072.58871,19348448.24521,   0.00332,   0.00050,   0.00093,480041024.00000,   0.00203,276832480.00000,   0.00195,  -0.00059,   0.00068, 128.00000,   2.00000
494360551.59959,454523203.85020,19139166.00057,   0.00332,   0.00052,   0.00093,480039264.00000,   0.00204,276842752.00000,   0.00196,  -0.00059,   0.00068,  32.00000,   2.00000
493336827.14742,455914624.02148,18926201.21386,   0.00332,   0.00053,   0.00093,480068480.00000,   0.00205,276853088.00000,   0.00196,  -0.00058,   0.00068,   0.00000,   2.00000
492311817.56098,457286544.99075,18714344.03910,   0.00332,   0.00055,   0.00093,480087968.00000,   0.00206,276863456.00000,   0.00197,  -0.00057,   0.00068, 128.00000,   2.00000
491285302.63361,458638780.32672,18503569.36711,   0.00332,   0.00057,   0.00093,480107456.00000,   0.00207,276873856.00000,   0.00198,  -0.00056,   0.00068,   0.00000,   2.00000
490254327.21739,459976056.08765,18294401.97119,   0.00333,   0.00058,   0.00092,480115296.00000,   0.00208,276884224.00000,   0.00199,  -0.00056,   0.00069,  64.00000,   2.00000
489227113.95976,461289495.98976,18082500.75547,   0.00333,   0.00060,   0.00092,480123648.00000,   0.00209,276894560.00000,   0.00200,  -0.00055,   0.00069, 128.00000,   2.00000
488194935.46590,462589078.96474,17871202.73181,   0.00333,   0.00061,   0.00092,480152800.00000,   0.00210,276904992.00000,   0.00201,  -0.00054,   0.00069,  64.00000,   2.00000
487162263.34659,463869836.07111,17660977.22262,   0.00333,   0.00063,   0.00092,480171520.00000,   0.00211,276915424.00000,   0.00202,  -0.00053,   0.00069,  32.00000,   2.00000
486125434.99380,465136056.64235,17452302.46586,   0.00333,   0.00064,   0.00092,480178912.00000,   0.00212,276925824.00000,   0.00203,  -0.00052,   0.00069, 128.00000,   2.00000
485088429.18638,466383689.28668,17244668.17339,   0.00334,   0.00066,   0.00092,480197408.00000,   0.00213,276936288.00000,   0.00204,  -0.00052,   0.00070,  32.00000,   2.00000
484052040.08896,467613480.77786,17033800.62313,   0.00334,   0.00068,   0.00092,480215264.00000,   0.00214,276946752.00000,   0.00205,  -0.00051,   0.00070,  32.00000,   2.00000
483016060.00721,468824459.32423,16824928.89551,   0.00334,   0.00069,   0.00092,480211968.00000,   0.00214,276957152.00000,   0.00206,  -0.00050,   0.00070, 160.00000,   2.00000
481976050.01249,470022014.17961,16616644.46503,   0.00334,   0.00071,   0.00092,480240512.00000,   0.00215,276967616.00000,   0.00206,  -0.00049,   0.00070, 128.00000,   2.00000
480937182.58641,471202280.87302,16405151.96552,   0.00334,   0.00072,   0.00092,480257888.00000,   0.00216,276978112.00000,   0.00207,  -0.00048,   0.00070,   0.00000,   2.00000
479902951.59631,472360028.41432,16199492.68571,   0.00334,   0.00074,   0.00092,480265568.00000,   0.00217,276988608.00000,   0.00208,  -0.00048,   0.00071,  96.00000,   2.00000
478865626.61914,473505227.42475,15990180.41284,   0.00335,   0.00075,   0.00091,480293600.00000,   0.00218,276999168.00000,   0.00209,  -0.00047,   0.00071, -32.00000,   2.00000
477829921.87407,474633628.60621,15778621.20696,   0.00335,   0.00077,   0.00091,480289184.00000,   0.00219,277009632.00000,   0.00210,  -0.00046,   0.00071, 160.00000,   2.00000
476790642.70263,475749039.26319,15572063.52805,   0.00335,   0.00078,   0.00091,480317952.00000,   0.00220,277020192.00000,   0.00211,  -0.00045,   0.00071, -64.00000,   2.00000
475757564.17499,476844039.71143,15362839.63434,   0.00335,   0.00080,   0.00091,480324288.00000,   0.00221,277030720.00000,   0.00212,  -0.00044,   0.00071, 160.00000,   2.00000
474725824.72791,477922557.64735,15154827.14978,   0.00335,   0.00082,   0.00091,480341856.00000,   0.00222,277041280.00000,   0.00212,  -0.00043,   0.00071, 128.00000,   2.00000
473695695.33296,478984975.92210,14948058.32570,   0.00335,   0.00083,   0.00091,480359136.00000,   0.00223,277051872.00000,   0.00213,  -0.00042,   0.00072,   0.00000,   2.00000
472663247.12232,480036279.83265,14738705.48055,   0.00336,   0.00085,   0.00091,480365472.00000,   0.00224,277062432.00000,   0.00214,  -0.00042,   0.00072,  64.00000,   2.00000
471632648.28158,481071948.17681,14530677.07227,   0.00336,   0.00086,   0.00091,480382784.00000,   0.00225,277073024.00000,   0.00215,  -0.00041,   0.00072, 192.00000,   2.00000
470608089.55249,482088030.27261,14324415.54562,   0.00336,   0.00088,   0.00091,480389408.00000,   0.00226,277083584.00000,   0.00216,  -0.00040,   0.00072,  96.00000,   2.00000
469581470.36013,483093135.28648,14119121.70283,   0.00336,   0.00089,   0.00091,480417440.00000,   0.00227,277094208.00000,   0.00217,  -0.00039,   0.00072,  32.00000,   2.00000
468561545.31683,484079671.56428,13911368.11676,   0.00336,   0.00091,   0.00090,480423296.00000,   0.00228,277104832.00000,   0.00217,  -0.00038,   0.00072,   0.00000,   2.00000
467539828.73809,485055617.99761,13704684.20446,   0.00336,   0.00092,   0.00090,480451520.00000,   0.00229,277115488.00000,   0.00218,  -0.00037,   0.00073,  96.00000,   2.00000
466519678.26063,486017288.64555,13500279.50205,   0.00337,   0.00094,   0.00090,480447264.00000,   0.00230,277126112.00000,   0.00219,  -0.00036,   0.00073,  32.00000,   2.00000
465511492.21384,486957098.94405,13293127.47834,   0.00337,   0.00096,   0.00090,480463392.00000,   0.00231,277136736.00000,   0.00220,  -0.00035,   0.00073,  64.00000,   2.00000
464496624.63229,487890889.33721,13087525.10379,   0.00337,   0.00097,   0.00090,480481088.00000,   0.00232,277147392.00000,   0.00221,  -0.00034,   0.00073,  64.00000,   2.00000
463488559.99568,488807087.77658,12883900.53354,   0.00337,   0.00099,   0.00090,480487072.00000,   0.00233,277158048.00000,   0.00221,  -0.00033,   0.00073,   0.00000,   2.00000
462479406.40952,489713711.53957,12677223.12490,   0.00337,   0.00100,   0.00090,480514848.00000,   0.00234,277168736.00000,   0.00222,  -0.00032,   0.00073,   0.00000,   2.00000
461477220.64555,490603177.94503,12472584.85511,   0.00337,   0.00102,   0.00090,480520704.00000,   0.00235,277179424.00000,   0.00223,  -0.00031,   0.00073,  64.00000,   2.00000
460472674.84064,491483505.15621,12269961.65043,   0.00338,   0.00103,   0.00090,480527296.00000,   0.00236,277190080.00000,   0.00224,  -0.00031,   0.00074, 160.00000,   2.00000
459480778.51803,492343273.17305,12064757.58537,   0.00338,   0.00105,   0.00089,480542880.00000,   0.00237,277200768.00000,   0.00225,  -0.00030,   0.00074, -32.00000,   2.00000
458487838.66630,493193677.06630,11860919.33904,   0.00338,   0.00106,   0.00089,480570816.00000,   0.00238,277211488.00000,   0.00225,  -0.00029,   0.00074, 160.00000,   2.00000
457496689.81359,494031874.92273,11659488.08037,   0.00338,   0.00108,   0.00089,480566080.00000,   0.00239,277222176.00000,   0.00226,  -0.00028,   0.00074,  64.00000,   2.00000
456513244.52663,494854493.50133,11455843.92093,   0.00338,   0.00109,   0.00089,480571072.00000,   0.00241,277232864.00000,   0.00227,  -0.00027,   0.00074,   0.00000,   2.00000
455534345.81120,495663820.63827,11253296.42051,   0.00338,   0.00111,   0.00089,480609184.00000,   0.00242,277243616.00000,   0.00228,  -0.00026,   0.00074,  32.00000,   2.00000
454557380.96249,496461692.29460,11053147.53110,   0.00338,   0.00113,   0.00089,480604160.00000,   0.00243,277254336.00000,   0.00228,  -0.00025,   0.00074,-128.00000,   2.00000
453584212.14374,497247888.32367,10850456.01920,   0.00339,   0.00114,   0.00089,480620384.00000,   0.00244,277265056.00000,   0.00229,  -0.00024,   0.00074, 128.00000,   2.00000
452614451.88202,498022046.09890,10649524.93892,   0.00339,   0.00116,   0.00088,480636608.00000,   0.00245,277275808.00000,   0.00230,  -0.00023,   0.00075, 128.00000,   2.00000
451648129.40420,498784269.98106,10450342.43281,   0.00339,   0.00117,   0.00088,480652992.00000,   0.00246,277286592.00000,   0.00231,  -0.00022,   0.00075,  96.00000,   2.00000
450695628.18133,499528098.65674,10248646.43013,   0.00339,   0.00119,   0.00088,480667520.00000,   0.00247,277297344.00000,   0.00231,  -0.00021,   0.00075, 192.00000,   2.00000
449740950.63907,500264595.60339,10048970.68186,   0.00339,   0.00120,   0.00088,480673408.00000,   0.00248,277308128.00000,   0.00232,  -0.00020,   0.00075,  96.00000,   2.00000
448794277.87580,500987102.93304,9847030.59815,   0.00339,   0.00122,   0.00088,480677536.00000,   0.00249,277318880.00000,   0.00233,  -0.00019,   0.00075,   0.00000,   2.00000
447851344.84545,501698631.97337,9646819.48210,   0.00340,   0.00123,   0.00088,480693312.00000,   0.00250,277329632.00000,   0.00234,  -0.00018,   0.00075, -32.00000,   2.00000
446912224.39520,502399381.64138,9448314.72103,   0.00340,   0.00125,   0.00088,480708928.00000,   0.00251,277340416.00000,   0.00234,  -0.00017,   0.00075,  64.00000,   2.00000
445977154.97790,503089752.07539,9247206.15059,   0.00340,   0.00126,   0.00087,480724096.00000,   0.00252,277351232.00000,   0.00235,  -0.00016,   0.00075,  32.00000,   2.00000
445049928.82900,503766748.63274,9048065.23782,   0.00340,   0.00128,   0.00087,480728032.00000,   0.00253,277362016.00000,   0.00236,  -0.00015,   0.00075, -32.00000,   2.00000
444130960.14510,504431149.03775,8846571.69612,   0.00340,   0.00129,   0.00087,480731328.00000,   0.00254,277372768.00000,   0.00236,  -0.00014,   0.00076, 160.00000,   2.00000
443211817.16617,505088333.80869,8646481.01124,   0.00340,   0.00131,   0.00087,480758144.00000,   0.00255,277383616.00000,   0.00237,  -0.00013,   0.00076,  64.00000,   2.00000
442300626.64089,505732944.75319,8448302.21203,   0.00340,   0.00132,   0.00087,480761440.00000,   0.00256,277394400.00000,   0.00238,  -0.00011,   0.00076, -64.00000,   2.00000
441393564.85253,506368181.76562,8247462.59460,   0.00341,   0.00134,   0.00087,480776128.00000,   0.00257,277405216.00000,   0.00238,  -0.00010,   0.00076, -32.00000,   2.00000
440494522.19530,506991407.07890,8048512.68540,   0.00341,   0.00135,   0.00086,480779200.00000,   0.00258,277416000.00000,   0.00239,  -0.00009,   0.00076,-128.00000,   2.00000
439599835.24719,507605906.63527,7846899.33970,   0.00341,   0.00137,   0.00086,480793504.00000,   0.00259,277426816.00000,   0.00240,  -0.00008,   0.00076, -64.00000,   2.00000
438719396.25673,508204791.04437,7646962.76284,   0.00341,   0.00138,   0.00086,480806400.00000,   0.00260,277437632.00000,   0.00241,  -0.00007,   0.00076, -64.00000,   2.00000
437836694.88344,508799001.30702,7448847.39499,   0.00341,   0.00140,   0.00086,480811104.00000,   0.00261,277448448.00000,   0.00241,  -0.00006,   0.00076, -64.00000,   2.00000
436958381.78372,509384994.95963,7248060.35658,   0.00341,   0.00141,   0.00086,480825472.00000,   0.00262,277459264.00000,   0.00242,  -0.00005,   0.00076, 128.00000,   2.00000
436094393.38379,509955928.30569,7048947.21090,   0.00341,   0.00143,   0.00086,480838144.00000,   0.00263,277470112.00000,   0.00243,  -0.00004,   0.00076,  32.00000,   2.00000
435234821.17192,510519040.82538,6847183.49412,   0.00342,   0.00144,   0.00085,480852352.00000,   0.00264,277480960.00000,   0.00243,  -0.00003,   0.00076,   0.00000,   2.00000
434376721.89302,511075491.30991,6647451.80354,   0.00342,   0.00146,   0.00085,480845504.00000,   0.00265,277491744.00000,   0.00244,  -0.00002,   0.00076, 160.00000,   2.00000
433529544.99634,511620372.29705,6444921.21466,   0.00342,   0.00147,   0.00085,480869472.00000,   0.00266,277502592.00000,   0.00244,  -0.00001,   0.00077, 128.00000,   2.00000
432690307.56177,512154960.02715,6244263.37299,   0.00342,   0.00149,   0.00085,480872288.00000,   0.00267,277513376.00000,   0.00245,   0.00000,   0.00077, -32.00000,   2.00000
431855483.69865,512682232.38196,6040995.98464,   0.00342,   0.00150,   0.00085,480886464.00000,   0.00268,277524224.00000,   0.00246,   0.00001,   0.00077, -64.00000,   2.00000
431028661.68826,513199595.25014,5839614.12924,   0.00342,   0.00152,   0.00084,480889184.00000,   0.00269,277535040.00000,   0.00246,   0.00002,   0.00077, -64.00000,   2.00000
430212803.92900,513705803.00963,5639795.42359,   0.00343,   0.00153,   0.00084,480913280.00000,   0.00270,277545888.00000,   0.00247,   0.00003,   0.00077,  32.00000,   2.00000
429398415.94494,514206557.12258,5437683.95847,   0.00343,   0.00155,   0.00084,480906272.00000,   0.00271,277556672.00000,   0.00248,   0.00005,   0.00077,  64.00000,   2.00000
428594837.52787,514696081.63923,5237162.19150,   0.00343,   0.00156,   0.00084,480930368.00000,   0.00272,277567520.00000,   0.00248,   0.00006,   0.00077,   0.00000,   2.00000
427788899.94727,515182670.60938,5034189.56207,   0.00343,   0.00158,   0.00084,480935040.00000,   0.00273,277578336.00000,   0.00249,   0.00007,   0.00077,  96.00000,   2.00000
427001706.70367,515654101.59221,4828834.93470,   0.00343,   0.00159,   0.00083,480935200.00000,   0.00274,277589120.00000,   0.00250,   0.00008,   0.00077,   0.00000,   2.00000
426214867.80367,516120802.94850,4625096.00811,   0.00343,   0.00161,   0.00083,480961376.00000,   0.00275,277599968.00000,   0.00250,   0.00009,   0.00077,   0.00000,   2.00000
425446733.17098,516572640.09462,4423257.49639,   0.00344,   0.00162,   0.00083,480961376.00000,   0.00276,277610784.00000,   0.00251,   0.00010,   0.00077,   0.00000,   2.00000
424672170.88636,517023906.34144,4218823.48216,   0.00344,   0.00164,   0.00083,480977856.00000,   0.00277,277621600.00000,   0.00251,   0.00011,   0.00077,  64.00000,   2.00000
423916305.85182,517460577.54375,4016268.63392,   0.00344,   0.00165,   0.00082,480977600.00000,   0.00278,277632416.00000,   0.00252,   0.00012,   0.00077, -32.00000,   2.00000
423164681.06345,517890924.47805,3811130.00810,   0.00344,   0.00167,   0.00082,480991488.00000,   0.00279,277643232.00000,   0.00253,   0.00013,   0.00077, -96.00000,   2.00000
422417339.53321,518315050.76626,3603421.11258,   0.00344,   0.00168,   0.00082,481005088.00000,   0.00280,277654048.00000,   0.00253,   0.00014,   0.00077,  32.00000,   2.00000
421677909.74705,518730902.75726,3397540.58180,   0.00344,   0.00169,   0.00082,481006944.00000,   0.00281,277664832.00000,   0.00254,   0.00016,   0.00077, 160.00000,   2.00000
420953400.96993,519134812.98618,3193375.35096,   0.00345,   0.00171,   0.00082,481017888.00000,   0.00282,277675648.00000,   0.00254,   0.00017,   0.00077,  96.00000,   2.00000
420233135.76350,519532904.72565,2986587.55049,   0.00345,   0.00172,   0.00081,481031168.00000,   0.00284,277686464.00000,   0.00255,   0.00018,   0.00077,   0.00000,   2.00000
419520702.37635,519923204.80827,2777264.01115,   0.00345,   0.00174,   0.00081,481032416.00000,   0.00285,277697248.00000,   0.00255,   0.00019,   0.00077, -32.00000,   2.00000
418816060.09423,520305873.03529,2569691.65552,   0.00345,   0.00175,   0.00081,481033408.00000,   0.00286,277708032.00000,   0.00256,   0.00020,   0.00077, -96.00000,   2.00000
418122815.96020,520679345.33741,2363707.14673,   0.00345,   0.00177,   0.00081,481055808.00000,   0.00287,277718816.00000,   0.00257,   0.00021,   0.00078,  96.00000,   2.00000
417426266.72516,521050899.32360,2155096.70588,   0.00345,   0.00178,   0.00080,481059360.00000,   0.00288,277729600.00000,   0.00257,   0.00022,   0.00078,  64.00000,   2.00000
416755885.06589,521406299.92734,1943847.90193,   0.00346,   0.00179,   0.00080,481066432.00000,   0.00289,277740384.00000,   0.00258,   0.00023,   0.00078,  96.00000,   2.00000
416082078.22298,521760131.62858,1734269.23833,   0.00346,   0.00181,   0.00080,481069696.00000,   0.00290,277751168.00000,   0.00258,   0.00025,   0.00078, -32.00000,   2.00000
415419720.51975,522105338.84343,1521969.05377,   0.00346,   0.00182,   0.00080,481091296.00000,   0.00291,277761952.00000,   0.00259,   0.00026,   0.00078,  32.00000,   2.00000
414768402.56715,522441867.23926,1311372.58169,   0.00346,   0.00184,   0.00079,481079648.00000,   0.00292,277772704.00000,   0.00259,   0.00027,   0.00078, -32.00000,   2.00000
414121184.77494,522773870.09092,1098076.23665,   0.00346,   0.00185,   0.00079,481091776.00000,   0.00293,277783456.00000,   0.00260,   0.00028,   0.00078, -64.00000,   2.00000
413485264.46710,523097489.43589,886369.77351,   0.00347,   0.00186,   0.00079,481113216.00000,   0.00294,277794240.00000,   0.00260,   0.00029,   0.00078,  32.00000,   2.00000
412860429.06423,523413210.13471,672018.75411,   0.00347,   0.00188,   0.00079,481101088.00000,   0.00295,277804960.00000,   0.00261,   0.00030,   0.00078, -64.00000,   2.00000
412239285.16641,523724356.74102,454986.74347,   0.00347,   0.00189,   0.00078,481113216.00000,   0.00296,277815680.00000,   0.00262,   0.00031,   0.00078, -32.00000,   2.00000
411629821.54177,524028022.29174,239581.08618,   0.00347,   0.00191,   0.00078,481134240.00000,   0.00297,277826464.00000,   0.00262,   0.00032,   0.00078, 288.00000,   2.00000
411030871.96262,524323685.04466,25816.83862,   0.00347,   0.00192,   0.00078,481122304.00000,   0.00298,277837152.00000,   0.00263,   0.00034,   0.00078, -64.00000,   2.00000
410435761.03496,524615398.26610,-194922.87659,   0.00348,   0.00193,   0.00077,481134144.00000,   0.00299,277847872.00000,   0.00263,   0.00035,   0.00078,   0.00000,   2.00000
409855585.54332,524898007.20120,-413991.96413,   0.00348,   0.00195,   0.00077,481142912.00000,   0.00300,277858560.00000,   0.00264,   0.00036,   0.00078, 160.00000,   2.00000
409279083.76623,525176687.93419,-631395.86106,   0.00348,   0.00196,   0.00077,481154816.00000,   0.00301,277869280.00000,   0.00264,   0.00037,   0.00078, 160.00000,   2.00000
408720759.58432,525444598.78835,-851455.55729,   0.00348,   0.00198,   0.00077,481151392.00000,   0.00302,277879968.00000,   0.00265,   0.00038,   0.00078,  32.00000,   2.00000
408166155.34603,525708945.14458,-1074126.09346,   0.00348,   0.00199,   0.00076,481163200.00000,   0.00303,277890656.00000,   0.00265,   0.00039,   0.00078,   0.00000,   2.00000
407615173.30427,525969600.41282,-1295085.68749,   0.00349,   0.00200,   0.00076,481175040.00000,   0.00304,277901344.00000,   0.00266,   0.00040,   0.00078,  64.00000,   2.00000
407082344.82548,526219856.02469,-1518676.19539,   0.00349,   0.00202,   0.00076,481171648.00000,   0.00305,277912000.00000,   0.00266,   0.00042,   0.00078, -64.00000,   2.00000
406553212.11424,526466772.52027,-1740536.34897,   0.00349,   0.00203,   0.00075,481183360.00000,   0.00306,277922656.00000,   0.00267,   0.00043,   0.00078,   0.00000,   2.00000
406038866.29883,526705195.92897,-1964974.38476,   0.00349,   0.00204,   0.00075,481191936.00000,   0.00307,277933312.00000,   0.00267,   0.00044,   0.00078,  64.00000,   2.00000
405531327.32134,526938523.17055,-2192001.60546,   0.00349,   0.00206,   0.00075,481191744.00000,   0.00308,277943936.00000,   0.00268,   0.00045,   0.00078,  64.00000,   2.00000
405038598.69669,527163627.05618,-2417259.90995,   0.00350,   0.00207,   0.00074,481200192.00000,   0.00309,277954560.00000,   0.00268,   0.00046,   0.00078, -32.00000,   2.00000
404541395.08228,527388757.49400,-2645077.79242,   0.00350,   0.00208,   0.00074,481203136.00000,   0.00310,277965184.00000,   0.00269,   0.00047,   0.00078,   0.00000,   2.00000
404070332.77560,527600934.92013,-2875415.81599,   0.00350,   0.00210,   0.00074,481208224.00000,   0.00311,277975776.00000,   0.00269,   0.00048,   0.00077,  32.00000,   2.00000
403602699.74043,527809982.94294,-3103908.51088,   0.00350,   0.00211,   0.00073,481220160.00000,   0.00312,277986368.00000,   0.00270,   0.00050,   0.00077,   0.00000,   2.00000
403141755.96971,528014335.92206,-3334933.37117,   0.00351,   0.00212,   0.00073,481219968.00000,   0.00313,277996928.00000,   0.00270,   0.00051,   0.00077,   0.00000,   2.00000
402692325.75930,528212398.22446,-3564009.40200,   0.00351,   0.00214,   0.00073,481240448.00000,   0.00314,278007552.00000,   0.00271,   0.00052,   0.00077,   0.00000,   2.00000
402260781.03625,528401106.68940,-3795621.73625,   0.00351,   0.00215,   0.00072,481236896.00000,   0.00315,278018112.00000,   0.00271,   0.00053,   0.00077, -32.00000,   2.00000
401824488.26750,528590295.10528,-4029687.62420,   0.00351,   0.00216,   0.00072,481239872.00000,   0.00316,278028640.00000,   0.00272,   0.00054,   0.00077,  32.00000,   2.00000
401410877.51246,528768564.66043,-4261753.01438,   0.00352,   0.00218,   0.00072,481256960.00000,   0.00317,278039200.00000,   0.00272,   0.00055,   0.00077,  32.00000,   2.00000
401003617.19276,528942666.94082,-4496283.28542,   0.00352,   0.00219,   0.00071,481256736.00000,   0.00318,278049728.00000,   0.00272,   0.00056,   0.00077, -32.00000,   2.00000
400602661.45711,529112769.64913,-4733257.25807,   0.00352,   0.00220,   0.00071,481256480.00000,   0.00319,278060224.00000,   0.00273,   0.00058,   0.00077,  64.00000,   2.00000
400216098.26024,529275801.28524,-4968269.95747,   0.00352,   0.00221,   0.00071,481264832.00000,   0.00320,278070720.00000,   0.00273,   0.00059,   0.00077, 192.00000,   2.00000
399843595.92327,529431665.63705,-5205625.29996,   0.00353,   0.00223,   0.00070,481273440.00000,   0.00321,278081216.00000,   0.00274,   0.00060,   0.00077, 160.00000,   2.00000
399473651.88320,529585205.85746,-5445256.69610,   0.00353,   0.00224,   0.00070,481285472.00000,   0.00322,278091712.00000,   0.00274,   0.00061,   0.00077,  96.00000,   2.00000
399120842.44064,529730695.06260,-5683066.61040,   0.00353,   0.00225,   0.00070,481281472.00000,   0.00323,278102144.00000,   0.00275,   0.00062,   0.00077,  64.00000,   2.00000
398770258.90866,529874107.79352,-5923157.05013,   0.00353,   0.00227,   0.00069,481293600.00000,   0.00324,278112608.00000,   0.00275,   0.00063,   0.00077,   0.00000,   2.00000
398433290.27565,530011090.02184,-6165568.76490,   0.00354,   0.00228,   0.00069,481302016.00000,   0.00325,278123040.00000,   0.00276,   0.00064,   0.00077,  96.00000,   2.00000
398101449.10895,530144958.25114,-6406129.28323,   0.00354,   0.00229,   0.00068,481301696.00000,   0.00326,278133440.00000,   0.00276,   0.00066,   0.00077, 128.00000,   2.00000
397782880.69680,530272612.65981,-6649033.30020,   0.00354,   0.00230,   0.00068,481310240.00000,   0.00327,278143840.00000,   0.00277,   0.00067,   0.00077,  96.00000,   2.00000
397477185.26193,530393836.66026,-6894273.33143,   0.00354,   0.00232,   0.00068,481318752.00000,   0.00328,278154240.00000,   0.00277,   0.00068,   0.00077, -96.00000,   2.00000
397176327.58747,530512557.92991,-7137703.00909,   0.00355,   0.00233,   0.00067,481318368.00000,   0.00329,278164608.00000,   0.00277,   0.00069,   0.00077, -96.00000,   2.00000
396888405.90415,530625474.81336,-7383499.56018,   0.00355,   0.00234,   0.00067,481326784.00000,   0.00330,278174944.00000,   0.00278,   0.00070,   0.00077, 128.00000,   2.00000
396612979.25657,530732207.59677,-7631649.61951,   0.00355,   0.00235,   0.00067,481335456.00000,   0.00331,278185280.00000,   0.00278,   0.00071,   0.00076, 128.00000,   2.00000
396338787.00353,530837783.05894,-7877786.69268,   0.00356,   0.00237,   0.00066,481347392.00000,   0.00332,278195648.00000,   0.00279,   0.00072,   0.00076,  96.00000,   2.00000
396080243.94196,530936229.80984,-8126539.57432,   0.00356,   0.00238,   0.00066,481343360.00000,   0.00333,278205920.00000,   0.00279,   0.00073,   0.00076,  96.00000,   2.00000
395825761.95526,531032089.34868,-8377834.59170,   0.00356,   0.00239,   0.00065,481343200.00000,   0.00334,278216192.00000,   0.00280,   0.00075,   0.00076,  96.00000,   2.00000
395580481.06581,531123359.14013,-8631234.29740,   0.00356,   0.00240,   0.00065,481363872.00000,   0.00335,278226496.00000,   0.00280,   0.00076,   0.00076, -32.00000,   2.00000
395350848.20780,531207885.65504,-8882961.42998,   0.00357,   0.00241,   0.00064,481359584.00000,   0.00336,278236736.00000,   0.00280,   0.00077,   0.00076,   0.00000,   2.00000
395130439.00201,531288058.72579,-9136797.48114,   0.00357,   0.00243,   0.00064,481380192.00000,   0.00337,278246976.00000,   0.00281,   0.00078,   0.00076,  64.00000,   2.00000
394916871.87989,531364288.97086,-9393473.85441,   0.00357,   0.00244,   0.00064,481367488.00000,   0.00338,278257184.00000,   0.00281,   0.00079,   0.00076,  32.00000,   2.00000
394712588.36187,531436355.34832,-9647936.38438,   0.00358,   0.00245,   0.00063,481387584.00000,   0.00339,278267424.00000,   0.00282,   0.00080,   0.00076, -32.00000,   2.00000
394515264.95631,531504785.94438,-9905289.76386,   0.00358,   0.00246,   0.00063,481374688.00000,   0.00340,278277568.00000,   0.00282,   0.00081,   0.00076, 160.00000,   2.00000
394335325.67366,531565509.72434,-10164509.57895,   0.00358,   0.00247,   0.00062,481403648.00000,   0.00341,278287776.00000,   0.00283,   0.00082,   0.00076, -32.00000,   2.00000
394162167.45642,531622534.77780,-10426631.82597,   0.00359,   0.00249,   0.00062,481390560.00000,   0.00342,278297888.00000,   0.00283,   0.00084,   0.00075, 128.00000,   2.00000
393989757.76041,531678640.12846,-10686736.79280,   0.00359,   0.00250,   0.00061,481401824.00000,   0.00343,278308032.00000,   0.00283,   0.00085,   0.00075, 128.00000,   2.00000
393840802.65512,531724536.05155,-10949336.59466,   0.00359,   0.00251,   0.00061,481405888.00000,   0.00344,278318144.00000,   0.00284,   0.00086,   0.00075, -64.00000,   2.00000
393692452.89819,531769497.94402,-11214230.84018,   0.00360,   0.00252,   0.00061,481417056.00000,   0.00345,278328256.00000,   0.00284,   0.00087,   0.00075,  96.00000,   2.00000
393559290.89475,531807863.58084,-11477565.90469,   0.00360,   0.00253,   0.00060,481412064.00000,   0.00346,278338304.00000,   0.00285,   0.00088,   0.00075,  64.00000,   2.00000
393438021.37208,531840720.45311,-11743320.08340,   0.00360,   0.00254,   0.00060,481419456.00000,   0.00347,278348352.00000,   0.00285,   0.00089,   0.00075,  64.00000,   2.00000
393325492.87975,531869322.22363,-12011126.20939,   0.00361,   0.00255,   0.00059,481439136.00000,   0.00348,278358432.00000,   0.00286,   0.00090,   0.00075, 224.00000,   2.00000
393219287.70970,531894242.97024,-12281952.89382,   0.00361,   0.00257,   0.00059,481425536.00000,   0.00349,278368448.00000,   0.00286,   0.00091,   0.00075,  64.00000,   2.00000
393124863.97839,531913795.48624,-12555185.89230,   0.00362,   0.00258,   0.00058,481432480.00000,   0.00350,278378464.00000,   0.00286,   0.00092,   0.00075, 192.00000,   2.00000
393042252.02900,531928167.71979,-12826526.74598,   0.00362,   0.00259,   0.00058,481439392.00000,   0.00351,278388448.00000,   0.00287,   0.00093,   0.00074,   0.00000,   2.00000
392971232.05981,531937185.01973,-13100289.61179,   0.00362,   0.00260,   0.00057,481446304.00000,   0.00352,278398400.00000,   0.00287,   0.00095,   0.00074,   0.00000,   2.00000
392903628.60454,531944535.33307,-13372460.24132,   0.00363,   0.00261,   0.00057,481444256.00000,   0.00353,278408352.00000,   0.00288,   0.00096,   0.00074,  96.00000,   2.00000
392855443.57579,531942705.31226,-13651060.30836,   0.00363,   0.00262,   0.00056,481460224.00000,   0.00353,278418304.00000,   0.00288,   0.00097,   0.00074, -32.00000,   2.00000
392810595.85010,531939402.80895,-13928064.08251,   0.00363,   0.00263,   0.00056,481457888.00000,   0.00354,278428224.00000,   0.00288,   0.00098,   0.00074,  32.00000,   2.00000
392779995.15104,531929445.33570,-14207903.86529,   0.00364,   0.00264,   0.00055,481452320.00000,   0.00355,278438080.00000,   0.00289,   0.00099,   0.00074,  64.00000,   2.00000
392757536.66256,531915546.22710,-14489716.18579,   0.00364,   0.00265,   0.00055,481471360.00000,   0.00356,278448000.00000,   0.00289,   0.00100,   0.00074,  96.00000,   2.00000
392749409.30963,531895442.50490,-14770067.18272,   0.00365,   0.00266,   0.00054,481465344.00000,   0.00357,278457856.00000,   0.00290,   0.00101,   0.00073,   0.00000,   2.00000
392740857.40648,531874700.54019,-15052690.04187,   0.00365,   0.00268,   0.00054,481475424.00000,   0.00358,278467680.00000,   0.00290,   0.00102,   0.00073,   0.00000,   2.00000
392754823.16851,531844484.72225,-15337842.52095,   0.00365,   0.00269,   0.00053,481478080.00000,   0.00359,278477504.00000,   0.00290,   0.00103,   0.00073,  64.00000,   2.00000
392771187.63822,531812362.66450,-15625691.16072,   0.00366,   0.00270,   0.00053,481476256.00000,   0.00360,278487296.00000,   0.00291,   0.00104,   0.00073,  96.00000,   2.00000
392798066.77583,531774807.23518,-15915881.88749,   0.00366,   0.00271,   0.00052,481482912.00000,   0.00361,278497088.00000,   0.00291,   0.00105,   0.00073,   0.00000,   2.00000
392836063.88339,531732864.94034,-16204131.81396,   0.00367,   0.00272,   0.00052,481488736.00000,   0.00362,278506848.00000,   0.00292,   0.00106,   0.00073,  64.00000,   2.00000
392884550.09624,531685793.84028,-16494720.09440,   0.00367,   0.00273,   0.00051,481495328.00000,   0.00363,278516608.00000,   0.00292,   0.00108,   0.00073, -64.00000,   2.00000
392946585.34416,531632482.21173,-16788133.36866,   0.00368,   0.00274,   0.00051,481489408.00000,   0.00364,278526304.00000,   0.00292,   0.00109,   0.00072,  32.00000,   2.00000
393019293.83548,531574675.90935,-17079571.32068,   0.00368,   0.00275,   0.00050,481495424.00000,   0.00365,278536000.00000,   0.00293,   0.00110,   0.00072,  96.00000,   2.00000
393098679.29123,531512495.97197,-17377068.25882,   0.00368,   0.00276,   0.00049,481514848.00000,   0.00366,278545728.00000,   0.00293,   0.00111,   0.00072,-128.00000,   2.00000
393191877.17174,531444927.98507,-17673085.25091,   0.00369,   0.00277,   0.00049,481508608.00000,   0.00367,278555392.00000,   0.00294,   0.00112,   0.00072,  96.00000,   2.00000
393294994.21822,531372269.46438,-17971361.73038,   0.00369,   0.00278,   0.00048,481515392.00000,   0.00368,278565056.00000,   0.00294,   0.00113,   0.00072,  64.00000,   2.00000
393402560.44111,531296308.15523,-18272809.24208,   0.00370,   0.00279,   0.00048,481501312.00000,   0.00369,278574624.00000,   0.00294,   0.00114,   0.00072,  64.00000,   2.00000
393525710.05949,531214154.01296,-18571270.28721,   0.00370,   0.00280,   0.00047,481528256.00000,   0.00369,278584256.00000,   0.00295,   0.00115,   0.00071, -32.00000,   2.00000
393653290.91275,531128933.63809,-18872934.03887,   0.00371,   0.00281,   0.00047,481513984.00000,   0.00370,278593824.00000,   0.00295,   0.00116,   0.00071,  32.00000,   2.00000
393798911.78895,531035618.04151,-19176421.34680,   0.00371,   0.00282,   0.00046,481529408.00000,   0.00371,278603392.00000,   0.00296,   0.00117,   0.00071,  96.00000,   2.00000
393945577.79694,530940403.57252,-19482521.14821,   0.00372,   0.00283,   0.00046,481527808.00000,   0.00372,278612928.00000,   0.00296,   0.00118,   0.00071, -64.00000,   2.00000
394110215.85052,530837283.45779,-19790407.29192,   0.00372,   0.00284,   0.00045,481543168.00000,   0.00373,278622464.00000,   0.00296,   0.00119,   0.00071,  64.00000,   2.00000
394275994.22368,530732642.74696,-20096610.26008,   0.00373,   0.00285,   0.00044,481541120.00000,   0.00374,278632000.00000,   0.00297,   0.00120,   0.00070, -64.00000,   2.00000
394462703.82944,530618807.16010,-20405205.70697,   0.00373,   0.00286,   0.00044,481544256.00000,   0.00375,278641472.00000,   0.00297,   0.00121,   0.00070,  64.00000,   2.00000
394650018.30740,530502931.07422,-20716415.22277,   0.00374,   0.00287,   0.00043,481542912.00000,   0.00376,278650944.00000,   0.00298,   0.00122,   0.00070, 128.00000,   2.00000
394846334.91910,530381936.82865,-21029801.32356,   0.00374,   0.00288,   0.00043,481549824.00000,   0.00377,278660384.00000,   0.00298,   0.00123,   0.00070, -32.00000,   2.00000
395060003.02720,530252801.53482,-21344906.66545,   0.00375,   0.00289,   0.00042,481565440.00000,   0.00378,278669824.00000,   0.00298,   0.00124,   0.00070, -64.00000,   2.00000
395286168.07519,530118028.82386,-21658552.77431,   0.00375,   0.00289,   0.00041,481559584.00000,   0.00379,278679232.00000,   0.00299,   0.00125,   0.00069, -32.00000,   2.00000
395512653.17307,529981222.27057,-21974835.76406,   0.00376,   0.00290,   0.00041,481558048.00000,   0.00380,278688608.00000,   0.00299,   0.00126,   0.00069,  32.00000,   2.00000
395756171.05397,529836178.70810,-22292821.29876,   0.00376,   0.00291,   0.00040,481573728.00000,   0.00380,278697984.00000,   0.00300,   0.00127,   0.00069,  96.00000,   2.00000
395999868.43316,529689077.49846,-22613438.92729,   0.00377,   0.00292,   0.00039,481572384.00000,   0.00381,278707360.00000,   0.00300,   0.00128,   0.00069,  32.00000,   2.00000
396260459.66929,529533753.95528,-22935729.81020,   0.00378,   0.00293,   0.00039,481587968.00000,   0.00382,278716704.00000,   0.00300,   0.00129,   0.00069,   0.00000,   2.00000
396533007.47411,529372455.40112,-23256586.08948,   0.00378,   0.00294,   0.00038,481582272.00000,   0.00383,278726048.00000,   0.00301,   0.00130,   0.00068, -32.00000,   2.00000
396813856.82870,529205983.10280,-23579603.75085,   0.00379,   0.00295,   0.00038,481589152.00000,   0.00384,278735328.00000,   0.00301,   0.00131,   0.00068, -96.00000,   2.00000
397106083.42621,529032880.49297,-23905484.62458,   0.00379,   0.00296,   0.00037,481583968.00000,   0.00385,278744608.00000,   0.00302,   0.00132,   0.00068, -96.00000,   2.00000
397403358.53370,528856121.81978,-24232793.48523,   0.00380,   0.00297,   0.00036,481603264.00000,   0.00386,278753888.00000,   0.00302,   0.00133,   0.00068,  96.00000,   2.00000
397712280.19784,528673254.74816,-24558692.31389,   0.00380,   0.00297,   0.00036,481597600.00000,   0.00387,278763136.00000,   0.00302,   0.00134,   0.00068,  96.00000,   2.00000
398029174.98977,528485127.45636,-24886737.60210,   0.00381,   0.00298,   0.00035,481604608.00000,   0.00388,278772352.00000,   0.00303,   0.00135,   0.00067,   0.00000,   2.00000
398356467.20044,528289298.45154,-25221911.19661,   0.00382,   0.00299,   0.00034,481600128.00000,   0.00388,278781536.00000,   0.00303,   0.00136,   0.00067, -64.00000,   2.00000
398697857.71245,528088261.07994,-25549377.07052,   0.00382,   0.00300,   0.00034,481626624.00000,   0.00389,278790784.00000,   0.00304,   0.00137,   0.00067, -64.00000,   2.00000
399041268.82455,527882703.98481,-25884537.06702,   0.00383,   0.00301,   0.00033,481613632.00000,   0.00390,278799936.00000,   0.00304,   0.00138,   0.00067,  32.00000,   2.00000
399403537.71127,527666885.83698,-26221995.51045,   0.00383,   0.00302,   0.00032,481617120.00000,   0.00391,278809088.00000,   0.00305,   0.00139,   0.00066, -64.00000,   2.00000
399762575.68428,527451375.99150,-26557058.86455,   0.00384,   0.00303,   0.00032,481626944.00000,   0.00392,278818240.00000,   0.00305,   0.00140,   0.00066,-128.00000,   2.00000
400140564.07751,527225921.55766,-26894444.56221,   0.00385,   0.00303,   0.00031,481630752.00000,   0.00393,278827360.00000,   0.00305,   0.00141,   0.00066, 160.00000,   2.00000
400525528.71085,526994646.23507,-27233873.12125,   0.00385,   0.00304,   0.00030,481638016.00000,   0.00394,278836512.00000,   0.00306,   0.00142,   0.00066,  64.00000,   2.00000
400929140.51406,526753358.76807,-27575593.06454,   0.00386,   0.00305,   0.00030,481641728.00000,   0.00395,278845600.00000,   0.00306,   0.00143,   0.00065, 128.00000,   2.00000
401331980.78316,526510339.57051,-27915674.01743,   0.00386,   0.00306,   0.00029,481639616.00000,   0.00396,278854656.00000,   0.00307,   0.00144,   0.00065, -32.00000,   2.00000
401749996.62286,526258849.41436,-28257217.65907,   0.00387,   0.00306,   0.00028,481655648.00000,   0.00396,278863744.00000,   0.00307,   0.00145,   0.00065,   0.00000,   2.00000
402166648.74386,526005079.17266,-28601407.26749,   0.00388,   0.00307,   0.00028,481654336.00000,   0.00397,278872800.00000,   0.00307,   0.00146,   0.00065,  64.00000,   2.00000
402601037.54823,525740634.83309,-28947843.30455,   0.00388,   0.00308,   0.00027,481658432.00000,   0.00398,278881824.00000,   0.00308,   0.00147,   0.00064, -32.00000,   2.00000
403041925.69209,525470782.34160,-29296305.31986,   0.00389,   0.00309,   0.00026,481665664.00000,   0.00399,278890848.00000,   0.00308,   0.00148,   0.00064,   0.00000,   2.00000
403492982.79459,525194630.62049,-29643416.35916,   0.00390,   0.00310,   0.00025,481660480.00000,   0.00400,278899840.00000,   0.00309,   0.00149,   0.00064, 128.00000,   2.00000
403954071.10995,524910311.57884,-29995263.68092,   0.00390,   0.00310,   0.00025,481689760.00000,   0.00401,278908864.00000,   0.00309,   0.00150,   0.00064,  32.00000,   2.00000
404420199.40901,524621144.42526,-30347316.03125,   0.00391,   0.00311,   0.00024,481663808.00000,   0.00402,278917792.00000,   0.00309,   0.00151,   0.00063,  64.00000,   2.00000
404896648.82575,524324785.97391,-30699834.42994,   0.00392,   0.00312,   0.00023,481692512.00000,   0.00403,278926784.00000,   0.00310,   0.00152,   0.00063, 160.00000,   2.00000
405382398.99122,524021835.64858,-31051052.66307,   0.00393,   0.00312,   0.00022,481687712.00000,   0.00403,278935744.00000,   0.00310,   0.00153,   0.00063,  64.00000,   2.00000
405880599.70213,523709003.19329,-31407883.47068,   0.00393,   0.00313,   0.00022,481705280.00000,   0.00404,278944704.00000,   0.00311,   0.00154,   0.00063,  96.00000,   2.00000
406379864.59941,523392818.60930,-31764119.40878,   0.00394,   0.00314,   0.00021,481691776.00000,   0.00405,278953568.00000,   0.00311,   0.00155,   0.00062,  32.00000,   2.00000
406891901.80879,523067576.35026,-32121711.32235,   0.00395,   0.00315,   0.00020,481708768.00000,   0.00406,278962496.00000,   0.00312,   0.00156,   0.00062,  64.00000,   2.00000
407408573.61323,522736404.94682,-32481333.40845,   0.00395,   0.00315,   0.00019,481717280.00000,   0.00407,278971392.00000,   0.00312,   0.00157,   0.00062,   0.00000,   2.00000
407930674.70728,522400439.44264,-32838762.41551,   0.00396,   0.00316,   0.00019,481724640.00000,   0.00408,278980288.00000,   0.00312,   0.00158,   0.00061,  64.00000,   2.00000
408463928.21890,522054633.47283,-33200168.19195,   0.00397,   0.00317,   0.00018,481709184.00000,   0.00409,278989120.00000,   0.00313,   0.00159,   0.00061,   0.00000,   2.00000
409005352.72114,521700430.88107,-33566116.81722,   0.00398,   0.00317,   0.00017,481739552.00000,   0.00409,278998016.00000,   0.00313,   0.00160,   0.00061, -32.00000,   2.00000
409555295.57345,521339232.78126,-33930805.71869,   0.00398,   0.00318,   0.00016,481735264.00000,   0.00410,279006848.00000,   0.00314,   0.00161,   0.00061,   0.00000,   2.00000
410110389.73143,520972902.62420,-34293253.08130,   0.00399,   0.00319,   0.00016,481743040.00000,   0.00411,279015680.00000,   0.00314,   0.00162,   0.00060,  64.00000,   2.00000
410676737.76512,520595924.36809,-34661143.14988,   0.00400,   0.00319,   0.00015,481761600.00000,   0.00412,279024544.00000,   0.00315,   0.00162,   0.00060,  32.00000,   2.00000
