# sigma_xx, sigma_yy, sigma_xy, epsilon_xx, epsilon_yy, epsilon_xy, vonMises, epsPlastic, hardening, epsilonP__xx, epsilonP__yy, epsilonP__xy, yieldValue, iteration
   0.00000,   0.00000,   0.00000,   0.00000,   0.00000,   0.00000,   0.00000,   0.00000,274640135.82653,   0.00000,   0.00000,   0.00000,-474640135.82653,   0.00000
   0.00000,   0.00000,   0.00000,   0.00000,   0.00000,   0.00000,   0.00000,   0.00000,274640135.82653,   0.00000,   0.00000,   0.00000,-474640135.82653,   0.00000
-1015198.97900,725142.12786,-371272.76946,  -0.00001,   0.00001,  -0.00000,1645039.21790,   0.00000,274640135.82653,   0.00000,   0.00000,   0.00000,-472995096.60863,   0.00000
-2010093.97842,1458985.96125,-748346.67595,  -0.00001,   0.00001,  -0.00001,3283578.07501,   0.00000,274640135.82653,   0.00000,   0.00000,   0.00000,-471356557.75152,   0.00000
-3004988.97784,2192829.79464,-1125420.58243,  -0.00002,   0.00002,  -0.00001,4922154.51713,   0.00000,274640135.82653,   0.00000,   0.00000,   0.00000,-469717981.30940,   0.00000
-3979579.99768,2935375.33357,-1508295.62594,  -0.00002,   0.00002,  -0.00002,6554381.23362,   0.00000,274640135.82653,   0.00000,   0.00000,   0.00000,-468085754.59291,   0.00000
-4933867.03794,3686622.57803,-1891170.66945,  -0.00003,   0.00003,  -0.00002,8176375.42576,   0.00000,274640135.82653,   0.00000,   0.00000,   0.00000,-466463760.40077,   0.00000
-5876551.80415,4426267.54844,-2279846.84998,  -0.00004,   0.00003,  -0.00003,9784170.94305,   0.00000,274640135.82653,   0.00000,   0.00000,   0.00000,-464855964.88348,   0.00000
-6790230.88525,5194918.20397,-2668523.03051,  -0.00004,   0.00004,  -0.00003,11390002.20145,   0.00000,274640135.82653,   0.00000,   0.00000,   0.00000,-463250133.62508,   0.00000
-7712611.67189,5943264.87992,-3063000.34807,  -0.00005,   0.00004,  -0.00004,12991950.72778,   0.00000,274640135.82653,   0.00000,   0.00000,   0.00000,-461648185.09875,   0.00000
-8594384.49936,6709014.96693,-3457477.66562,  -0.00005,   0.00005,  -0.00004,14573833.96406,   0.00000,274640135.82653,   0.00000,   0.00000,   0.00000,-460066301.86247,   0.00000
-9476157.32684,7474765.05395,-3857756.12020,  -0.00006,   0.00005,  -0.00005,16160091.79355,   0.00000,274640135.82653,   0.00000,   0.00000,   0.00000,-458480044.03298,   0.00000
-10346327.88026,8228912.86692,-4263835.71180,  -0.00006,   0.00006,  -0.00006,17732496.24639,   0.00000,274640135.82653,   0.00000,   0.00000,   0.00000,-456907639.58014,   0.00000
-11187492.74858,9012066.36501,-4664114.16638,  -0.00007,   0.00006,  -0.00006,19299265.37840,   0.00000,274640135.82653,   0.00000,   0.00000,   0.00000,-455340870.44813,   0.00000
-12037359.32243,9774915.88351,-5075994.89500,  -0.00007,   0.00007,  -0.00007,20866440.69662,   0.00000,274640135.82653,   0.00000,   0.00000,   0.00000,-453773695.12991,   0.00000
-12846617.93712,10555168.81309,-5482074.48660,  -0.00008,   0.00007,  -0.00007,22409926.91038,   0.00000,274640135.82653,   0.00000,   0.00000,   0.00000,-452230208.91615,   0.00000
-13655876.55180,11335421.74266,-5893955.21522,  -0.00008,   0.00008,  -0.00008,23958004.81467,   0.00000,274640135.82653,   0.00000,   0.00000,   0.00000,-450682131.01186,   0.00000
-14444831.18691,12124376.37777,-6311637.08087,  -0.00009,   0.00008,  -0.00008,25500951.12958,   0.00000,274640135.82653,   0.00000,   0.00000,   0.00000,-449139184.69694,   0.00000
-15213481.84244,12922032.71841,-6729318.94651,  -0.00009,   0.00009,  -0.00009,27034593.94788,   0.00000,274640135.82653,   0.00000,   0.00000,   0.00000,-447605541.87865,   0.00000
-15970530.22392,13708086.78501,-7152801.94918,  -0.00010,   0.00009,  -0.00009,28554905.36534,   0.00000,274640135.82653,   0.00000,   0.00000,   0.00000,-446085230.46119,   0.00000
-16707274.62583,14502842.55714,-7570483.81483,  -0.00010,   0.00010,  -0.00010,30061688.52026,   0.00000,274640135.82653,   0.00000,   0.00000,   0.00000,-444578447.30627,   0.00000
-17444019.02773,15297598.32927,-7999767.95452,  -0.00011,   0.00010,  -0.00010,31577694.22862,   0.00000,274640135.82653,   0.00000,   0.00000,   0.00000,-443062441.59791,   0.00000
-18140155.47047,16109757.51247,-8423250.95719,  -0.00011,   0.00011,  -0.00011,33070780.20753,   0.00000,274640135.82653,   0.00000,   0.00000,   0.00000,-441569355.61900,   0.00000
-18844993.61875,16901612.71609,-8858336.23390,  -0.00012,   0.00011,  -0.00012,34564713.84484,   0.00000,274640135.82653,   0.00000,   0.00000,   0.00000,-440075421.98169,   0.00000
-19529527.78745,17702169.62525,-9287620.37359,  -0.00012,   0.00012,  -0.00012,36045304.20524,   0.00000,274640135.82653,   0.00000,   0.00000,   0.00000,-438594831.62129,   0.00000
-20193757.97656,18511428.23994,-9722705.65031,  -0.00013,   0.00012,  -0.00013,37521582.50745,   0.00000,274640135.82653,   0.00000,   0.00000,   0.00000,-437118553.31908,   0.00000
-20837684.18610,19329388.56016,-10157790.92702,  -0.00013,   0.00013,  -0.00013,38989180.39953,   0.00000,274640135.82653,   0.00000,   0.00000,   0.00000,-435650955.42699,   0.00000
-21461306.41606,20156050.58591,-10598677.34076,  -0.00014,   0.00013,  -0.00014,40452751.57747,   0.00000,274640135.82653,   0.00000,   0.00000,   0.00000,-434187384.24906,   0.00000
-22073326.37197,20971110.33763,-11039563.75450,  -0.00014,   0.00014,  -0.00014,41899132.12049,   0.00000,274640135.82653,   0.00000,   0.00000,   0.00000,-432741003.70604,   0.00000
-22665042.34830,21794871.79487,-11480450.16823,  -0.00015,   0.00014,  -0.00015,43337102.82896,   0.00000,274640135.82653,   0.00000,   0.00000,   0.00000,-431303032.99757,   0.00000
-23256758.32463,22618633.25212,-11927137.71899,  -0.00015,   0.00015,  -0.00016,44780412.09776,   0.00000,274640135.82653,   0.00000,   0.00000,   0.00000,-429859723.72877,   0.00000
-23807866.34180,23459798.12043,-12373825.26975,  -0.00015,   0.00015,  -0.00016,46206482.45730,   0.00000,274640135.82653,   0.00000,   0.00000,   0.00000,-428433653.36923,   0.00000
-24367676.06451,24280659.00917,-12820512.82051,  -0.00016,   0.00016,  -0.00017,47624509.64593,   0.00000,274640135.82653,   0.00000,   0.00000,   0.00000,-427015626.18060,   0.00000
-24907181.80763,25110221.60343,-13267200.37127,  -0.00016,   0.00016,  -0.00017,49034392.07692,   0.00000,274640135.82653,   0.00000,   0.00000,   0.00000,-425605743.74961,   0.00000
-25406079.59160,25957187.60877,-13719689.05906,  -0.00017,   0.00017,  -0.00018,50432176.70065,   0.00000,274640135.82653,   0.00000,   0.00000,   0.00000,-424207959.12588,   0.00000
-25913679.08110,26783849.63453,-14172177.74684,  -0.00017,   0.00017,  -0.00018,51821938.54935,   0.00000,274640135.82653,   0.00000,   0.00000,   0.00000,-422818197.27718,   0.00000
-26392272.88549,27639517.34540,-14630467.57164,  -0.00017,   0.00018,  -0.00019,53217632.56146,   0.00000,274640135.82653,   0.00000,   0.00000,   0.00000,-421422503.26507,   0.00000
-26859264.41583,28483582.78223,-15088757.39645,  -0.00018,   0.00018,  -0.00020,54596652.40503,   0.00000,274640135.82653,   0.00000,   0.00000,   0.00000,-420043483.42150,   0.00000
-27314653.67212,29316045.94501,-15547047.22126,  -0.00018,   0.00019,  -0.00020,55959007.57699,   0.00000,274640135.82653,   0.00000,   0.00000,   0.00000,-418681128.24954,   0.00000
-27741037.24330,30177514.79290,-16005337.04606,  -0.00019,   0.00019,  -0.00021,57322905.98063,   0.00000,274640135.82653,   0.00000,   0.00000,   0.00000,-417317229.84590,   0.00000
-28155818.54043,31027381.36675,-16469428.00789,  -0.00019,   0.00020,  -0.00021,58675173.69746,   0.00000,274640135.82653,   0.00000,   0.00000,   0.00000,-415964962.12906,   0.00000
-28570599.83757,31877247.94060,-16927717.83270,  -0.00019,   0.00020,  -0.00022,60023604.51729,   0.00000,274640135.82653,   0.00000,   0.00000,   0.00000,-414616531.30924,   0.00000
-28953474.88108,32724213.94593,-17391808.79452,  -0.00020,   0.00021,  -0.00023,61352120.02849,   0.00000,274640135.82653,   0.00000,   0.00000,   0.00000,-413288015.79804,   0.00000
-29307344.23947,33600185.63638,-17861700.89338,  -0.00020,   0.00021,  -0.00023,62687687.66304,   0.00000,274640135.82653,   0.00000,   0.00000,   0.00000,-411952448.16349,   0.00000
-29649611.32382,34464555.05279,-18325791.85520,  -0.00020,   0.00021,  -0.00024,64002106.29163,   0.00000,274640135.82653,   0.00000,   0.00000,   0.00000,-410638029.53490,   0.00000
-30000580.11370,35308620.48962,-18795683.95405,  -0.00021,   0.00022,  -0.00024,65313442.65650,   0.00000,274640135.82653,   0.00000,   0.00000,   0.00000,-409326693.17003,   0.00000
-30302239.23889,36190393.31709,-19265576.05291,  -0.00021,   0.00022,  -0.00025,66619122.55300,   0.00000,274640135.82653,   0.00000,   0.00000,   0.00000,-408021013.27353,   0.00000
-30612600.06961,37051862.16498,-19735468.15176,  -0.00021,   0.00023,  -0.00026,67916799.98876,   0.00000,274640135.82653,   0.00000,   0.00000,   0.00000,-406723335.83777,   0.00000
-30891054.64671,37910430.44437,-20205360.25061,  -0.00021,   0.00023,  -0.00026,69190468.42428,   0.00000,274640135.82653,   0.00000,   0.00000,   0.00000,-405449667.40225,   0.00000
-31160807.51827,38789302.70333,-20675252.34946,  -0.00022,   0.00024,  -0.00027,70474889.88178,   0.00000,274640135.82653,   0.00000,   0.00000,   0.00000,-404165245.94475,   0.00000
-31398654.13621,39665274.39378,-21150945.58533,  -0.00022,   0.00024,  -0.00027,71740736.01287,   0.00000,274640135.82653,   0.00000,   0.00000,   0.00000,-402899399.81365,   0.00000
-31645202.45968,40520942.10465,-21626638.82121,  -0.00022,   0.00025,  -0.00028,72998585.77144,   0.00000,274640135.82653,   0.00000,   0.00000,   0.00000,-401641550.05509,   0.00000
-31862745.09804,41405615.50064,-22102332.05708,  -0.00023,   0.00025,  -0.00029,74259648.12452,   0.00000,274640135.82653,   0.00000,   0.00000,   0.00000,-400380487.70200,   0.00000
-32048381.48277,42287388.32811,-22578025.29296,  -0.00023,   0.00025,  -0.00029,75497456.90231,   0.00000,274640135.82653,   0.00000,   0.00000,   0.00000,-399142678.92422,   0.00000
-32234017.86750,43169161.15559,-23053718.52883,  -0.00023,   0.00026,  -0.00030,76736860.17028,   0.00000,274640135.82653,   0.00000,   0.00000,   0.00000,-397903275.65625,   0.00000
-32408051.97819,44039331.70901,-23529411.76471,  -0.00023,   0.00026,  -0.00031,77960715.59117,   0.00000,274640135.82653,   0.00000,   0.00000,   0.00000,-396679420.23536,   0.00000
-32541478.12971,44926905.67351,-24010906.13760,  -0.00024,   0.00027,  -0.00031,79176596.36105,   0.00000,274640135.82653,   0.00000,   0.00000,   0.00000,-395463539.46548,   0.00000
-32674904.28124,45814479.63801,-24486599.37348,  -0.00024,   0.00027,  -0.00032,80388931.43828,   0.00000,274640135.82653,   0.00000,   0.00000,   0.00000,-394251204.38825,   0.00000
-32796728.15872,46690451.32846,-24968093.74637,  -0.00024,   0.00028,  -0.00032,81591266.56072,   0.00000,274640135.82653,   0.00000,   0.00000,   0.00000,-393048869.26581,   0.00000
-32877944.07704,47583826.42998,-25449588.11927,  -0.00024,   0.00028,  -0.00033,82780932.19522,   0.00000,274640135.82653,   0.00000,   0.00000,   0.00000,-391859203.63131,   0.00000
-32959159.99536,48477201.53150,-25931082.49217,  -0.00024,   0.00028,  -0.00034,83972473.19793,   0.00000,274640135.82653,   0.00000,   0.00000,   0.00000,-390667662.62860,   0.00000
-33028773.63963,49358974.35897,-26406775.72804,  -0.00025,   0.00029,  -0.00034,85143573.11124,   0.00000,274640135.82653,   0.00000,   0.00000,   0.00000,-389496562.71529,   0.00000
-33057779.32475,50258150.59752,-26888270.10094,  -0.00025,   0.00029,  -0.00035,86307928.57063,   0.00000,274640135.82653,   0.00000,   0.00000,   0.00000,-388332207.25590,   0.00000
-33095486.71540,51137022.85648,-27369764.47384,  -0.00025,   0.00030,  -0.00036,87464410.07761,   0.00000,274640135.82653,   0.00000,   0.00000,   0.00000,-387175725.74892,   0.00000
-33112890.12646,52024596.82098,-27857059.98376,  -0.00025,   0.00030,  -0.00036,88621409.93087,   0.00000,274640135.82653,   0.00000,   0.00000,   0.00000,-386018725.89566,   0.00000
-33089685.57837,52929574.19654,-28338554.35665,  -0.00025,   0.00031,  -0.00037,89761411.93931,   0.00000,274640135.82653,   0.00000,   0.00000,   0.00000,-384878723.88722,   0.00000
-33075182.73582,53814247.59253,-28820048.72955,  -0.00026,   0.00031,  -0.00037,90893578.74015,   0.00000,274640135.82653,   0.00000,   0.00000,   0.00000,-383746557.08638,   0.00000
-33040375.91368,54707622.69405,-29301543.10245,  -0.00026,   0.00031,  -0.00038,92021150.42239,   0.00000,274640135.82653,   0.00000,   0.00000,   0.00000,-382618985.40414,   0.00000
-32985265.11196,55609699.50110,-29783037.47535,  -0.00026,   0.00032,  -0.00039,93144270.02088,   0.00000,274640135.82653,   0.00000,   0.00000,   0.00000,-381495865.80565,   0.00000
-32898248.05662,56508875.73964,-30264531.84824,  -0.00026,   0.00032,  -0.00039,94246572.55315,   0.00000,274640135.82653,   0.00000,   0.00000,   0.00000,-380393563.27338,   0.00000
-32811231.00128,57408051.97819,-30751827.35816,  -0.00026,   0.00033,  -0.00040,95356776.49825,   0.00000,274640135.82653,   0.00000,   0.00000,   0.00000,-379283359.32828,   0.00000
-32692307.69231,58304327.64822,-31233321.73106,  -0.00026,   0.00033,  -0.00041,96440892.69130,   0.00000,274640135.82653,   0.00000,   0.00000,   0.00000,-378199243.13523,   0.00000
-32573384.38334,59200603.31825,-31714816.10396,  -0.00026,   0.00033,  -0.00041,97527378.16923,   0.00000,274640135.82653,   0.00000,   0.00000,   0.00000,-377112757.65730,   0.00000
-32434157.09479,60105580.69382,-32196310.47685,  -0.00026,   0.00034,  -0.00042,98610022.04874,   0.00000,274640135.82653,   0.00000,   0.00000,   0.00000,-376030113.77779,   0.00000
-32263023.55262,61007657.50087,-32677804.84975,  -0.00027,   0.00034,  -0.00042,99672690.55632,   0.00000,274640135.82653,   0.00000,   0.00000,   0.00000,-374967445.27021,   0.00000
-32100591.71598,61889430.32834,-33159299.22265,  -0.00027,   0.00034,  -0.00043,100727624.23585,   0.00000,274640135.82653,   0.00000,   0.00000,   0.00000,-373912511.59068,   0.00000
-31888850.21464,62808910.54647,-33640793.59554,  -0.00027,   0.00035,  -0.00044,101783451.17857,   0.00000,274640135.82653,   0.00000,   0.00000,   0.00000,-372856684.64795,   0.00000
-31694512.12438,63687782.80543,-34122287.96844,  -0.00027,   0.00035,  -0.00044,102821304.16591,   0.00000,274640135.82653,   0.00000,   0.00000,   0.00000,-371818831.66062,   0.00000
-31450864.36942,64604362.45504,-34603782.34134,  -0.00027,   0.00036,  -0.00045,103860525.78353,   0.00000,274640135.82653,   0.00000,   0.00000,   0.00000,-370779610.04300,   0.00000
-31215918.31999,65500638.12507,-35085276.71424,  -0.00027,   0.00036,  -0.00046,104892133.39100,   0.00000,274640135.82653,   0.00000,   0.00000,   0.00000,-369748002.43553,   0.00000
-30949066.01694,66394013.22659,-35560969.95011,  -0.00027,   0.00036,  -0.00046,105898961.89062,   0.00000,274640135.82653,   0.00000,   0.00000,   0.00000,-368741173.93591,   0.00000
-30653208.02877,67316394.01323,-36042464.32301,  -0.00027,   0.00037,  -0.00047,106919395.80010,   0.00000,274640135.82653,   0.00000,   0.00000,   0.00000,-367720740.02643,   0.00000
-30374753.45168,68198166.84070,-36518157.55888,  -0.00027,   0.00037,  -0.00047,107915919.14917,   0.00000,274640135.82653,   0.00000,   0.00000,   0.00000,-366724216.67736,   0.00000
-30055690.91542,69097343.07924,-36999651.93178,  -0.00027,   0.00037,  -0.00048,108910414.98818,   0.00000,274640135.82653,   0.00000,   0.00000,   0.00000,-365729720.83834,   0.00000
-29736628.37916,69996519.31779,-37475345.16765,  -0.00027,   0.00038,  -0.00049,109901977.93060,   0.00000,274640135.82653,   0.00000,   0.00000,   0.00000,-364738157.89593,   0.00000
-29376957.88375,70913098.96740,-37951038.40353,  -0.00027,   0.00038,  -0.00049,110886105.21230,   0.00000,274640135.82653,   0.00000,   0.00000,   0.00000,-363754030.61423,   0.00000
-29014386.81982,71797772.36338,-38426731.63940,  -0.00027,   0.00038,  -0.00050,111847057.23660,   0.00000,274640135.82653,   0.00000,   0.00000,   0.00000,-362793078.58993,   0.00000
-28622810.07077,72711451.44448,-38902424.87528,  -0.00027,   0.00039,  -0.00051,112816765.04716,   0.00000,274640135.82653,   0.00000,   0.00000,   0.00000,-361823370.77937,   0.00000
-28219631.04769,73613528.25154,-39372316.97413,  -0.00027,   0.00039,  -0.00051,113768113.97407,   0.00000,274640135.82653,   0.00000,   0.00000,   0.00000,-360872021.85246,   0.00000
-27825153.73013,74495301.07901,-39848010.21000,  -0.00027,   0.00039,  -0.00052,114718019.59912,   0.00000,274640135.82653,   0.00000,   0.00000,   0.00000,-359922116.22741,   0.00000
-27390068.45342,75394477.31755,-40317902.30885,  -0.00027,   0.00040,  -0.00052,115655534.64649,   0.00000,274640135.82653,   0.00000,   0.00000,   0.00000,-358984601.18004,   0.00000
-26934679.19712,76302355.26163,-40787794.40770,  -0.00027,   0.00040,  -0.00053,116591759.31779,   0.00000,274640135.82653,   0.00000,   0.00000,   0.00000,-358048376.50874,   0.00000
-26467687.66678,77198630.93166,-41257686.50656,  -0.00027,   0.00040,  -0.00054,117516068.89090,   0.00000,274640135.82653,   0.00000,   0.00000,   0.00000,-357124066.93563,   0.00000
-25980392.15686,78103608.30723,-41727578.60541,  -0.00027,   0.00041,  -0.00054,118439390.52837,   0.00000,274640135.82653,   0.00000,   0.00000,   0.00000,-356200745.29816,   0.00000
-25481494.37290,78996983.40875,-42191669.56724,  -0.00027,   0.00041,  -0.00055,119344887.08770,   0.00000,274640135.82653,   0.00000,   0.00000,   0.00000,-355295248.73883,   0.00000
-24970994.31489,79878756.23622,-42661561.66609,  -0.00027,   0.00041,  -0.00055,120244936.50105,   0.00000,274640135.82653,   0.00000,   0.00000,   0.00000,-354395199.32547,   0.00000
-24440190.27729,80769230.76923,-43125652.62792,  -0.00027,   0.00042,  -0.00056,121138237.77877,   0.00000,274640135.82653,   0.00000,   0.00000,   0.00000,-353501898.04776,   0.00000
-23889082.26012,81668407.00777,-43589743.58974,  -0.00027,   0.00042,  -0.00057,122031133.26581,   0.00000,274640135.82653,   0.00000,   0.00000,   0.00000,-352609002.56071,   0.00000
-23326371.96891,82555980.97227,-44048033.41455,  -0.00027,   0.00042,  -0.00057,122906586.01967,   0.00000,274640135.82653,   0.00000,   0.00000,   0.00000,-351733549.80686,   0.00000
-22743357.69811,83452256.64230,-44512124.37638,  -0.00027,   0.00042,  -0.00058,123788172.42007,   0.00000,274640135.82653,   0.00000,   0.00000,   0.00000,-350851963.40646,   0.00000
-22148741.15327,84336930.03829,-44970414.20118,  -0.00027,   0.00043,  -0.00058,124652540.27221,   0.00000,274640135.82653,   0.00000,   0.00000,   0.00000,-349987595.55432,   0.00000
-21513516.64926,85239006.84534,-45428704.02599,  -0.00026,   0.00043,  -0.00059,125513393.42068,   0.00000,274640135.82653,   0.00000,   0.00000,   0.00000,-349126742.40585,   0.00000
-20886993.85079,86120779.67282,-45881192.71377,  -0.00026,   0.00043,  -0.00060,126361034.07912,   0.00000,274640135.82653,   0.00000,   0.00000,   0.00000,-348279101.74741,   0.00000
-20240167.07275,87011254.20582,-46333681.40155,  -0.00026,   0.00044,  -0.00060,127209178.68063,   0.00000,274640135.82653,   0.00000,   0.00000,   0.00000,-347430957.14590,   0.00000
-19581738.02065,87890126.46479,-46786170.08934,  -0.00026,   0.00044,  -0.00061,128046856.11067,   0.00000,274640135.82653,   0.00000,   0.00000,   0.00000,-346593279.71586,   0.00000
-18911706.69451,88757396.44970,-47238658.77712,  -0.00026,   0.00044,  -0.00061,128874181.17078,   0.00000,274640135.82653,   0.00000,   0.00000,   0.00000,-345765954.65575,   0.00000
-18192365.70368,89662373.82527,-47685346.32788,  -0.00026,   0.00044,  -0.00062,129704089.78748,   0.00000,274640135.82653,   0.00000,   0.00000,   0.00000,-344936046.03905,   0.00000
-17490428.12391,90526743.24168,-48132033.87864,  -0.00026,   0.00045,  -0.00063,130516036.82976,   0.00000,274640135.82653,   0.00000,   0.00000,   0.00000,-344124098.99677,   0.00000
-16768186.56457,91399814.36362,-48578721.42940,  -0.00025,   0.00045,  -0.00063,131329295.33325,   0.00000,274640135.82653,   0.00000,   0.00000,   0.00000,-343310840.49328,   0.00000
-16005337.04606,92290288.89662,-49019607.84314,  -0.00025,   0.00045,  -0.00064,132134670.99037,   0.00000,274640135.82653,   0.00000,   0.00000,   0.00000,-342505464.83616,   0.00000
-15251189.23309,93160459.45005,-49460494.25687,  -0.00025,   0.00045,  -0.00064,132933439.17347,   0.00000,274640135.82653,   0.00000,   0.00000,   0.00000,-341706696.65306,   0.00000
-14465135.16649,94027729.43497,-49901380.67061,  -0.00025,   0.00046,  -0.00065,133719935.80710,   0.00000,274640135.82653,   0.00000,   0.00000,   0.00000,-340920200.01943,   0.00000
-13679081.09990,94894999.41989,-50336465.94733,  -0.00025,   0.00046,  -0.00065,134504773.07470,   0.00000,274640135.82653,   0.00000,   0.00000,   0.00000,-340135362.75183,   0.00000
-12872723.05372,95770971.11034,-50771551.22404,  -0.00025,   0.00046,  -0.00066,135291796.99823,   0.00000,274640135.82653,   0.00000,   0.00000,   0.00000,-339348338.82830,   0.00000
-12034458.75392,96644042.23228,-51206636.50075,  -0.00024,   0.00046,  -0.00067,136067324.15136,   0.00000,274640135.82653,   0.00000,   0.00000,   0.00000,-338572811.67517,   0.00000
-11204896.15965,97496809.37464,-51635920.64045,  -0.00024,   0.00047,  -0.00067,136829909.23874,   0.00000,274640135.82653,   0.00000,   0.00000,   0.00000,-337810226.58779,   0.00000
-10334725.60622,98366979.92807,-52065204.78014,  -0.00024,   0.00047,  -0.00068,137592956.52825,   0.00000,274640135.82653,   0.00000,   0.00000,   0.00000,-337047179.29827,   0.00000
-9473256.75832,99216846.50191,-52488687.78281,  -0.00024,   0.00047,  -0.00068,138343120.25012,   0.00000,274640135.82653,   0.00000,   0.00000,   0.00000,-336297015.57641,   0.00000
-8571179.95127,100084116.48683,-52912170.78547,  -0.00023,   0.00047,  -0.00069,139094313.05080,   0.00000,274640135.82653,   0.00000,   0.00000,   0.00000,-335545822.77573,   0.00000
-7677804.84975,100931082.49217,-53335653.78814,  -0.00023,   0.00047,  -0.00069,139839326.19269,   0.00000,274640135.82653,   0.00000,   0.00000,   0.00000,-334800809.63384,   0.00000
-6764125.76865,101786750.20304,-53753335.65379,  -0.00023,   0.00048,  -0.00070,140581142.31999,   0.00000,274640135.82653,   0.00000,   0.00000,   0.00000,-334058993.50654,   0.00000
-5818540.43393,102639517.34540,-54171017.51943,  -0.00023,   0.00048,  -0.00070,141313253.20982,   0.00000,274640135.82653,   0.00000,   0.00000,   0.00000,-333326882.61671,   0.00000
-4872955.09920,103492284.48776,-54582898.24806,  -0.00022,   0.00048,  -0.00071,142044324.90878,   0.00000,274640135.82653,   0.00000,   0.00000,   0.00000,-332595810.91775,   0.00000
-3895463.51085,104342151.06161,-54994778.97668,  -0.00022,   0.00048,  -0.00071,142766233.08862,   0.00000,274640135.82653,   0.00000,   0.00000,   0.00000,-331873902.73791,   0.00000
-2926673.62803,105171713.65588,-55400858.56828,  -0.00022,   0.00048,  -0.00072,143475515.13383,   0.00000,274640135.82653,   0.00000,   0.00000,   0.00000,-331164620.69270,   0.00000
-1917275.78605,106018679.66121,-55806938.15988,  -0.00022,   0.00049,  -0.00073,144187886.00736,   0.00000,274640135.82653,   0.00000,   0.00000,   0.00000,-330452249.81917,   0.00000
-916579.64961,106845341.68697,-56213017.75148,  -0.00021,   0.00049,  -0.00073,144894477.18423,   0.00000,274640135.82653,   0.00000,   0.00000,   0.00000,-329745658.64230,   0.00000
124724.44599,107689407.12380,-56613296.20606,  -0.00021,   0.00049,  -0.00074,145598037.01686,   0.00000,274640135.82653,   0.00000,   0.00000,   0.00000,-329042098.80967,   0.00000
1157326.83606,108513168.58104,-57007773.52361,  -0.00021,   0.00049,  -0.00074,146289168.03782,   0.00000,274640135.82653,   0.00000,   0.00000,   0.00000,-328350967.78871,   0.00000
2210233.20571,109345631.74382,-57402250.84116,  -0.00020,   0.00049,  -0.00075,146985469.25120,   0.00000,274640135.82653,   0.00000,   0.00000,   0.00000,-327654666.57533,   0.00000
3295045.82898,110175194.33809,-57790927.02170,  -0.00020,   0.00049,  -0.00075,147667776.43742,   0.00000,274640135.82653,   0.00000,   0.00000,   0.00000,-326972359.38911,   0.00000
4371156.74672,110984452.95278,-58179603.20223,  -0.00020,   0.00050,  -0.00076,148344612.48907,   0.00000,274640135.82653,   0.00000,   0.00000,   0.00000,-326295523.33746,   0.00000
5467571.64404,111802413.27300,-58568279.38276,  -0.00019,   0.00050,  -0.00076,149027233.41179,   0.00000,274640135.82653,   0.00000,   0.00000,   0.00000,-325612902.41473,   0.00000
6584290.52094,112629075.29876,-58951154.42627,  -0.00019,   0.00050,  -0.00077,149709033.64866,   0.00000,274640135.82653,   0.00000,   0.00000,   0.00000,-324931102.17787,   0.00000
7724213.94593,113432532.77642,-59328228.33275,  -0.00019,   0.00050,  -0.00077,150366026.25884,   0.00000,274640135.82653,   0.00000,   0.00000,   0.00000,-324274109.56769,   0.00000
8872839.07646,114256294.23367,-59705302.23924,  -0.00018,   0.00050,  -0.00078,151041781.23790,   0.00000,274640135.82653,   0.00000,   0.00000,   0.00000,-323598354.58863,   0.00000
10024364.77550,115048149.43729,-60076575.00870,  -0.00018,   0.00050,  -0.00078,151693324.03148,   0.00000,274640135.82653,   0.00000,   0.00000,   0.00000,-322946811.79505,   0.00000
11196194.45411,115848706.34644,-60447847.77816,  -0.00017,   0.00051,  -0.00079,152351697.69951,   0.00000,274640135.82653,   0.00000,   0.00000,   0.00000,-322288438.12702,   0.00000
12388328.11231,116657964.96113,-60813319.41060,  -0.00017,   0.00051,  -0.00079,153010240.73129,   0.00000,274640135.82653,   0.00000,   0.00000,   0.00000,-321629895.09524,   0.00000
13592064.04455,117455621.30178,-61178791.04304,  -0.00017,   0.00051,  -0.00080,153664037.02141,   0.00000,274640135.82653,   0.00000,   0.00000,   0.00000,-320976098.80512,   0.00000
14807402.25084,118241675.36837,-61538461.53846,  -0.00016,   0.00051,  -0.00080,154306343.52128,   0.00000,274640135.82653,   0.00000,   0.00000,   0.00000,-320333792.30525,   0.00000
16043044.43671,119036431.14050,-61892330.89686,  -0.00016,   0.00051,  -0.00080,154949431.52729,   0.00000,274640135.82653,   0.00000,   0.00000,   0.00000,-319690704.29924,   0.00000
17290288.89662,119819584.63859,-62246200.25525,  -0.00015,   0.00051,  -0.00081,155588367.36038,   0.00000,274640135.82653,   0.00000,   0.00000,   0.00000,-319051768.46615,   0.00000
18549135.63058,120591135.86263,-62594268.47662,  -0.00015,   0.00051,  -0.00081,156216383.53479,   0.00000,274640135.82653,   0.00000,   0.00000,   0.00000,-318423752.29174,   0.00000
19807982.36454,121362687.08667,-62942336.69799,  -0.00015,   0.00051,  -0.00082,156851908.70287,   0.00000,274640135.82653,   0.00000,   0.00000,   0.00000,-317788227.12365,   0.00000
21098735.35213,122131337.74220,-63284603.78234,  -0.00014,   0.00051,  -0.00082,157477702.37909,   0.00000,274640135.82653,   0.00000,   0.00000,   0.00000,-317162433.44744,   0.00000
22409792.31929,122908690.10326,-63626870.86669,  -0.00014,   0.00052,  -0.00083,158112373.84880,   0.00000,274640135.82653,   0.00000,   0.00000,   0.00000,-316527761.97773,   0.00000
23712147.58093,123665738.48474,-63957535.67699,  -0.00013,   0.00052,  -0.00083,158728698.36877,   0.00000,274640135.82653,   0.00000,   0.00000,   0.00000,-315911437.45776,   0.00000
25055110.80172,124440190.27729,-64288200.48730,  -0.00013,   0.00052,  -0.00084,159355498.63006,   0.00000,274640135.82653,   0.00000,   0.00000,   0.00000,-315284637.19647,   0.00000
26389372.31697,125194338.09027,-64618865.29760,  -0.00012,   0.00052,  -0.00084,159978168.88048,   0.00000,274640135.82653,   0.00000,   0.00000,   0.00000,-314661966.94605,   0.00000
27735236.10628,125936883.62919,-64943728.97088,  -0.00012,   0.00052,  -0.00084,160591147.25317,   0.00000,274640135.82653,   0.00000,   0.00000,   0.00000,-314048988.57336,   0.00000
29101403.87516,126688130.87365,-65262791.50714,  -0.00011,   0.00052,  -0.00085,161206909.32752,   0.00000,274640135.82653,   0.00000,   0.00000,   0.00000,-313433226.49900,   0.00000
30479173.91809,127427775.84407,-65581854.04339,  -0.00011,   0.00052,  -0.00085,161820466.86577,   0.00000,274640135.82653,   0.00000,   0.00000,   0.00000,-312819668.96076,   0.00000
31877247.94060,128176122.52001,-65889314.30560,  -0.00010,   0.00052,  -0.00086,162430232.72127,   0.00000,274640135.82653,   0.00000,   0.00000,   0.00000,-312209903.10526,   0.00000
33286924.23715,128912866.92192,-66202575.70484,  -0.00010,   0.00052,  -0.00086,163045321.42517,   0.00000,274640135.82653,   0.00000,   0.00000,   0.00000,-311594814.40136,   0.00000
34708202.80775,129638009.04977,-66504234.83003,  -0.00009,   0.00052,  -0.00086,163644768.24458,   0.00000,274640135.82653,   0.00000,   0.00000,   0.00000,-310995367.58195,   0.00000
36129481.37835,130363151.17763,-66805893.95522,  -0.00009,   0.00052,  -0.00087,164252914.64142,   0.00000,274640135.82653,   0.00000,   0.00000,   0.00000,-310387221.18511,   0.00000
37582666.20258,131085392.73698,-67101751.94338,  -0.00008,   0.00052,  -0.00087,164855190.30424,   0.00000,274640135.82653,   0.00000,   0.00000,   0.00000,-309784945.52229,   0.00000
39035851.02680,131807634.29632,-67391808.79452,  -0.00008,   0.00052,  -0.00088,165459344.32780,   0.00000,274640135.82653,   0.00000,   0.00000,   0.00000,-309180791.49873,   0.00000
40512240.39912,132506671.30758,-67681865.64567,  -0.00007,   0.00052,  -0.00088,166053070.59041,   0.00000,274640135.82653,   0.00000,   0.00000,   0.00000,-308587065.23612,   0.00000
41997331.47697,133226012.29841,-67966121.35979,  -0.00007,   0.00052,  -0.00088,166661303.73410,   0.00000,274640135.82653,   0.00000,   0.00000,   0.00000,-307978832.09243,   0.00000
43494024.82887,133933751.01520,-68244575.93688,  -0.00006,   0.00052,  -0.00089,167262154.71275,   0.00000,274640135.82653,   0.00000,   0.00000,   0.00000,-307377981.11378,   0.00000
45002320.45481,134629887.45794,-68523030.51398,  -0.00006,   0.00052,  -0.00089,167862965.65216,   0.00000,274640135.82653,   0.00000,   0.00000,   0.00000,-306777170.17437,   0.00000
46501914.37522,135305719.92110,-68795683.95405,  -0.00005,   0.00052,  -0.00089,168453641.31950,   0.00000,274640135.82653,   0.00000,   0.00000,   0.00000,-306186494.50703,   0.00000
48042116.25479,135998955.79534,-69062536.25711,  -0.00005,   0.00053,  -0.00090,169053201.71355,   0.00000,274640135.82653,   0.00000,   0.00000,   0.00000,-305586934.11298,   0.00000
49573616.42882,136671887.68999,-69323587.42313,  -0.00004,   0.00053,  -0.00090,169642883.47369,   0.00000,274640135.82653,   0.00000,   0.00000,   0.00000,-304997252.35284,   0.00000
51125420.58243,137353521.29017,-69584638.58916,  -0.00004,   0.00053,  -0.00090,170245727.34391,   0.00000,274640135.82653,   0.00000,   0.00000,   0.00000,-304394408.48262,   0.00000
52688827.01009,138023552.61631,-69834087.48115,  -0.00003,   0.00053,  -0.00091,170835341.20428,   0.00000,274640135.82653,   0.00000,   0.00000,   0.00000,-303804794.62225,   0.00000
54272537.41733,138702285.64799,-70083536.37313,  -0.00002,   0.00053,  -0.00091,171438658.37577,   0.00000,274640135.82653,   0.00000,   0.00000,   0.00000,-303201477.45076,   0.00000
55867850.09862,139369416.40562,-70332985.26511,  -0.00002,   0.00053,  -0.00091,172043505.22095,   0.00000,274640135.82653,   0.00000,   0.00000,   0.00000,-302596630.60558,   0.00000
57474765.05395,140024944.88920,-70570831.88305,  -0.00001,   0.00053,  -0.00092,172635917.28846,   0.00000,274640135.82653,   0.00000,   0.00000,   0.00000,-302004218.53807,   0.00000
59072978.30375,140660169.39320,-70808678.50099,  -0.00001,   0.00052,  -0.00092,173226128.91190,   0.00000,274640135.82653,   0.00000,   0.00000,   0.00000,-301414006.91463,   0.00000
60700197.23866,141324399.58232,-71040723.98190,   0.00000,   0.00052,  -0.00092,173836228.45785,   0.00000,274640135.82653,   0.00000,   0.00000,   0.00000,-300803907.36868,   0.00000
62330316.74208,141956723.51781,-71266968.32579,   0.00001,   0.00052,  -0.00093,174429110.29870,   0.00000,274640135.82653,   0.00000,   0.00000,   0.00000,-300211025.52783,   0.00000
63980740.22508,142597749.15884,-71487411.53266,   0.00001,   0.00052,  -0.00093,175029979.32418,   0.00000,274640135.82653,   0.00000,   0.00000,   0.00000,-299610156.50235,   0.00000
65622462.00255,143218470.82028,-71702053.60251,   0.00002,   0.00052,  -0.00093,175621874.25363,   0.00000,274640135.82653,   0.00000,   0.00000,   0.00000,-299018261.57290,   0.00000
67304791.73918,143856595.89279,-71916695.67235,   0.00003,   0.00052,  -0.00093,176234078.13285,   0.00000,274640135.82653,   0.00000,   0.00000,   0.00000,-298406057.69368,   0.00000
68978419.77027,144474416.98573,-72125536.60517,   0.00003,   0.00052,  -0.00094,176837613.83884,   0.00000,274640135.82653,   0.00000,   0.00000,   0.00000,-297802521.98768,   0.00000
70663650.07541,145080635.80462,-72328576.40097,   0.00004,   0.00052,  -0.00094,177437549.40489,   0.00000,274640135.82653,   0.00000,   0.00000,   0.00000,-297202586.42164,   0.00000
72348880.38055,145686854.62351,-72525815.05975,   0.00005,   0.00052,  -0.00094,178041345.85674,   0.00000,274640135.82653,   0.00000,   0.00000,   0.00000,-296598789.96979,   0.00000
74066016.93932,146290172.87388,-72717252.58151,   0.00005,   0.00052,  -0.00095,178647293.82669,   0.00000,274640135.82653,   0.00000,   0.00000,   0.00000,-295992841.99984,   0.00000
75783153.49809,146893491.12426,-72908690.10326,   0.00006,   0.00052,  -0.00095,179264506.75125,   0.00000,274640135.82653,   0.00000,   0.00000,   0.00000,-295375629.07528,   0.00000
77503190.62536,147464903.12101,-73088525.35097,   0.00007,   0.00052,  -0.00095,179859498.84952,   0.00000,274640135.82653,   0.00000,   0.00000,   0.00000,-294780636.97701,   0.00000
79231929.45817,148056619.09734,-73268360.59868,   0.00007,   0.00052,  -0.00095,180478274.31167,   0.00000,274640135.82653,   0.00000,   0.00000,   0.00000,-294161861.51486,   0.00000
80992574.54461,148645434.50516,-73442394.70936,   0.00008,   0.00052,  -0.00095,181100640.30162,   0.00000,274640135.82653,   0.00000,   0.00000,   0.00000,-293539495.52491,   0.00000
82744517.92551,149213945.93340,-73610627.68303,   0.00009,   0.00052,  -0.00096,181715146.33455,   0.00000,274640135.82653,   0.00000,   0.00000,   0.00000,-292924989.49198,   0.00000
84508063.58046,149770855.08760,-73773059.51967,   0.00009,   0.00052,  -0.00096,182327918.41137,   0.00000,274640135.82653,   0.00000,   0.00000,   0.00000,-292312217.41516,   0.00000
86291913.21499,150336465.94733,-73929690.21928,   0.00010,   0.00052,  -0.00096,182951696.61694,   0.00000,274640135.82653,   0.00000,   0.00000,   0.00000,-291688439.20959,   0.00000
88067061.14398,150881772.82747,-74086320.91890,   0.00011,   0.00051,  -0.00096,183574919.74364,   0.00000,274640135.82653,   0.00000,   0.00000,   0.00000,-291065216.08289,   0.00000
89862513.05256,151435781.41316,-74231349.34447,   0.00011,   0.00051,  -0.00097,184202461.81030,   0.00000,274640135.82653,   0.00000,   0.00000,   0.00000,-290437674.01623,   0.00000
91669567.23518,151978187.72479,-74376377.77004,   0.00012,   0.00051,  -0.00097,184836254.86861,   0.00000,274640135.82653,   0.00000,   0.00000,   0.00000,-289803880.95791,   0.00000
93476621.41780,152520594.03643,-74515605.05859,   0.00013,   0.00051,  -0.00097,185475137.74491,   0.00000,274640135.82653,   0.00000,   0.00000,   0.00000,-289164998.08161,   0.00000
95295277.87446,153051398.07402,-74649031.21012,   0.00014,   0.00051,  -0.00097,186113617.20968,   0.00000,274640135.82653,   0.00000,   0.00000,   0.00000,-288526518.61685,   0.00000
97125536.60517,153570599.83757,-74770855.08760,   0.00014,   0.00051,  -0.00097,186745051.85119,   0.00000,274640135.82653,   0.00000,   0.00000,   0.00000,-287895083.97534,   0.00000
98955795.33589,154089801.60111,-74892678.96508,   0.00015,   0.00051,  -0.00097,187388840.66331,   0.00000,274640135.82653,   0.00000,   0.00000,   0.00000,-287251295.16322,   0.00000
100817960.32022,154606102.79615,-75014502.84256,   0.00016,   0.00051,  -0.00098,188047236.40119,   0.00000,274640135.82653,   0.00000,   0.00000,   0.00000,-286592899.42534,   0.00000
102651119.61945,155093398.30607,-75124724.44599,   0.00016,   0.00051,  -0.00098,188684594.61442,   0.00000,274640135.82653,   0.00000,   0.00000,   0.00000,-285955541.21211,   0.00000
104524886.87783,155598097.22706,-75229144.91240,   0.00017,   0.00050,  -0.00098,189342597.05411,   0.00000,274640135.82653,   0.00000,   0.00000,   0.00000,-285297538.77242,   0.00000
106398654.13621,156102796.14805,-75327764.24179,   0.00018,   0.00050,  -0.00098,190006435.01520,   0.00000,274640135.82653,   0.00000,   0.00000,   0.00000,-284633700.81133,   0.00000
108275321.96310,156575588.81541,-75426383.57118,   0.00019,   0.00050,  -0.00098,190666216.42135,   0.00000,274640135.82653,   0.00000,   0.00000,   0.00000,-283973919.40517,   0.00000
110151989.79000,157048381.48277,-75513400.62652,   0.00019,   0.00050,  -0.00098,191325074.91171,   0.00000,274640135.82653,   0.00000,   0.00000,   0.00000,-283315060.91482,   0.00000
112048961.59647,157529875.85567,-75594616.54484,   0.00020,   0.00050,  -0.00098,191997944.58167,   0.00000,274640135.82653,   0.00000,   0.00000,   0.00000,-282642191.24486,   0.00000
113957535.67699,157999767.95452,-75675832.46316,   0.00021,   0.00050,  -0.00098,192679727.20190,   0.00000,274640135.82653,   0.00000,   0.00000,   0.00000,-281960408.62463,   0.00000
115857408.05198,158449356.07379,-75751247.24446,   0.00022,   0.00050,  -0.00098,193355527.76112,   0.00000,274640135.82653,   0.00000,   0.00000,   0.00000,-281284608.06541,   0.00000
117777584.40654,158907645.89860,-75815059.75171,   0.00023,   0.00049,  -0.00099,194039198.33754,   0.00000,274640135.82653,   0.00000,   0.00000,   0.00000,-280600937.48899,   0.00000
119709363.03515,159354333.44936,-75878872.25896,   0.00023,   0.00049,  -0.00099,194732481.10968,   0.00000,274640135.82653,   0.00000,   0.00000,   0.00000,-279907654.71685,   0.00000
121641141.66377,159801021.00012,-75931082.49217,   0.00024,   0.00049,  -0.00099,195425543.08419,   0.00000,274640135.82653,   0.00000,   0.00000,   0.00000,-279214592.74234,   0.00000
123584522.56642,160236106.27683,-75983292.72537,   0.00025,   0.00049,  -0.00099,196128589.45288,   0.00000,274640135.82653,   0.00000,   0.00000,   0.00000,-278511546.37365,   0.00000
125519201.76355,160650887.57396,-76029701.82156,   0.00026,   0.00049,  -0.00099,196826200.48153,   0.00000,274640135.82653,   0.00000,   0.00000,   0.00000,-277813935.34500,   0.00000
127474184.94025,161074370.57663,-76070309.78072,   0.00027,   0.00048,  -0.00099,197539547.10190,   0.00000,274640135.82653,   0.00000,   0.00000,   0.00000,-277100588.72463,   0.00000
129420466.41142,161477549.59972,-76099315.46583,   0.00027,   0.00048,  -0.00099,198240948.87236,   0.00000,274640135.82653,   0.00000,   0.00000,   0.00000,-276399186.95417,   0.00000
131387051.86217,161889430.32834,-76128321.15095,   0.00028,   0.00048,  -0.00099,198965157.53861,   0.00000,274640135.82653,   0.00000,   0.00000,   0.00000,-275674978.28792,   0.00000
133365239.58696,162289708.78292,-76151525.69904,   0.00029,   0.00048,  -0.00099,199693754.06225,   0.00000,274640135.82653,   0.00000,   0.00000,   0.00000,-274946381.76428,   0.00000
135343427.31175,162689987.23750,-76168929.11011,   0.00030,   0.00048,  -0.00099,200429469.10857,   0.00000,274640135.82653,   0.00000,   0.00000,   0.00000,-274210666.71796,   0.00000
137312913.33101,163069961.71250,-76180531.38415,   0.00031,   0.00047,  -0.00099,201160277.25861,   0.00000,274640135.82653,   0.00000,   0.00000,   0.00000,-273479858.56792,   0.00000
139314305.60390,163447035.61898,-76180531.38415,   0.00032,   0.00047,  -0.00099,201899279.38002,   0.00000,274640135.82653,   0.00000,   0.00000,   0.00000,-272740856.44651,   0.00000
141295393.89720,163815407.81993,-76180531.38415,   0.00032,   0.00047,  -0.00099,202642378.80400,   0.00000,274640135.82653,   0.00000,   0.00000,   0.00000,-271997757.02253,   0.00000
143288084.46456,164172177.74684,-76174730.24713,   0.00033,   0.00047,  -0.00099,203390832.65627,   0.00000,274640135.82653,   0.00000,   0.00000,   0.00000,-271249303.17026,   0.00000
145301079.01149,164537649.37928,-76163127.97308,   0.00034,   0.00047,  -0.00099,204156826.53360,   0.00000,274640135.82653,   0.00000,   0.00000,   0.00000,-270483309.29293,   0.00000
147305371.85288,164882817.03214,-76139923.42499,   0.00035,   0.00046,  -0.00099,204912066.68127,   0.00000,274640135.82653,   0.00000,   0.00000,   0.00000,-269728069.14526,   0.00000
149329968.67386,165236686.39053,-76116718.87690,   0.00036,   0.00046,  -0.00099,205691705.10437,   0.00000,274640135.82653,   0.00000,   0.00000,   0.00000,-268948430.72216,   0.00000
151345863.78930,165570251.76935,-76087713.19179,   0.00037,   0.00046,  -0.00099,206467252.32229,   0.00000,274640135.82653,   0.00000,   0.00000,   0.00000,-268172883.50424,   0.00000
153373361.17879,165892214.87412,-76052906.36965,   0.00037,   0.00046,  -0.00099,207249371.50277,   0.00000,274640135.82653,   0.00000,   0.00000,   0.00000,-267390764.32376,   0.00000
155400858.56828,166214177.97888,-76006497.27347,   0.00038,   0.00045,  -0.00099,208032970.28154,   0.00000,274640135.82653,   0.00000,   0.00000,   0.00000,-266607165.54499,   0.00000
157439958.23181,166524538.80961,-75960088.17728,   0.00039,   0.00045,  -0.00099,208829957.20617,   0.00000,274640135.82653,   0.00000,   0.00000,   0.00000,-265810178.62036,   0.00000
159479057.89535,166834899.64033,-75902076.80705,   0.00040,   0.00045,  -0.00099,209628616.40853,   0.00000,274640135.82653,   0.00000,   0.00000,   0.00000,-265011519.41800,   0.00000
161509455.85335,167124956.49147,-75844065.43683,   0.00041,   0.00045,  -0.00099,210429944.19955,   0.00000,274640135.82653,   0.00000,   0.00000,   0.00000,-264210191.62698,   0.00000
163560157.79093,167423715.04815,-75780252.92957,   0.00042,   0.00044,  -0.00099,211250364.56326,   0.00000,274640135.82653,   0.00000,   0.00000,   0.00000,-263389771.26327,   0.00000
165622462.00255,167710871.33078,-75704838.14828,   0.00043,   0.00044,  -0.00098,212072432.02522,   0.00000,274640135.82653,   0.00000,   0.00000,   0.00000,-262567703.80131,   0.00000
167684766.21418,167998027.61341,-75623622.22996,   0.00044,   0.00044,  -0.00098,212902806.07601,   0.00000,274640135.82653,   0.00000,   0.00000,   0.00000,-261737329.75052,   0.00000
169738368.72027,168264879.91646,-75542406.31164,   0.00044,   0.00043,  -0.00098,213736152.42454,   0.00000,274640135.82653,   0.00000,   0.00000,   0.00000,-260903983.40199,   0.00000
171803573.50041,168520129.94547,-75449588.11927,   0.00045,   0.00043,  -0.00098,214571812.16335,   0.00000,274640135.82653,   0.00000,   0.00000,   0.00000,-260068323.66317,   0.00000
173868778.28054,168775379.97448,-75350968.78988,   0.00046,   0.00043,  -0.00098,215415917.05123,   0.00000,274640135.82653,   0.00000,   0.00000,   0.00000,-259224218.77530,   0.00000
175933983.06068,169030630.00348,-75252349.46049,   0.00047,   0.00043,  -0.00098,216274447.35145,   0.00000,274640135.82653,   0.00000,   0.00000,   0.00000,-258365688.47508,   0.00000
178010790.11486,169274277.75844,-75142127.85706,   0.00048,   0.00042,  -0.00098,217135885.36840,   0.00000,274640135.82653,   0.00000,   0.00000,   0.00000,-257504250.45813,   0.00000
180078895.46351,169497621.53382,-75026105.11660,   0.00049,   0.00042,  -0.00098,217994626.48052,   0.00000,274640135.82653,   0.00000,   0.00000,   0.00000,-256645509.34601,   0.00000
182167304.79174,169729667.01473,-74904281.23912,   0.00050,   0.00042,  -0.00097,218874038.79993,   0.00000,274640135.82653,   0.00000,   0.00000,   0.00000,-255766097.02660,   0.00000
184255714.11997,169961712.49565,-74776656.22462,   0.00051,   0.00041,  -0.00097,219762098.96108,   0.00000,274640135.82653,   0.00000,   0.00000,   0.00000,-254878036.86545,   0.00000
186326720.03713,170153150.01740,-74643230.07309,   0.00052,   0.00041,  -0.00097,220636574.71314,   0.00000,274640135.82653,   0.00000,   0.00000,   0.00000,-254003561.11339,   0.00000
188426731.63940,170373593.22427,-74498201.64752,   0.00053,   0.00041,  -0.00097,221537358.65919,   0.00000,274640135.82653,   0.00000,   0.00000,   0.00000,-253102777.16734,   0.00000
190518041.53614,170573732.45156,-74353173.22195,   0.00053,   0.00040,  -0.00097,222441749.70891,   0.00000,274640135.82653,   0.00000,   0.00000,   0.00000,-252198386.11762,   0.00000
192600649.72735,170753567.69927,-74202343.65936,   0.00054,   0.00040,  -0.00096,223343919.74913,   0.00000,274640135.82653,   0.00000,   0.00000,   0.00000,-251296216.07740,   0.00000
194703561.89813,170942104.65251,-74039911.82272,   0.00055,   0.00040,  -0.00096,224261831.64504,   0.00000,274640135.82653,   0.00000,   0.00000,   0.00000,-250378304.18149,   0.00000
196797772.36338,171110337.62617,-73877479.98608,   0.00056,   0.00039,  -0.00096,225183533.42071,   0.00000,274640135.82653,   0.00000,   0.00000,   0.00000,-249456602.40582,   0.00000
198891982.82863,171278570.59984,-73703445.87539,   0.00057,   0.00039,  -0.00096,226108444.90928,   0.00000,274640135.82653,   0.00000,   0.00000,   0.00000,-248531690.91725,   0.00000
200997795.56793,171435201.29945,-73529411.76471,   0.00058,   0.00039,  -0.00096,227050143.59654,   0.00000,274640135.82653,   0.00000,   0.00000,   0.00000,-247589992.22999,   0.00000
203103608.30723,171591831.99907,-73343775.37997,   0.00059,   0.00038,  -0.00095,227995264.07827,   0.00000,274640135.82653,   0.00000,   0.00000,   0.00000,-246644871.74826,   0.00000
205200719.34099,171728158.71911,-73152337.85822,   0.00060,   0.00038,  -0.00095,228938742.06263,   0.00000,274640135.82653,   0.00000,   0.00000,   0.00000,-245701393.76390,   0.00000
207318134.35433,171873187.14468,-72955099.19944,   0.00061,   0.00038,  -0.00095,229904572.12649,   0.00000,274640135.82653,   0.00000,   0.00000,   0.00000,-244735563.70004,   0.00000
209415245.38810,172009513.86472,-72752059.40364,   0.00062,   0.00037,  -0.00095,230866172.81074,   0.00000,274640135.82653,   0.00000,   0.00000,   0.00000,-243773963.01579,   0.00000
211515256.99037,172113934.33113,-72543218.47082,   0.00063,   0.00037,  -0.00094,231829124.39399,   0.00000,274640135.82653,   0.00000,   0.00000,   0.00000,-242811011.43254,   0.00000
213644274.27776,172247360.48265,-72328576.40097,   0.00064,   0.00037,  -0.00094,232825333.00934,   0.00000,274640135.82653,   0.00000,   0.00000,   0.00000,-241814802.81719,   0.00000
215744285.88003,172351780.94907,-72108133.19411,   0.00065,   0.00036,  -0.00094,233806693.66682,   0.00000,274640135.82653,   0.00000,   0.00000,   0.00000,-240833442.15971,   0.00000
217855899.75635,172444599.14143,-71881888.85021,   0.00065,   0.00036,  -0.00093,234800505.45440,   0.00000,274640135.82653,   0.00000,   0.00000,   0.00000,-239839630.37213,   0.00000
219967513.63267,172537417.33380,-71644042.23228,   0.00066,   0.00036,  -0.00093,235798318.68904,   0.00000,274640135.82653,   0.00000,   0.00000,   0.00000,-238841817.13749,   0.00000
222079127.50899,172630235.52616,-71406195.61434,   0.00067,   0.00035,  -0.00093,236810682.44906,   0.00000,274640135.82653,   0.00000,   0.00000,   0.00000,-237829453.37746,   0.00000
224182039.67978,172702749.73895,-71156746.72236,   0.00068,   0.00035,  -0.00093,237816777.79317,   0.00000,274640135.82653,   0.00000,   0.00000,   0.00000,-236823358.03336,   0.00000
226296554.12461,172763661.67769,-70901496.69335,   0.00069,   0.00034,  -0.00092,238836049.60185,   0.00000,274640135.82653,   0.00000,   0.00000,   0.00000,-235804086.22468,   0.00000
228411068.56944,172824573.61643,-70640445.52732,   0.00070,   0.00034,  -0.00092,239864798.56128,   0.00000,274640135.82653,   0.00000,   0.00000,   0.00000,-234775337.26525,   0.00000
230505279.03469,172876783.84963,-70379394.36129,   0.00071,   0.00034,  -0.00091,240893819.36688,   0.00000,274640135.82653,   0.00000,   0.00000,   0.00000,-233746316.45965,   0.00000
232631395.75357,172926093.51433,-70100939.78420,   0.00072,   0.00033,  -0.00091,241940461.45242,   0.00000,274640135.82653,   0.00000,   0.00000,   0.00000,-232699674.37410,   0.00000
234737208.49286,172966701.47349,-69822485.20710,   0.00073,   0.00033,  -0.00091,242987354.66074,   0.00000,274640135.82653,   0.00000,   0.00000,   0.00000,-231652781.16579,   0.00000
236834319.52663,172987005.45307,-69538229.49298,   0.00074,   0.00033,  -0.00090,244033676.61224,   0.00000,274640135.82653,   0.00000,   0.00000,   0.00000,-230606459.21428,   0.00000
238951734.53997,173016011.13818,-69248172.64184,   0.00075,   0.00032,  -0.00090,245103904.14654,   0.00000,274640135.82653,   0.00000,   0.00000,   0.00000,-229536231.67999,   0.00000
241069149.55331,173045016.82330,-68946513.51665,   0.00076,   0.00032,  -0.00090,246178721.36317,   0.00000,274640135.82653,   0.00000,   0.00000,   0.00000,-228461414.46336,   0.00000
243177862.86112,173053718.52883,-68644854.39146,   0.00077,   0.00031,  -0.00089,247258118.47869,   0.00000,274640135.82653,   0.00000,   0.00000,   0.00000,-227382017.34784,   0.00000
245286576.16893,173062420.23437,-68331592.99223,   0.00078,   0.00031,  -0.00089,248342177.29943,   0.00000,274640135.82653,   0.00000,   0.00000,   0.00000,-226297958.52710,   0.00000
247386587.77120,173050817.96032,-68018331.59299,   0.00079,   0.00030,  -0.00088,249430828.76356,   0.00000,274640135.82653,   0.00000,   0.00000,   0.00000,-225209307.06296,   0.00000
249486599.37348,173039215.68627,-67693467.91971,   0.00080,   0.00030,  -0.00088,250524219.88589,   0.00000,274640135.82653,   0.00000,   0.00000,   0.00000,-224115915.94064,   0.00000
251577909.27022,173007309.43265,-67362803.10941,   0.00081,   0.00030,  -0.00088,251617563.14422,   0.00000,274640135.82653,   0.00000,   0.00000,   0.00000,-223022572.68230,   0.00000
253689523.14654,172984104.88456,-67026337.16208,   0.00082,   0.00029,  -0.00087,252735453.06710,   0.00000,274640135.82653,   0.00000,   0.00000,   0.00000,-221904682.75943,   0.00000
255772131.33774,172931894.65135,-66684070.07774,   0.00083,   0.00029,  -0.00087,253838451.95696,   0.00000,274640135.82653,   0.00000,   0.00000,   0.00000,-220801683.86957,   0.00000
257883745.21406,172908690.10326,-66330200.71934,   0.00084,   0.00028,  -0.00086,254970953.55623,   0.00000,274640135.82653,   0.00000,   0.00000,   0.00000,-219669182.27030,   0.00000
259957651.69973,172836175.89047,-65976331.36095,   0.00085,   0.00028,  -0.00086,256083710.64943,   0.00000,274640135.82653,   0.00000,   0.00000,   0.00000,-218556425.17710,   0.00000
262060563.87052,172792667.36280,-65616660.86553,   0.00086,   0.00028,  -0.00085,257230518.67561,   0.00000,274640135.82653,   0.00000,   0.00000,   0.00000,-217409617.15092,   0.00000
264154774.33577,172728854.85555,-65245388.09607,   0.00087,   0.00027,  -0.00085,258373242.48433,   0.00000,274640135.82653,   0.00000,   0.00000,   0.00000,-216266893.34220,   0.00000
266240283.09549,172644738.36872,-64874115.32660,   0.00087,   0.00027,  -0.00084,259520832.55331,   0.00000,274640135.82653,   0.00000,   0.00000,   0.00000,-215119303.27322,   0.00000
268325791.85520,172560621.88189,-64491240.28310,   0.00088,   0.00026,  -0.00084,260673729.99452,   0.00000,274640135.82653,   0.00000,   0.00000,   0.00000,-213966405.83201,   0.00000
270390996.63534,172467803.68952,-64102564.10256,   0.00089,   0.00026,  -0.00083,261820757.80463,   0.00000,274640135.82653,   0.00000,   0.00000,   0.00000,-212819378.02190,   0.00000
272476505.39506,172383687.20269,-63708086.78501,   0.00090,   0.00025,  -0.00083,262992847.61227,   0.00000,274640135.82653,   0.00000,   0.00000,   0.00000,-211647288.21425,   0.00000
274553312.44924,172279266.73628,-63307808.33043,   0.00091,   0.00025,  -0.00082,264165591.17735,   0.00000,274640135.82653,   0.00000,   0.00000,   0.00000,-210474544.64918,   0.00000
276621417.79789,172154542.29029,-62901728.73883,   0.00092,   0.00024,  -0.00082,265339111.48191,   0.00000,274640135.82653,   0.00000,   0.00000,   0.00000,-209301024.34462,   0.00000
278698224.85207,172050121.82388,-62489848.01021,   0.00093,   0.00024,  -0.00081,266531095.24111,   0.00000,274640135.82653,   0.00000,   0.00000,   0.00000,-208109040.58542,   0.00000
280766330.20072,171925397.37789,-62072166.14456,   0.00094,   0.00023,  -0.00081,267723874.50033,   0.00000,274640135.82653,   0.00000,   0.00000,   0.00000,-206916261.32620,   0.00000
282825733.84383,171780368.95231,-61642882.00487,   0.00095,   0.00023,  -0.00080,268913585.89404,   0.00000,274640135.82653,   0.00000,   0.00000,   0.00000,-205726549.93249,   0.00000
284893839.19248,171655644.50632,-61213597.86518,   0.00096,   0.00023,  -0.00080,270125596.73057,   0.00000,274640135.82653,   0.00000,   0.00000,   0.00000,-204514539.09596,   0.00000
286932938.85602,171501914.37522,-60772711.45144,   0.00097,   0.00022,  -0.00079,271318700.23145,   0.00000,274640135.82653,   0.00000,   0.00000,   0.00000,-203321435.59508,   0.00000
288983640.79360,171336581.97007,-60326023.90068,   0.00098,   0.00022,  -0.00078,272528874.04395,   0.00000,274640135.82653,   0.00000,   0.00000,   0.00000,-202111261.78258,   0.00000
291034342.73118,171171249.56491,-59879336.34992,   0.00099,   0.00021,  -0.00078,273752585.33958,   0.00000,274640135.82653,   0.00000,   0.00000,   0.00000,-200887550.48695,   0.00000
293064740.68918,170997215.45423,-59421046.52512,   0.00100,   0.00021,  -0.00077,274966029.96201,   0.00000,274640135.82653,   0.00000,   0.00000,   0.00000,-199674105.86452,   0.00000
295115442.62675,170831883.04908,-58956955.56329,   0.00101,   0.00020,  -0.00077,276205173.35844,   0.00000,274640135.82653,   0.00000,   0.00000,   0.00000,-198434962.46809,   0.00000
297137138.87922,170637544.95881,-58487063.46444,   0.00102,   0.00020,  -0.00076,277429466.59384,   0.00000,274640135.82653,   0.00000,   0.00000,   0.00000,-197210669.23269,   0.00000
299179139.11127,170451908.57408,-58011370.22856,   0.00103,   0.00019,  -0.00075,278679587.29736,   0.00000,274640135.82653,   0.00000,   0.00000,   0.00000,-195960548.52917,   0.00000
301200835.36373,170257570.48381,-57529875.85567,   0.00104,   0.00019,  -0.00075,279923062.50476,   0.00000,274640135.82653,   0.00000,   0.00000,   0.00000,-194717073.32177,   0.00000
303213829.91066,170042928.41397,-57036779.20872,   0.00105,   0.00018,  -0.00074,281164434.32017,   0.00000,274640135.82653,   0.00000,   0.00000,   0.00000,-193475701.50636,   0.00000
305226824.45759,169828286.34412,-56543682.56178,   0.00106,   0.00018,  -0.00074,282418973.83161,   0.00000,274640135.82653,   0.00000,   0.00000,   0.00000,-192221161.99492,   0.00000
307239819.00453,169613644.27428,-56044784.77782,   0.00107,   0.00017,  -0.00073,283683067.94869,   0.00000,274640135.82653,   0.00000,   0.00000,   0.00000,-190957067.87784,   0.00000
309244111.84592,169378698.22485,-55534284.71981,   0.00108,   0.00017,  -0.00072,284945379.61437,   0.00000,274640135.82653,   0.00000,   0.00000,   0.00000,-189694756.21216,   0.00000
311228100.70774,169135050.46989,-55017983.52477,   0.00109,   0.00016,  -0.00072,286200892.69627,   0.00000,274640135.82653,   0.00000,   0.00000,   0.00000,-188439243.13026,   0.00000
313232393.54914,168900104.42047,-54501682.32974,   0.00110,   0.00016,  -0.00071,287485814.94355,   0.00000,274640135.82653,   0.00000,   0.00000,   0.00000,-187154320.88298,   0.00000
315216382.41095,168656456.66551,-53973778.86066,   0.00111,   0.00015,  -0.00070,288760448.10250,   0.00000,274640135.82653,   0.00000,   0.00000,   0.00000,-185879687.72403,   0.00000
317191669.56724,168392504.93097,-53440074.25455,   0.00111,   0.00015,  -0.00069,290036921.42055,   0.00000,274640135.82653,   0.00000,   0.00000,   0.00000,-184603214.40598,   0.00000
319166956.72352,168128553.19643,-52906369.64845,   0.00112,   0.00014,  -0.00069,291326157.16784,   0.00000,274640135.82653,   0.00000,   0.00000,   0.00000,-183313978.65869,   0.00000
321142243.87980,167864601.46189,-52361062.76830,   0.00113,   0.00014,  -0.00068,292621757.78525,   0.00000,274640135.82653,   0.00000,   0.00000,   0.00000,-182018378.04128,   0.00000
323108829.33055,167580345.74777,-51809954.75113,   0.00114,   0.00013,  -0.00067,293919398.42901,   0.00000,274640135.82653,   0.00000,   0.00000,   0.00000,-180720737.39752,   0.00000
325055110.80172,167287388.32811,-51253045.59694,   0.00115,   0.00013,  -0.00067,295209923.36322,   0.00000,274640135.82653,   0.00000,   0.00000,   0.00000,-179430212.46331,   0.00000
327001392.27289,166994430.90846,-50690335.30572,   0.00116,   0.00012,  -0.00066,296509981.91322,   0.00000,274640135.82653,   0.00000,   0.00000,   0.00000,-178130153.91331,   0.00000
328967977.72363,166710175.19434,-50121823.87748,   0.00117,   0.00012,  -0.00065,297836356.69220,   0.00000,274640135.82653,   0.00000,   0.00000,   0.00000,-176803779.13433,   0.00000
330893955.21522,166408516.06915,-49541710.17519,   0.00118,   0.00011,  -0.00064,299135713.17371,   0.00000,274640135.82653,   0.00000,   0.00000,   0.00000,-175504422.65282,   0.00000
332831534.98086,166095254.66992,-48961596.47291,   0.00119,   0.00011,  -0.00064,300457051.04770,   0.00000,274640135.82653,   0.00000,   0.00000,   0.00000,-174183084.77883,   0.00000
334748810.76691,165773291.56515,-48375681.63360,   0.00120,   0.00010,  -0.00063,301771035.75128,   0.00000,274640135.82653,   0.00000,   0.00000,   0.00000,-172869100.07525,   0.00000
336666086.55296,165451328.46038,-47783965.65727,   0.00121,   0.00010,  -0.00062,303094484.90240,   0.00000,274640135.82653,   0.00000,   0.00000,   0.00000,-171545650.92413,   0.00000
338574660.63348,165109061.37603,-47180647.40689,   0.00122,   0.00009,  -0.00061,304417639.13717,   0.00000,274640135.82653,   0.00000,   0.00000,   0.00000,-170222496.68936,   0.00000
340491936.41954,164787098.27126,-46577329.15651,   0.00123,   0.00009,  -0.00061,305760054.79806,   0.00000,274640135.82653,   0.00000,   0.00000,   0.00000,-168880081.02847,   0.00000
342380206.52048,164436129.48138,-45962408.63209,   0.00124,   0.00008,  -0.00060,307085329.42221,   0.00000,274640135.82653,   0.00000,   0.00000,   0.00000,-167554806.40432,   0.00000
344268476.62142,164085160.69150,-45347488.10767,   0.00125,   0.00008,  -0.00059,308422696.44105,   0.00000,274640135.82653,   0.00000,   0.00000,   0.00000,-166217439.38548,   0.00000
346148045.01682,163713887.92203,-44726766.44622,   0.00126,   0.00007,  -0.00058,309762675.01332,   0.00000,274640135.82653,   0.00000,   0.00000,   0.00000,-164877460.81321,   0.00000
348016011.13818,163354217.42662,-44094442.51073,   0.00126,   0.00006,  -0.00057,311099374.45964,   0.00000,274640135.82653,   0.00000,   0.00000,   0.00000,-163540761.36689,   0.00000
349875275.55401,162974242.95162,-43462118.57524,   0.00127,   0.00006,  -0.00057,312441228.71652,   0.00000,274640135.82653,   0.00000,   0.00000,   0.00000,-162198907.11001,   0.00000
351734539.96983,162594268.47662,-42818192.36570,   0.00128,   0.00005,  -0.00056,313790145.34762,   0.00000,274640135.82653,   0.00000,   0.00000,   0.00000,-160849990.47891,   0.00000
353593804.38566,162214294.00162,-42168465.01914,   0.00129,   0.00005,  -0.00055,315148575.53670,   0.00000,274640135.82653,   0.00000,   0.00000,   0.00000,-159491560.28983,   0.00000
355432764.82191,161825617.82109,-41518737.67258,   0.00130,   0.00004,  -0.00054,316501612.73639,   0.00000,274640135.82653,   0.00000,   0.00000,   0.00000,-158138523.09014,   0.00000
357263023.55262,161416637.66098,-40857408.05198,   0.00131,   0.00004,  -0.00053,317855291.39445,   0.00000,274640135.82653,   0.00000,   0.00000,   0.00000,-156784844.43208,   0.00000
359081680.00928,161019259.77492,-40196078.43137,   0.00132,   0.00003,  -0.00052,319209903.96087,   0.00000,274640135.82653,   0.00000,   0.00000,   0.00000,-155430231.86566,   0.00000
360911938.73999,160610279.61480,-39523146.53672,   0.00133,   0.00003,  -0.00051,320582531.31159,   0.00000,274640135.82653,   0.00000,   0.00000,   0.00000,-154057604.51494,   0.00000
362721893.49112,160192597.74916,-38850214.64207,   0.00134,   0.00002,  -0.00051,321949523.28863,   0.00000,274640135.82653,   0.00000,   0.00000,   0.00000,-152690612.53790,   0.00000
364511544.26268,159766214.17798,-38165680.47337,   0.00135,   0.00002,  -0.00050,323306568.35347,   0.00000,274640135.82653,   0.00000,   0.00000,   0.00000,-151333567.47306,   0.00000
366301195.03423,159339830.60680,-37481146.30468,   0.00136,   0.00001,  -0.00049,324675046.34391,   0.00000,274640135.82653,   0.00000,   0.00000,   0.00000,-149965089.48262,   0.00000
368082144.10024,158893143.05604,-36785009.86193,   0.00136,   0.00001,  -0.00048,326044748.13803,   0.00000,274640135.82653,   0.00000,   0.00000,   0.00000,-148595387.68850,   0.00000
369851490.89222,158458057.77932,-36088873.41919,   0.00137,  -0.00000,  -0.00047,327414649.68877,   0.00000,274640135.82653,   0.00000,   0.00000,   0.00000,-147225486.13776,   0.00000
371612135.97865,158002668.52303,-35381134.70240,   0.00138,  -0.00001,  -0.00046,328785930.05987,   0.00000,274640135.82653,   0.00000,   0.00000,   0.00000,-145854205.76666,   0.00000
373372781.06509,157547279.26674,-34673395.98561,   0.00139,  -0.00001,  -0.00045,330168511.82857,   0.00000,274640135.82653,   0.00000,   0.00000,   0.00000,-144471623.99795,   0.00000
375113122.17195,157083188.30491,-33954054.99478,   0.00140,  -0.00002,  -0.00044,331541325.96044,   0.00000,274640135.82653,   0.00000,   0.00000,   0.00000,-143098809.86609,   0.00000
376853463.27880,156619097.34308,-33234714.00394,   0.00141,  -0.00002,  -0.00043,332925312.69524,   0.00000,274640135.82653,   0.00000,   0.00000,   0.00000,-141714823.13129,   0.00000
378573500.40608,156146304.67572,-32503770.73906,   0.00142,  -0.00003,  -0.00042,334299560.08617,   0.00000,274640135.82653,   0.00000,   0.00000,   0.00000,-140340575.74036,   0.00000
380293537.53336,155673512.00835,-31772827.47418,   0.00143,  -0.00003,  -0.00041,335684858.38039,   0.00000,274640135.82653,   0.00000,   0.00000,   0.00000,-138955277.44614,   0.00000
382004872.95510,155180415.36141,-31036083.07228,   0.00144,  -0.00004,  -0.00040,337073767.55739,   0.00000,274640135.82653,   0.00000,   0.00000,   0.00000,-137566368.26914,   0.00000
383704606.10280,154698920.98851,-30293537.53336,   0.00144,  -0.00004,  -0.00039,338460319.10099,   0.00000,274640135.82653,   0.00000,   0.00000,   0.00000,-136179816.72554,   0.00000
385395637.54496,154197122.63604,-29539389.72039,   0.00145,  -0.00005,  -0.00038,339849052.25285,   0.00000,274640135.82653,   0.00000,   0.00000,   0.00000,-134791083.57368,   0.00000
387075066.71308,153706926.55761,-28785241.90741,   0.00146,  -0.00006,  -0.00037,341236835.85770,   0.00000,274640135.82653,   0.00000,   0.00000,   0.00000,-133403299.96883,   0.00000
388745794.17566,153196426.49959,-28025292.95742,   0.00147,  -0.00006,  -0.00036,342628402.54874,   0.00000,274640135.82653,   0.00000,   0.00000,   0.00000,-132011733.27779,   0.00000
390396217.65866,152677224.73605,-27259542.87040,   0.00148,  -0.00007,  -0.00035,344011887.42284,   0.00000,274640135.82653,   0.00000,   0.00000,   0.00000,-130628248.40369,   0.00000
392046641.14166,152158022.97250,-26493792.78339,   0.00149,  -0.00007,  -0.00034,345406071.34847,   0.00000,274640135.82653,   0.00000,   0.00000,   0.00000,-129234064.47806,   0.00000
393676760.64509,151630119.50342,-25716440.42232,   0.00150,  -0.00008,  -0.00033,346790767.86195,   0.00000,274640135.82653,   0.00000,   0.00000,   0.00000,-127849367.96458,   0.00000
395306880.14851,151102216.03434,-24933286.92424,   0.00150,  -0.00008,  -0.00032,348184821.56710,   0.00000,274640135.82653,   0.00000,   0.00000,   0.00000,-126455314.25943,   0.00000
396916695.67235,150565610.85973,-24144332.28913,   0.00151,  -0.00009,  -0.00031,349570748.31535,   0.00000,274640135.82653,   0.00000,   0.00000,   0.00000,-125069387.51118,   0.00000
398526511.19619,150029005.68511,-23355377.65402,   0.00152,  -0.00009,  -0.00030,350967188.57357,   0.00000,274640135.82653,   0.00000,   0.00000,   0.00000,-123672947.25296,   0.00000
400116022.74046,149483698.80497,-22554820.74487,   0.00153,  -0.00010,  -0.00029,352354288.53383,   0.00000,274640135.82653,   0.00000,   0.00000,   0.00000,-122285847.29270,   0.00000
401705534.28472,148938391.92482,-21754263.83571,   0.00154,  -0.00011,  -0.00028,353751817.72757,   0.00000,274640135.82653,   0.00000,   0.00000,   0.00000,-120888318.09896,   0.00000
403286344.12345,148372781.06509,-20947905.78953,   0.00155,  -0.00011,  -0.00027,355153608.09821,   0.00000,274640135.82653,   0.00000,   0.00000,   0.00000,-119486527.72832,   0.00000
404835247.70855,147810070.77387,-20135746.60633,   0.00155,  -0.00012,  -0.00026,356534729.11912,   0.00000,274640135.82653,   0.00000,   0.00000,   0.00000,-118105406.70741,   0.00000
406404455.27323,147256062.18819,-19317786.28611,   0.00156,  -0.00012,  -0.00025,357942649.00794,   0.00000,274640135.82653,   0.00000,   0.00000,   0.00000,-116697486.81859,   0.00000
407924353.17322,146664346.21186,-18494024.82887,   0.00157,  -0.00013,  -0.00024,359319964.18597,   0.00000,274640135.82653,   0.00000,   0.00000,   0.00000,-115320171.64055,   0.00000
409473256.75833,146101635.92064,-17664462.23460,   0.00158,  -0.00013,  -0.00023,360729016.04795,   0.00000,274640135.82653,   0.00000,   0.00000,   0.00000,-113911119.77857,   0.00000
410981552.38427,145521522.21835,-16834899.64033,   0.00159,  -0.00014,  -0.00022,362113145.66031,   0.00000,274640135.82653,   0.00000,   0.00000,   0.00000,-112526990.16621,   0.00000
412481146.30468,144921104.53649,-15993734.77202,   0.00159,  -0.00014,  -0.00021,363501028.78784,   0.00000,274640135.82653,   0.00000,   0.00000,   0.00000,-111139107.03869,   0.00000
413989441.93062,144340990.83420,-15152569.90370,   0.00160,  -0.00015,  -0.00020,364903733.25840,   0.00000,274640135.82653,   0.00000,   0.00000,   0.00000,-109736402.56813,   0.00000
415477433.57698,143752175.42638,-14305603.89836,   0.00161,  -0.00016,  -0.00019,366298173.27276,   0.00000,274640135.82653,   0.00000,   0.00000,   0.00000,-108341962.55377,   0.00000
416936419.53823,143134354.33345,-13452836.75600,   0.00162,  -0.00016,  -0.00017,367679796.24866,   0.00000,274640135.82653,   0.00000,   0.00000,   0.00000,-106960339.57787,   0.00000
418404107.20501,142536837.22010,-12594268.47662,   0.00163,  -0.00017,  -0.00016,369075325.05603,   0.00000,274640135.82653,   0.00000,   0.00000,   0.00000,-105564810.77050,   0.00000
419851490.89222,141930618.40121,-11729899.06022,   0.00163,  -0.00017,  -0.00015,370462636.03912,   0.00000,274640135.82653,   0.00000,   0.00000,   0.00000,-104177499.78741,   0.00000
421290172.87388,141304095.60274,-10859728.50679,   0.00164,  -0.00018,  -0.00014,371854852.65043,   0.00000,274640135.82653,   0.00000,   0.00000,   0.00000,-102785283.17610,   0.00000
422717252.58151,140689175.07832,-9989557.95336,   0.00165,  -0.00018,  -0.00013,373243823.60800,   0.00000,274640135.82653,   0.00000,   0.00000,   0.00000,-101396312.21853,   0.00000
424124028.30955,140065552.84836,-9113586.26291,   0.00166,  -0.00019,  -0.00012,374624553.84892,   0.00000,274640135.82653,   0.00000,   0.00000,   0.00000,-100015581.97761,   0.00000
425522102.33206,139421626.63882,-8231813.43543,   0.00166,  -0.00020,  -0.00011,376010311.19786,   0.00000,274640135.82653,   0.00000,   0.00000,   0.00000,-98629824.62867,   0.00000
426928878.06010,138798004.40886,-7344239.47094,   0.00167,  -0.00020,  -0.00010,377409711.33571,   0.00000,274640135.82653,   0.00000,   0.00000,   0.00000,-97230424.49082,   0.00000
428295045.82898,138156978.76784,-6456665.50644,   0.00168,  -0.00021,  -0.00008,378783728.66232,   0.00000,274640135.82653,   0.00000,   0.00000,   0.00000,-95856407.16421,   0.00000
429661213.59787,137515953.12681,-5557489.26790,   0.00169,  -0.00021,  -0.00007,380166781.27648,   0.00000,274640135.82653,   0.00000,   0.00000,   0.00000,-94473354.55005,   0.00000
431027381.36675,136874927.48579,-4658313.02935,   0.00169,  -0.00022,  -0.00006,381559441.41640,   0.00000,274640135.82653,   0.00000,   0.00000,   0.00000,-93080694.41013,   0.00000
432352941.17647,136216498.43369,-3753335.65379,   0.00170,  -0.00022,  -0.00005,382926440.76964,   0.00000,274640135.82653,   0.00000,   0.00000,   0.00000,-91713695.05689,   0.00000
433678500.98619,135558069.38160,-2848358.27822,   0.00171,  -0.00023,  -0.00004,384302942.35245,   0.00000,274640135.82653,   0.00000,   0.00000,   0.00000,-90337193.47408,   0.00000
435012762.50145,134919944.30908,-1931778.62861,   0.00172,  -0.00023,  -0.00003,385692614.04269,   0.00000,274640135.82653,   0.00000,   0.00000,   0.00000,-88947521.78384,   0.00000
436318018.33159,134252813.55146,-1015198.97900,   0.00172,  -0.00024,  -0.00001,387070279.65213,   0.00000,274640135.82653,   0.00000,   0.00000,   0.00000,-87569856.17440,   0.00000
437602970.18216,133576981.08829,-92818.19237,   0.00173,  -0.00025,  -0.00000,388439842.91310,   0.00000,274640135.82653,   0.00000,   0.00000,   0.00000,-86200292.91343,   0.00000
438876319.75867,132912750.89918,835363.73129,   0.00174,  -0.00025,   0.00001,389805153.80195,   0.00000,274640135.82653,   0.00000,   0.00000,   0.00000,-84834982.02458,   0.00000
440140967.62966,132228216.73048,1763545.65495,   0.00174,  -0.00026,   0.00002,391175980.48171,   0.00000,274640135.82653,   0.00000,   0.00000,   0.00000,-83464155.34482,   0.00000
441394013.22659,131555284.83583,2703329.85265,   0.00175,  -0.00026,   0.00004,392542579.50258,   0.00000,274640135.82653,   0.00000,   0.00000,   0.00000,-82097556.32395,   0.00000
442647058.82353,130882352.94118,3643114.05035,   0.00176,  -0.00027,   0.00005,393918439.85167,   0.00000,274640135.82653,   0.00000,   0.00000,   0.00000,-80721695.97486,   0.00000
443879800.44089,130200719.34099,4582898.24806,   0.00177,  -0.00027,   0.00006,395286028.22143,   0.00000,274640135.82653,   0.00000,   0.00000,   0.00000,-79354107.60510,   0.00000
445092238.07866,129510384.03527,5534284.71981,   0.00177,  -0.00028,   0.00007,396645759.09523,   0.00000,274640135.82653,   0.00000,   0.00000,   0.00000,-77994376.73130,   0.00000
446284371.73686,128811347.02402,6485671.19155,   0.00178,  -0.00028,   0.00008,397997241.56322,   0.00000,274640135.82653,   0.00000,   0.00000,   0.00000,-76642894.26331,   0.00000
447476505.39506,128112310.01276,7442858.80032,   0.00179,  -0.00029,   0.00010,399358143.16994,   0.00000,274640135.82653,   0.00000,   0.00000,   0.00000,-75281992.65659,   0.00000
448657036.77921,127424875.27555,8400046.40910,   0.00179,  -0.00030,   0.00011,400714176.03627,   0.00000,274640135.82653,   0.00000,   0.00000,   0.00000,-73925959.79026,   0.00000
449808562.47825,126708434.85323,9363035.15489,   0.00180,  -0.00030,   0.00012,402058740.34578,   0.00000,274640135.82653,   0.00000,   0.00000,   0.00000,-72581395.48075,   0.00000
450968789.88282,126012298.41049,10331825.03771,   0.00181,  -0.00031,   0.00013,403416131.18511,   0.00000,274640135.82653,   0.00000,   0.00000,   0.00000,-71224004.64141,   0.00000
452108713.30781,125307460.26221,11306416.05755,   0.00181,  -0.00031,   0.00015,404765560.23381,   0.00000,274640135.82653,   0.00000,   0.00000,   0.00000,-69874575.59272,   0.00000
453228332.75322,124593920.40840,12281007.07739,   0.00182,  -0.00032,   0.00016,406106563.84700,   0.00000,274640135.82653,   0.00000,   0.00000,   0.00000,-68533571.97953,   0.00000
454347952.19863,123880380.55459,13261399.23425,   0.00183,  -0.00032,   0.00017,407457000.50413,   0.00000,274640135.82653,   0.00000,   0.00000,   0.00000,-67183135.32240,   0.00000
455426963.68488,123149437.28971,14247592.52814,   0.00183,  -0.00033,   0.00019,408782228.73578,   0.00000,274640135.82653,   0.00000,   0.00000,   0.00000,-65857907.09075,   0.00000
456505975.17113,122418494.02483,15233785.82202,   0.00184,  -0.00033,   0.00020,410116353.90933,   0.00000,274640135.82653,   0.00000,   0.00000,   0.00000,-64523781.91720,   0.00000
457593688.36292,121707854.73953,16225780.25293,   0.00184,  -0.00034,   0.00021,411463081.23127,   0.00000,274640135.82653,   0.00000,   0.00000,   0.00000,-63177054.59526,   0.00000
458640793.59555,120979812.04316,17217774.68384,   0.00185,  -0.00034,   0.00022,412783927.45191,   0.00000,274640135.82653,   0.00000,   0.00000,   0.00000,-61856208.37462,   0.00000
459687898.82817,120251769.34679,18215570.25177,   0.00186,  -0.00035,   0.00024,414114223.58751,   0.00000,274640135.82653,   0.00000,   0.00000,   0.00000,-60525912.23902,   0.00000
460714700.08122,119515024.94489,19219166.95672,   0.00186,  -0.00035,   0.00025,415436729.62480,   0.00000,274640135.82653,   0.00000,   0.00000,   0.00000,-59203406.20173,   0.00000
461750203.03980,118798584.52257,20222763.66168,   0.00187,  -0.00036,   0.00026,416770876.71534,   0.00000,274640135.82653,   0.00000,   0.00000,   0.00000,-57869259.11119,   0.00000
462736396.33368,118044436.70960,21232161.50365,   0.00188,  -0.00037,   0.00028,418077048.31297,   0.00000,274640135.82653,   0.00000,   0.00000,   0.00000,-56563087.51356,   0.00000
463731291.33310,117310592.87620,22247360.48265,   0.00188,  -0.00037,   0.00029,419395670.20444,   0.00000,274640135.82653,   0.00000,   0.00000,   0.00000,-55244465.62209,   0.00000
464705882.35294,116568047.33728,23262559.46165,   0.00189,  -0.00038,   0.00030,420705656.58135,   0.00000,274640135.82653,   0.00000,   0.00000,   0.00000,-53934479.24518,   0.00000
465680473.37278,115825501.79835,24283559.57768,   0.00189,  -0.00038,   0.00032,422025176.30910,   0.00000,274640135.82653,   0.00000,   0.00000,   0.00000,-52614959.51743,   0.00000
466623158.13900,115085856.82794,25304559.69370,   0.00190,  -0.00039,   0.00033,423321582.73247,   0.00000,274640135.82653,   0.00000,   0.00000,   0.00000,-51318553.09406,   0.00000
467557141.19968,114325907.87794,26331360.94675,   0.00190,  -0.00039,   0.00034,424624799.74018,   0.00000,274640135.82653,   0.00000,   0.00000,   0.00000,-50015336.08635,   0.00000
468479521.98631,113577561.20200,27363963.33681,   0.00191,  -0.00040,   0.00036,425923141.91334,   0.00000,274640135.82653,   0.00000,   0.00000,   0.00000,-48716993.91319,   0.00000
469381598.79336,112820512.82051,28396565.72688,   0.00192,  -0.00040,   0.00037,427212798.90678,   0.00000,274640135.82653,   0.00000,   0.00000,   0.00000,-47427336.91975,   0.00000
470283675.60042,112063464.43903,29434969.25397,   0.00192,  -0.00041,   0.00038,428512065.04177,   0.00000,274640135.82653,   0.00000,   0.00000,   0.00000,-46128070.78476,   0.00000
471174150.13343,111318018.33159,30473372.78107,   0.00193,  -0.00041,   0.00040,429805174.03036,   0.00000,274640135.82653,   0.00000,   0.00000,   0.00000,-44834961.79617,   0.00000
472044320.68686,110563870.51862,31517577.44518,   0.00193,  -0.00042,   0.00041,431090751.54698,   0.00000,274640135.82653,   0.00000,   0.00000,   0.00000,-43549384.27955,   0.00000
472894187.26070,109801021.00012,32561782.10929,   0.00194,  -0.00042,   0.00042,432367576.18233,   0.00000,274640135.82653,   0.00000,   0.00000,   0.00000,-42272559.64420,   0.00000
473723749.85497,109029469.77608,33611787.91043,   0.00194,  -0.00043,   0.00044,433636972.64981,   0.00000,274640135.82653,   0.00000,   0.00000,   0.00000,-41003163.17672,   0.00000
474562014.15477,108278222.53162,34661793.71157,   0.00195,  -0.00043,   0.00045,434917080.84352,   0.00000,274640135.82653,   0.00000,   0.00000,   0.00000,-39723054.98301,   0.00000
475379974.47500,107518273.58162,35717600.64973,   0.00195,  -0.00044,   0.00046,436189759.30610,   0.00000,274640135.82653,   0.00000,   0.00000,   0.00000,-38450376.52043,   0.00000
476177630.81564,106749622.92609,36773407.58789,   0.00196,  -0.00044,   0.00048,437453638.76133,   0.00000,274640135.82653,   0.00000,   0.00000,   0.00000,-37186497.06520,   0.00000
476954983.17670,105972270.56503,37835015.66307,   0.00196,  -0.00045,   0.00049,438710201.39943,   0.00000,274640135.82653,   0.00000,   0.00000,   0.00000,-35929934.42710,   0.00000
477720733.26372,105206520.47801,38896623.73825,   0.00197,  -0.00045,   0.00051,439960244.62324,   0.00000,274640135.82653,   0.00000,   0.00000,   0.00000,-34679891.20329,   0.00000
478486483.35074,104440770.39100,39964032.95046,   0.00197,  -0.00046,   0.00052,441219972.48015,   0.00000,274640135.82653,   0.00000,   0.00000,   0.00000,-33420163.34638,   0.00000
479231929.45817,103666318.59845,41031442.16266,   0.00198,  -0.00046,   0.00053,442470875.51617,   0.00000,274640135.82653,   0.00000,   0.00000,   0.00000,-32169260.31036,   0.00000
479965773.29157,102903469.07994,42104652.51189,   0.00198,  -0.00047,   0.00055,443716722.31071,   0.00000,274640135.82653,   0.00000,   0.00000,   0.00000,-30923413.51582,   0.00000
480679313.14538,102131917.85590,43177862.86112,   0.00199,  -0.00047,   0.00056,444953721.33448,   0.00000,274640135.82653,   0.00000,   0.00000,   0.00000,-29686414.49205,   0.00000
481372549.01961,101351664.92633,44256874.34737,   0.00199,  -0.00048,   0.00058,446183588.24704,   0.00000,274640135.82653,   0.00000,   0.00000,   0.00000,-28456547.57949,   0.00000
482065784.89384,100571411.99675,45335885.83362,   0.00200,  -0.00048,   0.00059,447421524.79200,   0.00000,274640135.82653,   0.00000,   0.00000,   0.00000,-27218611.03453,   0.00000
482747418.49403,99802761.34122,46414897.31987,   0.00200,  -0.00049,   0.00060,448652609.39570,   0.00000,274640135.82653,   0.00000,   0.00000,   0.00000,-25987526.43083,   0.00000
483388444.13505,99016707.27463,47499709.94315,   0.00201,  -0.00049,   0.00062,449859790.93936,   0.00000,274640135.82653,   0.00000,   0.00000,   0.00000,-24780344.88717,   0.00000
484049773.75566,98239354.91356,48590323.70345,   0.00201,  -0.00050,   0.00063,451093643.80330,   0.00000,274640135.82653,   0.00000,   0.00000,   0.00000,-23546492.02323,   0.00000
484679197.12264,97464903.12101,49675136.32672,   0.00202,  -0.00050,   0.00065,452301865.99078,   0.00000,274640135.82653,   0.00000,   0.00000,   0.00000,-22338269.83575,   0.00000
485288316.51004,96681749.62293,50771551.22404,   0.00202,  -0.00051,   0.00066,453505059.04634,   0.00000,274640135.82653,   0.00000,   0.00000,   0.00000,-21135076.78019,   0.00000
485906137.60297,95918900.10442,51862164.98434,   0.00202,  -0.00051,   0.00067,454716043.43282,   0.00000,274640135.82653,   0.00000,   0.00000,   0.00000,-19924092.39370,   0.00000
486494953.01079,95127044.90080,52958579.88166,   0.00203,  -0.00052,   0.00069,455918304.39971,   0.00000,274640135.82653,   0.00000,   0.00000,   0.00000,-18721831.42682,   0.00000
487072166.14456,94346791.97123,54054994.77898,   0.00203,  -0.00052,   0.00070,457113490.54198,   0.00000,274640135.82653,   0.00000,   0.00000,   0.00000,-17526645.28455,   0.00000
487637777.00429,93578141.31570,55157210.81332,   0.00204,  -0.00053,   0.00072,458303596.97533,   0.00000,274640135.82653,   0.00000,   0.00000,   0.00000,-16336538.85120,   0.00000
488183083.88444,92800788.95464,56259426.84766,   0.00204,  -0.00053,   0.00073,459484824.35269,   0.00000,274640135.82653,   0.00000,   0.00000,   0.00000,-15155311.47384,   0.00000
488728390.76459,92023436.59357,57367444.01903,   0.00204,  -0.00053,   0.00075,460675979.01634,   0.00000,274640135.82653,   0.00000,   0.00000,   0.00000,-13964156.81019,   0.00000
489253393.66516,91237382.52698,58469660.05337,   0.00205,  -0.00054,   0.00076,461856089.70010,   0.00000,274640135.82653,   0.00000,   0.00000,   0.00000,-12784046.12643,   0.00000
489766794.29168,90462930.73442,59583478.36176,   0.00205,  -0.00054,   0.00077,463033354.86857,   0.00000,274640135.82653,   0.00000,   0.00000,   0.00000,-11606780.95796,   0.00000
490259890.93862,89679777.23634,60691495.53312,   0.00206,  -0.00055,   0.00079,464199524.11777,   0.00000,274640135.82653,   0.00000,   0.00000,   0.00000,-10440611.70876,   0.00000
490741385.31152,88908226.01230,61805313.84151,   0.00206,  -0.00055,   0.00080,465360639.04074,   0.00000,274640135.82653,   0.00000,   0.00000,   0.00000,-9279496.78579,   0.00000
491202575.70484,88127973.08272,62919132.14990,   0.00206,  -0.00056,   0.00082,466512887.51796,   0.00000,274640135.82653,   0.00000,   0.00000,   0.00000,-8127248.30857,   0.00000
491663766.09816,87347720.15315,64038751.59531,   0.00207,  -0.00056,   0.00083,467675164.16509,   0.00000,274640135.82653,   0.00000,   0.00000,   0.00000,-6964971.66143,   0.00000
492093050.23785,86570367.79209,65152569.90370,   0.00207,  -0.00057,   0.00085,468811150.05959,   0.00000,274640135.82653,   0.00000,   0.00000,   0.00000,-5828985.76694,   0.00000
492522334.37754,85793015.43102,66272189.34911,   0.00207,  -0.00057,   0.00086,469957151.62922,   0.00000,274640135.82653,   0.00000,   0.00000,   0.00000,-4682984.19731,   0.00000
492931314.53765,85006961.36443,67397609.93155,   0.00208,  -0.00057,   0.00088,471096788.98870,   0.00000,274640135.82653,   0.00000,   0.00000,   0.00000,-3543346.83783,   0.00000
493328692.42372,84232509.57188,68517229.37696,   0.00208,  -0.00058,   0.00089,472226463.46334,   0.00000,274640135.82653,   0.00000,   0.00000,   0.00000,-2413672.36319,   0.00000
493734772.01532,83478361.75890,69642649.95939,   0.00208,  -0.00058,   0.00091,473367497.98420,   0.00000,274640135.82653,   0.00000,   0.00000,   0.00000,-1272637.84233,   0.00000
494091541.94222,82686506.55529,70768070.54183,   0.00209,  -0.00059,   0.00092,474481997.64383,   0.00000,274640135.82653,   0.00000,   0.00000,   0.00000,-158138.18270,   0.00000
494143021.43452,82577827.62711,70927411.82750,   0.00209,  -0.00059,   0.00092,474640136.57352,   0.00000,274640135.82653,   0.00000,   0.00000,   0.00000,   0.74699,   0.00000
493493631.95082,81841834.18283,71744134.50989,   0.00209,  -0.00059,   0.00093,474640136.57352,   0.00000,274644381.73409,   0.00000,  -0.00000,   0.00000,   0.00000,   2.00000
492739070.57182,80999434.36146,72688428.82246,   0.00209,  -0.00060,   0.00095,475759872.64233,   0.00001,274649277.97773,   0.00001,  -0.00000,   0.00000,   0.00000,   2.00000
491972550.16074,80150603.94797,73637282.62923,   0.00210,  -0.00060,   0.00096,475758364.49767,   0.00001,274654148.38884,   0.00001,  -0.00001,   0.00001,  -0.00000,   2.00000
491196634.90205,79295515.82161,74585356.80097,   0.00210,  -0.00060,   0.00098,475754238.53577,   0.00002,274658981.56624,   0.00002,  -0.00001,   0.00001,  -0.00000,   2.00000
490416104.14182,78454139.89046,75537814.92852,   0.00210,  -0.00061,   0.00099,475754020.04824,   0.00002,274663794.78663,   0.00002,  -0.00001,   0.00001,   0.00000,   2.00000
489633113.09855,77614209.44151,76481467.06671,   0.00210,  -0.00061,   0.00101,475763344.28101,   0.00003,274668630.07187,   0.00003,  -0.00001,   0.00001,   0.00000,   2.00000
488845506.63444,76787936.53890,77429539.71907,   0.00211,  -0.00062,   0.00102,475763120.07698,   0.00003,274673445.30439,   0.00003,  -0.00001,   0.00002,   0.00000,   2.00000
488043981.11017,75947611.59176,78379750.33743,   0.00211,  -0.00062,   0.00104,475742840.22747,   0.00003,274678152.30552,   0.00004,  -0.00001,   0.00002,  -0.00000,   2.00000
487237272.64184,75108526.93422,79326482.99955,   0.00211,  -0.00062,   0.00105,475754862.42622,   0.00004,274682893.69783,   0.00004,  -0.00002,   0.00002,   0.00000,   2.00000
486430274.21324,74290722.19917,80274805.54097,   0.00212,  -0.00063,   0.00107,475770834.84880,   0.00004,274687686.71530,   0.00005,  -0.00002,   0.00002,   0.00000,   2.00000
485619706.47527,73479081.05251,81219978.63864,   0.00212,  -0.00063,   0.00108,475748703.64746,   0.00005,274692363.20678,   0.00005,  -0.00002,   0.00003,   0.00000,   2.00000
484796540.64832,72660708.94111,82169850.37242,   0.00212,  -0.00064,   0.00110,475747536.38172,   0.00005,274697016.04642,   0.00006,  -0.00002,   0.00003,   0.00000,   2.00000
483968272.46486,71843543.50686,83116222.17698,   0.00212,  -0.00064,   0.00111,475759492.13335,   0.00006,274701703.20359,   0.00006,  -0.00002,   0.00003,   0.00000,   2.00000
483138040.17431,71040009.03379,84061898.14603,   0.00213,  -0.00064,   0.00113,475756337.90381,   0.00006,274706357.83417,   0.00007,  -0.00002,   0.00003,   0.00000,   2.00000
482298017.99368,70229837.93778,85007085.92738,   0.00213,  -0.00065,   0.00114,475752238.12642,   0.00006,274710975.88910,   0.00007,  -0.00003,   0.00004,   0.00000,   2.00000
481455997.36661,69433230.20801,85951649.97366,   0.00213,  -0.00065,   0.00116,475749009.50531,   0.00007,274715561.31730,   0.00007,  -0.00003,   0.00004,   0.00000,   2.00000
480601029.59483,68629752.41543,86900965.84973,   0.00213,  -0.00065,   0.00117,475748072.55579,   0.00007,274720124.37790,   0.00008,  -0.00003,   0.00004,   0.00000,   2.00000
479752024.40334,67847837.47848,87841438.17892,   0.00213,  -0.00066,   0.00119,475757550.04367,   0.00008,274724711.14526,   0.00008,  -0.00003,   0.00004,   0.00000,   2.00000
478890001.01183,67058997.84120,88786685.46380,   0.00214,  -0.00066,   0.00120,475756676.08645,   0.00008,274729275.75987,   0.00009,  -0.00003,   0.00005,   0.00000,   2.00000
478012895.85628,66255416.63365,89734707.32486,   0.00214,  -0.00067,   0.00122,475736785.28772,   0.00009,274733734.17424,   0.00009,  -0.00003,   0.00005,  -0.00000,   2.00000
477138744.26203,65473234.89116,90679065.30009,   0.00214,  -0.00067,   0.00123,475749331.12413,   0.00009,274738230.32847,   0.00010,  -0.00004,   0.00005,   0.00000,   2.00000
476267670.22538,64712435.34746,91619756.86689,   0.00214,  -0.00067,   0.00125,475761808.15537,   0.00009,274742763.73422,   0.00010,  -0.00004,   0.00005,  -0.00000,   2.00000
475381286.88925,63936710.63674,92563384.29282,   0.00214,  -0.00068,   0.00126,475741967.92897,   0.00010,274747191.08678,   0.00010,  -0.00004,   0.00006,   0.00000,   2.00000
474498042.74913,63182351.86225,93503359.16965,   0.00215,  -0.00068,   0.00128,475754334.05085,   0.00010,274751655.49232,   0.00011,  -0.00004,   0.00006,   0.00000,   2.00000
473599270.85623,62412954.68265,94446380.91667,   0.00215,  -0.00068,   0.00129,475734540.76034,   0.00011,274756014.22505,   0.00011,  -0.00004,   0.00006,  -0.00000,   2.00000
472692297.80251,61644534.79845,95390947.52251,   0.00215,  -0.00069,   0.00131,475749672.08228,   0.00011,274760422.61252,   0.00012,  -0.00004,   0.00007,   0.00000,   2.00000
471786417.49001,60889494.14461,96330128.61465,   0.00215,  -0.00069,   0.00132,475742797.18205,   0.00011,274764782.76797,   0.00012,  -0.00005,   0.00007,   0.00000,   2.00000
470883866.45739,60155795.92349,97265670.50358,   0.00215,  -0.00069,   0.00134,475754961.56665,   0.00012,274769179.36436,   0.00013,  -0.00005,   0.00007,   0.00000,   2.00000
469962031.04850,59406726.83453,98209470.01241,   0.00215,  -0.00070,   0.00135,475738886.14811,   0.00012,274773486.85418,   0.00013,  -0.00005,   0.00007,   0.00000,   2.00000
469038752.87486,58658855.68351,99144733.69481,   0.00215,  -0.00070,   0.00137,475746864.61549,   0.00013,274777812.44692,   0.00013,  -0.00005,   0.00008,   0.00000,   2.00000
468109797.60112,57924008.07857,100084772.55375,   0.00216,  -0.00070,   0.00138,475747027.95545,   0.00013,274782121.30993,   0.00014,  -0.00005,   0.00008,   0.00000,   2.00000
467181982.08949,57202362.01605,101019644.50403,   0.00216,  -0.00071,   0.00140,475739862.63707,   0.00013,274786380.88048,   0.00014,  -0.00005,   0.00008,   0.00000,   2.00000
466240148.64710,56473400.14123,101959436.22815,   0.00216,  -0.00071,   0.00141,475739543.81929,   0.00014,274790621.81704,   0.00015,  -0.00006,   0.00009,  -0.00000,   2.00000
465305321.08881,55765845.53551,102890643.10072,   0.00216,  -0.00071,   0.00143,475747739.16024,   0.00014,274794882.04086,   0.00015,  -0.00006,   0.00009,   0.00000,   2.00000
464350432.94526,55042638.93002,103830309.33848,   0.00216,  -0.00071,   0.00144,475732072.70129,   0.00014,274799055.25518,   0.00015,  -0.00006,   0.00009,   0.00000,   2.00000
463402638.84068,54340816.77881,104761429.80037,   0.00216,  -0.00072,   0.00146,475740111.19939,   0.00015,274803247.33735,   0.00016,  -0.00006,   0.00009,   0.00000,   2.00000
462444143.29210,53631673.65650,105692608.74174,   0.00216,  -0.00072,   0.00147,475736086.10150,   0.00015,274807404.46508,   0.00016,  -0.00006,   0.00010,   0.00000,   2.00000
461485754.25712,52943723.16555,106625050.07517,   0.00216,  -0.00072,   0.00149,475751708.15255,   0.00016,274811614.32431,   0.00017,  -0.00006,   0.00010,   0.00000,   2.00000
460513996.30956,52240114.88970,107556320.39692,   0.00216,  -0.00073,   0.00150,475728535.80962,   0.00016,274815703.71792,   0.00017,  -0.00007,   0.00010,   0.00000,   2.00000
459545977.04639,51557770.55661,108483987.61989,   0.00216,  -0.00073,   0.00152,475740168.02289,   0.00016,274819828.34467,   0.00017,  -0.00007,   0.00010,   0.00000,   2.00000
458563413.45269,50867925.62819,109416619.81908,   0.00216,  -0.00073,   0.00153,475740197.57252,   0.00017,274823936.29816,   0.00018,  -0.00007,   0.00011,   0.00000,   2.00000
457581962.88276,50190979.64402,110344495.64473,   0.00217,  -0.00073,   0.00155,475732576.26486,   0.00017,274827993.45238,   0.00018,  -0.00007,   0.00011,   0.00000,   2.00000
456597944.82353,49526817.15679,111272486.83187,   0.00217,  -0.00074,   0.00156,475728887.71750,   0.00017,274832017.54364,   0.00018,  -0.00007,   0.00011,   0.00000,   2.00000
455609364.29263,48863595.29076,112196949.04298,   0.00217,  -0.00074,   0.00158,475740083.56210,   0.00018,274836075.20076,   0.00019,  -0.00007,   0.00012,  -0.00000,   2.00000
454609720.54371,48192845.46087,113121626.26923,   0.00217,  -0.00074,   0.00159,475736159.22740,   0.00018,274840098.71603,   0.00019,  -0.00008,   0.00012,   0.00000,   2.00000
453615925.97715,47555091.67957,114046426.07308,   0.00217,  -0.00074,   0.00160,475732689.40400,   0.00019,274844090.19985,   0.00020,  -0.00008,   0.00012,  -0.00000,   2.00000
452602437.94665,46889458.37560,114971536.58753,   0.00217,  -0.00075,   0.00162,475728568.17140,   0.00019,274848046.89827,   0.00020,  -0.00008,   0.00013,  -0.00000,   2.00000
451605300.33900,46265352.37884,115888292.47427,   0.00217,  -0.00075,   0.00163,475735840.43768,   0.00019,274852019.86144,   0.00020,  -0.00008,   0.00013,   0.00000,   2.00000
450584579.21649,45613277.73282,116810108.69567,   0.00217,  -0.00075,   0.00165,475735988.42909,   0.00020,274855977.17601,   0.00021,  -0.00008,   0.00013,   0.00000,   2.00000
449573506.72763,44994144.25285,117727471.61079,   0.00217,  -0.00075,   0.00166,475728128.67047,   0.00020,274859882.98662,   0.00021,  -0.00008,   0.00013,   0.00000,   2.00000
448551094.03286,44367302.30868,118645194.30062,   0.00217,  -0.00076,   0.00168,475724189.85658,   0.00020,274863755.06484,   0.00021,  -0.00008,   0.00014,   0.00000,   2.00000
447513357.38584,43732719.30175,119567931.17617,   0.00217,  -0.00076,   0.00169,475724673.92165,   0.00021,274867613.37364,   0.00022,  -0.00009,   0.00014,   0.00000,   2.00000
446492283.40780,43139597.10299,120482421.74819,   0.00217,  -0.00076,   0.00171,475731519.82296,   0.00021,274871486.42136,   0.00022,  -0.00009,   0.00014,   0.00000,   2.00000
445455053.56439,42518431.66005,121392729.76124,   0.00217,  -0.00076,   0.00172,475723113.49008,   0.00021,274875305.78135,   0.00022,  -0.00009,   0.00015,   0.00000,   2.00000
444426808.84199,41938674.27749,122304081.14327,   0.00217,  -0.00077,   0.00174,475738595.73729,   0.00022,274879178.77531,   0.00023,  -0.00009,   0.00015,   0.00000,   2.00000
443375097.74544,41322161.00840,123215282.89616,   0.00217,  -0.00077,   0.00175,475715435.15376,   0.00022,274882931.81854,   0.00023,  -0.00009,   0.00015,   0.00000,   2.00000
442332368.62943,40747053.05316,124127499.56356,   0.00217,  -0.00077,   0.00177,475730901.23960,   0.00022,274886738.73026,   0.00023,  -0.00009,   0.00015,   0.00000,   2.00000
441281968.43614,40164071.02910,125035637.15479,   0.00217,  -0.00077,   0.00178,475722526.92873,   0.00023,274890492.24056,   0.00024,  -0.00009,   0.00016,  -0.00000,   2.00000
440235976.69335,39602183.45436,125940242.15689,   0.00217,  -0.00077,   0.00180,475733343.85986,   0.00023,274894278.74095,   0.00024,  -0.00010,   0.00016,   0.00000,   2.00000
439170760.75766,39023660.28161,126849419.98027,   0.00217,  -0.00078,   0.00181,475714884.30565,   0.00024,274897966.55787,   0.00024,  -0.00010,   0.00016,  -0.00000,   2.00000
438114025.63282,38466206.84751,127750575.96214,   0.00217,  -0.00078,   0.00183,475720978.25614,   0.00024,274901666.42013,   0.00025,  -0.00010,   0.00017,   0.00000,   2.00000
437045452.94537,37900793.68734,128652305.69486,   0.00217,  -0.00078,   0.00184,475717124.83504,   0.00024,274905333.55617,   0.00025,  -0.00010,   0.00017,  -0.00000,   2.00000
435981405.58681,37356448.54494,129550526.27874,   0.00217,  -0.00078,   0.00186,475727770.65827,   0.00025,274909033.28772,   0.00025,  -0.00010,   0.00017,   0.00000,   2.00000
434914212.43158,36824377.94105,130449365.68467,   0.00216,  -0.00078,   0.00187,475723880.39721,   0.00025,274912700.05951,   0.00026,  -0.00010,   0.00018,   0.00000,   2.00000
433835032.27230,36284276.44061,131348811.79136,   0.00216,  -0.00078,   0.00189,475720100.31832,   0.00025,274916334.50529,   0.00026,  -0.00010,   0.00018,   0.00000,   2.00000
432764615.17895,35765174.57631,132240348.23627,   0.00216,  -0.00079,   0.00190,475725827.73877,   0.00026,274919979.52927,   0.00026,  -0.00011,   0.00018,  -0.00000,   2.00000
431674223.04726,35229194.21566,133136722.83282,   0.00216,  -0.00079,   0.00192,475707629.88582,   0.00026,274923527.34614,   0.00027,  -0.00011,   0.00018,   0.00000,   2.00000
430588459.46327,34714234.78375,134029607.08729,   0.00216,  -0.00079,   0.00193,475718088.96519,   0.00026,274927107.42862,   0.00027,  -0.00011,   0.00019,  -0.00000,   2.00000
429507405.73160,34220273.75250,134919001.10025,   0.00216,  -0.00079,   0.00194,475728511.81802,   0.00027,274930719.45789,   0.00027,  -0.00011,   0.00019,   0.00000,   2.00000
428418392.71067,33718122.89405,135804762.51153,   0.00216,  -0.00079,   0.00196,475719813.88591,   0.00027,274934277.10710,   0.00028,  -0.00011,   0.00019,   0.00000,   2.00000
427325991.73174,33228101.96342,136691303.58675,   0.00216,  -0.00079,   0.00197,475715867.45965,   0.00027,274937802.00513,   0.00028,  -0.00011,   0.00020,   0.00000,   2.00000
426230134.78563,32750180.31337,137578637.76464,   0.00216,  -0.00080,   0.00199,475711932.22308,   0.00027,274941294.31777,   0.00028,  -0.00011,   0.00020,   0.00000,   2.00000
425134483.74111,32272864.80852,138458176.81059,   0.00216,  -0.00080,   0.00200,475717332.46633,   0.00028,274944796.29394,   0.00029,  -0.00011,   0.00020,  -0.00000,   2.00000
424031058.53611,31807681.65420,139342808.15495,   0.00216,  -0.00080,   0.00202,475718461.28253,   0.00028,274948288.60370,   0.00029,  -0.00012,   0.00021,   0.00000,   2.00000
422923760.17793,31334118.44642,140219744.01360,   0.00215,  -0.00080,   0.00203,475704549.98810,   0.00028,274951703.37662,   0.00029,  -0.00012,   0.00021,  -0.00000,   2.00000
421817059.92095,30881566.33333,141097465.45525,   0.00215,  -0.00080,   0.00205,475719787.92889,   0.00029,274955172.55501,   0.00029,  -0.00012,   0.00021,  -0.00000,   2.00000
420711067.52136,30440935.50830,141971879.71253,   0.00215,  -0.00080,   0.00206,475710673.36299,   0.00029,274958585.88182,   0.00030,  -0.00012,   0.00022,   0.00000,   2.00000
419601137.17627,30000925.85524,142842785.26898,   0.00215,  -0.00080,   0.00208,475720969.94627,   0.00029,274962031.30017,   0.00030,  -0.00012,   0.00022,  -0.00000,   2.00000
418487544.12869,29572885.26993,143714621.45611,   0.00215,  -0.00080,   0.00209,475717024.17259,   0.00030,274965444.28564,   0.00030,  -0.00012,   0.00022,   0.00000,   2.00000
417365654.35392,29136423.39019,144583176.89214,   0.00215,  -0.00081,   0.00210,475708099.24676,   0.00030,274968802.45879,   0.00031,  -0.00012,   0.00022,  -0.00000,   2.00000
416248812.29844,28720847.66764,145448318.88262,   0.00215,  -0.00081,   0.00212,475718027.49504,   0.00030,274972191.28923,   0.00031,  -0.00013,   0.00023,   0.00000,   2.00000
415132591.75935,28317080.40232,146310360.98522,   0.00214,  -0.00081,   0.00213,475708713.47207,   0.00031,274975523.57964,   0.00031,  -0.00013,   0.00023,   0.00000,   2.00000
414012545.23449,27925193.46017,147173434.17671,   0.00214,  -0.00081,   0.00215,475704699.29476,   0.00031,274978823.53092,   0.00031,  -0.00013,   0.00023,   0.00000,   2.00000
412888651.63430,27533860.24811,148033007.79310,   0.00214,  -0.00081,   0.00216,475714832.49030,   0.00031,274982155.31243,   0.00032,  -0.00013,   0.00024,  -0.00000,   2.00000
411751881.02342,27134111.95515,148893512.36016,   0.00214,  -0.00081,   0.00218,475711229.87454,   0.00032,274985456.60822,   0.00032,  -0.00013,   0.00024,   0.00000,   2.00000
410633701.91793,26775354.92240,149746708.52633,   0.00214,  -0.00081,   0.00219,475715196.15576,   0.00032,274988761.77601,   0.00032,  -0.00013,   0.00024,   0.00000,   2.00000
409498064.22334,26387737.75441,150596771.45765,   0.00214,  -0.00081,   0.00220,475706417.92681,   0.00032,274992013.08779,   0.00032,  -0.00013,   0.00025,   0.00000,   2.00000
408367408.56051,26032213.60926,151448077.18547,   0.00213,  -0.00081,   0.00222,475702039.48032,   0.00032,274995230.66937,   0.00033,  -0.00013,   0.00025,   0.00000,   2.00000
407233002.08612,25677195.31545,152295897.05232,   0.00213,  -0.00081,   0.00223,475712028.05050,   0.00033,274998479.77734,   0.00033,  -0.00013,   0.00025,   0.00000,   2.00000
406103901.22577,25342954.68261,153140348.95476,   0.00213,  -0.00081,   0.00225,475721636.05160,   0.00033,275001758.53527,   0.00033,  -0.00014,   0.00026,  -0.00000,   2.00000
404965755.93352,25011313.78663,153986545.83408,   0.00213,  -0.00081,   0.00226,475698537.91517,   0.00033,275004918.49598,   0.00034,  -0.00014,   0.00026,  -0.00000,   2.00000
403837933.87294,24689026.25323,154820841.26464,   0.00213,  -0.00081,   0.00227,475716276.88651,   0.00034,275008145.37261,   0.00034,  -0.00014,   0.00026,   0.00000,   2.00000
402696400.26557,24369432.15772,155660889.83425,   0.00213,  -0.00081,   0.00229,475698799.22875,   0.00034,275011279.10406,   0.00034,  -0.00014,   0.00026,  -0.00000,   2.00000
401551197.90768,24050296.58011,156497461.35121,   0.00212,  -0.00081,   0.00230,475708657.46024,   0.00034,275014444.13094,   0.00034,  -0.00014,   0.00027,   0.00000,   2.00000
400411406.35504,23751889.47245,157330689.61040,   0.00212,  -0.00081,   0.00232,475718099.64466,   0.00034,275017638.41497,   0.00035,  -0.00014,   0.00027,   0.00000,   2.00000
399276438.67064,23464857.06122,158157518.68655,   0.00212,  -0.00081,   0.00233,475702602.96164,   0.00035,275020748.58300,   0.00035,  -0.00014,   0.00027,   0.00000,   2.00000
398123523.90849,23169354.87821,158989275.52758,   0.00212,  -0.00082,   0.00234,475704829.85915,   0.00035,275023855.48764,   0.00035,  -0.00014,   0.00028,  -0.00000,   2.00000
396980635.96258,22894395.38813,159813923.48787,   0.00211,  -0.00082,   0.00236,475708345.06510,   0.00035,275026964.97151,   0.00035,  -0.00015,   0.00028,   0.00000,   2.00000
395847862.36278,22639948.78932,160631515.61351,   0.00211,  -0.00082,   0.00237,475711734.13346,   0.00036,275030076.42779,   0.00036,  -0.00015,   0.00028,  -0.00000,   2.00000
394710670.03582,22397097.80610,161450436.11930,   0.00211,  -0.00082,   0.00238,475707727.98386,   0.00036,275033156.22985,   0.00036,  -0.00015,   0.00029,   0.00000,   2.00000
393559922.13335,22145559.09437,162270519.20578,   0.00211,  -0.00082,   0.00240,475704229.31754,   0.00036,275036206.82467,   0.00036,  -0.00015,   0.00029,   0.00000,   2.00000
392410287.83684,21894229.41915,163083444.03209,   0.00211,  -0.00082,   0.00241,475707933.47836,   0.00036,275039261.07831,   0.00036,  -0.00015,   0.00029,   0.00000,   2.00000
391279953.75645,21683636.25895,163889586.99852,   0.00210,  -0.00082,   0.00243,475710596.07453,   0.00037,275042314.19950,   0.00037,  -0.00015,   0.00030,   0.00000,   2.00000
390135993.52021,21464306.61436,164696955.92634,   0.00210,  -0.00082,   0.00244,475707065.93638,   0.00037,275045338.03252,   0.00037,  -0.00015,   0.00030,  -0.00000,   2.00000
388978318.67145,21236249.94976,165505537.46350,   0.00210,  -0.00081,   0.00245,475703603.49894,   0.00037,275048333.01602,   0.00037,  -0.00015,   0.00030,   0.00000,   2.00000
387830930.17840,21028627.74102,166307229.24553,   0.00210,  -0.00081,   0.00247,475706596.32150,   0.00038,275051328.62514,   0.00037,  -0.00015,   0.00030,   0.00000,   2.00000
386693903.52329,20841411.27818,167102082.84502,   0.00209,  -0.00081,   0.00248,475709471.65777,   0.00038,275054324.30143,   0.00037,  -0.00016,   0.00031,   0.00000,   2.00000
385552144.47657,20665686.91950,167898382.84247,   0.00209,  -0.00081,   0.00249,475705499.21621,   0.00038,275057288.86186,   0.00038,  -0.00016,   0.00031,  -0.00000,   2.00000
384396499.18421,20481174.91099,168695941.59399,   0.00209,  -0.00081,   0.00251,475702071.47826,   0.00038,275060224.92595,   0.00038,  -0.00016,   0.00031,   0.00000,   2.00000
383251241.16180,20317034.09584,169486714.80991,   0.00209,  -0.00081,   0.00252,475704821.89278,   0.00039,275063160.73099,   0.00038,  -0.00016,   0.00032,   0.00000,   2.00000
382116439.56002,20173236.51618,170270752.80910,   0.00208,  -0.00081,   0.00253,475707460.08341,   0.00039,275066095.74682,   0.00038,  -0.00016,   0.00032,   0.00000,   2.00000
380967669.06675,20020609.04182,171056103.87301,   0.00208,  -0.00081,   0.00255,475704015.12057,   0.00039,275069002.26939,   0.00039,  -0.00016,   0.00032,   0.00000,   2.00000
379829400.29998,19888307.05187,171834768.56748,   0.00208,  -0.00081,   0.00256,475706544.68453,   0.00039,275071907.62563,   0.00039,  -0.00016,   0.00033,   0.00000,   2.00000
378696988.27743,19776486.67991,172610236.57871,   0.00207,  -0.00081,   0.00257,475715289.51719,   0.00040,275074840.13224,   0.00039,  -0.00016,   0.00033,   0.00000,   2.00000
377555213.99375,19655613.09146,173383613.42997,   0.00207,  -0.00081,   0.00259,475705565.53213,   0.00040,275077715.48563,   0.00039,  -0.00016,   0.00033,  -0.00000,   2.00000
376408353.65876,19546147.30594,174158521.25189,   0.00207,  -0.00081,   0.00260,475701684.49297,   0.00040,275080560.56288,   0.00039,  -0.00016,   0.00033,   0.00000,   2.00000
375263008.53914,19436683.44742,174926651.99732,   0.00207,  -0.00081,   0.00261,475704497.43236,   0.00040,275083406.01599,   0.00040,  -0.00017,   0.00034,   0.00000,   2.00000
374137358.53605,19367750.16991,175688424.99586,   0.00206,  -0.00081,   0.00263,475706222.08132,   0.00041,275086246.84598,   0.00040,  -0.00017,   0.00034,  -0.00000,   2.00000
373008604.58297,19298952.66000,176446852.65020,   0.00206,  -0.00081,   0.00264,475715292.51183,   0.00041,275089116.58296,   0.00040,  -0.00017,   0.00034,   0.00000,   2.00000
371865591.77390,19221237.12056,177206669.74851,   0.00206,  -0.00081,   0.00265,475711947.23397,   0.00041,275091958.46216,   0.00040,  -0.00017,   0.00035,   0.00000,   2.00000
370726776.68822,19154507.26483,177961452.02996,   0.00205,  -0.00080,   0.00266,475695144.96636,   0.00042,275094711.17946,   0.00040,  -0.00017,   0.00035,   0.00000,   2.00000
369589167.06524,19108363.42307,178716363.80644,   0.00205,  -0.00080,   0.00268,475710182.59693,   0.00042,275097520.43107,   0.00041,  -0.00017,   0.00035,   0.00000,   2.00000
368467036.02772,19082217.12097,179461576.26353,   0.00205,  -0.00080,   0.00269,475705623.94754,   0.00042,275100296.49630,   0.00041,  -0.00017,   0.00036,  -0.00000,   2.00000
367341895.11367,19056151.00905,180203472.46323,   0.00205,  -0.00080,   0.00270,475714544.09580,   0.00042,275103101.05825,   0.00041,  -0.00017,   0.00036,   0.00000,   2.00000
366216105.36703,19041203.97221,180943782.15064,   0.00204,  -0.00080,   0.00271,475704130.14856,   0.00043,275105845.69719,   0.00041,  -0.00017,   0.00036,   0.00000,   2.00000
365096357.92342,19046589.70438,181680961.18253,   0.00204,  -0.00080,   0.00273,475712537.74363,   0.00043,275108616.61835,   0.00042,  -0.00017,   0.00037,  -0.00000,   2.00000
363978419.11627,19051829.01121,182411641.98787,   0.00204,  -0.00080,   0.00274,475714755.12830,   0.00043,275111385.42916,   0.00042,  -0.00017,   0.00037,  -0.00000,   2.00000
362854953.02760,19068345.20029,183143983.75856,   0.00203,  -0.00080,   0.00275,475710989.50950,   0.00043,275114124.79976,   0.00042,  -0.00018,   0.00037,   0.00000,   2.00000
361738097.42881,19084518.15099,183866736.55983,   0.00203,  -0.00080,   0.00277,475706385.05629,   0.00044,275116831.01914,   0.00042,  -0.00018,   0.00037,   0.00000,   2.00000
360624645.41704,19132231.99244,184591370.31382,   0.00203,  -0.00079,   0.00278,475702127.13301,   0.00044,275119505.79604,   0.00042,  -0.00018,   0.00038,   0.00000,   2.00000
359499248.90233,19159664.65478,185312526.63275,   0.00202,  -0.00079,   0.00279,475711339.52113,   0.00044,275122210.84627,   0.00042,  -0.00018,   0.00038,   0.00000,   2.00000
358393783.06288,19227462.37080,186027670.69346,   0.00202,  -0.00079,   0.00280,475712388.56201,   0.00044,275124908.69294,   0.00043,  -0.00018,   0.00038,   0.00000,   2.00000
357290255.84485,19295040.38847,186736484.24147,   0.00202,  -0.00079,   0.00281,475714254.94758,   0.00045,275127603.10145,   0.00043,  -0.00018,   0.00039,   0.00000,   2.00000
356180956.08389,19373844.49090,187447012.32592,   0.00201,  -0.00079,   0.00283,475710553.62704,   0.00045,275130268.62445,   0.00043,  -0.00018,   0.00039,   0.00000,   2.00000
355094631.64211,19481682.32726,188146626.08770,   0.00201,  -0.00079,   0.00284,475723771.47266,   0.00045,275132982.73445,   0.00043,  -0.00018,   0.00039,   0.00000,   2.00000
353986203.48355,19571274.61980,188849602.96335,   0.00201,  -0.00078,   0.00285,475701800.61317,   0.00045,275135584.29694,   0.00043,  -0.00018,   0.00040,   0.00000,   2.00000
352900872.97217,19689882.22692,189541728.18781,   0.00200,  -0.00078,   0.00286,475714798.49671,   0.00046,275138233.73129,   0.00044,  -0.00018,   0.00040,   0.00000,   2.00000
351800640.30931,19799404.03991,190235441.46724,   0.00200,  -0.00078,   0.00288,475711537.29043,   0.00046,275140856.45638,   0.00044,  -0.00018,   0.00040,   0.00000,   2.00000
350711436.32368,19928934.18157,190923152.73646,   0.00200,  -0.00078,   0.00289,475712665.21583,   0.00046,275143472.65548,   0.00044,  -0.00019,   0.00041,   0.00000,   2.00000
349628485.55882,20078613.38027,191607808.05302,   0.00199,  -0.00078,   0.00290,475720737.05724,   0.00046,275146114.11840,   0.00044,  -0.00019,   0.00041,   0.00000,   2.00000
348556603.14800,20248255.18761,192286504.07707,   0.00199,  -0.00077,   0.00291,475721800.06654,   0.00046,275148748.64498,   0.00044,  -0.00019,   0.00041,   0.00000,   2.00000
347474472.11898,20408614.94213,192963928.92857,   0.00199,  -0.00077,   0.00292,475711565.61504,   0.00047,275151324.56636,   0.00045,  -0.00019,   0.00041,   0.00000,   2.00000
346403414.62742,20588933.61387,193635455.86500,   0.00198,  -0.00077,   0.00293,475712495.38700,   0.00047,275153893.22792,   0.00045,  -0.00019,   0.00042,   0.00000,   2.00000
345329711.37006,20769065.14022,194303800.16517,   0.00198,  -0.00077,   0.00295,475720831.68192,   0.00047,275156488.56699,   0.00045,  -0.00019,   0.00042,   0.00000,   2.00000
344276060.75757,20989407.65216,194966437.73634,   0.00198,  -0.00077,   0.00296,475721343.46159,   0.00047,275159074.61714,   0.00045,  -0.00019,   0.00042,   0.00000,   2.00000
343212019.54909,21200449.15769,195627918.48199,   0.00197,  -0.00076,   0.00297,475711035.11647,   0.00048,275161601.88454,   0.00045,  -0.00019,   0.00043,   0.00000,   2.00000
342158003.23879,21420177.55022,196281419.17578,   0.00197,  -0.00076,   0.00298,475730724.33215,   0.00048,275164207.98290,   0.00045,  -0.00019,   0.00043,   0.00000,   2.00000
341102485.78190,21650894.91991,196933957.40789,   0.00197,  -0.00076,   0.00299,475720069.23254,   0.00048,275166753.59482,   0.00046,  -0.00019,   0.00043,   0.00000,   2.00000
340058113.92742,21901503.86607,197580736.60083,   0.00196,  -0.00076,   0.00300,475720759.70221,   0.00048,275169290.93722,   0.00046,  -0.00019,   0.00044,   0.00000,   2.00000
339016015.00544,22151707.84290,198221666.07681,   0.00196,  -0.00075,   0.00302,475721683.10056,   0.00049,275171821.11197,   0.00046,  -0.00019,   0.00044,   0.00000,   2.00000
337976344.61626,22433305.40889,198864527.54993,   0.00195,  -0.00075,   0.00303,475717961.61106,   0.00049,275174322.85946,   0.00046,  -0.00019,   0.00044,   0.00000,   2.00000
336942935.79783,22703064.44417,199496636.55032,   0.00195,  -0.00075,   0.00304,475730357.32259,   0.00049,275176870.14254,   0.00046,  -0.00020,   0.00045,  -0.00000,   2.00000
335916686.90709,23004095.53385,200128017.95425,   0.00195,  -0.00075,   0.00305,475719394.57619,   0.00049,275179355.72564,   0.00046,  -0.00020,   0.00045,  -0.00000,   2.00000
334892745.42875,23304680.77041,200753650.26708,   0.00194,  -0.00074,   0.00306,475720124.86811,   0.00050,275181833.45825,   0.00047,  -0.00020,   0.00045,   0.00000,   2.00000
333875189.61370,23625200.82940,201376288.70412,   0.00194,  -0.00074,   0.00307,475727914.10352,   0.00050,275184335.70982,   0.00047,  -0.00020,   0.00045,   0.00000,   2.00000
332859991.22609,23945254.14032,201993226.97338,   0.00194,  -0.00074,   0.00308,475728569.82690,   0.00050,275186829.67985,   0.00047,  -0.00020,   0.00046,   0.00000,   2.00000
331856013.37370,24285124.48977,202604596.79248,   0.00193,  -0.00074,   0.00309,475728937.90633,   0.00050,275189314.07455,   0.00047,  -0.00020,   0.00046,   0.00000,   2.00000
330858457.05132,24644875.13456,203212979.70748,   0.00193,  -0.00073,   0.00311,475736701.69332,   0.00050,275191822.82140,   0.00047,  -0.00020,   0.00046,  -0.00000,   2.00000
329854909.98569,24995245.09839,203818010.52344,   0.00193,  -0.00073,   0.00312,475718762.73122,   0.00051,275194238.01051,   0.00047,  -0.00020,   0.00047,  -0.00000,   2.00000
328871018.21029,25374281.49395,204415259.68787,   0.00192,  -0.00073,   0.00313,475737435.48677,   0.00051,275196727.85965,   0.00048,  -0.00020,   0.00047,   0.00000,   2.00000
327885075.59796,25764301.23206,205011826.54464,   0.00192,  -0.00072,   0.00314,475726746.87206,   0.00051,275199157.43840,   0.00048,  -0.00020,   0.00047,  -0.00000,   2.00000
326896759.41163,26153859.91104,205605340.78979,   0.00191,  -0.00072,   0.00315,475734616.25640,   0.00051,275201612.09207,   0.00048,  -0.00020,   0.00048,   0.00000,   2.00000
325937838.12033,26571898.90775,206186127.09650,   0.00191,  -0.00072,   0.00316,475738150.62859,   0.00052,275204071.81183,   0.00048,  -0.00020,   0.00048,   0.00000,   2.00000
324971962.13940,27000966.15629,206768753.14243,   0.00191,  -0.00071,   0.00317,475734989.37283,   0.00052,275206505.87599,   0.00048,  -0.00020,   0.00048,   0.00000,   2.00000
324008554.93567,27429485.66855,207345922.49451,   0.00190,  -0.00071,   0.00318,475735211.24028,   0.00052,275208929.91057,   0.00048,  -0.00020,   0.00049,   0.00000,   2.00000
323056377.76525,27877746.25478,207917702.14538,   0.00190,  -0.00071,   0.00319,475735296.32417,   0.00052,275211343.32207,   0.00048,  -0.00021,   0.00049,   0.00000,   2.00000
322110636.35559,28345748.11278,208486499.27092,   0.00190,  -0.00070,   0.00320,475742984.37216,   0.00052,275213781.00979,   0.00049,  -0.00021,   0.00049,   0.00000,   2.00000
321172187.43160,28813163.86175,209047542.89442,   0.00189,  -0.00070,   0.00321,475735440.68093,   0.00053,275216173.01772,   0.00049,  -0.00021,   0.00049,  -0.00000,   2.00000
320240192.24895,29300296.18871,209605623.22226,   0.00189,  -0.00070,   0.00322,475743074.15793,   0.00053,275218589.13888,   0.00049,  -0.00021,   0.00050,   0.00000,   2.00000
319310740.05647,29786840.81093,210158390.17448,   0.00189,  -0.00069,   0.00323,475743054.93579,   0.00053,275220994.16987,   0.00049,  -0.00021,   0.00050,  -0.00000,   2.00000
318392529.47459,30293088.16301,210705867.20406,   0.00188,  -0.00069,   0.00324,475742996.23197,   0.00053,275223387.96875,   0.00049,  -0.00021,   0.00050,   0.00000,   2.00000
317467010.38423,30810340.96260,211255144.76774,   0.00188,  -0.00069,   0.00325,475740086.75401,   0.00054,275225757.50739,   0.00049,  -0.00021,   0.00051,   0.98086,   1.00000
316562590.19344,31335677.50892,211792099.39475,   0.00187,  -0.00068,   0.00326,475742762.93961,   0.00054,275228128.50641,   0.00049,  -0.00021,   0.00051,   0.98019,   1.00000
315664633.71770,31880649.78892,212326092.21697,   0.00187,  -0.00068,   0.00327,475750371.43258,   0.00054,275230523.56960,   0.00050,  -0.00021,   0.00051,   0.99840,   1.00000
314777891.22839,32445283.00305,212854846.91215,   0.00187,  -0.00068,   0.00328,475750259.32100,   0.00054,275232907.16758,   0.00050,  -0.00021,   0.00052,   0.98726,   1.00000
313893743.38485,33009281.81520,213378445.61229,   0.00186,  -0.00067,   0.00329,475749980.70175,   0.00054,275235278.58856,   0.00050,  -0.00021,   0.00052,   0.97563,   1.00000
313020808.75945,33592937.13959,213896852.06917,   0.00186,  -0.00067,   0.00330,475749792.28145,   0.00055,275237638.29112,   0.00050,  -0.00021,   0.00052,   0.96460,   1.00000
312154309.66729,34196147.82550,214412270.36292,   0.00186,  -0.00067,   0.00331,475757441.80842,   0.00055,275240022.26686,   0.00050,  -0.00021,   0.00052,   0.98325,   1.00000
311295175.05467,34798798.17243,214920415.45245,   0.00185,  -0.00066,   0.00332,475749212.95133,   0.00055,275242357.57863,   0.00050,  -0.00021,   0.00053,   0.94230,   1.00000
310442475.95279,35420979.13168,215425580.25840,   0.00185,  -0.00066,   0.00333,475756831.22640,   0.00055,275244717.12136,   0.00050,  -0.00021,   0.00053,   0.96085,   1.00000
309592405.35586,36042498.07118,215925710.21273,   0.00184,  -0.00065,   0.00334,475756360.17463,   0.00055,275247063.68240,   0.00051,  -0.00021,   0.00053,   0.94922,   1.00000
308753511.01636,36683644.43288,216420713.06398,   0.00184,  -0.00065,   0.00335,475756098.10949,   0.00056,275249398.26945,   0.00051,  -0.00021,   0.00054,   0.93863,   1.00000
307939948.90363,37352914.82260,216905852.07570,   0.00184,  -0.00065,   0.00336,475766051.98194,   0.00056,275251767.77188,   0.00051,  -0.00022,   0.00054,   0.96623,   1.00000
307110107.04155,38012840.82267,217392890.71816,   0.00183,  -0.00064,   0.00337,475763197.85876,   0.00056,275254113.29698,   0.00051,  -0.00022,   0.00054,   0.94599,   1.00000
306296138.17327,38692538.37020,217872741.65830,   0.00183,  -0.00064,   0.00338,475754967.10897,   0.00056,275256410.28587,   0.00051,  -0.00022,   0.00055,   0.90665,   1.00000
305494369.96847,39379847.58633,218345021.21971,   0.00183,  -0.00063,   0.00339,475772383.09147,   0.00057,275258776.57415,   0.00051,  -0.00022,   0.00055,   0.96165,   1.00000
304703759.55652,40086737.12281,218812244.48048,   0.00182,  -0.00063,   0.00340,475772066.33599,   0.00057,275261130.50713,   0.00051,  -0.00022,   0.00055,   0.95127,   1.00000
303909925.57485,40804761.15304,219279141.30144,   0.00182,  -0.00063,   0.00341,475761676.17286,   0.00057,275263425.94471,   0.00052,  -0.00022,   0.00056,   0.90427,   1.00000
303133122.23796,41530513.70241,219736461.94455,   0.00182,  -0.00062,   0.00342,475770958.29651,   0.00057,275265753.36293,   0.00052,  -0.00022,   0.00056,   0.92943,   1.00000
302367426.03740,42275836.08824,220188757.51725,   0.00181,  -0.00062,   0.00342,475770601.14847,   0.00057,275268068.40013,   0.00052,  -0.00022,   0.00056,   0.91952,   1.00000
301608090.04484,43040470.90644,220638009.64789,   0.00181,  -0.00061,   0.00343,475778331.89864,   0.00058,275270408.19187,   0.00052,  -0.00022,   0.00057,   0.93936,   1.00000
300856135.48691,43804634.19801,221080505.26091,   0.00180,  -0.00061,   0.00344,475769416.47653,   0.00058,275272696.29275,   0.00052,  -0.00022,   0.00057,   0.89843,   1.00000
300125037.39910,44596441.59158,221515241.49914,   0.00180,  -0.00060,   0.00345,475787081.58094,   0.00058,275275054.80245,   0.00052,  -0.00022,   0.00057,   0.95491,   1.00000
299382098.71836,45379157.45839,221949965.33667,   0.00180,  -0.00060,   0.00346,475776252.94634,   0.00058,275277352.75691,   0.00052,  -0.00022,   0.00057,   0.90675,   1.00000
298664757.54356,46189747.47339,222374982.31506,   0.00179,  -0.00059,   0.00347,475785791.25379,   0.00058,275279683.79844,   0.00052,  -0.00022,   0.00058,   0.93355,   1.00000
297958432.44362,47019852.76597,222795010.69825,   0.00179,  -0.00059,   0.00348,475785454.98372,   0.00059,275282002.49112,   0.00053,  -0.00022,   0.00058,   0.92433,   1.00000
297254793.64506,47849206.83698,223210378.60844,   0.00179,  -0.00058,   0.00349,475784440.34823,   0.00059,275284305.78280,   0.00053,  -0.00022,   0.00058,   0.91274,   1.00000
296562137.02431,48698078.49554,223620774.35462,   0.00178,  -0.00058,   0.00349,475784082.70478,   0.00059,275286596.74741,   0.00053,  -0.00022,   0.00059,   0.90379,   1.00000
295867477.88874,49545842.47009,224028418.58761,   0.00178,  -0.00057,   0.00350,475791191.86422,   0.00059,275288909.66970,   0.00053,  -0.00022,   0.00059,   0.92198,   1.00000
295203173.31986,50421734.27405,224424548.13489,   0.00178,  -0.00057,   0.00351,475792420.41206,   0.00060,275291217.47242,   0.00053,  -0.00022,   0.00059,   0.91896,   1.00000
294530370.49116,51308490.67223,224822245.47376,   0.00177,  -0.00057,   0.00352,475790569.74913,   0.00060,275293506.06672,   0.00053,  -0.00022,   0.00060,   0.90479,   1.00000
293875006.55878,52202698.22582,225210677.46827,   0.00177,  -0.00056,   0.00353,475799166.14071,   0.00060,275295823.41175,   0.00053,  -0.00022,   0.00060,   0.92887,   1.00000
293245346.28760,53124572.24042,225589475.53632,   0.00177,  -0.00056,   0.00354,475808550.33336,   0.00060,275298172.96216,   0.00054,  -0.00023,   0.00060,   0.95637,   1.00000
292603553.00825,54037475.25578,225968433.80250,   0.00176,  -0.00055,   0.00354,475797707.11765,   0.00060,275300461.88807,   0.00054,  -0.00023,   0.00061,   0.90899,   1.00000
291972611.03264,54969854.74369,226342436.61917,   0.00176,  -0.00055,   0.00355,475797408.88427,   0.00061,275302738.78219,   0.00054,  -0.00023,   0.00061,   0.90092,   1.00000
291359226.68848,55909612.90578,226707287.71020,   0.00176,  -0.00054,   0.00356,475805766.98113,   0.00061,275305043.35104,   0.00054,  -0.00023,   0.00061,   0.92457,   1.00000
290756673.69233,56868827.68633,227067206.38209,   0.00175,  -0.00054,   0.00357,475805467.02766,   0.00061,275307335.78953,   0.00054,  -0.00023,   0.00062,   0.91661,   1.00000
290175193.89346,57855079.50757,227419264.59427,   0.00175,  -0.00053,   0.00358,475823095.45337,   0.00061,275309698.26053,   0.00054,  -0.00023,   0.00062,   0.97556,   1.00000
289586075.37467,58832952.86396,227769806.81645,   0.00175,  -0.00052,   0.00358,475803969.32500,   0.00061,275311962.09361,   0.00054,  -0.00023,   0.00062,   0.89767,   1.00000
289018037.65141,59837794.30192,228112468.67350,   0.00174,  -0.00052,   0.00359,475821589.57139,   0.00062,275314296.03169,   0.00054,  -0.00023,   0.00063,   0.95633,   1.00000
288457304.63858,60842392.11081,228449021.51021,   0.00174,  -0.00051,   0.00360,475811922.05104,   0.00062,275316574.77865,   0.00054,  -0.00023,   0.00063,   0.91378,   1.00000
287902639.81086,61865831.97701,228782330.22900,   0.00174,  -0.00051,   0.00361,475820065.36597,   0.00062,275318880.14231,   0.00055,  -0.00023,   0.00063,   0.93757,   1.00000
287365682.51648,62896486.27376,229106629.83792,   0.00173,  -0.00050,   0.00361,475828162.17399,   0.00062,275321211.77240,   0.00055,  -0.00023,   0.00063,   0.96155,   1.00000
286847392.87992,63966718.18248,229425358.09122,   0.00173,  -0.00050,   0.00362,475829284.08618,   0.00063,275323537.59202,   0.00055,  -0.00023,   0.00064,   0.95954,   1.00000
286323731.59699,65015928.13035,229740366.84313,   0.00173,  -0.00049,   0.00363,475826652.21986,   0.00063,275325840.45648,   0.00055,  -0.00023,   0.00064,   0.94329,   1.00000
285825815.71087,66092484.03067,230045792.24781,   0.00172,  -0.00049,   0.00363,475835922.09394,   0.00063,275328174.92776,   0.00055,  -0.00023,   0.00064,   0.97229,   1.00000
285323333.66013,67180455.35459,230350874.21427,   0.00172,  -0.00048,   0.00364,475826489.47660,   0.00063,275330455.26578,   0.00055,  -0.00023,   0.00065,   0.93057,   1.00000
284834000.45139,68274838.75963,230648654.53331,   0.00172,  -0.00048,   0.00365,475842857.29948,   0.00063,275332799.77580,   0.00055,  -0.00023,   0.00065,   0.98677,   1.00000
284374997.30047,69397174.72285,230935206.07857,   0.00171,  -0.00047,   0.00366,475843768.54458,   0.00064,275335137.41203,   0.00055,  -0.00023,   0.00065,   0.98438,   1.00000
283918600.78188,70518672.27317,231217507.30677,   0.00171,  -0.00046,   0.00366,475842310.69029,   0.00064,275337457.36989,   0.00056,  -0.00023,   0.00066,   0.97289,   1.00000
283468071.45467,71658736.16076,231496416.24952,   0.00171,  -0.00046,   0.00367,475850808.60281,   0.00064,275339805.26475,   0.00056,  -0.00023,   0.00066,   0.00000,   2.00000
283032569.41855,72818877.24244,231768711.13903,   0.00170,  -0.00045,   0.00368,475842469.58313,   0.00064,275342103.94293,   0.00056,  -0.00023,   0.00066,   0.96212,   1.00000
282610279.36595,73985198.33306,232033732.89642,   0.00170,  -0.00045,   0.00368,475858761.77097,   0.00064,275344466.26775,   0.00056,  -0.00023,   0.00067,  -0.00000,   2.00000
282190562.74630,75150663.31531,232294541.90439,   0.00170,  -0.00044,   0.00369,475857306.16616,   0.00065,275346810.78536,   0.00056,  -0.00023,   0.00067,   0.00000,   2.00000
281781205.73736,76335409.88574,232550317.75736,   0.00169,  -0.00044,   0.00370,475857495.53495,   0.00065,275349145.09054,   0.00056,  -0.00023,   0.00067,   0.00000,   2.00000
281397472.58922,77547176.65668,232796432.48461,   0.00169,  -0.00043,   0.00370,475866964.51372,   0.00065,275351511.62281,   0.00056,  -0.00023,   0.00068,  -0.00000,   2.00000
281016257.95363,78758067.05592,233038351.28534,   0.00169,  -0.00042,   0.00371,475865526.77050,   0.00065,275353860.38435,   0.00056,  -0.00023,   0.00068,   0.00000,   2.00000
280652929.06629,79975818.18877,233271514.12089,   0.00169,  -0.00042,   0.00372,475873207.92223,   0.00066,275356233.11371,   0.00056,  -0.00023,   0.00068,   0.00000,   2.00000
280307531.84726,81232873.25099,233498677.44248,   0.00168,  -0.00041,   0.00372,475875409.02216,   0.00066,275358604.63784,   0.00057,  -0.00023,   0.00069,  -0.00000,   2.00000
279956922.71408,82468960.36094,233722614.02598,   0.00168,  -0.00041,   0.00373,475872090.11365,   0.00066,275360949.76121,   0.00057,  -0.00023,   0.00069,   0.00000,   2.00000
279616480.37344,83724267.64287,233941452.25210,   0.00168,  -0.00040,   0.00374,475872493.11282,   0.00066,275363285.59753,   0.00057,  -0.00024,   0.00069,   0.00000,   2.00000
279301561.48079,85006402.39961,234150575.05024,   0.00167,  -0.00039,   0.00374,475882093.72146,   0.00066,275365654.16271,   0.00057,  -0.00024,   0.00070,   0.00000,   2.00000
278999946.27842,86294228.48735,234352468.11943,   0.00167,  -0.00039,   0.00375,475898316.27262,   0.00067,275368085.51109,   0.00057,  -0.00024,   0.00070,   0.00000,   2.00000
278712944.66833,87602220.87280,234547721.62460,   0.00167,  -0.00038,   0.00375,475890377.43480,   0.00067,275370469.05174,   0.00057,  -0.00024,   0.00070,   0.00000,   2.00000
278423790.11399,88908239.04942,234740321.92522,   0.00167,  -0.00037,   0.00376,475897524.19908,   0.00067,275372873.85427,   0.00057,  -0.00024,   0.00071,   0.00000,   2.00000
278164639.45166,90241999.83796,234921687.65902,   0.00166,  -0.00037,   0.00377,475898716.85295,   0.00067,275375272.62721,   0.00057,  -0.00024,   0.00071,  -0.00000,   2.00000
277903309.41131,91573724.38730,235100400.81158,   0.00166,  -0.00036,   0.00377,475905891.96112,   0.00068,275377692.68537,   0.00058,  -0.00024,   0.00071,   0.00000,   2.00000
277651866.33333,92924517.28437,235273872.41425,   0.00166,  -0.00036,   0.00378,475906734.40159,   0.00068,275380105.03299,   0.00058,  -0.00024,   0.00072,  -0.00000,   2.00000
277430311.92404,94302992.66111,235436055.68988,   0.00166,  -0.00035,   0.00378,475908078.07216,   0.00068,275382511.96925,   0.00058,  -0.00024,   0.00072,   0.00000,   2.00000
277214582.12632,95666819.31068,235592192.12201,   0.00165,  -0.00034,   0.00379,475921994.62246,   0.00068,275384970.82732,   0.00058,  -0.00024,   0.00073,  -0.00000,   2.00000
277000531.52984,97062178.30785,235746394.00247,   0.00165,  -0.00034,   0.00379,475916382.51950,   0.00068,275387392.34278,   0.00058,  -0.00024,   0.00073,   0.00000,   2.00000
276812440.20652,98451448.22975,235888601.26944,   0.00165,  -0.00033,   0.00380,475930608.27390,   0.00069,275389867.06895,   0.00058,  -0.00024,   0.00073,  -0.00000,   2.00000
276625872.51747,99872225.92419,236028777.11918,   0.00165,  -0.00032,   0.00380,475925239.54765,   0.00069,275392305.47591,   0.00058,  -0.00024,   0.00074,  -0.00000,   2.00000
276465311.83359,101286828.21088,236157021.82046,   0.00164,  -0.00032,   0.00381,475939363.41118,   0.00069,275394796.49617,   0.00058,  -0.00024,   0.00074,   0.00000,   2.00000
276298791.53027,102713024.76777,236284456.50154,   0.00164,  -0.00031,   0.00381,475931642.69792,   0.00069,275397240.41370,   0.00058,  -0.00024,   0.00074,  -0.00000,   2.00000
276157395.78302,104165440.47475,236401920.25430,   0.00164,  -0.00030,   0.00382,475941919.61591,   0.00070,275399719.35480,   0.00059,  -0.00024,   0.00075,  -0.00000,   2.00000
276033779.96614,105624133.46952,236510743.72886,   0.00164,  -0.00030,   0.00382,475949624.02762,   0.00070,275402221.42295,   0.00059,  -0.00024,   0.00075,   0.00000,   2.00000
275919607.31835,107101662.00611,236614101.40442,   0.00163,  -0.00029,   0.00383,475951121.10234,   0.00070,275404718.24918,   0.00059,  -0.00024,   0.00075,   0.00000,   2.00000
275818640.62037,108583969.57389,236710203.66345,   0.00163,  -0.00028,   0.00383,475967526.01267,   0.00070,275407277.64332,   0.00059,  -0.00024,   0.00076,  -0.00000,   2.00000
275731560.65288,110086482.45278,236799395.92649,   0.00163,  -0.00028,   0.00384,475960556.20790,   0.00070,275409792.99848,   0.00059,  -0.00024,   0.00076,   0.00000,   2.00000
275646571.90737,111587949.85380,236884486.06225,   0.00163,  -0.00027,   0.00384,475959429.76704,   0.00071,275412291.09523,   0.00059,  -0.00024,   0.00076,   0.00000,   2.00000
275574768.50434,113094041.60350,236962324.89835,   0.00163,  -0.00026,   0.00385,475975840.55793,   0.00071,275414851.69484,   0.00059,  -0.00024,   0.00077,   0.00000,   2.00000
275532355.43991,114627490.19202,237028658.69537,   0.00162,  -0.00026,   0.00385,475977931.29564,   0.00071,275417409.39935,   0.00059,  -0.00024,   0.00077,   0.00000,   2.00000
275487441.65835,116158302.12585,237092273.18808,   0.00162,  -0.00025,   0.00386,475985538.71384,   0.00071,275419989.27334,   0.00059,  -0.00024,   0.00078,   0.00000,   2.00000
275456176.96521,117709337.50782,237148862.71428,   0.00162,  -0.00024,   0.00386,475978901.78558,   0.00072,275422526.51913,   0.00060,  -0.00024,   0.00078,   0.00000,   2.00000
275445052.42538,119284421.52219,237196555.72841,   0.00162,  -0.00023,   0.00387,475998595.87890,   0.00072,275425140.82877,   0.00060,  -0.00024,   0.00078,   0.00000,   2.00000
275449020.54428,120847331.45238,237235860.22319,   0.00162,  -0.00023,   0.00387,475994699.45553,   0.00072,275427724.77162,   0.00060,  -0.00024,   0.00079,   0.00000,   2.00000
275457419.99345,122427139.15756,237270789.63203,   0.00161,  -0.00022,   0.00388,476005614.56789,   0.00072,275430345.66595,   0.00060,  -0.00024,   0.00079,   0.00000,   2.00000
275490359.71633,124032401.50424,237295384.25076,   0.00161,  -0.00021,   0.00388,476016890.41831,   0.00073,275433004.92583,   0.00060,  -0.00024,   0.00080,   0.00000,   2.00000
275525154.19104,125636464.08363,237315844.04880,   0.00161,  -0.00021,   0.00388,476016101.55543,   0.00073,275435647.66491,   0.00060,  -0.00024,   0.00080,   0.00000,   2.00000
275588904.28395,127267600.69553,237324545.69131,   0.00161,  -0.00020,   0.00389,476018878.63659,   0.00073,275438290.09394,   0.00060,  -0.00024,   0.00080,   0.00000,   2.00000
275649905.47971,128895744.54202,237330443.86104,   0.00161,  -0.00019,   0.00389,476026829.01684,   0.00073,275440955.64235,   0.00060,  -0.00024,   0.00081,   0.00000,   2.00000
275728361.39154,130529524.64092,237327667.58325,   0.00161,  -0.00018,   0.00390,476034954.67081,   0.00074,275443644.96510,   0.00061,  -0.00024,   0.00081,  -0.00000,   2.00000
275815416.54908,132181603.80714,237318927.72138,   0.00160,  -0.00018,   0.00390,476037825.25286,   0.00074,275446334.13400,   0.00061,  -0.00024,   0.00081,   0.00000,   2.00000
275919856.68849,133839220.19402,237301489.60075,   0.00160,  -0.00017,   0.00390,476046047.84307,   0.00074,275449047.34589,   0.00061,  -0.00024,   0.00082,   0.00000,   2.00000
276048428.18475,135521805.47533,237273472.46767,   0.00160,  -0.00016,   0.00391,476057981.22958,   0.00074,275451801.22378,   0.00061,  -0.00024,   0.00082,  -0.00000,   2.00000
276178627.87413,137203057.08934,237241268.00771,   0.00160,  -0.00015,   0.00391,476057500.71906,   0.00075,275454539.42491,   0.00061,  -0.00024,   0.00083,   0.00000,   2.00000
276310459.57969,138882999.71727,237204887.31270,   0.00160,  -0.00015,   0.00391,476056993.59448,   0.00075,275457261.90586,   0.00061,  -0.00024,   0.00083,  -0.00000,   2.00000
276481918.56743,140594395.29928,237153288.84499,   0.00160,  -0.00014,   0.00392,476078025.35372,   0.00075,275460066.00145,   0.00061,  -0.00024,   0.00084,  -0.00000,   2.00000
276634718.33874,142295741.57103,237103368.77041,   0.00159,  -0.00013,   0.00392,476077508.08027,   0.00075,275462853.98139,   0.00061,  -0.00024,   0.00084,   0.00000,   2.00000
276831534.70404,144030329.97335,237036790.77502,   0.00159,  -0.00012,   0.00392,476090134.93766,   0.00076,275465685.20886,   0.00061,  -0.00024,   0.00084,   0.00000,   2.00000
277029798.81790,145763468.61700,236965976.50107,   0.00159,  -0.00012,   0.00393,476089911.40981,   0.00076,275468501.46745,   0.00062,  -0.00024,   0.00085,   0.00000,   2.00000
277229513.60647,147495180.95577,236890935.08348,   0.00159,  -0.00011,   0.00393,476089665.32617,   0.00076,275471302.72831,   0.00062,  -0.00024,   0.00085,   0.00000,   2.00000
277448308.29729,149249131.60232,236806358.45018,   0.00159,  -0.00010,   0.00393,476111077.41946,   0.00076,275474186.67104,   0.00062,  -0.00024,   0.00086,   0.00000,   2.00000
277688650.07870,151010214.94988,236711626.89896,   0.00159,  -0.00009,   0.00394,476111189.74658,   0.00077,275477056.85098,   0.00062,  -0.00024,   0.00086,   0.00000,   2.00000
277936782.74985,152788993.09465,236610449.89334,   0.00159,  -0.00009,   0.00394,476115379.20434,   0.00077,275479931.68175,   0.00062,  -0.00024,   0.00086,  -0.00000,   2.00000
278197281.76125,154570421.09191,236501789.41131,   0.00159,  -0.00008,   0.00394,476132925.75736,   0.00077,275482871.24951,   0.00062,  -0.00024,   0.00087,   0.00000,   2.00000
278479199.82302,156358892.16791,236382934.36776,   0.00159,  -0.00007,   0.00395,476133227.21932,   0.00077,275485797.57849,   0.00062,  -0.00024,   0.00087,   0.00000,   2.00000
278764150.40261,158162599.72344,236258878.05381,   0.00158,  -0.00006,   0.00395,476146415.98553,   0.00078,275488768.68054,   0.00062,  -0.00024,   0.00088,  -0.00000,   2.00000
279065872.04349,159970963.47776,236125945.08420,   0.00158,  -0.00006,   0.00395,476155528.10117,   0.00078,275491765.96083,   0.00063,  -0.00024,   0.00088,  -0.00000,   2.00000
279379550.89266,161799021.72705,235984971.69434,   0.00158,  -0.00005,   0.00395,476151735.92659,   0.00078,275494731.26479,   0.00063,  -0.00024,   0.00089,   0.00000,   2.00000
279699085.23059,163610245.02726,235838820.15368,   0.00158,  -0.00004,   0.00396,476164981.68246,   0.00079,275497741.28030,   0.00063,  -0.00024,   0.00089,   0.00000,   2.00000
280047744.42426,165463940.58350,235679003.44509,   0.00158,  -0.00003,   0.00396,476183551.53353,   0.00079,275500819.60097,   0.00063,  -0.00024,   0.00090,   0.00000,   2.00000
280395692.22840,167299271.80370,235515811.49914,   0.00158,  -0.00002,   0.00396,476170784.34127,   0.00079,275503825.26104,   0.00063,  -0.00024,   0.00090,   0.00000,   2.00000
280761801.30097,169155450.29961,235342631.41720,   0.00158,  -0.00002,   0.00396,476193543.78360,   0.00079,275506917.92754,   0.00063,  -0.00024,   0.00090,   0.00000,   2.00000
281128799.41196,171009761.26451,235165039.01620,   0.00158,  -0.00001,   0.00397,476194181.04504,   0.00080,275509997.96114,   0.00063,  -0.00024,   0.00091,   0.00000,   2.00000
281533872.33444,172893202.60592,234971405.59957,   0.00158,  -0.00000,   0.00397,476217578.85998,   0.00080,275513167.32277,   0.00063,  -0.00024,   0.00091,   0.00000,   2.00000
281924142.50338,174768601.86818,234777865.87448,   0.00158,   0.00001,   0.00397,476209523.38194,   0.00080,275516284.70617,   0.00064,  -0.00024,   0.00092,   0.00000,   2.00000
282350816.03904,176656652.11363,234569338.41192,   0.00158,   0.00002,   0.00397,476219605.15000,   0.00081,275519431.50614,   0.00064,  -0.00024,   0.00092,  -0.00000,   2.00000
282779591.85025,178558812.66676,234355151.03195,   0.00158,   0.00002,   0.00397,476234190.60294,   0.00081,275522627.67024,   0.00064,  -0.00024,   0.00093,   0.00000,   2.00000
283224503.19743,180464819.98274,234131889.32577,   0.00158,   0.00003,   0.00398,476244185.47987,   0.00081,275525852.37438,   0.00064,  -0.00024,   0.00093,   0.00000,   2.00000
283669998.60583,182368713.11352,233904118.02304,   0.00158,   0.00004,   0.00398,476245281.42114,   0.00081,275529065.69573,   0.00064,  -0.00024,   0.00094,   0.00000,   2.00000
284126998.45052,184273656.87149,233668712.14771,   0.00158,   0.00005,   0.00398,476263891.59448,   0.00082,275532345.85588,   0.00064,  -0.00024,   0.00094,   0.00000,   2.00000
284610402.69658,186203548.18997,233420057.37894,   0.00158,   0.00006,   0.00398,476270869.08992,   0.00082,275535640.52353,   0.00064,  -0.00024,   0.00095,   0.00000,   2.00000
285094224.12914,188131184.59959,233166838.38722,   0.00158,   0.00006,   0.00398,476272216.37746,   0.00082,275538924.49852,   0.00064,  -0.00024,   0.00095,   0.00000,   2.00000
285599644.37385,190080786.78959,232901686.02620,   0.00157,   0.00007,   0.00398,476288063.12654,   0.00083,275542262.39646,   0.00065,  -0.00024,   0.00096,   0.00000,   2.00000
286120784.30536,192033718.38917,232627336.06499,   0.00157,   0.00008,   0.00399,476298627.05780,   0.00083,275545630.35042,   0.00065,  -0.00024,   0.00096,   0.00000,   2.00000
286642164.73844,193984241.64261,232348363.92144,   0.00157,   0.00009,   0.00399,476300240.71991,   0.00083,275548988.34182,   0.00065,  -0.00023,   0.00097,  -0.00000,   2.00000
287174605.04464,195935101.01588,232061677.46449,   0.00157,   0.00010,   0.00399,476319380.78944,   0.00084,275552414.34245,   0.00065,  -0.00023,   0.00097,  -0.00000,   2.00000
287732786.90628,197910287.68074,231761381.97741,   0.00157,   0.00011,   0.00399,476327399.64184,   0.00084,275555858.47213,   0.00065,  -0.00023,   0.00098,   0.00000,   2.00000
288291022.40046,199882899.48619,231456403.30748,   0.00157,   0.00011,   0.00399,476329294.10197,   0.00084,275559293.40785,   0.00065,  -0.00023,   0.00098,  -0.00000,   2.00000
288865569.23031,201873665.31610,231140690.29451,   0.00158,   0.00012,   0.00399,476354611.06854,   0.00085,275562823.10566,   0.00065,  -0.00023,   0.00099,   0.00000,   2.00000
289454506.97459,203852009.85194,230817138.85822,   0.00158,   0.00013,   0.00399,476351431.75957,   0.00085,275566320.60438,   0.00066,  -0.00023,   0.00099,   0.00000,   2.00000
290044207.03909,205842767.18575,230487396.37548,   0.00158,   0.00014,   0.00399,476367920.15561,   0.00085,275569873.22615,   0.00066,  -0.00023,   0.00100,   0.00000,   2.00000
290653661.30195,207839192.07253,230146779.07826,   0.00158,   0.00015,   0.00400,476370820.47514,   0.00086,275573420.42209,   0.00066,  -0.00023,   0.00100,   0.00000,   2.00000
291278920.26477,209853059.18622,229795271.67143,   0.00158,   0.00016,   0.00400,476396775.51635,   0.00086,275577064.20100,   0.00066,  -0.00023,   0.00101,   0.00000,   2.00000
291903153.54099,211849124.09997,229440526.80574,   0.00158,   0.00016,   0.00400,476384677.23745,   0.00086,275580635.69926,   0.00066,  -0.00023,   0.00101,   0.00000,   2.00000
292542996.42174,213862341.72099,229074845.77518,   0.00158,   0.00017,   0.00400,476410847.54673,   0.00087,275584304.40221,   0.00066,  -0.00023,   0.00102,   0.00000,   2.00000
293202849.17540,215895593.55507,228696569.90306,   0.00158,   0.00018,   0.00400,476428964.42357,   0.00087,275588034.10366,   0.00066,  -0.00023,   0.00102,   0.00000,   2.00000
293861597.85795,217911076.73684,228315044.39459,   0.00158,   0.00019,   0.00400,476417031.75613,   0.00087,275591691.84302,   0.00067,  -0.00023,   0.00103,   0.00000,   2.00000
294550714.25647,219948235.36985,227917842.92034,   0.00158,   0.00020,   0.00400,476452937.24749,   0.00088,275595488.88531,   0.00067,  -0.00023,   0.00104,   0.00000,   2.00000
295223983.58799,221977037.65163,227520384.08692,   0.00158,   0.00021,   0.00400,476446712.15965,   0.00088,275599238.78698,   0.00067,  -0.00023,   0.00104,   0.00000,   2.00000
295926885.85490,224012643.29497,227108822.48337,   0.00158,   0.00021,   0.00400,476468128.77413,   0.00088,275603063.44127,   0.00067,  -0.00023,   0.00105,  -0.00000,   2.00000
296633993.14928,226062485.61232,226689051.65784,   0.00158,   0.00022,   0.00400,476477899.52744,   0.00089,275606911.12416,   0.00067,  -0.00023,   0.00105,   0.00000,   2.00000
297350400.50733,228096255.44168,226263083.99059,   0.00158,   0.00023,   0.00400,476483700.72944,   0.00089,275610764.22782,   0.00067,  -0.00023,   0.00106,   0.00000,   2.00000
298085907.84160,230148968.02361,225824219.08940,   0.00158,   0.00024,   0.00400,476502998.05338,   0.00089,275614681.90749,   0.00068,  -0.00023,   0.00106,  -0.00000,   2.00000
298820406.48646,232198088.53511,225380409.30585,   0.00158,   0.00025,   0.00400,476506444.30182,   0.00090,275618594.19841,   0.00068,  -0.00022,   0.00107,   0.00000,   2.00000
299573687.84638,234265761.12807,224923578.23382,   0.00158,   0.00026,   0.00400,476526177.67465,   0.00090,275622572.45219,   0.00068,  -0.00022,   0.00108,  -0.00000,   2.00000
300340775.79323,236334389.53444,224457107.18254,   0.00159,   0.00027,   0.00400,476539244.87218,   0.00090,275626587.01503,   0.00068,  -0.00022,   0.00108,   0.00000,   2.00000
301101914.17562,238381923.38758,223989125.34451,   0.00159,   0.00027,   0.00400,476535980.15301,   0.00091,275630566.19515,   0.00068,  -0.00022,   0.00109,   0.00000,   2.00000
301886090.21417,240464734.70809,223504491.35312,   0.00159,   0.00028,   0.00400,476563317.76511,   0.00091,275634643.89451,   0.00068,  -0.00022,   0.00109,   0.00000,   2.00000
302679145.20178,242530961.31934,223013699.91743,   0.00159,   0.00029,   0.00400,476569607.49943,   0.00092,275638727.53808,   0.00068,  -0.00022,   0.00110,   0.00000,   2.00000
303485655.59863,244597728.59747,222513242.42911,   0.00159,   0.00030,   0.00400,476583061.75752,   0.00092,275642848.29774,   0.00069,  -0.00022,   0.00111,  -0.00000,   2.00000
304290496.69391,246673819.12555,222005945.25719,   0.00159,   0.00031,   0.00400,476602652.90824,   0.00092,275647032.64683,   0.00069,  -0.00022,   0.00111,   0.00000,   2.00000
305113206.99876,248753762.07941,221487123.39702,   0.00159,   0.00032,   0.00400,476608329.98496,   0.00093,275651219.51356,   0.00069,  -0.00022,   0.00112,   0.00000,   2.00000
305949012.79127,250833807.60798,220958563.49925,   0.00159,   0.00033,   0.00400,476622235.83298,   0.00093,275655444.62950,   0.00069,  -0.00022,   0.00112,   0.00000,   2.00000
306778373.34221,252905802.30239,220426758.45912,   0.00160,   0.00034,   0.00400,476634818.26889,   0.00094,275659701.97607,   0.00069,  -0.00022,   0.00113,   0.00000,   2.00000
307629622.97341,254998157.07250,219879648.00224,   0.00160,   0.00034,   0.00400,476648458.17023,   0.00094,275663995.84032,   0.00069,  -0.00022,   0.00114,  -0.00000,   2.00000
308489360.44933,257073470.40601,219326471.59099,   0.00160,   0.00035,   0.00399,476655150.96981,   0.00094,275668295.81616,   0.00070,  -0.00021,   0.00114,   0.00000,   2.00000
309346632.68428,259157099.21720,218766325.72497,   0.00160,   0.00036,   0.00399,476675655.60603,   0.00095,275672661.67221,   0.00070,  -0.00021,   0.00115,   0.00000,   2.00000
310221132.24599,261243946.38946,218194471.14281,   0.00160,   0.00037,   0.00399,476682217.34070,   0.00095,275677032.54167,   0.00070,  -0.00021,   0.00116,   0.00000,   2.00000
311103401.03466,263326279.40241,217614731.40168,   0.00160,   0.00038,   0.00399,476704863.85579,   0.00096,275681477.90768,   0.00070,  -0.00021,   0.00116,   0.00000,   2.00000
312002009.40180,265424179.46822,217021348.27586,   0.00161,   0.00039,   0.00399,476727626.84883,   0.00096,275685997.69349,   0.00070,  -0.00021,   0.00117,   0.00000,   2.00000
312898844.65925,267504493.24840,216424666.02063,   0.00161,   0.00040,   0.00399,476717137.99090,   0.00096,275690447.88078,   0.00071,  -0.00021,   0.00118,   0.00000,   2.00000
313807049.25030,269596142.66682,215816253.65199,   0.00161,   0.00041,   0.00399,476748124.74109,   0.00097,275695007.64840,   0.00071,  -0.00021,   0.00118,   0.00000,   2.00000
314727162.78773,271686438.75249,215197979.97317,   0.00161,   0.00042,   0.00399,476763435.21638,   0.00097,275699608.69813,   0.00071,  -0.00021,   0.00119,   0.00000,   2.00000
315663717.74883,273779163.97836,214567812.10116,   0.00161,   0.00042,   0.00398,476771036.75258,   0.00098,275704217.51101,   0.00071,  -0.00021,   0.00120,   0.00000,   2.00000
316592794.52925,275862538.14654,213934471.17708,   0.00162,   0.00043,   0.00398,476784696.02141,   0.00098,275708860.03542,   0.00071,  -0.00020,   0.00120,  -0.00000,   2.00000
317533456.27053,277944179.23324,213291263.84355,   0.00162,   0.00044,   0.00398,476800345.03766,   0.00098,275713544.51443,   0.00071,  -0.00020,   0.00121,  -0.00000,   2.00000
318471204.63830,280020301.34138,212642860.90016,   0.00162,   0.00045,   0.00398,476806316.06331,   0.00099,275718229.13478,   0.00072,  -0.00020,   0.00122,   0.00000,   2.00000
319438240.45040,282113885.02672,211975890.97353,   0.00162,   0.00046,   0.00398,476840498.65861,   0.00099,275723034.55836,   0.00072,  -0.00020,   0.00122,   0.00000,   2.00000
320402043.71800,284201601.56245,211303677.80938,   0.00162,   0.00047,   0.00398,476846885.70168,   0.00100,275727841.04791,   0.00072,  -0.00020,   0.00123,  -0.00000,   2.00000
321359135.33907,286267718.09195,210630295.45892,   0.00163,   0.00048,   0.00397,476844684.73231,   0.00100,275732611.89587,   0.00072,  -0.00020,   0.00124,  -0.00000,   2.00000
322344887.20269,288350499.41117,209938281.55469,   0.00163,   0.00049,   0.00397,476879501.10547,   0.00101,275737505.13835,   0.00072,  -0.00020,   0.00124,  -0.00000,   2.00000
323327162.72794,290427177.10161,209241030.79486,   0.00163,   0.00050,   0.00397,476886170.43400,   0.00101,275742399.94964,   0.00073,  -0.00019,   0.00125,   0.00000,   2.00000
324320079.08137,292501005.97119,208533872.24668,   0.00163,   0.00050,   0.00397,476902852.38144,   0.00102,275747338.85134,   0.00073,  -0.00019,   0.00126,  -0.00000,   2.00000
325312603.24446,294584002.44997,207817333.11922,   0.00164,   0.00051,   0.00397,476918565.59550,   0.00102,275752317.33783,   0.00073,  -0.00019,   0.00126,   0.00000,   2.00000
326321675.54068,296647405.82894,207092605.32572,   0.00164,   0.00052,   0.00396,476944295.86873,   0.00103,275757377.59872,   0.00073,  -0.00019,   0.00127,   0.00000,   2.00000
327331599.32728,298708536.48524,206360401.60391,   0.00164,   0.00053,   0.00396,476943819.46666,   0.00103,275762407.88578,   0.00073,  -0.00019,   0.00128,  -0.00000,   2.00000
328340692.10740,300778351.00139,205618773.01341,   0.00164,   0.00054,   0.00396,476960025.62435,   0.00103,275767478.95645,   0.00074,  -0.00019,   0.00129,   0.00000,   2.00000
329366020.00937,302828128.61589,204869097.83593,   0.00165,   0.00055,   0.00396,476985938.53217,   0.00104,275772631.50904,   0.00074,  -0.00019,   0.00129,   0.00000,   2.00000
330394851.12521,304890449.42332,204107651.37358,   0.00165,   0.00056,   0.00395,476995056.09643,   0.00104,275777793.93390,   0.00074,  -0.00018,   0.00130,   0.00000,   2.00000
331433297.45614,306948715.70364,203336294.34478,   0.00165,   0.00057,   0.00395,477012827.65092,   0.00105,275783002.56817,   0.00074,  -0.00018,   0.00131,   0.00000,   2.00000
332462704.52427,308995677.90649,202562101.51609,   0.00166,   0.00058,   0.00395,477027970.97916,   0.00105,275788245.98053,   0.00075,  -0.00018,   0.00132,   0.00000,   2.00000
333519969.67299,311045339.62674,201770958.25322,   0.00166,   0.00059,   0.00395,477048798.83481,   0.00106,275793547.68452,   0.00075,  -0.00018,   0.00132,   0.00000,   2.00000
334567946.54807,313083422.93844,200977043.13356,   0.00166,   0.00060,   0.00394,477064158.70481,   0.00106,275798884.26269,   0.00075,  -0.00018,   0.00133,   0.00000,   2.00000
335611301.72219,315114210.16645,200177953.45006,   0.00166,   0.00060,   0.00394,477072178.99910,   0.00107,275804224.62367,   0.00075,  -0.00018,   0.00134,   0.00000,   2.00000
336668321.33505,317144545.86612,199366545.25869,   0.00167,   0.00061,   0.00394,477083260.20911,   0.00107,275809581.44097,   0.00075,  -0.00017,   0.00135,   0.00000,   2.00000
337743094.80757,319168019.63267,198543146.16653,   0.00167,   0.00062,   0.00393,477119440.14883,   0.00108,275815059.45189,   0.00076,  -0.00017,   0.00135,   0.00000,   2.00000
338799290.40920,321181411.55451,197719264.67896,   0.00167,   0.00063,   0.00393,477117500.72635,   0.00108,275820498.56873,   0.00076,  -0.00017,   0.00136,  -0.00000,   2.00000
339882246.51156,323196266.53935,196878376.96409,   0.00168,   0.00064,   0.00393,477139484.84243,   0.00109,275825998.67096,   0.00076,  -0.00017,   0.00137,   0.00000,   2.00000
340957630.33184,325213086.37135,196030536.27209,   0.00168,   0.00065,   0.00392,477165162.28643,   0.00109,275831574.61434,   0.00076,  -0.00017,   0.00138,   0.00000,   2.00000
342038911.61512,327209969.56881,195177322.38870,   0.00168,   0.00066,   0.00392,477174529.37705,   0.00110,275837157.97278,   0.00077,  -0.00016,   0.00138,   0.00000,   2.00000
343114854.67379,329198854.70244,194319021.99512,   0.00169,   0.00067,   0.00392,477183327.68560,   0.00110,275842746.26459,   0.00077,  -0.00016,   0.00139,  -0.00000,   2.00000
344214201.06045,331197831.26035,193441931.06353,   0.00169,   0.00068,   0.00391,477223271.34605,   0.00111,275848468.36338,   0.00077,  -0.00016,   0.00140,  -0.00000,   2.00000
345292502.95726,333172492.02708,192568841.67581,   0.00169,   0.00069,   0.00391,477211853.67981,   0.00111,275854110.73834,   0.00077,  -0.00016,   0.00141,  -0.00000,   2.00000
346393723.76554,335156639.36833,191676989.04829,   0.00170,   0.00070,   0.00391,477252227.99612,   0.00112,275859887.79592,   0.00078,  -0.00015,   0.00142,   0.00000,   2.00000
347487157.93040,337118490.15734,190784556.69579,   0.00170,   0.00070,   0.00390,477251427.36037,   0.00113,275865628.64194,   0.00078,  -0.00015,   0.00142,   0.00000,   2.00000
348587932.97844,339073691.58401,189882498.14792,   0.00171,   0.00071,   0.00390,477271388.22031,   0.00113,275871418.95121,   0.00078,  -0.00015,   0.00143,  -0.00000,   2.00000
349697613.61668,341035566.94125,188966356.05533,   0.00171,   0.00072,   0.00390,477301890.60180,   0.00114,275877301.55247,   0.00078,  -0.00015,   0.00144,   0.00000,   2.00000
350799393.27699,342975093.34146,188049723.95946,   0.00171,   0.00073,   0.00389,477301236.66117,   0.00114,275883147.80676,   0.00079,  -0.00015,   0.00145,   0.00000,   2.00000
351909672.62002,344920809.01067,187119044.10275,   0.00172,   0.00074,   0.00389,477332111.99156,   0.00115,275889087.06873,   0.00079,  -0.00014,   0.00146,   0.00000,   2.00000
353020374.51600,346841220.59024,186186206.35594,   0.00172,   0.00075,   0.00388,477349108.25026,   0.00115,275895061.79959,   0.00079,  -0.00014,   0.00146,   0.00000,   2.00000
354143684.85195,348771774.47039,185236497.87998,   0.00172,   0.00076,   0.00388,477373652.60558,   0.00116,275901102.37839,   0.00079,  -0.00014,   0.00147,   0.00000,   2.00000
355258897.59439,350679874.30770,184286426.51492,   0.00173,   0.00077,   0.00388,477373239.44988,   0.00116,275907106.48430,   0.00080,  -0.00014,   0.00148,   0.00000,   2.00000
356362931.46082,352574219.75472,183334470.61736,   0.00173,   0.00078,   0.00387,477390077.77451,   0.00117,275913144.59189,   0.00080,  -0.00013,   0.00149,   0.00000,   2.00000
357491753.28968,354479313.42032,182361060.02868,   0.00174,   0.00079,   0.00387,477426131.98022,   0.00118,275919294.31141,   0.00080,  -0.00013,   0.00150,   0.00000,   2.00000
358612353.78250,356361895.54741,181387385.37467,   0.00174,   0.00079,   0.00386,477425879.07033,   0.00118,275925407.43492,   0.00080,  -0.00013,   0.00150,   0.00000,   2.00000
359734129.81773,358231528.38986,180407429.38571,   0.00175,   0.00080,   0.00386,477453915.53378,   0.00119,275931598.74327,   0.00081,  -0.00012,   0.00151,  -0.00000,   2.00000
360854488.09663,360108688.16125,179415171.17187,   0.00175,   0.00081,   0.00385,477468904.49831,   0.00119,275937814.72270,   0.00081,  -0.00012,   0.00152,   0.00000,   2.00000
361974637.99146,361959834.42241,178421292.13909,   0.00175,   0.00082,   0.00385,477486260.74888,   0.00120,275944064.69394,   0.00081,  -0.00012,   0.00153,  -0.00000,   2.00000
363100078.25915,363802070.01902,177418242.49285,   0.00176,   0.00083,   0.00384,477508095.23338,   0.00120,275950366.31453,   0.00082,  -0.00012,   0.00154,   0.00000,   2.00000
364222670.66291,365638869.31718,176407445.85794,   0.00176,   0.00084,   0.00384,477512568.74547,   0.00121,275956649.24641,   0.00082,  -0.00011,   0.00155,   0.00000,   2.00000
365358107.65884,367462643.29638,175386187.67570,   0.00177,   0.00085,   0.00383,477552241.01008,   0.00122,275963054.80843,   0.00082,  -0.00011,   0.00155,   0.00000,   2.00000
366473516.26972,369275438.82822,174364916.80148,   0.00177,   0.00086,   0.00383,477552314.43566,   0.00122,275969423.32780,   0.00082,  -0.00011,   0.00156,   0.00000,   2.00000
367610429.42877,371083873.71649,173326912.24009,   0.00178,   0.00087,   0.00383,477579508.61383,   0.00123,275975863.36524,   0.00083,  -0.00010,   0.00157,  -0.00000,   2.00000
368734945.18038,372877282.40121,172287687.30821,   0.00178,   0.00088,   0.00382,477597277.41863,   0.00123,275982336.68583,   0.00083,  -0.00010,   0.00158,  -0.00000,   2.00000
369851566.05013,374660208.41598,171244043.03701,   0.00179,   0.00089,   0.00381,477608739.99215,   0.00124,275988817.81793,   0.00083,  -0.00010,   0.00159,   0.00000,   2.00000
370984100.83651,376421634.95809,170191622.83298,   0.00179,   0.00089,   0.00381,477631327.92362,   0.00125,275995350.82313,   0.00084,  -0.00009,   0.00160,   0.00000,   2.00000
372108910.62159,378184238.60681,169130334.09881,   0.00179,   0.00090,   0.00380,477654473.85609,   0.00125,276001937.37998,   0.00084,  -0.00009,   0.00161,   0.00000,   2.00000
373241951.70196,379940869.28399,168056929.88356,   0.00180,   0.00091,   0.00380,477671482.14630,   0.00126,276008552.57582,   0.00084,  -0.00009,   0.00161,   0.00000,   2.00000
374361893.55015,381670397.47948,166987185.50979,   0.00180,   0.00092,   0.00379,477677949.32002,   0.00126,276015154.50202,   0.00085,  -0.00009,   0.00162,   0.00000,   2.00000
375485446.37743,383389274.29518,165908810.02942,   0.00181,   0.00093,   0.00379,477701205.07592,   0.00127,276021809.40261,   0.00085,  -0.00008,   0.00163,   0.00000,   2.00000
376600531.50205,385097207.46058,164826272.21667,   0.00181,   0.00094,   0.00378,477713200.29084,   0.00128,276028472.41576,   0.00085,  -0.00008,   0.00164,  -0.00000,   2.00000
377718943.71375,386805487.12582,163730693.20073,   0.00182,   0.00095,   0.00378,477748522.93555,   0.00128,276035235.01837,   0.00085,  -0.00007,   0.00165,  -0.00000,   2.00000
378836029.85756,388486673.14960,162634691.61175,   0.00182,   0.00096,   0.00377,477766461.11976,   0.00129,276042028.15662,   0.00086,  -0.00007,   0.00166,   0.00000,   2.00000
379960552.50575,390149884.45090,161531293.51188,   0.00183,   0.00097,   0.00377,477772468.44038,   0.00130,276048804.73789,   0.00086,  -0.00007,   0.00167,  -0.00000,   2.00000
381076015.75058,391812931.26951,160419426.00408,   0.00183,   0.00098,   0.00376,477796774.30606,   0.00130,276055636.28743,   0.00086,  -0.00006,   0.00167,  -0.00000,   2.00000
382194069.42574,393464274.19844,159299293.58449,   0.00184,   0.00098,   0.00375,477820913.13000,   0.00131,276062521.58169,   0.00087,  -0.00006,   0.00168,  -0.00000,   2.00000
383303308.08311,395093172.19803,158179774.20877,   0.00184,   0.00099,   0.00375,477821528.09120,   0.00131,276069368.58678,   0.00087,  -0.00006,   0.00169,   0.00000,   2.00000
384414536.73920,396721017.98194,157047639.40883,   0.00185,   0.00100,   0.00374,477857892.04125,   0.00132,276076316.31333,   0.00087,  -0.00005,   0.00170,   0.00000,   2.00000
385512621.33363,398321966.34501,155919887.72064,   0.00186,   0.00101,   0.00374,477864299.38968,   0.00133,276083247.82595,   0.00088,  -0.00005,   0.00171,   0.00000,   2.00000
386628508.41549,399914711.14154,154776161.71969,   0.00186,   0.00102,   0.00373,477894816.82472,   0.00133,276090256.31174,   0.00088,  -0.00005,   0.00172,  -0.00000,   2.00000
387723537.44344,401496254.48942,153633042.10122,   0.00187,   0.00103,   0.00372,477896078.97910,   0.00134,276097228.17045,   0.00088,  -0.00004,   0.00173,   0.00000,   2.00000
388827391.03827,403060216.46982,152481582.25545,   0.00187,   0.00104,   0.00372,477938208.69321,   0.00135,276104321.02894,   0.00089,  -0.00004,   0.00173,  -0.00000,   2.00000
389926561.14852,404606302.21401,151327219.63295,   0.00188,   0.00105,   0.00371,477933468.33081,   0.00135,276111353.61866,   0.00089,  -0.00003,   0.00174,  -0.00000,   2.00000
391011042.08886,406146410.15612,150168772.72403,   0.00188,   0.00106,   0.00370,477964487.24303,   0.00136,276118463.56411,   0.00090,  -0.00003,   0.00175,   0.00000,   2.00000
392101977.97240,407667814.83929,149003239.43998,   0.00189,   0.00106,   0.00370,477971707.16721,   0.00137,276125558.98876,   0.00090,  -0.00003,   0.00176,  -0.00000,   2.00000
393189940.41344,409171860.76654,147834022.55164,   0.00189,   0.00107,   0.00369,478002340.89887,   0.00137,276132729.39719,   0.00090,  -0.00002,   0.00177,   0.00000,   2.00000
394283093.50714,410667141.24562,146653433.09194,   0.00190,   0.00108,   0.00368,478022326.52733,   0.00138,276139933.40751,   0.00091,  -0.00002,   0.00178,   0.00000,   2.00000
395351063.33874,412146938.22346,145477660.67251,   0.00191,   0.00109,   0.00368,478029260.32882,   0.00139,276147121.12521,   0.00091,  -0.00001,   0.00179,   0.00000,   2.00000
396436066.20711,413606704.78631,144290806.10432,   0.00191,   0.00110,   0.00367,478048843.94961,   0.00139,276154340.53497,   0.00091,  -0.00001,   0.00179,   0.00000,   2.00000
397505505.01691,415059686.93286,143100482.80229,   0.00192,   0.00111,   0.00366,478080418.19059,   0.00140,276161636.74103,   0.00092,  -0.00001,   0.00180,   0.00000,   2.00000
398580799.48942,416493578.41838,141903287.31678,   0.00192,   0.00112,   0.00366,478088338.33569,   0.00141,276168919.57696,   0.00092,  -0.00000,   0.00181,  -0.00000,   2.00000
399641650.36921,417910808.35060,140707113.71847,   0.00193,   0.00113,   0.00365,478107319.36253,   0.00141,276176230.86696,   0.00093,   0.00000,   0.00182,  -0.00000,   2.00000
400704241.40414,419304710.78277,139508205.43326,   0.00193,   0.00113,   0.00364,478120449.21984,   0.00142,276183548.29007,   0.00093,   0.00001,   0.00183,  -0.00000,   2.00000
401754902.90333,420695754.55793,138302153.38849,   0.00194,   0.00114,   0.00363,478147137.39817,   0.00143,276190922.61544,   0.00093,   0.00001,   0.00184,  -0.00000,   2.00000
402811138.43071,422067569.73265,137089359.57976,   0.00195,   0.00115,   0.00363,478155414.26650,   0.00143,276198284.26313,   0.00094,   0.00002,   0.00184,   0.00000,   2.00000
403863222.02782,423421017.83626,135873965.08943,   0.00195,   0.00116,   0.00362,478186689.88810,   0.00144,276205719.28727,   0.00094,   0.00002,   0.00185,   0.00000,   2.00000
404904586.04298,424761922.75170,134655873.03162,   0.00196,   0.00117,   0.00361,478200840.71282,   0.00145,276213163.13756,   0.00094,   0.00003,   0.00186,   0.00000,   2.00000
405935214.85758,426090264.19567,133435135.28312,   0.00197,   0.00118,   0.00360,478215028.24786,   0.00146,276220615.83145,   0.00095,   0.00003,   0.00187,  -0.00000,   2.00000
406981410.78892,427397370.23592,132203894.73409,   0.00197,   0.00119,   0.00360,478235999.68908,   0.00146,276228102.33628,   0.00095,   0.00004,   0.00188,   0.00000,   2.00000
408000567.48192,428698575.68559,130974163.81066,   0.00198,   0.00120,   0.00359,478255957.62484,   0.00147,276235618.63820,   0.00096,   0.00004,   0.00189,   0.00000,   2.00000
409031143.44325,429974184.99680,129738364.25611,   0.00198,   0.00120,   0.00358,478281984.90584,   0.00148,276243186.83777,   0.00096,   0.00005,   0.00189,   0.00000,   2.00000
410042584.24184,431230323.93168,128508084.76072,   0.00199,   0.00121,   0.00357,478270895.87802,   0.00148,276250669.59339,   0.00097,   0.00005,   0.00190,   0.00000,   2.00000
411061101.81475,432478413.06692,127263788.33236,   0.00200,   0.00122,   0.00357,478323352.28597,   0.00149,276258301.41821,   0.00097,   0.00005,   0.00191,   0.00000,   2.00000
412070565.25982,433705000.16659,126021278.73606,   0.00200,   0.00123,   0.00356,478324784.69884,   0.00150,276265893.62583,   0.00097,   0.00006,   0.00192,   0.00000,   2.00000
413068853.32914,434918882.72371,124776565.52584,   0.00201,   0.00124,   0.00355,478339395.77846,   0.00150,276273494.82801,   0.00098,   0.00006,   0.00193,   0.00000,   2.00000
414065833.82558,436117716.78554,123525979.83618,   0.00202,   0.00125,   0.00354,478366580.89109,   0.00151,276281150.86833,   0.00098,   0.00007,   0.00194,   0.00000,   2.00000
415053882.77129,437295308.53350,122277271.04496,   0.00202,   0.00125,   0.00353,478367987.43196,   0.00152,276288767.22745,   0.00099,   0.00007,   0.00194,   0.00000,   2.00000
416040446.70759,438457772.17848,121022853.75798,   0.00203,   0.00126,   0.00352,478395283.60314,   0.00153,276296438.44563,   0.00099,   0.00008,   0.00195,   0.00000,   2.00000
417025327.95251,439604954.26208,119762845.50887,   0.00204,   0.00127,   0.00352,478422750.15039,   0.00153,276304164.62395,   0.00100,   0.00008,   0.00196,   0.00000,   2.00000
417998681.06592,440739291.60412,118500981.93061,   0.00204,   0.00128,   0.00351,478437730.40323,   0.00154,276311900.02734,   0.00100,   0.00009,   0.00197,  -0.00000,   2.00000
418963150.69579,441852631.85613,117241144.97623,   0.00205,   0.00129,   0.00350,478439223.08595,   0.00155,276319595.81722,   0.00100,   0.00010,   0.00198,   0.00000,   2.00000
419925702.30329,442950551.16595,115975969.08956,   0.00206,   0.00130,   0.00349,478466864.37490,   0.00155,276327346.65137,   0.00101,   0.00010,   0.00198,  -0.00000,   2.00000
420886143.22911,444032905.91539,114705576.40058,   0.00206,   0.00131,   0.00348,478494673.41164,   0.00156,276335152.63160,   0.00101,   0.00011,   0.00199,   0.00000,   2.00000
421837693.25664,445094450.86081,113437329.79330,   0.00207,   0.00131,   0.00347,478496258.28460,   0.00157,276342919.10200,   0.00102,   0.00011,   0.00200,   0.00000,   2.00000
422774126.70177,446139569.09133,112172171.27459,   0.00208,   0.00132,   0.00346,478515481.67807,   0.00158,276350709.70149,   0.00102,   0.00012,   0.00201,  -0.00000,   2.00000
423711746.85395,447172760.59316,110897382.89452,   0.00208,   0.00133,   0.00346,478539335.82391,   0.00158,276358540.70297,   0.00103,   0.00012,   0.00201,   0.00000,   2.00000
424649858.76210,448182390.69025,109621404.93150,   0.00209,   0.00134,   0.00345,478553768.28915,   0.00159,276366378.14049,   0.00103,   0.00013,   0.00202,   0.00000,   2.00000
425576133.55566,449179286.85264,108344065.13269,   0.00210,   0.00135,   0.00344,478569084.56810,   0.00160,276374225.12771,   0.00104,   0.00013,   0.00203,  -0.00000,   2.00000
426490573.76384,450163452.21803,107065421.73116,   0.00210,   0.00135,   0.00343,478584433.88550,   0.00161,276382081.72611,   0.00104,   0.00014,   0.00204,   0.00000,   2.00000
427398957.02811,451128157.35022,105786987.97588,   0.00211,   0.00136,   0.00342,478616620.65431,   0.00161,276390007.62028,   0.00105,   0.00014,   0.00204,   0.00000,   2.00000
428311043.75668,452072930.05388,104502836.41325,   0.00212,   0.00137,   0.00341,478627372.29591,   0.00162,276397926.34012,   0.00105,   0.00015,   0.00205,  -0.00000,   2.00000
429202136.27174,453008293.09179,103220854.90162,   0.00212,   0.00138,   0.00340,478629922.86295,   0.00163,276405809.06011,   0.00106,   0.00016,   0.00206,   0.00000,   2.00000
430102571.70165,453916910.54889,101934787.23554,   0.00213,   0.00139,   0.00339,478657542.72788,   0.00164,276413744.39340,   0.00106,   0.00016,   0.00207,   0.00000,   2.00000
430978881.21705,454812908.31162,100655809.40120,   0.00214,   0.00140,   0.00338,478663778.15838,   0.00164,276421656.86857,   0.00106,   0.00017,   0.00207,  -0.00000,   2.00000
431864150.51164,455692850.17703,99364658.99252,   0.00215,   0.00140,   0.00337,478701743.97796,   0.00165,276429657.90741,   0.00107,   0.00017,   0.00208,   0.00000,   2.00000
432728480.90553,456563644.23704,98075823.86167,   0.00215,   0.00141,   0.00336,478704411.70729,   0.00166,276437623.30117,   0.00107,   0.00018,   0.00209,   0.00000,   2.00000
433593075.57668,457411107.29752,96786394.29189,   0.00216,   0.00142,   0.00335,478719237.71646,   0.00167,276445595.85665,   0.00108,   0.00018,   0.00209,   0.00000,   2.00000
434454819.93238,458232053.97708,95501378.81542,   0.00217,   0.00143,   0.00334,478737584.76882,   0.00167,276453587.90087,   0.00108,   0.00019,   0.00210,   0.00000,   2.00000
435303838.65050,459050896.62591,94207469.02778,   0.00218,   0.00144,   0.00333,478763862.35412,   0.00168,276461626.85106,   0.00109,   0.00020,   0.00211,   0.00000,   2.00000
436144412.57260,459850204.89471,92916169.85935,   0.00218,   0.00144,   0.00332,478765682.11956,   0.00169,276469627.50925,   0.00109,   0.00020,   0.00212,   0.00000,   2.00000
436982207.53250,460623215.55954,91629510.62175,   0.00219,   0.00145,   0.00331,478783986.56225,   0.00170,276477647.41570,   0.00110,   0.00021,   0.00212,   0.00000,   2.00000
437806987.85636,461393962.60399,90334176.40768,   0.00220,   0.00146,   0.00330,478810571.00959,   0.00170,276485715.04534,   0.00110,   0.00021,   0.00213,   0.00000,   2.00000
438635753.14232,462134721.60447,89041699.53032,   0.00220,   0.00147,   0.00329,478811555.17650,   0.00171,276493741.77288,   0.00111,   0.00022,   0.00214,  -0.00000,   2.00000
439445492.08275,462866964.20175,87750853.03238,   0.00221,   0.00147,   0.00328,478844837.73242,   0.00172,276501839.27498,   0.00112,   0.00023,   0.00214,   0.00000,   2.00000
440258184.41334,463579236.59802,86454790.50921,   0.00222,   0.00148,   0.00327,478856788.07377,   0.00173,276509933.70269,   0.00112,   0.00023,   0.00215,  -0.00000,   2.00000
441050324.68449,464283300.33136,85161271.87983,   0.00223,   0.00149,   0.00326,478859513.82679,   0.00173,276517993.57287,   0.00113,   0.00024,   0.00216,   0.00000,   2.00000
441848036.58702,464957426.24669,83870081.05112,   0.00223,   0.00150,   0.00325,478891121.41171,   0.00174,276526118.13064,   0.00113,   0.00024,   0.00216,   0.00000,   2.00000
442636206.98086,465622377.30407,82573599.96584,   0.00224,   0.00151,   0.00324,478904165.72002,   0.00175,276534243.50761,   0.00114,   0.00025,   0.00217,   0.00000,   2.00000
443413573.88935,466265817.74952,81285066.49221,   0.00225,   0.00151,   0.00323,478909051.82013,   0.00176,276542342.06850,   0.00114,   0.00026,   0.00217,   0.00000,   2.00000
444181413.48408,466900159.93342,79991269.09626,   0.00226,   0.00152,   0.00322,478922162.96788,   0.00176,276550442.06284,   0.00115,   0.00026,   0.00218,  -0.00000,   2.00000
444945009.43631,467518239.58688,78694855.07236,   0.00227,   0.00153,   0.00321,478951780.88431,   0.00177,276558599.63770,   0.00115,   0.00027,   0.00219,   0.00000,   2.00000
445698040.72030,468115195.73889,77406490.03331,   0.00227,   0.00154,   0.00320,478956569.49059,   0.00178,276566730.38430,   0.00116,   0.00028,   0.00219,   0.00000,   2.00000
446449319.32653,468698691.31849,76110441.42147,   0.00228,   0.00154,   0.00319,478983440.34534,   0.00179,276574909.26666,   0.00116,   0.00028,   0.00220,   0.00000,   2.00000
447190166.02735,469261339.71914,74822503.83693,   0.00229,   0.00155,   0.00318,478988170.41696,   0.00179,276583061.35304,   0.00117,   0.00029,   0.00220,   0.00000,   2.00000
447921257.99977,469814936.97678,73529488.23470,   0.00230,   0.00156,   0.00317,479001690.20208,   0.00180,276591216.55465,   0.00117,   0.00029,   0.00221,  -0.00000,   2.00000
448652333.73961,470346050.64661,72236878.91538,   0.00230,   0.00157,   0.00315,479017217.60883,   0.00181,276599381.73203,   0.00118,   0.00030,   0.00222,   0.00000,   2.00000
449368702.86981,470863018.76931,70949899.68103,   0.00231,   0.00157,   0.00314,479036173.01185,   0.00182,276607568.53407,   0.00119,   0.00031,   0.00222,   0.00000,   2.00000
450082860.03393,471366370.31747,69655614.40736,   0.00232,   0.00158,   0.00313,479063567.79822,   0.00182,276615805.17403,   0.00119,   0.00031,   0.00223,   0.00000,   2.00000
450786959.69609,471849538.57410,68369585.59910,   0.00233,   0.00159,   0.00312,479068161.38672,   0.00183,276624015.19625,   0.00120,   0.00032,   0.00223,   0.00000,   2.00000
451481085.79079,472323717.13066,67078667.35440,   0.00234,   0.00160,   0.00311,479082095.50522,   0.00184,276632230.10848,   0.00120,   0.00033,   0.00224,  -0.00000,   2.00000
452165400.92902,472778022.13859,65796009.13786,   0.00234,   0.00160,   0.00310,479086552.31759,   0.00185,276640418.49098,   0.00121,   0.00033,   0.00224,   0.00000,   2.00000
452847227.78574,473218662.19432,64506301.09224,   0.00235,   0.00161,   0.00309,479114282.17663,   0.00186,276648658.12550,   0.00121,   0.00034,   0.00225,  -0.00000,   2.00000
453528946.65077,473637173.73830,63217349.61267,   0.00236,   0.00162,   0.00307,479130123.17831,   0.00186,276656909.28900,   0.00122,   0.00035,   0.00225,   0.00000,   2.00000
454188800.04771,474047066.46767,61936616.58168,   0.00237,   0.00162,   0.00306,479135251.55297,   0.00187,276665136.60121,   0.00123,   0.00035,   0.00226,   0.00000,   2.00000
454850778.77499,474437245.37405,60651242.86183,   0.00238,   0.00163,   0.00305,479148800.93070,   0.00188,276673368.24511,   0.00123,   0.00036,   0.00226,   0.00000,   2.00000
455498445.80145,474814229.15629,59372063.01615,   0.00238,   0.00164,   0.00304,479167584.17985,   0.00189,276681621.74779,   0.00124,   0.00037,   0.00227,   0.00000,   2.00000
456148119.83132,475171523.02760,58088310.40277,   0.00239,   0.00165,   0.00303,479181327.62876,   0.00189,276689880.43794,   0.00124,   0.00037,   0.00227,   0.00000,   2.00000
456783541.03973,475515839.74324,56810881.27515,   0.00240,   0.00165,   0.00301,479200098.82078,   0.00190,276698161.11129,   0.00125,   0.00038,   0.00228,   0.00000,   2.00000
457413681.44669,475845484.97516,55530854.66094,   0.00241,   0.00166,   0.00300,479200180.14549,   0.00191,276706402.22438,   0.00125,   0.00039,   0.00228,   0.00000,   2.00000
458031600.14603,476164348.59460,54251730.81280,   0.00242,   0.00167,   0.00299,479216871.84506,   0.00192,276714658.86222,   0.00126,   0.00039,   0.00229,   0.00000,   2.00000
458642600.22917,476465509.08089,52977248.84128,   0.00242,   0.00167,   0.00298,479249429.82780,   0.00192,276722983.26039,   0.00127,   0.00040,   0.00229,  -0.00000,   2.00000
459248314.90198,476752109.50020,51700153.13353,   0.00243,   0.00168,   0.00297,479249741.85289,   0.00193,276731269.41848,   0.00127,   0.00041,   0.00229,   0.00000,   2.00000
459852210.91480,477015378.78751,50429727.50667,   0.00244,   0.00169,   0.00295,479267766.72014,   0.00194,276739575.82355,   0.00128,   0.00041,   0.00230,   0.00000,   2.00000
460438679.46096,477275160.55082,49156545.25174,   0.00245,   0.00169,   0.00294,479268794.71843,   0.00195,276747846.96136,   0.00129,   0.00042,   0.00230,  -0.00000,   2.00000
461023477.45955,477511831.64058,47890098.86831,   0.00246,   0.00170,   0.00293,479286754.23798,   0.00196,276756138.59023,   0.00129,   0.00043,   0.00231,   0.00000,   2.00000
461597816.68448,477739932.13957,46619220.09920,   0.00247,   0.00171,   0.00292,479301833.93325,   0.00196,276764441.37326,   0.00130,   0.00043,   0.00231,   0.00000,   2.00000
462170529.46385,477945125.41256,45355190.27687,   0.00247,   0.00171,   0.00290,479319815.85508,   0.00197,276772764.95107,   0.00130,   0.00044,   0.00231,  -0.00000,   2.00000
462732685.31703,478141797.78848,44086804.65566,   0.00248,   0.00172,   0.00289,479335078.30310,   0.00198,276781100.54235,   0.00131,   0.00045,   0.00232,  -0.00000,   2.00000
463287982.44313,478322602.10261,42821276.21619,   0.00249,   0.00173,   0.00288,479337474.97343,   0.00199,276789406.51374,   0.00132,   0.00045,   0.00232,   0.00000,   2.00000
463829730.53418,478491837.67357,41562655.85777,   0.00250,   0.00173,   0.00286,479355961.48022,   0.00200,276797735.52583,   0.00132,   0.00046,   0.00232,  -0.00000,   2.00000
464372954.57851,478641608.68261,40299800.20585,   0.00251,   0.00174,   0.00285,479370884.20617,   0.00200,276806076.08124,   0.00133,   0.00047,   0.00233,   0.00000,   2.00000
464902700.77246,478780043.70541,39043967.06438,   0.00252,   0.00175,   0.00284,479389372.64873,   0.00201,276814439.93849,   0.00133,   0.00047,   0.00233,   0.00000,   2.00000
465427178.83836,478904419.10658,37785296.65405,   0.00252,   0.00175,   0.00283,479390395.59825,   0.00202,276822770.69468,   0.00134,   0.00048,   0.00233,  -0.00000,   2.00000
465938348.70579,479017699.68718,36533712.02571,   0.00253,   0.00176,   0.00281,479408807.31876,   0.00203,276831124.98904,   0.00135,   0.00049,   0.00234,   0.00000,   2.00000
466450846.41323,479111573.67988,35277985.49327,   0.00254,   0.00177,   0.00280,479424081.82082,   0.00203,276839492.77054,   0.00135,   0.00050,   0.00234,   0.00000,   2.00000
466956749.19705,479190183.47617,34025034.07393,   0.00255,   0.00177,   0.00279,479426644.94696,   0.00204,276847833.24309,   0.00136,   0.00050,   0.00234,   0.00000,   2.00000
467449496.71194,479258076.64595,32779282.09053,   0.00256,   0.00178,   0.00277,479445001.53085,   0.00205,276856197.70162,   0.00137,   0.00051,   0.00235,   0.00000,   2.00000
467936979.38612,479312106.23355,31530560.45858,   0.00257,   0.00178,   0.00276,479446346.57080,   0.00206,276864531.51123,   0.00137,   0.00052,   0.00235,   0.00000,   2.00000
468417889.13316,479350156.81513,30288024.52592,   0.00258,   0.00179,   0.00274,479478846.88280,   0.00207,276872935.25289,   0.00138,   0.00052,   0.00235,   0.00000,   2.00000
468887094.61804,479379922.82789,29043536.13292,   0.00258,   0.00180,   0.00273,479466157.36996,   0.00207,276881263.68116,   0.00139,   0.00053,   0.00235,   0.00000,   2.00000
469356177.97617,479388377.20303,27804388.87339,   0.00259,   0.00180,   0.00272,479512866.23171,   0.00208,276889708.03888,   0.00139,   0.00054,   0.00236,   0.00000,   2.00000
469813563.17192,479388640.60182,26563191.27140,   0.00260,   0.00181,   0.00270,479500341.96956,   0.00209,276898078.08864,   0.00140,   0.00054,   0.00236,   0.00000,   2.00000
470263768.60175,479373266.70353,25330334.06352,   0.00261,   0.00181,   0.00269,479503974.22467,   0.00210,276906426.24514,   0.00141,   0.00055,   0.00236,   0.00000,   2.00000
470709362.17922,479344286.99266,24092587.94617,   0.00262,   0.00182,   0.00268,479534601.60184,   0.00211,276914839.25637,   0.00141,   0.00056,   0.00236,   0.00000,   2.00000
471147884.02287,479299904.56819,22863193.20841,   0.00263,   0.00183,   0.00266,479538255.62452,   0.00211,276923230.82409,   0.00142,   0.00056,   0.00236,   0.00000,   2.00000
471575445.91775,479247555.09321,21629846.95882,   0.00264,   0.00183,   0.00265,479554793.62436,   0.00212,276931642.47684,   0.00143,   0.00057,   0.00237,   0.00000,   2.00000
471996856.29694,479180767.51945,20399088.49223,   0.00265,   0.00184,   0.00263,479557652.53833,   0.00213,276940030.69729,   0.00143,   0.00058,   0.00237,   0.00000,   2.00000
472411974.75262,479098948.52784,19175214.66746,   0.00265,   0.00184,   0.00262,479590146.64116,   0.00214,276948490.47549,   0.00144,   0.00059,   0.00237,   0.00000,   2.00000
472815587.23406,479009218.46472,17948805.24903,   0.00266,   0.00185,   0.00260,479578023.89392,   0.00214,276956879.40981,   0.00145,   0.00059,   0.00237,   0.00000,   2.00000
473218665.81898,478898996.42024,16730024.69668,   0.00267,   0.00186,   0.00259,479595914.74098,   0.00215,276965293.79278,   0.00145,   0.00060,   0.00237,   0.00000,   2.00000
473610666.84747,478780960.10495,15507396.06837,   0.00268,   0.00186,   0.00258,479612824.12589,   0.00216,276973730.63934,   0.00146,   0.00061,   0.00237,   0.00000,   2.00000
473996155.87671,478648305.79212,14293001.49338,   0.00269,   0.00187,   0.00256,479616379.28486,   0.00217,276982147.60751,   0.00147,   0.00061,   0.00238,   0.00000,   2.00000
474382231.36865,478496510.31477,13074797.55212,   0.00270,   0.00187,   0.00255,479633269.15264,   0.00218,276990587.48530,   0.00147,   0.00062,   0.00238,   0.00000,   2.00000
474750204.62217,478341733.80582,11864779.73862,   0.00271,   0.00188,   0.00253,479636960.35568,   0.00218,276999008.46883,   0.00148,   0.00063,   0.00238,   0.00000,   2.00000
475112643.84510,478173165.03027,10656350.80629,   0.00272,   0.00188,   0.00252,479668959.46646,   0.00219,277007500.93782,   0.00149,   0.00063,   0.00238,   0.97463,   1.00000
475475312.21815,477985435.78617,9444914.40127,   0.00272,   0.00189,   0.00250,479657208.88606,   0.00220,277015925.76929,   0.00149,   0.00064,   0.00238,   0.86275,   1.00000
475826072.42592,477789386.84294,8241281.14883,   0.00273,   0.00189,   0.00249,479675246.32421,   0.00221,277024378.19158,   0.00150,   0.00065,   0.00238,   0.78363,   1.00000
476165621.23117,477585719.93541,7033943.92660,   0.00274,   0.00190,   0.00247,479692679.94029,   0.00222,277032856.44090,   0.00151,   0.00065,   0.00238,   0.71466,   1.00000
476510729.44432,477356661.56711,5834710.81136,   0.00275,   0.00190,   0.00246,479696163.81972,   0.00222,277041316.38673,   0.00151,   0.00066,   0.00238,   0.65024,   1.00000
476838672.31074,477125779.75437,4631977.48080,   0.00276,   0.00191,   0.00244,479699282.13428,   0.00223,277049757.20541,   0.00152,   0.00067,   0.00238,   0.59783,   1.00000
477160827.87126,476881305.70165,3437008.97539,   0.00277,   0.00192,   0.00243,479731756.32339,   0.00224,277058272.44220,   0.00153,   0.00068,   0.00238,   0.57029,   1.00000
477477308.96030,476623410.72987,2244297.93540,   0.00278,   0.00192,   0.00241,479735134.70442,   0.00225,277066769.73739,   0.00153,   0.00068,   0.00238,   0.54181,   1.00000
477788167.50918,476352183.58767,1048036.29317,   0.00279,   0.00193,   0.00240,479738499.81883,   0.00226,277075249.38324,   0.00154,   0.00069,   0.00238,   0.52540,   1.00000
478087580.20903,476073435.83128,-140252.87182,   0.00279,   0.00193,   0.00238,479756477.55808,   0.00226,277083758.08237,   0.00155,   0.00070,   0.00238,   0.52669,   1.00000
478381404.48360,475781407.01101,-1326377.32591,   0.00280,   0.00194,   0.00236,479759960.91996,   0.00227,277092250.01120,   0.00155,   0.00070,   0.00238,   0.53412,   1.00000
478669558.07076,475476052.14504,-2516143.38932,   0.00281,   0.00194,   0.00235,479763565.88190,   0.00228,277100725.88311,   0.00156,   0.00071,   0.00238,   0.55341,   1.00000
478952150.78565,475157790.79989,-3697764.61659,   0.00282,   0.00195,   0.00233,479796064.65552,   0.00229,277109277.68572,   0.00157,   0.00072,   0.00238,   0.59688,   1.00000
479223507.40505,474832116.05120,-4877446.60465,   0.00283,   0.00195,   0.00232,479785150.21009,   0.00230,277117767.69772,   0.00158,   0.00072,   0.00238,   0.63289,   1.00000
479494991.23533,474487621.29654,-6054876.61359,   0.00284,   0.00195,   0.00230,479803374.70633,   0.00230,277126288.83607,   0.00158,   0.00073,   0.00238,   0.69425,   1.00000
479754937.58497,474135848.88492,-7235773.51340,   0.00285,   0.00196,   0.00229,479821769.36298,   0.00231,277134841.80895,   0.00159,   0.00074,   0.00238,   0.76850,   1.00000
480009591.74329,473771289.40295,-8408844.83161,   0.00286,   0.00196,   0.00227,479825341.77370,   0.00232,277143379.73933,   0.00160,   0.00074,   0.00238,   0.84590,   1.00000
480258732.42694,473393760.08842,-9579929.48047,   0.00287,   0.00197,   0.00225,479829173.19732,   0.00233,277151903.75696,   0.00160,   0.00075,   0.00238,   0.93445,   1.00000
480496671.45936,473009400.73576,-10748683.62258,   0.00288,   0.00197,   0.00224,479847398.83749,   0.00234,277160459.85000,   0.00161,   0.00076,   0.00238,  -0.00000,   2.00000
480729153.20188,472612140.97813,-11915494.33257,   0.00288,   0.00198,   0.00222,479851328.56884,   0.00234,277169002.79498,   0.00162,   0.00076,   0.00238,   0.00000,   2.00000
480961706.28198,472196340.29100,-13079924.04847,   0.00289,   0.00198,   0.00220,479869946.93196,   0.00235,277177579.53068,   0.00163,   0.00077,   0.00237,   0.00000,   2.00000
481177549.62836,471779596.67180,-14242462.46429,   0.00290,   0.00199,   0.00219,479873685.32375,   0.00236,277186142.94854,   0.00163,   0.00078,   0.00237,   0.00000,   2.00000
481387980.43293,471350044.80234,-15403139.18071,   0.00291,   0.00199,   0.00217,479877764.97981,   0.00237,277194694.42351,   0.00164,   0.00079,   0.00237,   0.00000,   2.00000
481598479.42837,470902067.25193,-16561387.07269,   0.00292,   0.00200,   0.00216,479896561.12175,   0.00238,277203281.01027,   0.00165,   0.00079,   0.00237,   0.00000,   2.00000
481797854.90522,470447667.56501,-17717180.94947,   0.00293,   0.00200,   0.00214,479915061.74803,   0.00239,277211901.91888,   0.00165,   0.00080,   0.00237,  -0.00000,   2.00000
481991797.20918,469980584.84422,-18871153.06232,   0.00294,   0.00200,   0.00212,479919362.09505,   0.00239,277220512.15205,   0.00166,   0.00081,   0.00237,   0.00000,   2.00000
482174846.09625,469506453.82432,-20024073.78084,   0.00295,   0.00201,   0.00211,479909022.11231,   0.00240,277229065.40678,   0.00167,   0.00081,   0.00237,   0.00000,   2.00000
482353101.74627,469021184.82474,-21168037.32660,   0.00296,   0.00201,   0.00209,479941505.11026,   0.00241,277237698.32916,   0.00168,   0.00082,   0.00236,   0.00000,   2.00000
482525216.32447,468522595.26772,-22316017.01594,   0.00297,   0.00202,   0.00207,479946702.19294,   0.00242,277246324.11081,   0.00168,   0.00083,   0.00236,   0.00000,   2.00000
482691911.00894,468011416.67685,-23462285.91424,   0.00297,   0.00202,   0.00205,479951227.15901,   0.00243,277254940.86971,   0.00169,   0.00083,   0.00236,   0.00000,   2.00000
482854068.71981,467488532.25369,-24601171.42222,   0.00298,   0.00202,   0.00204,479954911.39359,   0.00243,277263546.16236,   0.00170,   0.00084,   0.00236,   0.00000,   2.00000
483004360.76161,466958804.39153,-25743256.23516,   0.00299,   0.00203,   0.00202,479974546.01266,   0.00244,277272191.12486,   0.00171,   0.00085,   0.00236,   0.00000,   2.00000
483154631.00363,466411020.36440,-26882714.26210,   0.00300,   0.00203,   0.00200,479993986.54943,   0.00245,277280875.28805,   0.00171,   0.00085,   0.00235,  -0.00000,   2.00000
483289566.63704,465863887.56443,-28014882.17874,   0.00301,   0.00204,   0.00199,479997155.34043,   0.00246,277289546.81039,   0.00172,   0.00086,   0.00235,   0.00000,   2.00000
483418139.75762,465303320.55705,-29151175.93714,   0.00302,   0.00204,   0.00197,480002969.99771,   0.00247,277298214.42883,   0.00173,   0.00087,   0.00235,   0.00000,   2.00000
483547781.51042,464725857.89205,-30279104.81207,   0.00303,   0.00204,   0.00195,480021515.70805,   0.00248,277306919.04432,   0.00174,   0.00087,   0.00235,   0.00000,   2.00000
483666684.68092,464141513.49180,-31406655.79218,   0.00304,   0.00205,   0.00193,480011697.37352,   0.00248,277315570.08700,   0.00174,   0.00088,   0.00234,  -0.00000,   2.00000
483774773.18047,463551568.76858,-32531605.92735,   0.00305,   0.00205,   0.00192,480030666.83637,   0.00249,277324260.00340,   0.00175,   0.00088,   0.00234,   0.00000,   2.00000
483881640.72176,462942671.17917,-33659515.10013,   0.00306,   0.00205,   0.00190,480051678.23977,   0.00250,277332995.51374,   0.00176,   0.00089,   0.00234,  -0.00000,   2.00000
483978988.63417,462328014.71625,-34781531.38428,   0.00307,   0.00206,   0.00188,480040867.65055,   0.00251,277341674.72317,   0.00176,   0.00090,   0.00233,  -0.00000,   2.00000
484076277.90002,461695626.67044,-35900822.03590,   0.00307,   0.00206,   0.00186,480060800.78998,   0.00252,277350396.56353,   0.00177,   0.00090,   0.00233,   0.00000,   2.00000
484157436.02340,461063271.03506,-37018777.46133,   0.00308,   0.00206,   0.00185,480065243.23200,   0.00252,277359111.42409,   0.00178,   0.00091,   0.00233,   0.00000,   2.00000
