# sigma_xx, sigma_yy, sigma_xy, epsilon_xx, epsilon_yy, epsilon_xy, vonMises, epsPlastic, hardening, epsilonP__xx, epsilonP__yy, epsilonP__xy, yieldValue, iteration
   0.00000,   0.00000,   0.00000,   0.00000,   0.00000,   0.00000,   0.00000,   0.00000,274640135.82653,   0.00000,   0.00000,   0.00000,-474640135.82653,   0.00000
   0.00000,   0.00000,   0.00000,   0.00000,   0.00000,   0.00000,   0.00000,   0.00000,274640135.82653,   0.00000,   0.00000,   0.00000,-474640135.82653,   0.00000
24469.05964,2789472.79882,336449.57003,  -0.00001,   0.00001,   0.00000,2837797.80701,   0.00000,274640135.82653,   0.00000,   0.00000,   0.00000,-471802338.01952,   0.00000
48938.11928,5578945.59763,666781.87516,  -0.00001,   0.00003,   0.00001,5673429.30007,   0.00000,274640135.82653,   0.00000,   0.00000,   0.00000,-468966706.52646,   0.00000
103993.50346,8399004.72100,997114.18028,  -0.00002,   0.00004,   0.00001,8524280.79612,   0.00000,274640135.82653,   0.00000,   0.00000,   0.00000,-466115855.03041,   0.00000
159048.88765,11219063.84436,1327446.48540,  -0.00002,   0.00005,   0.00002,11375177.05280,   0.00000,274640135.82653,   0.00000,   0.00000,   0.00000,-463264958.77373,   0.00000
214104.27184,14039122.96773,1651661.52562,  -0.00003,   0.00006,   0.00002,14223956.39503,   0.00000,274640135.82653,   0.00000,   0.00000,   0.00000,-460416179.43150,   0.00000
278335.55339,16880592.51828,1981993.83074,  -0.00003,   0.00008,   0.00003,17091468.74975,   0.00000,274640135.82653,   0.00000,   0.00000,   0.00000,-457548667.07678,   0.00000
354801.36476,19709827.53901,2306208.87095,  -0.00004,   0.00009,   0.00003,19939054.89198,   0.00000,274640135.82653,   0.00000,   0.00000,   0.00000,-454701080.93455,   0.00000
440443.07350,22560472.98692,2624306.64626,  -0.00004,   0.00010,   0.00003,22801168.46904,   0.00000,274640135.82653,   0.00000,   0.00000,   0.00000,-451838967.35749,   0.00000
535260.67960,25432528.86202,2948521.68647,  -0.00005,   0.00011,   0.00004,25682062.53471,   0.00000,274640135.82653,   0.00000,   0.00000,   0.00000,-448958073.29182,   0.00000
620902.38833,28283174.30993,3266619.46177,  -0.00005,   0.00013,   0.00004,28544260.13172,   0.00000,274640135.82653,   0.00000,   0.00000,   0.00000,-446095875.69481,   0.00000
737130.42162,31164406.08240,3584717.23708,  -0.00006,   0.00014,   0.00005,31421997.53264,   0.00000,274640135.82653,   0.00000,   0.00000,   0.00000,-443218138.29389,   0.00000
853358.45490,34045637.85486,3902815.01238,  -0.00006,   0.00015,   0.00005,34299802.32805,   0.00000,274640135.82653,   0.00000,   0.00000,   0.00000,-440340333.49848,   0.00000
969586.48819,36926869.62732,4214795.52277,  -0.00007,   0.00017,   0.00005,37175576.77409,   0.00000,274640135.82653,   0.00000,   0.00000,   0.00000,-437464559.05244,   0.00000
1094990.41883,39829511.82697,4526776.03317,  -0.00007,   0.00018,   0.00006,40068081.88968,   0.00000,274640135.82653,   0.00000,   0.00000,   0.00000,-434572053.93685,   0.00000
1232628.87930,42719919.49679,4838756.54356,  -0.00008,   0.00019,   0.00006,42942913.08164,   0.00000,274640135.82653,   0.00000,   0.00000,   0.00000,-431697222.74489,   0.00000
1379443.23713,45631737.59380,5144619.78905,  -0.00008,   0.00020,   0.00007,45832447.95964,   0.00000,274640135.82653,   0.00000,   0.00000,   0.00000,-428807687.86689,   0.00000
1526257.59497,48543555.69082,5456600.29944,  -0.00009,   0.00022,   0.00007,48724118.78400,   0.00000,274640135.82653,   0.00000,   0.00000,   0.00000,-425916017.04253,   0.00000
1673071.95280,51455373.78783,5762463.54492,  -0.00009,   0.00023,   0.00007,51613797.35128,   0.00000,274640135.82653,   0.00000,   0.00000,   0.00000,-423026338.47525,   0.00000
1841296.73782,54376367.78220,6062209.52550,  -0.00010,   0.00024,   0.00008,54500530.92625,   0.00000,274640135.82653,   0.00000,   0.00000,   0.00000,-420139604.90028,   0.00000
2018697.42020,57318772.20376,6368072.77098,  -0.00010,   0.00026,   0.00008,57406137.13789,   0.00000,274640135.82653,   0.00000,   0.00000,   0.00000,-417233998.68864,   0.00000
2208332.63240,60248942.09550,6667818.75156,  -0.00011,   0.00027,   0.00009,60292134.41616,   0.00000,274640135.82653,   0.00000,   0.00000,   0.00000,-414348001.41037,   0.00000
2385733.31478,63191346.51706,6967564.73213,  -0.00011,   0.00028,   0.00009,63195895.21786,   0.00000,274640135.82653,   0.00000,   0.00000,   0.00000,-411444240.60867,   0.00000
2575368.52698,66121516.40880,7261193.44780,  -0.00012,   0.00030,   0.00009,66080064.87431,   0.00000,274640135.82653,   0.00000,   0.00000,   0.00000,-408560070.95222,   0.00000
2774179.63654,69073096.72772,7554822.16346,  -0.00012,   0.00031,   0.00010,68981110.45498,   0.00000,274640135.82653,   0.00000,   0.00000,   0.00000,-405659025.37155,   0.00000
2994401.17329,72033852.94401,7848450.87913,  -0.00013,   0.00032,   0.00010,71881421.09182,   0.00000,274640135.82653,   0.00000,   0.00000,   0.00000,-402758714.73471,   0.00000
3214622.71004,74994609.16030,8142079.59479,  -0.00013,   0.00033,   0.00011,74781857.48509,   0.00000,274640135.82653,   0.00000,   0.00000,   0.00000,-399858278.34144,   0.00000
3434844.24679,77955365.37659,8429591.04555,  -0.00014,   0.00035,   0.00011,77680413.38273,   0.00000,274640135.82653,   0.00000,   0.00000,   0.00000,-396959722.44380,   0.00000
3655065.78354,80916121.59287,8717102.49630,  -0.00014,   0.00036,   0.00011,80579079.91493,   0.00000,274640135.82653,   0.00000,   0.00000,   0.00000,-394061055.91160,   0.00000
3896697.74747,83886053.70653,9004613.94706,  -0.00015,   0.00037,   0.00012,83477091.94907,   0.00000,274640135.82653,   0.00000,   0.00000,   0.00000,-391163043.87746,   0.00000
4138329.71140,86855985.82018,9286008.13290,  -0.00015,   0.00039,   0.00012,86373255.00406,   0.00000,274640135.82653,   0.00000,   0.00000,   0.00000,-388266880.82247,   0.00000
4389137.57270,89847328.36102,9567402.31875,  -0.00016,   0.00040,   0.00012,89286394.36619,   0.00000,274640135.82653,   0.00000,   0.00000,   0.00000,-385353741.46034,   0.00000
4652179.96382,92826436.37203,9848796.50459,  -0.00016,   0.00041,   0.00013,92182108.66709,   0.00000,274640135.82653,   0.00000,   0.00000,   0.00000,-382458027.15944,   0.00000
4915222.35493,95805544.38305,10124073.42553,  -0.00016,   0.00043,   0.00013,95076005.28014,   0.00000,274640135.82653,   0.00000,   0.00000,   0.00000,-379564130.54639,   0.00000
5178264.74605,98784652.39407,10399350.34647,  -0.00017,   0.00044,   0.00014,97970038.04398,   0.00000,274640135.82653,   0.00000,   0.00000,   0.00000,-376670097.78254,   0.00000
5462717.56435,101772936.30245,10674627.26740,  -0.00017,   0.00045,   0.00014,100863561.51747,   0.00000,274640135.82653,   0.00000,   0.00000,   0.00000,-373776574.30905,   0.00000
5747170.38265,104761220.21083,10949904.18834,  -0.00018,   0.00047,   0.00014,103757235.17242,   0.00000,274640135.82653,   0.00000,   0.00000,   0.00000,-370882900.65411,   0.00000
6031623.20095,107749504.11921,11219063.84436,  -0.00018,   0.00048,   0.00015,106649115.73975,   0.00000,274640135.82653,   0.00000,   0.00000,   0.00000,-367991020.08678,   0.00000
6346662.34380,110768374.35214,11488223.50039,  -0.00019,   0.00049,   0.00015,109557479.19117,   0.00000,274640135.82653,   0.00000,   0.00000,   0.00000,-365082656.63536,   0.00000
6621939.26474,113735247.83334,11751265.89151,  -0.00019,   0.00050,   0.00015,112430803.27955,   0.00000,274640135.82653,   0.00000,   0.00000,   0.00000,-362209332.54698,   0.00000
6949212.93740,116741883.53645,12020425.54753,  -0.00020,   0.00052,   0.00016,115322012.71098,   0.00000,274640135.82653,   0.00000,   0.00000,   0.00000,-359318123.11555,   0.00000
7255076.18289,119739343.34220,12277350.67374,  -0.00020,   0.00053,   0.00016,118210102.93161,   0.00000,274640135.82653,   0.00000,   0.00000,   0.00000,-356430032.89492,   0.00000
7582349.85556,122745979.04531,12540393.06486,  -0.00020,   0.00054,   0.00016,121099747.39570,   0.00000,274640135.82653,   0.00000,   0.00000,   0.00000,-353540388.43083,   0.00000
7909623.52822,125752614.74842,12797318.19106,  -0.00021,   0.00056,   0.00017,123987662.60690,   0.00000,274640135.82653,   0.00000,   0.00000,   0.00000,-350652473.21963,   0.00000
8249131.73071,128747015.92171,13054243.31727,  -0.00021,   0.00057,   0.00017,126858310.70348,   0.00000,274640135.82653,   0.00000,   0.00000,   0.00000,-347781825.12305,   0.00000
8597815.83056,131762827.52219,13311168.44348,  -0.00022,   0.00058,   0.00017,129746114.56741,   0.00000,274640135.82653,   0.00000,   0.00000,   0.00000,-344894021.25912,   0.00000
8937324.03305,134757228.69548,13561976.30477,  -0.00022,   0.00060,   0.00018,132615229.26038,   0.00000,274640135.82653,   0.00000,   0.00000,   0.00000,-342024906.56615,   0.00000
9276832.23554,137751629.86877,13812784.16607,  -0.00023,   0.00061,   0.00018,135484506.14967,   0.00000,274640135.82653,   0.00000,   0.00000,   0.00000,-339155629.67686,   0.00000
9637750.86521,140755206.93943,14063592.02737,  -0.00023,   0.00062,   0.00018,138353549.88931,   0.00000,274640135.82653,   0.00000,   0.00000,   0.00000,-336286585.93722,   0.00000
9998669.49488,143758784.01008,14308282.62376,  -0.00023,   0.00063,   0.00019,141220910.83953,   0.00000,274640135.82653,   0.00000,   0.00000,   0.00000,-333419224.98700,   0.00000
10371822.65437,146750126.55092,14552973.22014,  -0.00024,   0.00065,   0.00019,144071076.72753,   0.00000,274640135.82653,   0.00000,   0.00000,   0.00000,-330569059.09900,   0.00000
10754151.71123,149762879.51894,14791546.55162,  -0.00024,   0.00066,   0.00019,146936614.50415,   0.00000,274640135.82653,   0.00000,   0.00000,   0.00000,-327703521.32238,   0.00000
11127304.87072,152754222.05977,15036237.14801,  -0.00025,   0.00067,   0.00020,149787154.83758,   0.00000,274640135.82653,   0.00000,   0.00000,   0.00000,-324852980.98895,   0.00000
11521868.45739,155754740.49798,15274810.47949,  -0.00025,   0.00069,   0.00020,152635731.44667,   0.00000,274640135.82653,   0.00000,   0.00000,   0.00000,-322004404.37986,   0.00000
11895021.61688,158746083.03881,15507266.54605,  -0.00026,   0.00070,   0.00020,155482951.72552,   0.00000,274640135.82653,   0.00000,   0.00000,   0.00000,-319157184.10101,   0.00000
12310995.63074,161755777.37438,15739722.61262,  -0.00026,   0.00071,   0.00020,158329826.82575,   0.00000,274640135.82653,   0.00000,   0.00000,   0.00000,-316310309.00078,   0.00000
12696383.32005,164734885.38540,15972178.67919,  -0.00026,   0.00072,   0.00021,161160090.70670,   0.00000,274640135.82653,   0.00000,   0.00000,   0.00000,-313480045.11983,   0.00000
13112357.33391,167744579.72096,16204634.74576,  -0.00027,   0.00074,   0.00021,164007382.85887,   0.00000,274640135.82653,   0.00000,   0.00000,   0.00000,-310632752.96766,   0.00000
13540565.87759,170742039.52671,16430973.54742,  -0.00027,   0.00075,   0.00021,166835781.01501,   0.00000,274640135.82653,   0.00000,   0.00000,   0.00000,-307804354.81152,   0.00000
13938188.09672,173708913.00791,16657312.34908,  -0.00028,   0.00076,   0.00022,169647488.06366,   0.00000,274640135.82653,   0.00000,   0.00000,   0.00000,-304992647.76287,   0.00000
14366396.64040,176706372.81365,16883651.15073,  -0.00028,   0.00078,   0.00022,172476301.94667,   0.00000,274640135.82653,   0.00000,   0.00000,   0.00000,-302163833.87986,   0.00000
14785429.28671,179682422.19221,17103872.68748,  -0.00028,   0.00079,   0.00022,175286415.33044,   0.00000,274640135.82653,   0.00000,   0.00000,   0.00000,-299353720.49609,   0.00000
15225872.36021,182667647.46814,17324094.22423,  -0.00029,   0.00080,   0.00023,178096589.12527,   0.00000,274640135.82653,   0.00000,   0.00000,   0.00000,-296543546.70126,   0.00000
15666315.43371,185652872.74407,17538198.49607,  -0.00029,   0.00081,   0.00023,180905199.90115,   0.00000,274640135.82653,   0.00000,   0.00000,   0.00000,-293734935.92538,   0.00000
16118993.03702,188625863.49017,17752302.76791,  -0.00029,   0.00083,   0.00023,183696793.91441,   0.00000,274640135.82653,   0.00000,   0.00000,   0.00000,-290943341.91212,   0.00000
16550260.21316,191589678.33892,17966407.03975,  -0.00030,   0.00084,   0.00023,186488692.08138,   0.00000,274640135.82653,   0.00000,   0.00000,   0.00000,-288151443.74515,   0.00000
17002937.81647,194562669.08503,18180511.31159,  -0.00030,   0.00085,   0.00024,189280712.45289,   0.00000,274640135.82653,   0.00000,   0.00000,   0.00000,-285359423.37364,   0.00000
17467849.94961,197523425.30131,18388498.31852,  -0.00031,   0.00086,   0.00024,192053977.78010,   0.00000,274640135.82653,   0.00000,   0.00000,   0.00000,-282586158.04643,   0.00000
17932762.08275,200484181.51760,18596485.32545,  -0.00031,   0.00088,   0.00024,194827471.53717,   0.00000,274640135.82653,   0.00000,   0.00000,   0.00000,-279812664.28935,   0.00000
18397674.21588,203444937.73389,18798355.06747,  -0.00031,   0.00089,   0.00024,197599437.95601,   0.00000,274640135.82653,   0.00000,   0.00000,   0.00000,-277040697.87052,   0.00000
18853410.45165,206384283.52299,19000224.80949,  -0.00032,   0.00090,   0.00025,200354439.90928,   0.00000,274640135.82653,   0.00000,   0.00000,   0.00000,-274285695.91725,   0.00000
19330557.11461,209332805.20946,19202094.55151,  -0.00032,   0.00091,   0.00025,203109663.31924,   0.00000,274640135.82653,   0.00000,   0.00000,   0.00000,-271530472.50729,   0.00000
19829114.20475,212290502.79330,19397847.02862,  -0.00032,   0.00093,   0.00025,205863421.05858,   0.00000,274640135.82653,   0.00000,   0.00000,   0.00000,-268776714.76795,   0.00000
20297084.97034,215217614.05258,19599716.77063,  -0.00033,   0.00094,   0.00025,208601892.48832,   0.00000,274640135.82653,   0.00000,   0.00000,   0.00000,-266038243.33821,   0.00000
20786466.16311,218153901.20923,19789351.98283,  -0.00033,   0.00095,   0.00026,211337191.37488,   0.00000,274640135.82653,   0.00000,   0.00000,   0.00000,-263302944.45165,   0.00000
21266671.45852,221068777.93870,19985104.45994,  -0.00033,   0.00096,   0.00026,214057216.70829,   0.00000,274640135.82653,   0.00000,   0.00000,   0.00000,-260582919.11824,   0.00000
21768287.18112,223992830.56553,20174739.67215,  -0.00034,   0.00098,   0.00026,216775844.06896,   0.00000,274640135.82653,   0.00000,   0.00000,   0.00000,-257864291.75757,   0.00000
22269902.90371,226916883.19236,20358257.61944,  -0.00034,   0.00099,   0.00026,219493005.48552,   0.00000,274640135.82653,   0.00000,   0.00000,   0.00000,-255147130.34101,   0.00000
22762342.72894,229819525.39200,20547892.83164,  -0.00034,   0.00100,   0.00027,222194859.06429,   0.00000,274640135.82653,   0.00000,   0.00000,   0.00000,-252445276.76224,   0.00000
23276192.98136,232731343.48901,20725293.51402,  -0.00035,   0.00101,   0.00027,224893692.91239,   0.00000,274640135.82653,   0.00000,   0.00000,   0.00000,-249746442.91414,   0.00000
23780867.33641,235621751.15884,20908811.46131,  -0.00035,   0.00103,   0.00027,227577206.36022,   0.00000,274640135.82653,   0.00000,   0.00000,   0.00000,-247062929.46631,   0.00000
24306952.11864,238521334.72603,21086212.14369,  -0.00035,   0.00104,   0.00027,230259448.02772,   0.00000,274640135.82653,   0.00000,   0.00000,   0.00000,-244380687.79881,   0.00000
24811626.47369,241411742.39586,21263612.82607,  -0.00036,   0.00105,   0.00028,232941734.96271,   0.00000,274640135.82653,   0.00000,   0.00000,   0.00000,-241698400.86382,   0.00000
25328535.35856,244289915.53586,21441013.50845,  -0.00036,   0.00106,   0.00028,235607179.33321,   0.00000,274640135.82653,   0.00000,   0.00000,   0.00000,-239032956.49332,   0.00000
25857678.77324,247155854.14605,21612296.92592,  -0.00036,   0.00107,   0.00028,238254135.83401,   0.00000,274640135.82653,   0.00000,   0.00000,   0.00000,-236385999.99252,   0.00000
26395998.08530,250043203.18342,21783580.34339,  -0.00037,   0.00109,   0.00028,240918628.12661,   0.00000,274640135.82653,   0.00000,   0.00000,   0.00000,-233721507.69992,   0.00000
26915965.60262,252887731.36643,21948746.49595,  -0.00037,   0.00110,   0.00029,243547118.27371,   0.00000,274640135.82653,   0.00000,   0.00000,   0.00000,-231093017.55282,   0.00000
27457343.54713,255741435.44680,22113912.64852,  -0.00037,   0.00111,   0.00029,246176120.82538,   0.00000,274640135.82653,   0.00000,   0.00000,   0.00000,-228464015.00115,   0.00000
27977311.06445,258585963.62980,22279078.80108,  -0.00038,   0.00112,   0.00029,248805069.55457,   0.00000,274640135.82653,   0.00000,   0.00000,   0.00000,-225835066.27196,   0.00000
28530923.53878,261427433.18035,22444244.95364,  -0.00038,   0.00113,   0.00029,251417546.53336,   0.00000,274640135.82653,   0.00000,   0.00000,   0.00000,-223222589.29317,   0.00000
29053949.68855,264238316.40635,22603293.84129,  -0.00038,   0.00115,   0.00029,254010983.57460,   0.00000,274640135.82653,   0.00000,   0.00000,   0.00000,-220629152.25193,   0.00000
29607562.16288,267079785.95690,22756225.46403,  -0.00039,   0.00116,   0.00030,256620684.72934,   0.00000,274640135.82653,   0.00000,   0.00000,   0.00000,-218019451.09719,   0.00000
30164233.26966,269887610.55045,22915274.35168,  -0.00039,   0.00117,   0.00030,259197954.95331,   0.00000,274640135.82653,   0.00000,   0.00000,   0.00000,-215442180.87322,   0.00000
30699493.94926,272686259.24663,23068205.97443,  -0.00039,   0.00118,   0.00030,261773472.92174,   0.00000,274640135.82653,   0.00000,   0.00000,   0.00000,-212866662.90479,   0.00000
31246989.15868,275472673.41299,23215020.33226,  -0.00039,   0.00119,   0.00030,264330641.42512,   0.00000,274640135.82653,   0.00000,   0.00000,   0.00000,-210309494.40141,   0.00000
31794484.36809,278259087.57935,23367951.95500,  -0.00040,   0.00120,   0.00030,266889655.81700,   0.00000,274640135.82653,   0.00000,   0.00000,   0.00000,-207750480.00953,   0.00000
32363390.00469,281054677.64308,23514766.31283,  -0.00040,   0.00122,   0.00031,269447715.51580,   0.00000,274640135.82653,   0.00000,   0.00000,   0.00000,-205192420.31072,   0.00000
32913943.84657,283807446.85244,23655463.40576,  -0.00040,   0.00123,   0.00031,271969695.12488,   0.00000,274640135.82653,   0.00000,   0.00000,   0.00000,-202670440.70165,   0.00000
33473673.58580,286581626.48898,23802277.76359,  -0.00041,   0.00124,   0.00031,274510875.78423,   0.00000,274640135.82653,   0.00000,   0.00000,   0.00000,-200129260.04230,   0.00000
34036461.95749,289322161.16852,23936857.59160,  -0.00041,   0.00125,   0.00031,277014819.83428,   0.00000,274640135.82653,   0.00000,   0.00000,   0.00000,-197625315.99225,   0.00000
34599250.32919,292062695.84806,24077554.68453,  -0.00041,   0.00126,   0.00031,279520593.19963,   0.00000,274640135.82653,   0.00000,   0.00000,   0.00000,-195119542.62690,   0.00000
35183449.12806,294812406.42496,24212134.51254,  -0.00041,   0.00127,   0.00031,282025522.14970,   0.00000,274640135.82653,   0.00000,   0.00000,   0.00000,-192614613.67683,   0.00000
35727885.70502,297510120.25014,24346714.34055,  -0.00042,   0.00128,   0.00032,284495401.35714,   0.00000,274640135.82653,   0.00000,   0.00000,   0.00000,-190144734.46939,   0.00000
36302908.60653,300238420.39986,24481294.16856,  -0.00042,   0.00130,   0.00032,286983420.45152,   0.00000,274640135.82653,   0.00000,   0.00000,   0.00000,-187656715.37501,   0.00000
36880990.14050,302933075.59257,24609756.73167,  -0.00042,   0.00131,   0.00032,289435838.01377,   0.00000,274640135.82653,   0.00000,   0.00000,   0.00000,-185204297.81276,   0.00000
37437661.24728,305618554.88792,24738219.29477,  -0.00043,   0.00132,   0.00032,291887947.89148,   0.00000,274640135.82653,   0.00000,   0.00000,   0.00000,-182752187.93505,   0.00000
38037153.20843,308322385.97801,24860564.59296,  -0.00043,   0.00133,   0.00032,294339864.61569,   0.00000,274640135.82653,   0.00000,   0.00000,   0.00000,-180300271.21084,   0.00000
38596882.94767,310974220.31635,24982909.89116,  -0.00043,   0.00134,   0.00032,296756612.14746,   0.00000,274640135.82653,   0.00000,   0.00000,   0.00000,-177883523.67907,   0.00000
39178023.11409,313635230.55207,25105255.18935,  -0.00043,   0.00135,   0.00033,299174177.59724,   0.00000,274640135.82653,   0.00000,   0.00000,   0.00000,-175465958.22929,   0.00000
39759163.28051,316296240.78778,25221483.22264,  -0.00044,   0.00136,   0.00033,301590448.73239,   0.00000,274640135.82653,   0.00000,   0.00000,   0.00000,-173049687.09414,   0.00000
40321951.65220,318914430.16913,25337711.25592,  -0.00044,   0.00137,   0.00033,303972071.34166,   0.00000,274640135.82653,   0.00000,   0.00000,   0.00000,-170668064.48487,   0.00000
40915326.34844,321563205.87502,25453939.28920,  -0.00044,   0.00138,   0.00033,306372004.05522,   0.00000,274640135.82653,   0.00000,   0.00000,   0.00000,-168268131.77131,   0.00000
41490349.24995,324169160.72655,25564050.05758,  -0.00044,   0.00139,   0.00033,308735751.28007,   0.00000,274640135.82653,   0.00000,   0.00000,   0.00000,-165904384.54646,   0.00000
42065372.15146,326775115.57807,25674160.82595,  -0.00045,   0.00140,   0.00033,311099730.71513,   0.00000,274640135.82653,   0.00000,   0.00000,   0.00000,-163540405.11140,   0.00000
42652629.58279,329368835.89978,25784271.59433,  -0.00045,   0.00142,   0.00034,313447150.09632,   0.00000,274640135.82653,   0.00000,   0.00000,   0.00000,-161192985.73021,   0.00000
43230711.11675,331941145.79430,25888265.09779,  -0.00045,   0.00143,   0.00034,315775828.21144,   0.00000,274640135.82653,   0.00000,   0.00000,   0.00000,-158864307.61509,   0.00000
43808792.65072,334513455.68883,25992258.60126,  -0.00045,   0.00144,   0.00034,318104737.86605,   0.00000,274640135.82653,   0.00000,   0.00000,   0.00000,-156535397.96047,   0.00000
44377698.28732,337064355.15617,26096252.10472,  -0.00046,   0.00145,   0.00034,320416389.23022,   0.00000,274640135.82653,   0.00000,   0.00000,   0.00000,-154223746.59631,   0.00000
44958838.45374,339603020.09369,26194128.34328,  -0.00046,   0.00146,   0.00034,322710006.30916,   0.00000,274640135.82653,   0.00000,   0.00000,   0.00000,-151930129.51737,   0.00000
45539978.62016,342141685.03121,26292004.58183,  -0.00046,   0.00147,   0.00034,325003855.02656,   0.00000,274640135.82653,   0.00000,   0.00000,   0.00000,-149636280.79997,   0.00000
46133353.31640,344668115.43891,26389880.82039,  -0.00046,   0.00148,   0.00034,327281190.37171,   0.00000,274640135.82653,   0.00000,   0.00000,   0.00000,-147358945.45482,   0.00000
46717552.11527,347173135.41942,26481639.79403,  -0.00046,   0.00149,   0.00034,329539782.61230,   0.00000,274640135.82653,   0.00000,   0.00000,   0.00000,-145100353.21423,   0.00000
47292575.01678,349656744.97276,26573398.76768,  -0.00047,   0.00150,   0.00035,331781096.02735,   0.00000,274640135.82653,   0.00000,   0.00000,   0.00000,-142859039.79918,   0.00000
47867597.91829,352140354.52609,26665157.74132,  -0.00047,   0.00151,   0.00035,334022626.81901,   0.00000,274640135.82653,   0.00000,   0.00000,   0.00000,-140617509.00751,   0.00000
48454855.34962,354611729.54960,26750799.45006,  -0.00047,   0.00152,   0.00035,336246200.71334,   0.00000,274640135.82653,   0.00000,   0.00000,   0.00000,-138393935.11319,   0.00000
49032936.88359,357061694.14593,26836441.15879,  -0.00047,   0.00153,   0.00035,338452481.94598,   0.00000,274640135.82653,   0.00000,   0.00000,   0.00000,-136187653.88055,   0.00000
49601842.52019,359490248.31508,26922082.86753,  -0.00048,   0.00154,   0.00035,340641451.33607,   0.00000,274640135.82653,   0.00000,   0.00000,   0.00000,-133998684.49046,   0.00000
50170748.15679,361918802.48422,27001607.31136,  -0.00048,   0.00155,   0.00035,342829180.29504,   0.00000,274640135.82653,   0.00000,   0.00000,   0.00000,-131810955.53149,   0.00000
50751888.32321,364335122.12355,27081131.75518,  -0.00048,   0.00156,   0.00035,345000439.19152,   0.00000,274640135.82653,   0.00000,   0.00000,   0.00000,-129639696.63501,   0.00000
51323852.59227,366730031.33569,27160656.19901,  -0.00048,   0.00157,   0.00035,347154374.01024,   0.00000,274640135.82653,   0.00000,   0.00000,   0.00000,-127485761.81629,   0.00000
51917227.28851,369134116.44520,27234063.37792,  -0.00048,   0.00158,   0.00035,349307969.01000,   0.00000,274640135.82653,   0.00000,   0.00000,   0.00000,-125332166.81653,   0.00000
52470839.76283,371486204.80297,27307470.55684,  -0.00049,   0.00159,   0.00035,351425796.01197,   0.00000,274640135.82653,   0.00000,   0.00000,   0.00000,-123214339.81456,   0.00000
53045862.66434,373847469.05811,27374760.47085,  -0.00049,   0.00160,   0.00036,353543299.60897,   0.00000,274640135.82653,   0.00000,   0.00000,   0.00000,-121096836.21756,   0.00000
53633120.09567,376196498.78343,27448167.64976,  -0.00049,   0.00161,   0.00036,355645794.28312,   0.00000,274640135.82653,   0.00000,   0.00000,   0.00000,-118994341.54341,   0.00000
54189791.20246,378514942.18420,27515457.56377,  -0.00049,   0.00162,   0.00036,357728598.88208,   0.00000,274640135.82653,   0.00000,   0.00000,   0.00000,-116911536.94445,   0.00000
54767872.73642,380842561.48234,27576630.21287,  -0.00049,   0.00163,   0.00036,359811132.65478,   0.00000,274640135.82653,   0.00000,   0.00000,   0.00000,-114829003.17175,   0.00000
55327602.47566,383127359.92610,27643920.12687,  -0.00050,   0.00164,   0.00036,361860136.25716,   0.00000,274640135.82653,   0.00000,   0.00000,   0.00000,-112779999.56936,   0.00000
55887332.21489,385412158.36987,27705092.77597,  -0.00050,   0.00164,   0.00036,363907934.62649,   0.00000,274640135.82653,   0.00000,   0.00000,   0.00000,-110732201.20004,   0.00000
56437886.05677,387675546.38646,27760148.16016,  -0.00050,   0.00165,   0.00036,365936952.78321,   0.00000,274640135.82653,   0.00000,   0.00000,   0.00000,-108703183.04332,   0.00000
57009850.32582,389948110.30040,27821320.80925,  -0.00050,   0.00166,   0.00036,367968539.46048,   0.00000,274640135.82653,   0.00000,   0.00000,   0.00000,-106671596.36605,   0.00000
57563462.80015,392177853.35998,27876376.19344,  -0.00050,   0.00167,   0.00036,369963758.61927,   0.00000,274640135.82653,   0.00000,   0.00000,   0.00000,-104676377.20726,   0.00000
58117075.27447,394407596.41956,27925314.31272,  -0.00050,   0.00168,   0.00036,371957793.46637,   0.00000,274640135.82653,   0.00000,   0.00000,   0.00000,-102682342.36016,   0.00000
58673746.38126,396603694.52214,27980369.69690,  -0.00051,   0.00169,   0.00036,373919212.80123,   0.00000,274640135.82653,   0.00000,   0.00000,   0.00000,-100720923.02530,   0.00000
59209007.06085,398790616.72736,28029307.81618,  -0.00051,   0.00170,   0.00036,375878427.62690,   0.00000,274640135.82653,   0.00000,   0.00000,   0.00000,-98761708.19963,   0.00000
59756502.27027,400965304.40275,28078245.93546,  -0.00051,   0.00171,   0.00037,377821246.70267,   0.00000,274640135.82653,   0.00000,   0.00000,   0.00000,-96818889.12386,   0.00000
60325407.90687,403149167.97551,28121066.78983,  -0.00051,   0.00172,   0.00037,379763942.02877,   0.00000,274640135.82653,   0.00000,   0.00000,   0.00000,-94876193.79776,   0.00000
60854551.32156,405281034.79653,28163887.64420,  -0.00051,   0.00173,   0.00037,381670553.94977,   0.00000,274640135.82653,   0.00000,   0.00000,   0.00000,-92969581.87676,   0.00000
61405105.16343,407422077.51492,28206708.49856,  -0.00052,   0.00173,   0.00037,383578409.04301,   0.00000,274640135.82653,   0.00000,   0.00000,   0.00000,-91061726.78352,   0.00000
61915896.78339,409511123.48158,28249529.35293,  -0.00052,   0.00174,   0.00037,385450123.62495,   0.00000,274640135.82653,   0.00000,   0.00000,   0.00000,-89190012.20158,   0.00000
62448098.83053,411609345.34560,28286232.94239,  -0.00052,   0.00175,   0.00037,387321739.73053,   0.00000,274640135.82653,   0.00000,   0.00000,   0.00000,-87318396.09600,   0.00000
62992535.40749,413695332.67981,28322936.53185,  -0.00052,   0.00176,   0.00037,389176998.43096,   0.00000,274640135.82653,   0.00000,   0.00000,   0.00000,-85463137.39557,   0.00000
63515561.55727,415772144.11664,28353522.85640,  -0.00052,   0.00177,   0.00037,391030009.00820,   0.00000,274640135.82653,   0.00000,   0.00000,   0.00000,-83610126.81833,   0.00000
64041646.33951,417815310.59648,28390226.44585,  -0.00052,   0.00178,   0.00037,392850354.14417,   0.00000,274640135.82653,   0.00000,   0.00000,   0.00000,-81789781.68236,   0.00000
64558555.22437,419837066.64913,28414695.50549,  -0.00052,   0.00178,   0.00037,394650579.49369,   0.00000,274640135.82653,   0.00000,   0.00000,   0.00000,-79989556.33284,   0.00000
65075464.10924,421858822.70178,28445281.83004,  -0.00053,   0.00179,   0.00037,396452299.55146,   0.00000,274640135.82653,   0.00000,   0.00000,   0.00000,-78187836.27507,   0.00000
65574021.19938,423837757.90007,28475868.15459,  -0.00053,   0.00180,   0.00037,398218879.96157,   0.00000,274640135.82653,   0.00000,   0.00000,   0.00000,-76421255.86496,   0.00000
66093988.71670,425825868.99571,28500337.21423,  -0.00053,   0.00181,   0.00037,399985454.15268,   0.00000,274640135.82653,   0.00000,   0.00000,   0.00000,-74654681.67385,   0.00000
66583369.90948,427783393.76681,28518689.00896,  -0.00053,   0.00182,   0.00037,401732079.93788,   0.00000,274640135.82653,   0.00000,   0.00000,   0.00000,-72908055.88865,   0.00000
67084985.63207,429728684.00809,28543158.06860,  -0.00053,   0.00182,   0.00037,403463666.49526,   0.00000,274640135.82653,   0.00000,   0.00000,   0.00000,-71176469.33127,   0.00000
67577425.45730,431652563.82219,28561509.86333,  -0.00053,   0.00183,   0.00037,405176449.05347,   0.00000,274640135.82653,   0.00000,   0.00000,   0.00000,-69463686.77306,   0.00000
68069865.28253,433576443.63629,28579861.65805,  -0.00054,   0.00184,   0.00037,406889388.41539,   0.00000,274640135.82653,   0.00000,   0.00000,   0.00000,-67750747.41114,   0.00000
68565363.74022,435466678.49338,28598213.45278,  -0.00054,   0.00185,   0.00037,408568328.94060,   0.00000,274640135.82653,   0.00000,   0.00000,   0.00000,-66071806.88593,   0.00000
69030275.87335,437326327.02592,28610447.98260,  -0.00054,   0.00186,   0.00037,410227268.10532,   0.00000,274640135.82653,   0.00000,   0.00000,   0.00000,-64412867.72121,   0.00000
69516598.43367,439195151.45583,28622682.51242,  -0.00054,   0.00186,   0.00037,411887556.74935,   0.00000,274640135.82653,   0.00000,   0.00000,   0.00000,-62752579.07718,   0.00000
69993745.09663,441042565.45856,28634917.04224,  -0.00054,   0.00187,   0.00037,413530317.41034,   0.00000,274640135.82653,   0.00000,   0.00000,   0.00000,-61109818.41619,   0.00000
70452539.96486,442847158.60692,28641034.30715,  -0.00054,   0.00188,   0.00037,415136586.76656,   0.00000,274640135.82653,   0.00000,   0.00000,   0.00000,-59503549.05997,   0.00000
70911334.83308,444651751.75527,28653268.83697,  -0.00054,   0.00188,   0.00037,416744259.63550,   0.00000,274640135.82653,   0.00000,   0.00000,   0.00000,-57895876.19103,   0.00000
71360953.80394,446434934.47645,28653268.83697,  -0.00055,   0.00189,   0.00037,418331857.68991,   0.00000,274640135.82653,   0.00000,   0.00000,   0.00000,-56308278.13662,   0.00000
71801396.87744,448196706.77044,28659386.10188,  -0.00055,   0.00190,   0.00037,419903155.69979,   0.00000,274640135.82653,   0.00000,   0.00000,   0.00000,-54736980.12674,   0.00000
72254074.48076,449946244.53461,28659386.10188,  -0.00055,   0.00191,   0.00037,421456885.12603,   0.00000,274640135.82653,   0.00000,   0.00000,   0.00000,-53183250.70050,   0.00000
72676165.75953,451665195.97423,28659386.10188,  -0.00055,   0.00191,   0.00037,422991797.68492,   0.00000,274640135.82653,   0.00000,   0.00000,   0.00000,-51648338.14161,   0.00000
73119667.46548,453393323.31121,28659386.10188,  -0.00055,   0.00192,   0.00037,424528095.17990,   0.00000,274640135.82653,   0.00000,   0.00000,   0.00000,-50112040.64663,   0.00000
73544817.37670,455078629.79383,28659386.10188,  -0.00055,   0.00193,   0.00037,426029113.99690,   0.00000,274640135.82653,   0.00000,   0.00000,   0.00000,-48611021.82962,   0.00000
73960791.39056,456742525.84927,28653268.83697,  -0.00055,   0.00193,   0.00037,427511314.88404,   0.00000,274640135.82653,   0.00000,   0.00000,   0.00000,-47128820.94249,   0.00000
74376765.40442,458406421.90470,28647151.57206,  -0.00056,   0.00194,   0.00037,428993638.47636,   0.00000,274640135.82653,   0.00000,   0.00000,   0.00000,-45646497.35017,   0.00000
74795798.05073,460036673.00313,28641034.30715,  -0.00056,   0.00195,   0.00037,430441945.40323,   0.00000,274640135.82653,   0.00000,   0.00000,   0.00000,-44198190.42330,   0.00000
75193420.26986,461657748.20420,28628799.77733,  -0.00056,   0.00195,   0.00037,431887863.19758,   0.00000,274640135.82653,   0.00000,   0.00000,   0.00000,-42752272.62895,   0.00000
75581866.59163,463257412.97808,28616565.24751,  -0.00056,   0.00196,   0.00037,433316180.94761,   0.00000,274640135.82653,   0.00000,   0.00000,   0.00000,-41323954.87892,   0.00000
75982547.44321,464844843.22215,28604330.71769,  -0.00056,   0.00197,   0.00037,434728195.12857,   0.00000,274640135.82653,   0.00000,   0.00000,   0.00000,-39911940.69796,   0.00000
76364876.50007,466389452.61184,28592096.18787,  -0.00056,   0.00197,   0.00037,436104880.52080,   0.00000,274640135.82653,   0.00000,   0.00000,   0.00000,-38535255.30573,   0.00000
76725795.12974,467924886.10417,28579861.65805,  -0.00056,   0.00198,   0.00037,437480357.50619,   0.00000,274640135.82653,   0.00000,   0.00000,   0.00000,-37159778.32034,   0.00000
77098948.28923,469448085.06669,28561509.86333,  -0.00056,   0.00199,   0.00037,438838328.20535,   0.00000,274640135.82653,   0.00000,   0.00000,   0.00000,-35801807.62118,   0.00000
77462925.55136,470949873.60201,28543158.06860,  -0.00057,   0.00199,   0.00037,440178678.38079,   0.00000,274640135.82653,   0.00000,   0.00000,   0.00000,-34461457.44574,   0.00000
77817726.91612,472430251.71016,28518689.00896,  -0.00057,   0.00200,   0.00037,441500215.07038,   0.00000,274640135.82653,   0.00000,   0.00000,   0.00000,-33139920.75615,   0.00000
78163352.38352,473889219.39112,28500337.21423,  -0.00057,   0.00200,   0.00037,442805306.57266,   0.00000,274640135.82653,   0.00000,   0.00000,   0.00000,-31834829.25387,   0.00000
78499801.95355,475326776.64489,28475868.15459,  -0.00057,   0.00201,   0.00037,444091579.37750,   0.00000,274640135.82653,   0.00000,   0.00000,   0.00000,-30548556.44903,   0.00000
78836251.52358,476764333.89867,28451399.09495,  -0.00057,   0.00202,   0.00037,445377949.63245,   0.00000,274640135.82653,   0.00000,   0.00000,   0.00000,-29262186.19408,   0.00000
79154349.29888,478159070.29808,28420812.77040,  -0.00057,   0.00202,   0.00037,446627770.34802,   0.00000,274640135.82653,   0.00000,   0.00000,   0.00000,-28012365.47851,   0.00000
79463271.17682,479532396.27030,28396343.71076,  -0.00057,   0.00203,   0.00037,447861110.95336,   0.00000,274640135.82653,   0.00000,   0.00000,   0.00000,-26779024.87317,   0.00000
79793603.48195,480914898.13989,28365757.38622,  -0.00057,   0.00203,   0.00037,449094727.52982,   0.00000,274640135.82653,   0.00000,   0.00000,   0.00000,-25545408.29671,   0.00000
80084173.56516,482245403.25775,28335171.06167,  -0.00058,   0.00204,   0.00037,450291599.96677,   0.00000,274640135.82653,   0.00000,   0.00000,   0.00000,-24348535.85976,   0.00000
80374743.64837,483575908.37561,28304584.73712,  -0.00058,   0.00204,   0.00037,451488557.39547,   0.00000,274640135.82653,   0.00000,   0.00000,   0.00000,-23151578.43106,   0.00000
80668372.36403,484872768.53646,28267881.14766,  -0.00058,   0.00205,   0.00037,452650317.83964,   0.00000,274640135.82653,   0.00000,   0.00000,   0.00000,-21989817.98689,   0.00000
80940590.65251,486160452.79995,28231177.55820,  -0.00058,   0.00205,   0.00037,453810807.53908,   0.00000,274640135.82653,   0.00000,   0.00000,   0.00000,-20829328.28744,   0.00000
81194457.14627,487405316.20907,28194473.96874,  -0.00058,   0.00206,   0.00037,454935882.47957,   0.00000,274640135.82653,   0.00000,   0.00000,   0.00000,-19704253.34696,   0.00000
81469734.06720,488659355.51556,28157770.37929,  -0.00058,   0.00206,   0.00037,456062403.24845,   0.00000,274640135.82653,   0.00000,   0.00000,   0.00000,-18577732.57808,   0.00000
81714424.66359,489882808.49749,28121066.78983,  -0.00058,   0.00207,   0.00037,457169885.93162,   0.00000,274640135.82653,   0.00000,   0.00000,   0.00000,-17470249.89491,   0.00000
81962173.89243,491072616.52243,28078245.93546,  -0.00058,   0.00207,   0.00037,458242181.75826,   0.00000,274640135.82653,   0.00000,   0.00000,   0.00000,-16397954.06827,   0.00000
82188512.69409,492253248.65000,28035425.08109,  -0.00059,   0.00208,   0.00036,459313188.60707,   0.00000,274640135.82653,   0.00000,   0.00000,   0.00000,-15326947.21946,   0.00000
82405675.59838,493412470.35038,27992604.22672,  -0.00059,   0.00208,   0.00036,460366518.08574,   0.00000,274640135.82653,   0.00000,   0.00000,   0.00000,-14273617.74079,   0.00000
82635073.03250,494559457.52095,27949783.37236,  -0.00059,   0.00209,   0.00036,461403539.86400,   0.00000,274640135.82653,   0.00000,   0.00000,   0.00000,-13236595.96253,   0.00000
82833884.14206,495675858.36697,27900845.25308,  -0.00059,   0.00209,   0.00036,462420397.26142,   0.00000,274640135.82653,   0.00000,   0.00000,   0.00000,-12219738.56511,   0.00000
83023519.35426,496770848.78580,27851907.13380,  -0.00059,   0.00210,   0.00036,463419575.52902,   0.00000,274640135.82653,   0.00000,   0.00000,   0.00000,-11220560.29751,   0.00000
83225389.09628,497853604.67481,27802969.01452,  -0.00059,   0.00210,   0.00036,464402446.56327,   0.00000,274640135.82653,   0.00000,   0.00000,   0.00000,-10237689.26326,   0.00000
83396672.51375,498905774.23928,27754030.89525,  -0.00059,   0.00211,   0.00036,465366257.67132,   0.00000,274640135.82653,   0.00000,   0.00000,   0.00000,-9273878.15521,   0.00000
83558780.03386,499936533.37656,27705092.77597,  -0.00059,   0.00211,   0.00036,466312381.13436,   0.00000,274640135.82653,   0.00000,   0.00000,   0.00000,-8327754.69217,   0.00000
83711711.65660,500945882.08666,27650037.39178,  -0.00060,   0.00212,   0.00036,467239728.52762,   0.00000,274640135.82653,   0.00000,   0.00000,   0.00000,-7400407.29891,   0.00000
83855467.38198,501933820.36957,27594982.00759,  -0.00060,   0.00212,   0.00036,468149392.21869,   0.00000,274640135.82653,   0.00000,   0.00000,   0.00000,-6490743.60784,   0.00000
83990047.20999,502900348.22531,27539926.62341,  -0.00060,   0.00212,   0.00036,469041370.20243,   0.00000,274640135.82653,   0.00000,   0.00000,   0.00000,-5598765.62410,   0.00000
84115451.14064,503845465.65385,27484871.23922,  -0.00060,   0.00213,   0.00036,469915660.70201,   0.00000,274640135.82653,   0.00000,   0.00000,   0.00000,-4724475.12452,   0.00000
84240855.07129,504790583.08240,27429815.85503,  -0.00060,   0.00213,   0.00036,470790025.88685,   0.00000,274640135.82653,   0.00000,   0.00000,   0.00000,-3850109.93968,   0.00000
84347907.20721,505692879.65658,27368643.20594,  -0.00060,   0.00214,   0.00036,471627872.15111,   0.00000,274640135.82653,   0.00000,   0.00000,   0.00000,-3012263.67542,   0.00000
84445783.44576,506573765.80357,27307470.55684,  -0.00060,   0.00214,   0.00035,472448035.09007,   0.00000,274640135.82653,   0.00000,   0.00000,   0.00000,-2192100.73646,   0.00000
84522249.25713,507445476.05320,27246297.90774,  -0.00060,   0.00214,   0.00035,473266913.08817,   0.00000,274640135.82653,   0.00000,   0.00000,   0.00000,-1373222.73836,   0.00000
84601773.70096,508283541.34583,27185125.25865,  -0.00061,   0.00215,   0.00035,474051708.65796,   0.00000,274640135.82653,   0.00000,   0.00000,   0.00000,-588427.16857,   0.00000
84645418.51482,508906054.21714,27139183.34932,  -0.00061,   0.00215,   0.00035,474640136.07056,   0.00000,274640135.82653,   0.00000,   0.00000,   0.00000,   0.24403,   0.00000
84644494.48126,508911309.53941,27112083.96460,  -0.00061,   0.00215,   0.00035,474640136.07056,   0.00000,274640986.31654,  -0.00000,   0.00000,   0.00000,   0.30605,   1.00000
84646698.44584,508935023.29045,26999450.39789,  -0.00061,   0.00215,   0.00035,475389366.91108,   0.00000,274644248.89574,  -0.00000,   0.00000,   0.00000,  -0.00000,   2.00000
84627624.54399,508950858.47213,26887083.06405,  -0.00061,   0.00216,   0.00035,475391351.08693,   0.00001,274647505.75605,  -0.00000,   0.00001,   0.00000,   0.00000,   2.00000
84593038.12966,508960407.63357,26777031.05209,  -0.00061,   0.00216,   0.00035,475359159.65871,   0.00001,274650607.96863,  -0.00000,   0.00001,   0.00000,   0.00000,   2.00000
84558497.81220,508969863.20118,26667150.15400,  -0.00061,   0.00217,   0.00035,475362344.15855,   0.00001,274653710.43248,  -0.00001,   0.00001,   0.00000,   0.00000,   2.00000
84516231.32129,508976135.86981,26558497.42825,  -0.00061,   0.00217,   0.00035,475347762.80631,   0.00002,274656735.71800,  -0.00001,   0.00002,   0.00000,   0.00000,   2.00000
84458551.49893,508977193.81165,26446067.91436,  -0.00062,   0.00217,   0.00035,475314315.57070,   0.00002,274659601.95781,  -0.00001,   0.00002,   0.00000,   0.00000,   2.00000
84400863.97782,508977114.31384,26339847.58474,  -0.00062,   0.00217,   0.00035,475318291.74935,   0.00002,274662472.97926,  -0.00001,   0.00002,   0.00000,   0.00000,   2.00000
84314270.88889,508967134.42275,26228854.89414,  -0.00062,   0.00218,   0.00035,475301118.83593,   0.00002,274665256.61769,  -0.00001,   0.00003,   0.00000,  -0.00000,   2.00000
84220000.17377,508953982.31056,26119056.11552,  -0.00062,   0.00218,   0.00034,475286236.24253,   0.00003,274667963.25170,  -0.00001,   0.00003,   0.00000,   0.00000,   2.00000
84139334.81173,508945442.81033,26010362.52860,  -0.00062,   0.00218,   0.00034,475272617.94879,   0.00003,274670598.71352,  -0.00001,   0.00003,   0.00001,   0.00000,   2.00000
84029768.21768,508926975.87594,25896869.60258,  -0.00062,   0.00219,   0.00034,475255243.45699,   0.00003,274673146.98012,  -0.00001,   0.00003,   0.00001,   0.00000,   2.00000
83912451.70652,508904303.48862,25790598.41624,  -0.00062,   0.00219,   0.00034,475241136.13396,   0.00003,274675622.68449,  -0.00001,   0.00004,   0.00001,   0.00000,   2.00000
83766254.67106,508871686.73780,25679504.15495,  -0.00063,   0.00219,   0.00034,475223632.33745,   0.00003,274678011.37166,  -0.00001,   0.00004,   0.00001,  -0.00000,   2.00000
83633614.94770,508842672.49906,25575535.64352,  -0.00063,   0.00219,   0.00034,475210695.88106,   0.00004,274680333.31371,  -0.00002,   0.00004,   0.00001,   0.00000,   2.00000
83472086.97278,508803690.62762,25466721.53346,  -0.00063,   0.00220,   0.00034,475193062.19757,   0.00004,274682568.35566,  -0.00002,   0.00004,   0.00001,   0.00000,   2.00000
83324263.03468,508770343.70237,25352906.20144,  -0.00063,   0.00220,   0.00034,475177999.18317,   0.00004,274684728.06377,  -0.00002,   0.00005,   0.00001,   0.00000,   2.00000
83155214.15556,508728082.61658,25245340.54874,  -0.00063,   0.00220,   0.00034,475179958.60848,   0.00004,274686886.99535,  -0.00002,   0.00005,   0.00001,   0.00000,   2.00000
82949371.08938,508671685.62494,25139962.25463,  -0.00063,   0.00220,   0.00034,475145433.45422,   0.00004,274688886.12813,  -0.00002,   0.00005,   0.00001,   0.00000,   2.00000
82765074.13278,508624026.76934,25028555.82172,  -0.00063,   0.00221,   0.00033,475147913.08203,   0.00005,274690887.46420,  -0.00002,   0.00005,   0.00001,  -0.00000,   2.00000
82565246.30481,508570031.42792,24919239.85185,  -0.00064,   0.00221,   0.00033,475114549.76432,   0.00005,274692734.72453,  -0.00002,   0.00005,   0.00001,   0.00000,   2.00000
82344209.91475,508507097.28404,24816149.88450,  -0.00064,   0.00221,   0.00033,475116233.13006,   0.00005,274694581.40798,  -0.00002,   0.00006,   0.00001,   0.00000,   2.00000
82107695.85411,508438786.58751,24709057.20414,  -0.00064,   0.00221,   0.00033,475081780.77862,   0.00005,274696269.94452,  -0.00002,   0.00006,   0.00001,  -0.00000,   2.00000
81871423.44594,508371336.31494,24595989.55395,  -0.00064,   0.00221,   0.00033,475082698.12403,   0.00005,274697955.25881,  -0.00002,   0.00006,   0.00001,   0.00000,   2.00000
81606069.11169,508291767.06445,24490113.73990,  -0.00064,   0.00222,   0.00033,475066514.72966,   0.00005,274699562.79986,  -0.00002,   0.00006,   0.00001,   0.00000,   2.00000
81325114.39912,508205771.25839,24386254.84211,  -0.00064,   0.00222,   0.00033,475032829.95674,   0.00006,274701016.55688,  -0.00002,   0.00006,   0.00001,   0.88690,   1.00000
81065708.42794,508128491.85870,24276334.54461,  -0.00065,   0.00222,   0.00033,475034793.55501,   0.00006,274702472.68075,  -0.00002,   0.00006,   0.00001,   0.88910,   1.00000
80755931.67410,508032092.24631,24167580.22069,  -0.00065,   0.00222,   0.00033,475016258.04162,   0.00006,274703841.75682,  -0.00002,   0.00007,   0.00001,   0.78524,   1.00000
80459656.06953,507939313.38779,24065844.06069,  -0.00065,   0.00222,   0.00032,475002278.60565,   0.00006,274705144.01831,  -0.00002,   0.00007,   0.00001,   0.70983,   1.00000
80142293.87021,507839392.30829,23958166.57253,  -0.00065,   0.00222,   0.00032,475001675.04894,   0.00006,274706438.12917,  -0.00003,   0.00007,   0.00001,   0.70029,   1.00000
79830525.89466,507740869.43248,23852379.29219,  -0.00065,   0.00222,   0.00032,474968944.11359,   0.00006,274707583.89211,  -0.00003,   0.00007,   0.00001,   0.54842,   1.00000
79468371.72440,507624000.53953,23741646.11425,  -0.00065,   0.00223,   0.00032,474949320.88100,   0.00006,274708639.16370,  -0.00003,   0.00007,   0.00001,   0.46469,   1.00000
79127632.37071,507513920.29589,23636961.82082,  -0.00066,   0.00223,   0.00032,474952764.38421,   0.00006,274709705.01273,  -0.00003,   0.00007,   0.00001,   0.47354,   1.00000
78749746.88855,507389233.25892,23534250.53729,  -0.00066,   0.00223,   0.00032,474917493.70914,   0.00006,274710612.36146,  -0.00003,   0.00007,   0.00001,   0.34277,   1.00000
78372058.55599,507265218.54493,23425504.99777,  -0.00066,   0.00223,   0.00032,474917808.15011,   0.00007,274711517.26751,  -0.00003,   0.00007,   0.00001,   0.34052,   1.00000
77978477.45920,507134492.66943,23318644.11228,  -0.00066,   0.00223,   0.00032,474883593.71187,   0.00007,274712268.92028,  -0.00003,   0.00008,   0.00001,   0.23465,   1.00000
77563679.66548,506995448.72102,23211866.00718,  -0.00066,   0.00223,   0.00031,474883566.58257,   0.00007,274713017.30695,  -0.00003,   0.00008,   0.00001,   0.23231,   1.00000
77162232.92148,506859974.90804,23112038.96491,  -0.00067,   0.00223,   0.00031,474868960.81618,   0.00007,274713698.73168,  -0.00003,   0.00008,   0.00001,   0.19235,   1.00000
76731551.05755,506713809.13050,23007128.78620,  -0.00067,   0.00223,   0.00031,474850292.80539,   0.00007,274714295.71834,  -0.00003,   0.00008,   0.00001,   0.14743,   1.00000
76271603.27733,506556869.27401,22897123.92523,  -0.00067,   0.00223,   0.00031,474831609.95927,   0.00007,274714808.54669,  -0.00003,   0.00008,   0.00001,   0.10863,   1.00000
75803589.73013,506395356.52453,22794100.19309,  -0.00067,   0.00223,   0.00031,474815733.12755,   0.00007,274715249.82134,  -0.00003,   0.00008,   0.00001,   0.08031,   1.00000
75327533.65877,506230155.29468,22691976.79892,  -0.00067,   0.00224,   0.00031,474798909.26563,   0.00007,274715615.68538,  -0.00003,   0.00008,   0.00001,   0.05512,   1.00000
74851582.94663,506065429.86077,22583778.84224,  -0.00068,   0.00224,   0.00031,474798843.14736,   0.00007,274715979.73819,  -0.00003,   0.00008,   0.00001,   0.05449,   1.00000
74337992.48210,505884622.14651,22483480.60650,  -0.00068,   0.00224,   0.00031,474764145.14038,   0.00007,274716190.47162,  -0.00003,   0.00008,   0.00001,   0.01823,   1.00000
73824472.60343,505704212.91798,22377095.41485,  -0.00068,   0.00224,   0.00030,474763986.91041,   0.00007,274716399.63958,  -0.00003,   0.00008,   0.00001,   0.01792,   1.00000
73302740.73671,505519092.52911,22277651.01596,  -0.00068,   0.00224,   0.00030,474747883.44499,   0.00007,274716537.45245,  -0.00003,   0.00008,   0.00001,   0.00777,   1.00000
72743010.99748,505314164.15464,22173657.51250,  -0.00068,   0.00224,   0.00030,474711375.05483,   0.00007,274716537.45245,  -0.00003,   0.00008,   0.00001,-5162.39763,   0.00000
72183281.25824,505109235.78016,22069664.00903,  -0.00069,   0.00224,   0.00030,474706787.75386,   0.00007,274716537.45245,  -0.00003,   0.00008,   0.00001,-9749.69859,   0.00000
71614375.62164,504882896.97851,21965670.50557,  -0.00069,   0.00224,   0.00030,474685113.59658,   0.00007,274716537.45245,  -0.00003,   0.00008,   0.00001,-31423.85587,   0.00000
71024059.55785,504647382.27948,21861677.00210,  -0.00069,   0.00224,   0.00030,474663133.71370,   0.00007,274716537.45245,  -0.00003,   0.00008,   0.00001,-53403.73875,   0.00000
70415391.69934,504369046.72609,21751566.23373,  -0.00069,   0.00224,   0.00030,474605636.92204,   0.00007,274716537.45245,  -0.00003,   0.00008,   0.00001,-110900.53041,   0.00000
69776137.51628,504060124.84815,21647572.73026,  -0.00069,   0.00224,   0.00029,474531139.60633,   0.00007,274716537.45245,  -0.00003,   0.00008,   0.00001,-185397.84612,   0.00000
69158293.76040,503760378.86758,21543579.22680,  -0.00070,   0.00224,   0.00029,474458173.14468,   0.00007,274716537.45245,  -0.00003,   0.00008,   0.00001,-258364.30777,   0.00000
68488453.25279,503420870.66509,21433468.45843,  -0.00070,   0.00224,   0.00029,474365792.60483,   0.00007,274716537.45245,  -0.00003,   0.00008,   0.00001,-350744.84762,   0.00000
67830847.27500,503069127.93278,21329474.95496,  -0.00070,   0.00224,   0.00029,474258163.49440,   0.00007,274716537.45245,  -0.00003,   0.00008,   0.00001,-458373.95805,   0.00000
67142654.97266,502686798.87593,21219364.18659,  -0.00070,   0.00224,   0.00029,474132061.59689,   0.00007,274716537.45245,  -0.00003,   0.00008,   0.00001,-584475.85556,   0.00000
66423876.34577,502273883.49452,21115370.68312,  -0.00071,   0.00224,   0.00029,473989223.18738,   0.00007,274716537.45245,  -0.00003,   0.00008,   0.00001,-727314.26507,   0.00000
65717332.24870,501848733.58330,21005259.91475,  -0.00071,   0.00223,   0.00029,473829528.44438,   0.00007,274716537.45245,  -0.00003,   0.00008,   0.00001,-887009.00807,   0.00000
64989377.72445,501414407.77471,20895149.14637,  -0.00071,   0.00223,   0.00028,473669968.40762,   0.00007,274716537.45245,  -0.00003,   0.00008,   0.00001,-1046569.04483,   0.00000
64221660.97828,500928085.21439,20785038.37800,  -0.00071,   0.00223,   0.00028,473475435.57544,   0.00007,274716537.45245,  -0.00003,   0.00008,   0.00001,-1241101.87701,   0.00000
63453944.23212,500441762.65407,20674927.60962,  -0.00072,   0.00223,   0.00028,473281855.81432,   0.00007,274716537.45245,  -0.00003,   0.00008,   0.00001,-1434681.63813,   0.00000
62677051.58859,499934029.66657,20564816.84125,  -0.00072,   0.00223,   0.00028,473071655.16582,   0.00007,274716537.45245,  -0.00003,   0.00008,   0.00001,-1644882.28663,   0.00000
61869572.62051,499395710.35452,20454706.07288,  -0.00072,   0.00223,   0.00028,472844271.79587,   0.00007,274716537.45245,  -0.00003,   0.00008,   0.00001,-1872265.65658,   0.00000
61062093.65243,498857391.04246,20344595.30450,  -0.00072,   0.00223,   0.00028,472617929.01051,   0.00007,274716537.45245,  -0.00003,   0.00008,   0.00001,-2098608.44194,   0.00000
60214852.46244,498267074.97868,20234484.53613,  -0.00073,   0.00223,   0.00028,472356995.45098,   0.00007,274716537.45245,  -0.00003,   0.00008,   0.00001,-2359542.00147,   0.00000
59367611.27245,497676758.91489,20124373.76775,  -0.00073,   0.00223,   0.00027,472097193.94238,   0.00007,274716537.45245,  -0.00003,   0.00008,   0.00001,-2619343.51007,   0.00000
58511194.18509,497065032.42393,20008145.73447,  -0.00073,   0.00223,   0.00027,471820215.07772,   0.00007,274716537.45245,  -0.00003,   0.00008,   0.00001,-2896322.37473,   0.00000
57624190.77319,496422719.60841,19898034.96609,  -0.00074,   0.00223,   0.00027,471527201.54128,   0.00007,274716537.45245,  -0.00003,   0.00008,   0.00001,-3189335.91117,   0.00000
56728011.46392,495758996.36571,19781806.93281,  -0.00074,   0.00222,   0.00027,471217134.01530,   0.00007,274716537.45245,  -0.00003,   0.00008,   0.00001,-3499403.43715,   0.00000
55810421.72746,495086097.22564,19671696.16444,  -0.00074,   0.00222,   0.00027,470908706.49406,   0.00007,274716537.45245,  -0.00003,   0.00008,   0.00001,-3807830.95839,   0.00000
54874480.19628,494370377.23121,19555468.13115,  -0.00074,   0.00222,   0.00027,470565840.22539,   0.00007,274716537.45245,  -0.00003,   0.00008,   0.00001,-4150697.22706,   0.00000
53917128.23792,493645481.33941,19445357.36278,  -0.00075,   0.00222,   0.00027,470224772.86049,   0.00007,274716537.45245,  -0.00003,   0.00008,   0.00001,-4491764.59196,   0.00000
52950600.38219,492899175.02043,19329129.32949,  -0.00075,   0.00222,   0.00026,469866897.42239,   0.00007,274716537.45245,  -0.00003,   0.00008,   0.00001,-4849640.03006,   0.00000
51953486.20191,492122282.37690,19219018.56112,  -0.00075,   0.00222,   0.00026,469493502.99724,   0.00007,274716537.45245,  -0.00003,   0.00008,   0.00001,-5223034.45521,   0.00000
50956372.02163,491345389.73337,19102790.52783,  -0.00076,   0.00222,   0.00026,469120896.15506,   0.00007,274716537.45245,  -0.00003,   0.00008,   0.00001,-5595641.29739,   0.00000
49940906.04662,490525676.23547,18986562.49455,  -0.00076,   0.00221,   0.00026,468714950.79501,   0.00007,274716537.45245,  -0.00003,   0.00008,   0.00001,-6001586.65744,   0.00000
48904029.64443,489696786.84021,18870334.46127,  -0.00076,   0.00221,   0.00026,468310441.42183,   0.00007,274716537.45245,  -0.00003,   0.00008,   0.00001,-6406096.03062,   0.00000
47836566.91769,488837311.12040,18760223.69289,  -0.00076,   0.00221,   0.00026,467890791.86455,   0.00007,274716537.45245,  -0.00003,   0.00008,   0.00001,-6825745.58790,   0.00000
46769104.19095,487977835.40059,18643995.65961,  -0.00077,   0.00221,   0.00026,467472166.49209,   0.00007,274716537.45245,  -0.00003,   0.00008,   0.00001,-7244370.96036,   0.00000
45683289.66948,487075538.82641,18527767.62632,  -0.00077,   0.00221,   0.00025,467020518.89246,   0.00007,274716537.45245,  -0.00003,   0.00008,   0.00001,-7696018.55999,   0.00000
44576064.72083,486164066.35486,18411539.59304,  -0.00077,   0.00220,   0.00025,466570678.93780,   0.00007,274716537.45245,  -0.00003,   0.00008,   0.00001,-8145858.51465,   0.00000
43438253.44762,485222007.55877,18295311.55976,  -0.00078,   0.00220,   0.00025,466105392.81846,   0.00007,274716537.45245,  -0.00003,   0.00008,   0.00001,-8611144.63399,   0.00000
42291266.27706,484258538.33550,18179083.52647,  -0.00078,   0.00220,   0.00025,465624756.21046,   0.00007,274716537.45245,  -0.00003,   0.00008,   0.00001,-9091781.24199,   0.00000
41144279.10649,483295069.11222,18062855.49319,  -0.00078,   0.00220,   0.00025,465146158.28010,   0.00007,274716537.45245,  -0.00003,   0.00008,   0.00001,-9570379.17235,   0.00000
39966705.61138,482301013.56440,17946627.45990,  -0.00079,   0.00220,   0.00025,464652415.17615,   0.00007,274716537.45245,  -0.00003,   0.00008,   0.00001,-10064122.27630,   0.00000
38779956.21890,481285547.58939,17830399.42662,  -0.00079,   0.00219,   0.00024,464143512.60100,   0.00007,274716537.45245,  -0.00003,   0.00008,   0.00001,-10573024.85145,   0.00000
37562620.50187,480239495.28983,17714171.39334,  -0.00079,   0.00219,   0.00024,463619720.23209,   0.00007,274716537.45245,  -0.00003,   0.00008,   0.00001,-11096817.22036,   0.00000
36323874.35766,479184267.09291,17597943.36005,  -0.00080,   0.00219,   0.00024,463098498.59094,   0.00007,274716537.45245,  -0.00003,   0.00008,   0.00001,-11618038.86151,   0.00000
35066776.41872,478086218.04162,17475598.06186,  -0.00080,   0.00219,   0.00024,462544438.68202,   0.00007,274716537.45245,  -0.00003,   0.00008,   0.00001,-12172098.77043,   0.00000
33809678.47978,476988168.99034,17359370.02857,  -0.00081,   0.00218,   0.00024,461993543.53368,   0.00007,274716537.45245,  -0.00003,   0.00008,   0.00001,-12722993.91877,   0.00000
32531170.11365,475880944.04168,17243141.99529,  -0.00081,   0.00218,   0.00024,461445515.55315,   0.00007,274716537.45245,  -0.00003,   0.00008,   0.00001,-13271021.89930,   0.00000
31212899.52562,474721722.34130,17126913.96201,  -0.00081,   0.00218,   0.00024,460866044.40228,   0.00007,274716537.45245,  -0.00003,   0.00008,   0.00001,-13850493.05017,   0.00000
29894628.93758,473562500.64091,17010685.92872,  -0.00082,   0.00218,   0.00023,460289306.76747,   0.00007,274716537.45245,  -0.00003,   0.00008,   0.00001,-14427230.68499,   0.00000
28567182.45218,472381868.51334,16894457.89544,  -0.00082,   0.00217,   0.00023,459698121.28312,   0.00007,274716537.45245,  -0.00003,   0.00008,   0.00001,-15018416.16933,   0.00000
27196915.11241,471182884.59104,16772112.59724,  -0.00082,   0.00217,   0.00023,459110197.32898,   0.00007,274716537.45245,  -0.00003,   0.00008,   0.00001,-15606340.12348,   0.00000
25838882.30246,469971666.13893,16655884.56396,  -0.00083,   0.00217,   0.00023,458508154.47166,   0.00007,274716537.45245,  -0.00003,   0.00008,   0.00001,-16208382.98079,   0.00000
24450263.16796,468729861.36226,16539656.53068,  -0.00083,   0.00216,   0.00023,457892575.33961,   0.00007,274716537.45245,  -0.00003,   0.00008,   0.00001,-16823962.11285,   0.00000
23031057.70891,467457470.26104,16423428.49739,  -0.00084,   0.00216,   0.00023,457263669.18752,   0.00007,274716537.45245,  -0.00003,   0.00008,   0.00001,-17452868.26493,   0.00000
21611852.24986,466185079.15983,16301083.19920,  -0.00084,   0.00216,   0.00022,456637332.11098,   0.00007,274716537.45245,  -0.00003,   0.00008,   0.00001,-18079205.34147,   0.00000
20162060.46627,464882101.73407,16184855.16591,  -0.00084,   0.00216,   0.00022,455998623.63861,   0.00007,274716537.45245,  -0.00003,   0.00008,   0.00001,-18717913.81384,   0.00000
18681682.35812,463548537.98375,16068627.13263,  -0.00085,   0.00215,   0.00022,455347107.28433,   0.00007,274716537.45245,  -0.00003,   0.00008,   0.00001,-19369430.16812,   0.00000
17201304.24998,462214974.23344,15952399.09935,  -0.00085,   0.00215,   0.00022,454699135.67535,   0.00007,274716537.45245,  -0.00003,   0.00008,   0.00001,-20017401.77710,   0.00000
15711750.24447,460860000.05595,15830053.80115,  -0.00086,   0.00215,   0.00022,454037061.63573,   0.00007,274716537.45245,  -0.00003,   0.00008,   0.00001,-20679475.81672,   0.00000
14191609.91441,459474439.55390,15713825.76787,  -0.00086,   0.00214,   0.00022,453363268.63161,   0.00007,274716537.45245,  -0.00003,   0.00008,   0.00001,-21353268.82085,   0.00000
12640883.25981,458058292.72731,15597597.73458,  -0.00086,   0.00214,   0.00022,452677352.23508,   0.00007,274716537.45245,  -0.00003,   0.00008,   0.00001,-22039185.21737,   0.00000
11090156.60520,456642145.90072,15481369.70130,  -0.00087,   0.00214,   0.00021,451995383.27206,   0.00007,274716537.45245,  -0.00003,   0.00008,   0.00001,-22721154.18040,   0.00000
9518019.52341,455216823.17676,15359024.40311,  -0.00087,   0.00213,   0.00021,451317942.34249,   0.00007,274716537.45245,  -0.00003,   0.00008,   0.00001,-23398595.10997,   0.00000
7927530.64689,453748679.59844,15242796.36982,  -0.00088,   0.00213,   0.00021,450611397.92452,   0.00007,274716537.45245,  -0.00003,   0.00008,   0.00001,-24105139.52793,   0.00000
6315631.34319,452271360.12275,15126568.33654,  -0.00088,   0.00213,   0.00021,449910358.20244,   0.00007,274716537.45245,  -0.00003,   0.00008,   0.00001,-24806179.25001,   0.00000
4682321.61231,450784864.74969,15010340.30325,  -0.00089,   0.00212,   0.00021,449215014.94988,   0.00007,274716537.45245,  -0.00003,   0.00008,   0.00001,-25501522.50257,   0.00000
3030660.08669,449255548.52227,14887995.00506,  -0.00089,   0.00212,   0.00021,448489853.95970,   0.00007,274716537.45245,  -0.00003,   0.00008,   0.00001,-26226683.49275,   0.00000
1378998.56108,447726232.29485,14771766.97178,  -0.00090,   0.00211,   0.00021,447769898.70947,   0.00007,274716537.45245,  -0.00003,   0.00008,   0.00001,-26946638.74298,   0.00000
-315483.81891,446178564.27270,14655538.93849,  -0.00090,   0.00211,   0.00020,447057633.11747,   0.00007,274716537.45245,  -0.00003,   0.00008,   0.00001,-27658904.33498,   0.00000
-2006907.56644,444597251.29355,14539310.90521,  -0.00091,   0.00211,   0.00020,446315117.16296,   0.00007,274716537.45245,  -0.00003,   0.00008,   0.00001,-28401420.28949,   0.00000
-3731976.27097,443018996.94685,14423082.87192,  -0.00091,   0.00210,   0.00020,445597544.47872,   0.00007,274716537.45245,  -0.00003,   0.00008,   0.00001,-29118992.97373,   0.00000
-5475396.77023,441397921.74578,14306854.83864,  -0.00091,   0.00210,   0.00020,444851652.05102,   0.00007,274716537.45245,  -0.00003,   0.00008,   0.00001,-29864885.40143,   0.00000
-7218817.26949,439776846.54471,14184509.54045,  -0.00092,   0.00209,   0.00020,444110409.36557,   0.00007,274716537.45245,  -0.00003,   0.00008,   0.00001,-30606128.08688,   0.00000
-9014234.52048,438116009.12173,14068281.50716,  -0.00092,   0.00209,   0.00020,443362068.69763,   0.00007,274716537.45245,  -0.00003,   0.00008,   0.00001,-31354468.75482,   0.00000
-10788241.34429,436464347.59612,13952053.47388,  -0.00093,   0.00209,   0.00019,442617413.78110,   0.00007,274716537.45245,  -0.00003,   0.00008,   0.00001,-32099123.67135,   0.00000
-12614244.91983,434772923.84859,13835825.44059,  -0.00093,   0.00208,   0.00019,441865632.09822,   0.00007,274716537.45245,  -0.00003,   0.00008,   0.00001,-32850905.35424,   0.00000
-14440248.49537,433081500.10106,13719597.40731,  -0.00094,   0.00208,   0.00019,441119703.76040,   0.00007,274716537.45245,  -0.00003,   0.00008,   0.00001,-33596833.69205,   0.00000
-16284603.86564,431347255.49917,13603369.37403,  -0.00094,   0.00207,   0.00019,440346587.71136,   0.00007,274716537.45245,  -0.00003,   0.00008,   0.00001,-34369949.74109,   0.00000
-18141193.76573,429625245.42709,13487141.34074,  -0.00095,   0.00207,   0.00019,439598200.84722,   0.00007,274716537.45245,  -0.00003,   0.00008,   0.00001,-35118336.60523,   0.00000
-20028369.99037,427872649.03046,13370913.30746,  -0.00095,   0.00207,   0.00019,438841742.64123,   0.00007,274716537.45245,  -0.00003,   0.00008,   0.00001,-35874794.81122,   0.00000
-21924722.11237,426098642.20666,13254685.27417,  -0.00096,   0.00206,   0.00019,438075222.64795,   0.00007,274716537.45245,  -0.00003,   0.00008,   0.00001,-36641314.80450,   0.00000
-23851660.55893,424294049.05830,13138457.24089,  -0.00097,   0.00206,   0.00018,437301173.77961,   0.00007,274716537.45245,  -0.00003,   0.00008,   0.00001,-37415363.67284,   0.00000
-25800009.43266,422480280.01258,13022229.20761,  -0.00097,   0.00205,   0.00018,436536319.28658,   0.00007,274716537.45245,  -0.00003,   0.00008,   0.00001,-38180218.16587,   0.00000
-27748358.30640,420666510.96685,12912118.43923,  -0.00098,   0.00205,   0.00018,435778909.90651,   0.00007,274716537.45245,  -0.00003,   0.00008,   0.00001,-38937627.54594,   0.00000
-29727293.50468,418822155.59658,12795890.40595,  -0.00098,   0.00204,   0.00018,435014210.77616,   0.00007,274716537.45245,  -0.00003,   0.00008,   0.00001,-39702326.67629,   0.00000
-31715404.60033,416956389.79913,12679662.37266,  -0.00099,   0.00204,   0.00018,434240440.30941,   0.00007,274716537.45245,  -0.00003,   0.00008,   0.00001,-40476097.14304,   0.00000
-33724926.12316,415081448.10431,12563434.33938,  -0.00099,   0.00203,   0.00018,433476746.80656,   0.00007,274716537.45245,  -0.00003,   0.00008,   0.00001,-41239790.64589,   0.00000
-35765033.97054,413175920.08494,12447206.30610,  -0.00100,   0.00203,   0.00017,432707208.45056,   0.00007,274716537.45245,  -0.00003,   0.00008,   0.00001,-42009329.00189,   0.00000
-37805141.81792,411270392.06558,12337095.53772,  -0.00100,   0.00202,   0.00017,431945958.90472,   0.00007,274716537.45245,  -0.00003,   0.00008,   0.00001,-42770578.54773,   0.00000
-39875835.98985,409334277.72166,12220867.50444,  -0.00101,   0.00202,   0.00017,431178882.30401,   0.00007,274716537.45245,  -0.00003,   0.00008,   0.00001,-43537655.14844,   0.00000
-41955706.05914,407376752.95056,12104639.47115,  -0.00101,   0.00201,   0.00017,430403817.71978,   0.00007,274716537.45245,  -0.00003,   0.00008,   0.00001,-44312719.73267,   0.00000
-44056986.55562,405410052.28210,11994528.70278,  -0.00102,   0.00201,   0.00017,429640640.46019,   0.00007,274716537.45245,  -0.00003,   0.00008,   0.00001,-45075896.99226,   0.00000
-46179677.47928,403434175.71627,11878300.66950,  -0.00103,   0.00201,   0.00017,428888609.01991,   0.00007,274716537.45245,  -0.00003,   0.00008,   0.00001,-45827928.43254,   0.00000
-48311544.30031,401436888.72326,11768189.90112,  -0.00103,   0.00200,   0.00017,428129755.86201,   0.00007,274716537.45245,  -0.00003,   0.00008,   0.00001,-46586781.59044,   0.00000
-50473997.44588,399409015.40569,11651961.86784,  -0.00104,   0.00200,   0.00016,427366657.88883,   0.00007,274716537.45245,  -0.00003,   0.00008,   0.00001,-47349879.56362,   0.00000
-52636450.59145,397381142.08813,11541851.09946,  -0.00104,   0.00199,   0.00016,426613107.92103,   0.00007,274716537.45245,  -0.00003,   0.00008,   0.00001,-48103429.53142,   0.00000
-54820314.16421,395344092.87321,11431740.33109,  -0.00105,   0.00199,   0.00016,425872234.42022,   0.00007,274716537.45245,  -0.00003,   0.00008,   0.00001,-48844303.03223,   0.00000
-57034764.06152,393276457.33373,11315512.29780,  -0.00106,   0.00198,   0.00016,425128084.95228,   0.00007,274716537.45245,  -0.00003,   0.00008,   0.00001,-49588452.50017,   0.00000
-59258389.85619,391187411.36708,11205401.52943,  -0.00106,   0.00197,   0.00016,424378329.77233,   0.00007,274716537.45245,  -0.00003,   0.00008,   0.00001,-50338207.68012,   0.00000
-61503426.07804,389089189.50305,11095290.76106,  -0.00107,   0.00197,   0.00016,423642187.98777,   0.00007,274716537.45245,  -0.00003,   0.00008,   0.00001,-51074349.46468,   0.00000
-63769872.72708,386981791.74167,10979062.72777,  -0.00107,   0.00196,   0.00016,422919499.27785,   0.00007,274716537.45245,  -0.00003,   0.00008,   0.00001,-51797038.17460,   0.00000
-66045495.27349,384852983.55310,10868951.95940,  -0.00108,   0.00196,   0.00015,422191940.53412,   0.00007,274716537.45245,  -0.00003,   0.00008,   0.00001,-52524596.91833,   0.00000
-68330293.71725,382702764.93734,10758841.19102,  -0.00109,   0.00195,   0.00015,421459233.68229,   0.00007,274716537.45245,  -0.00003,   0.00008,   0.00001,-53257303.77016,   0.00000
-70657913.01539,380534194.52686,10648730.42265,  -0.00109,   0.00195,   0.00015,420745472.07427,   0.00007,274716537.45245,  -0.00003,   0.00008,   0.00001,-53971065.37818,   0.00000
-72985532.31352,378365624.11637,10538619.65427,  -0.00110,   0.00194,   0.00015,420042661.44999,   0.00007,274716537.45245,  -0.00003,   0.00008,   0.00001,-54673876.00247,   0.00000
-75322327.50903,376175643.27871,10428508.88590,  -0.00111,   0.00194,   0.00015,419335491.00241,   0.00007,274716537.45245,  -0.00003,   0.00008,   0.00001,-55381046.45004,   0.00000
-77701943.55889,373967310.64631,10318398.11753,  -0.00111,   0.00193,   0.00015,418648463.92733,   0.00007,274716537.45245,  -0.00003,   0.00008,   0.00001,-56068073.52513,   0.00000
-80069325.07894,371746743.48409,10208287.34915,  -0.00112,   0.00193,   0.00015,417953198.75855,   0.00007,274716537.45245,  -0.00003,   0.00008,   0.00001,-56763338.69391,   0.00000
-82479527.45336,369507824.52715,10098176.58078,  -0.00113,   0.00192,   0.00014,417278869.70682,   0.00007,274716537.45245,  -0.00003,   0.00008,   0.00001,-57437667.74563,   0.00000
-84898905.72514,367247495.14302,9988065.81240,  -0.00113,   0.00192,   0.00014,416601418.29584,   0.00007,274716537.45245,  -0.00003,   0.00008,   0.00001,-58115119.15661,   0.00000
-87318283.99692,364987165.75889,9877955.04403,  -0.00114,   0.00191,   0.00014,415936159.61034,   0.00007,274716537.45245,  -0.00003,   0.00008,   0.00001,-58780377.84211,   0.00000
-89789659.02043,362687074.15285,9773961.54056,  -0.00114,   0.00190,   0.00014,415278504.52010,   0.00007,274716537.45245,  -0.00003,   0.00008,   0.00001,-59438032.93235,   0.00000
-92239623.61676,360396158.44417,9663850.77219,  -0.00115,   0.00190,   0.00014,414628165.02179,   0.00007,274716537.45245,  -0.00003,   0.00008,   0.00001,-60088372.43066,   0.00000
-94732409.06746,358086890.94076,9553740.00381,  -0.00116,   0.00189,   0.00014,414000853.22355,   0.00007,274716537.45245,  -0.00003,   0.00008,   0.00001,-60715684.22890,   0.00000
-97234370.41552,355756213.01017,9449746.50035,  -0.00117,   0.00189,   0.00014,413372266.13025,   0.00007,274716537.45245,  -0.00003,   0.00008,   0.00001,-61344271.32220,   0.00000
-99757742.19077,353416359.18222,9339635.73198,  -0.00117,   0.00188,   0.00013,412761958.63564,   0.00007,274716537.45245,  -0.00003,   0.00008,   0.00001,-61954578.81681,   0.00000
-102290289.86338,351055094.92708,9235642.22851,  -0.00118,   0.00188,   0.00013,412150945.35233,   0.00007,274716537.45245,  -0.00003,   0.00008,   0.00001,-62565592.10012,   0.00000
-104844247.96317,348684654.77458,9131648.72505,  -0.00119,   0.00187,   0.00013,411559286.41896,   0.00007,274716537.45245,  -0.00003,   0.00008,   0.00001,-63157251.03350,   0.00000
-107407381.96033,346292804.19489,9021537.95667,  -0.00119,   0.00186,   0.00013,410966689.48750,   0.00007,274716537.45245,  -0.00003,   0.00008,   0.00001,-63749847.96495,   0.00000
-109991926.38467,343891777.71784,8917544.45321,  -0.00120,   0.00186,   0.00013,410394524.26659,   0.00007,274716537.45245,  -0.00003,   0.00008,   0.00001,-64322013.18586,   0.00000
-112597881.23620,341481575.34342,8813550.94974,  -0.00121,   0.00185,   0.00013,409842758.95007,   0.00007,274716537.45245,  -0.00003,   0.00008,   0.00001,-64873778.50238,   0.00000
-115213011.98509,339049962.54182,8703440.18137,  -0.00121,   0.00185,   0.00013,409291011.67889,   0.00007,274716537.45245,  -0.00003,   0.00008,   0.00001,-65425525.77356,   0.00000
-117849553.16116,336609173.84286,8599446.67790,  -0.00122,   0.00184,   0.00012,408760743.31115,   0.00007,274716537.45245,  -0.00003,   0.00008,   0.00001,-65955794.14130,   0.00000
-120486094.33724,334168385.14389,8495453.17444,  -0.00123,   0.00183,   0.00012,408245722.95274,   0.00007,274716537.45245,  -0.00003,   0.00008,   0.00001,-66470814.49971,   0.00000
-123153221.83786,331697010.12038,8391459.67097,  -0.00124,   0.00183,   0.00012,407738185.39399,   0.00007,274716537.45245,  -0.00003,   0.00008,   0.00001,-66978352.05846,   0.00000
-125850935.66303,329195048.77232,8287466.16751,  -0.00124,   0.00182,   0.00012,407238737.51589,   0.00007,274716537.45245,  -0.00003,   0.00008,   0.00001,-67477799.93656,   0.00000
-128539473.59084,326714497.85144,8183472.66404,  -0.00125,   0.00182,   0.00012,406769439.14234,   0.00007,274716537.45245,  -0.00003,   0.00008,   0.00001,-67947098.31011,   0.00000
-131258597.84320,324203360.60601,8079479.16058,  -0.00126,   0.00181,   0.00012,406308935.43671,   0.00007,274716537.45245,  -0.00003,   0.00008,   0.00001,-68407602.01574,   0.00000
-133986897.99292,321670812.93340,7981602.92203,  -0.00127,   0.00180,   0.00012,405851442.13421,   0.00007,274716537.45245,  -0.00003,   0.00008,   0.00001,-68865095.31824,   0.00000
-136727432.67246,319150499.79061,7877609.41856,  -0.00127,   0.00180,   0.00012,405430920.16366,   0.00007,274716537.45245,  -0.00003,   0.00008,   0.00001,-69285617.28879,   0.00000
-139486319.14672,316587365.79345,7773615.91510,  -0.00128,   0.00179,   0.00011,404999860.57431,   0.00007,274716537.45245,  -0.00003,   0.00008,   0.00001,-69716676.87814,   0.00000
-142257440.15081,314036466.32611,7675739.67654,  -0.00129,   0.00179,   0.00011,404607039.25310,   0.00007,274716537.45245,  -0.00003,   0.00008,   0.00001,-70109498.19935,   0.00000
-145059147.47945,311454980.53423,7571746.17308,  -0.00130,   0.00178,   0.00011,404224874.47198,   0.00007,274716537.45245,  -0.00003,   0.00008,   0.00001,-70491662.98047,   0.00000
-147860854.80808,308873494.74234,7473869.93452,  -0.00130,   0.00177,   0.00011,403860796.92696,   0.00007,274716537.45245,  -0.00003,   0.00008,   0.00001,-70855740.52549,   0.00000
-150683972.56390,306282833.05309,7369876.43106,  -0.00131,   0.00177,   0.00011,403521613.62071,   0.00007,274716537.45245,  -0.00003,   0.00008,   0.00001,-71194923.83175,   0.00000
-153516266.21709,303670760.93665,7272000.19250,  -0.00132,   0.00176,   0.00011,403187577.16450,   0.00007,274716537.45245,  -0.00003,   0.00008,   0.00001,-71528960.28795,   0.00000
-156369970.29746,301049512.92285,7168006.68904,  -0.00133,   0.00175,   0.00011,402879164.50892,   0.00007,274716537.45245,  -0.00003,   0.00008,   0.00001,-71837372.94353,   0.00000
-159254260.70237,298397678.58450,7070130.45048,  -0.00134,   0.00175,   0.00010,402584346.52694,   0.00007,274716537.45245,  -0.00003,   0.00008,   0.00001,-72132190.92552,   0.00000
-162138551.10729,295745844.24615,6972254.21193,  -0.00134,   0.00174,   0.00010,402308530.62358,   0.00007,274716537.45245,  -0.00003,   0.00008,   0.00001,-72408006.82887,   0.00000
-165022841.51221,293094009.90780,6874377.97337,  -0.00135,   0.00173,   0.00010,402051755.90632,   0.00007,274716537.45245,  -0.00003,   0.00008,   0.00001,-72664781.54613,   0.00000
-167928542.34431,290432999.67209,6776501.73482,  -0.00136,   0.00173,   0.00010,401822194.31400,   0.00007,274716537.45245,  -0.00003,   0.00008,   0.00001,-72894343.13845,   0.00000
-170864829.50096,287741403.11183,6678625.49626,  -0.00137,   0.00172,   0.00010,401607523.49001,   0.00007,274716537.45245,  -0.00003,   0.00008,   0.00001,-73109013.96244,   0.00000
-173801116.65761,285049806.55157,6580749.25771,  -0.00138,   0.00172,   0.00010,401412647.82091,   0.00007,274716537.45245,  -0.00003,   0.00008,   0.00001,-73303889.63154,   0.00000
-176758814.24144,282349034.09394,6482873.01915,  -0.00138,   0.00171,   0.00010,401246082.67525,   0.00007,274716537.45245,  -0.00003,   0.00008,   0.00001,-73470454.77721,   0.00000
-179725687.72264,279626851.20913,6384996.78060,  -0.00139,   0.00170,   0.00010,401087186.82532,   0.00007,274716537.45245,  -0.00003,   0.00008,   0.00001,-73629350.62713,   0.00000
-182713971.63102,276895492.42695,6287120.54204,  -0.00140,   0.00170,   0.00009,400957314.38363,   0.00007,274716537.45245,  -0.00003,   0.00008,   0.00001,-73759223.06882,   0.00000
-185702255.53940,274164133.64478,6195361.56840,  -0.00141,   0.00169,   0.00009,400848282.28439,   0.00007,274716537.45245,  -0.00003,   0.00008,   0.00001,-73868255.16806,   0.00000
-188721125.77233,271402188.53806,6097485.32984,  -0.00142,   0.00168,   0.00009,400756379.60742,   0.00007,274716537.45245,  -0.00003,   0.00008,   0.00001,-73960157.84503,   0.00000
-191752230.53508,268652477.96115,5999609.09129,  -0.00143,   0.00168,   0.00009,400706587.97357,   0.00007,274716537.45245,  -0.00003,   0.00008,   0.00001,-74009949.47888,   0.00000
-194792511.19520,265881356.95706,5907850.11764,  -0.00143,   0.00167,   0.00009,400666224.77537,   0.00007,274716537.45245,  -0.00003,   0.00008,   0.00001,-74050312.67708,   0.00000
-197841967.75268,263088825.52579,5809973.87909,  -0.00144,   0.00166,   0.00009,400635061.67831,   0.00007,274716537.45245,  -0.00003,   0.00008,   0.00001,-74081475.77414,   0.00000
-200903658.83997,260308528.62434,5718214.90544,  -0.00145,   0.00166,   0.00009,400646777.07783,   0.00007,274716537.45245,  -0.00003,   0.00008,   0.00001,-74069760.37462,   0.00000
-203974525.82464,257506821.29570,5620338.66689,  -0.00146,   0.00165,   0.00009,400668150.20637,   0.00007,274716537.45245,  -0.00003,   0.00008,   0.00001,-74048387.24608,   0.00000
-207066803.23648,254695938.06970,5528579.69324,  -0.00147,   0.00164,   0.00008,400721163.83524,   0.00007,274716537.45245,  -0.00003,   0.00008,   0.00001,-73995373.61721,   0.00000
-210189666.97288,251854468.51915,5436820.71960,  -0.00148,   0.00164,   0.00008,400794527.57930,   0.00007,274716537.45245,  -0.00003,   0.00008,   0.00001,-73922009.87315,   0.00000
-213312530.70927,249012998.96860,5345061.74595,  -0.00149,   0.00163,   0.00008,400890273.58822,   0.00007,274716537.45245,  -0.00003,   0.00008,   0.00001,-73826263.86423,   0.00000
-216426218.54830,246192939.84524,5253302.77230,  -0.00149,   0.00162,   0.00008,401019538.52500,   0.00007,274716537.45245,  -0.00003,   0.00008,   0.00001,-73696998.92745,   0.00000
-219579668.60925,243320883.97014,5161543.79866,  -0.00150,   0.00161,   0.00008,401158979.84912,   0.00007,274716537.45245,  -0.00003,   0.00008,   0.00001,-73557557.60333,   0.00000
-222745353.20001,240461062.62486,5069784.82501,  -0.00151,   0.00161,   0.00008,401342381.87689,   0.00007,274716537.45245,  -0.00003,   0.00008,   0.00001,-73374155.57556,   0.00000
-225898803.26095,237589006.74977,4978025.85137,  -0.00152,   0.00160,   0.00008,401527358.91833,   0.00007,274716537.45245,  -0.00003,   0.00008,   0.00001,-73189178.53412,   0.00000
-229085898.27890,234720009.50712,4886266.87772,  -0.00153,   0.00159,   0.00008,401766726.70499,   0.00007,274716537.45245,  -0.00003,   0.00008,   0.00001,-72949810.74746,   0.00000
-232291345.09157,231808191.41011,4794507.90408,  -0.00154,   0.00159,   0.00008,402007842.10424,   0.00007,274716537.45245,  -0.00003,   0.00008,   0.00001,-72708695.34821,   0.00000
-235487616.00688,228917783.74028,4702748.93043,  -0.00155,   0.00158,   0.00007,402282760.88127,   0.00007,274716537.45245,  -0.00003,   0.00008,   0.00001,-72433776.57118,   0.00000
-238705297.34938,226018200.17309,4617107.22170,  -0.00156,   0.00157,   0.00007,402591778.98725,   0.00007,274716537.45245,  -0.00003,   0.00008,   0.00001,-72124758.46520,   0.00000
-241932154.58924,223097206.17872,4525348.24805,  -0.00157,   0.00157,   0.00007,402913582.46266,   0.00007,274716537.45245,  -0.00003,   0.00008,   0.00001,-71802954.98979,   0.00000
-245180422.25628,220167036.28698,4433589.27441,  -0.00157,   0.00156,   0.00007,403269860.50346,   0.00007,274716537.45245,  -0.00003,   0.00008,   0.00001,-71446676.94899,   0.00000
-248428689.92333,217236866.39524,4347947.56567,  -0.00158,   0.00155,   0.00007,403649915.35235,   0.00007,274716537.45245,  -0.00003,   0.00008,   0.00001,-71066622.10010,   0.00000
-251686133.48773,214285286.07632,4256188.59203,  -0.00159,   0.00155,   0.00007,404043406.28040,   0.00007,274716537.45245,  -0.00003,   0.00008,   0.00001,-70673131.17205,   0.00000
-254955811.58196,211345940.28721,4170546.88329,  -0.00160,   0.00154,   0.00007,404481925.98644,   0.00007,274716537.45245,  -0.00003,   0.00008,   0.00001,-70234611.46601,   0.00000
-258256076.00074,208376008.17356,4084905.17455,  -0.00161,   0.00153,   0.00007,404945911.36114,   0.00007,274716537.45245,  -0.00003,   0.00008,   0.00001,-69770626.09131,   0.00000
-261556340.41951,205406076.05991,3993146.20091,  -0.00162,   0.00152,   0.00006,405433684.46625,   0.00007,274716537.45245,  -0.00003,   0.00008,   0.00001,-69282852.98620,   0.00000
-264856604.83829,202436143.94625,3907504.49217,  -0.00163,   0.00152,   0.00006,405945524.74257,   0.00007,274716537.45245,  -0.00003,   0.00008,   0.00001,-68771012.70988,   0.00000
-268187455.58161,199435625.50805,3821862.78344,  -0.00164,   0.00151,   0.00006,406483742.49884,   0.00007,274716537.45245,  -0.00003,   0.00008,   0.00001,-68232794.95361,   0.00000
-271509130.42757,196456517.49703,3736221.07470,  -0.00165,   0.00150,   0.00006,407055263.38423,   0.00007,274716537.45245,  -0.00003,   0.00008,   0.00001,-67661274.06822,   0.00000
-274839981.17090,193455999.05883,3650579.36597,  -0.00166,   0.00150,   0.00006,407641585.40281,   0.00007,274716537.45245,  -0.00003,   0.00008,   0.00001,-67074952.04964,   0.00000
-278192242.34140,190446304.72327,3564937.65723,  -0.00167,   0.00149,   0.00006,408264043.94679,   0.00007,274716537.45245,  -0.00003,   0.00008,   0.00001,-66452493.50566,   0.00000
-281544503.51191,187436610.38770,3479295.94850,  -0.00168,   0.00148,   0.00006,408910570.03195,   0.00007,274716537.45245,  -0.00003,   0.00008,   0.00001,-65805967.42050,   0.00000
-284927351.00697,184396329.72759,3393654.23976,  -0.00169,   0.00147,   0.00006,409584802.20931,   0.00007,274716537.45245,  -0.00003,   0.00008,   0.00001,-65131735.24314,   0.00000
-288301022.60466,181377459.49466,3314129.79593,  -0.00169,   0.00147,   0.00006,410291993.42211,   0.00007,274716537.45245,  -0.00003,   0.00008,   0.00001,-64424544.03034,   0.00000
-291705280.52690,178328002.93718,3228488.08720,  -0.00170,   0.00146,   0.00005,411027172.88206,   0.00007,274716537.45245,  -0.00003,   0.00008,   0.00001,-63689364.57039,   0.00000
-295100362.55178,175299956.80689,3142846.37846,  -0.00171,   0.00145,   0.00005,411794866.52189,   0.00007,274716537.45245,  -0.00003,   0.00008,   0.00001,-62921670.93056,   0.00000
-298504620.47402,172250500.24941,3063321.93464,  -0.00172,   0.00145,   0.00005,412578435.34017,   0.00007,274716537.45245,  -0.00003,   0.00008,   0.00001,-62138102.11228,   0.00000
-301918054.29362,169179633.26474,2977680.22590,  -0.00173,   0.00144,   0.00005,413377848.05190,   0.00007,274716537.45245,  -0.00003,   0.00008,   0.00001,-61338689.40055,   0.00000
-305343722.64305,166121000.80990,2892038.51717,  -0.00174,   0.00143,   0.00005,414222249.91475,   0.00007,274716537.45245,  -0.00003,   0.00008,   0.00001,-60494287.53770,   0.00000
-308790801.41965,163053192.45769,2812514.07334,  -0.00175,   0.00142,   0.00005,415103793.39548,   0.00007,274716537.45245,  -0.00003,   0.00008,   0.00001,-59612744.05697,   0.00000
-312225645.66644,159973149.57567,2732989.62951,  -0.00176,   0.00142,   0.00005,415988449.37028,   0.00007,274716537.45245,  -0.00003,   0.00008,   0.00001,-58728088.08217,   0.00000
-315681900.34042,156883930.79627,2647347.92078,  -0.00177,   0.00141,   0.00005,416910149.43787,   0.00007,274716537.45245,  -0.00003,   0.00008,   0.00001,-57806388.01458,   0.00000
-319150389.54421,153806946.54670,2567823.47695,  -0.00178,   0.00140,   0.00005,417876627.73772,   0.00007,274716537.45245,  -0.00003,   0.00008,   0.00001,-56839909.71473,   0.00000
-322606644.21818,150717727.76731,2488299.03313,  -0.00179,   0.00139,   0.00005,418846028.55046,   0.00007,274716537.45245,  -0.00003,   0.00008,   0.00001,-55870508.90199,   0.00000
-326093485.21670,147597922.66337,2408774.58930,  -0.00180,   0.00139,   0.00004,419845489.99891,   0.00007,274716537.45245,  -0.00003,   0.00008,   0.00001,-54871047.45354,   0.00000
-329571150.31786,144499527.98661,2329250.14547,  -0.00181,   0.00138,   0.00004,420875763.83993,   0.00007,274716537.45245,  -0.00003,   0.00008,   0.00001,-53840773.61252,   0.00000
-333070225.84620,141391957.41249,2249725.70165,  -0.00182,   0.00137,   0.00004,421943237.83133,   0.00007,274716537.45245,  -0.00003,   0.00008,   0.00001,-52773299.62112,   0.00000
-336578477.27190,138262976.41119,2170201.25782,  -0.00183,   0.00136,   0.00004,423027414.46957,   0.00007,274716537.45245,  -0.00003,   0.00008,   0.00001,-51689122.98288,   0.00000
-340086728.69761,135133995.40989,2090676.81400,  -0.00184,   0.00136,   0.00004,424135085.76288,   0.00007,274716537.45245,  -0.00003,   0.00008,   0.00001,-50581451.68957,   0.00000
-343585804.22595,132026424.83576,2011152.37017,  -0.00185,   0.00135,   0.00004,425272525.89175,   0.00007,274716537.45245,  -0.00003,   0.00008,   0.00001,-49444011.56070,   0.00000
-347115466.07884,128888267.93710,1931627.92635,  -0.00186,   0.00134,   0.00004,426440660.77166,   0.00007,274716537.45245,  -0.00003,   0.00008,   0.00001,-48275876.68079,   0.00000
-350645127.93173,125750111.03843,1852103.48252,  -0.00187,   0.00134,   0.00004,427631910.41229,   0.00007,274716537.45245,  -0.00003,   0.00008,   0.00001,-47084627.04016,   0.00000
-354174789.78462,122611954.13976,1772579.03869,  -0.00188,   0.00133,   0.00004,428846082.18896,   0.00007,274716537.45245,  -0.00003,   0.00008,   0.00001,-45870455.26349,   0.00000
-357735037.96205,119443210.91654,1699171.85978,  -0.00189,   0.00132,   0.00004,430091526.49911,   0.00007,274716537.45245,  -0.00003,   0.00008,   0.00001,-44625010.95335,   0.00000
-361286110.24213,116295878.12051,1619647.41595,  -0.00190,   0.00131,   0.00003,431365668.47434,   0.00007,274716537.45245,  -0.00003,   0.00008,   0.00001,-43350868.97811,   0.00000
-364837182.52220,113148545.32447,1546240.23704,  -0.00191,   0.00131,   0.00003,432662376.59295,   0.00007,274716537.45245,  -0.00003,   0.00008,   0.00001,-42054160.85950,   0.00000
-368397430.69964,109979802.10126,1466715.79321,  -0.00192,   0.00130,   0.00003,433975752.89979,   0.00007,274716537.45245,  -0.00003,   0.00008,   0.00001,-40740784.55266,   0.00000
-371979089.30426,106801882.98067,1393308.61429,  -0.00193,   0.00129,   0.00003,435326287.03268,   0.00007,274716537.45245,  -0.00003,   0.00008,   0.00001,-39390250.41977,   0.00000
-375530161.58433,103654550.18464,1313784.17047,  -0.00194,   0.00128,   0.00003,436689542.00881,   0.00007,274716537.45245,  -0.00003,   0.00008,   0.00001,-38026995.44364,   0.00000
-379111820.18895,100476631.06406,1240376.99155,  -0.00195,   0.00128,   0.00003,438084260.94914,   0.00007,274716537.45245,  -0.00003,   0.00008,   0.00001,-36632276.50331,   0.00000
-382693478.79357,97298711.94348,1166969.81263,  -0.00196,   0.00127,   0.00003,439500860.14523,   0.00007,274716537.45245,  -0.00003,   0.00008,   0.00001,-35215677.30722,   0.00000
-386296547.82538,94111616.92553,1087445.36881,  -0.00197,   0.00126,   0.00003,440954146.87134,   0.00007,274716537.45245,  -0.00003,   0.00008,   0.00001,-33762390.58111,   0.00000
-389878206.43000,90933697.80495,1014038.18989,  -0.00198,   0.00125,   0.00003,442413952.16488,   0.00007,274716537.45245,  -0.00003,   0.00008,   0.00001,-32302585.28757,   0.00000
-393490451.35917,87725192.35982,940631.01098,  -0.00199,   0.00125,   0.00003,443905535.65228,   0.00007,274716537.45245,  -0.00003,   0.00008,   0.00001,-30811001.80017,   0.00000
-397093520.39098,84538097.34187,867223.83206,  -0.00200,   0.00124,   0.00002,445423103.07262,   0.00007,274716537.45245,  -0.00003,   0.00008,   0.00001,-29293434.37983,   0.00000
-400696589.42278,81351002.32392,793816.65314,  -0.00201,   0.00123,   0.00002,446961633.66235,   0.00007,274716537.45245,  -0.00003,   0.00008,   0.00001,-27754903.79010,   0.00000
-404330244.77913,78133320.98143,720409.47423,  -0.00202,   0.00122,   0.00002,448532032.81148,   0.00007,274716537.45245,  -0.00003,   0.00008,   0.00001,-26184504.64097,   0.00000
-407933313.81094,74946225.96348,647002.29531,  -0.00203,   0.00122,   0.00002,450112034.33563,   0.00007,274716537.45245,  -0.00003,   0.00008,   0.00001,-24604503.11682,   0.00000
-411566969.16729,71728544.62099,573595.11639,  -0.00204,   0.00121,   0.00002,451723854.77137,   0.00007,274716537.45245,  -0.00003,   0.00008,   0.00001,-22992682.68108,   0.00000
-415179214.09646,68520039.17586,500187.93748,  -0.00205,   0.00120,   0.00002,453340514.58614,   0.00007,274716537.45245,  -0.00003,   0.00008,   0.00001,-21376022.86631,   0.00000
-418803693.55545,65323768.26055,426780.75856,  -0.00206,   0.00119,   0.00002,454996824.47834,   0.00007,274716537.45245,  -0.00003,   0.00008,   0.00001,-19719712.97411,   0.00000
-422437348.91181,62106086.91805,359490.84456,  -0.00207,   0.00119,   0.00002,456669243.76167,   0.00007,274716537.45245,  -0.00003,   0.00008,   0.00001,-18047293.69078,   0.00000
-426092414.69534,58879229.67819,286083.66564,  -0.00208,   0.00118,   0.00002,458377298.98958,   0.00007,274716537.45245,  -0.00003,   0.00008,   0.00001,-16339238.46287,   0.00000
-429726070.05170,55661548.33570,212676.48672,  -0.00209,   0.00117,   0.00002,460089184.13538,   0.00007,274716537.45245,  -0.00003,   0.00008,   0.00001,-14627353.31707,   0.00000
-433359725.40805,52443866.99320,145386.57272,  -0.00210,   0.00116,   0.00001,461820456.45707,   0.00007,274716537.45245,  -0.00003,   0.00008,   0.00001,-12896080.99538,   0.00000
-437014791.19159,49217009.75334,71979.39380,  -0.00211,   0.00116,   0.00001,463586905.07047,   0.00007,274716537.45245,  -0.00003,   0.00008,   0.00001,-11129632.38198,   0.00000
-440648446.54794,45999328.41085,-1427.78512,  -0.00212,   0.00115,   0.00001,465356341.17520,   0.00007,274716537.45245,  -0.00003,   0.00008,   0.00001,-9360196.27725,   0.00000
-444303512.33148,42772471.17099,-68717.69912,  -0.00213,   0.00114,   0.00001,467160645.49456,   0.00007,274716537.45245,  -0.00003,   0.00008,   0.00001,-7555891.95789,   0.00000
-447958578.11502,39545613.93113,-136007.61313,  -0.00214,   0.00113,   0.00001,468983577.29190,   0.00007,274716537.45245,  -0.00003,   0.00008,   0.00001,-5732960.16056,   0.00000
-451601409.36873,36306522.16145,-209414.79204,  -0.00215,   0.00113,   0.00001,470805909.72963,   0.00007,274716537.45245,  -0.00003,   0.00008,   0.00001,-3910627.72282,   0.00000
-455256475.15227,33079664.92159,-276704.70605,  -0.00217,   0.00112,   0.00001,472665509.36926,   0.00007,274716537.45245,  -0.00003,   0.00008,   0.00001,-2051028.08319,   0.00000
-458911540.93581,29852807.68173,-350111.88497,  -0.00218,   0.00111,   0.00001,474543104.72289,   0.00007,274716537.45245,  -0.00003,   0.00008,   0.00001,-173432.72956,   0.00000
-459248714.09929,29553911.27137,-356303.71268,  -0.00218,   0.00111,   0.00001,474716538.23969,   0.00007,274716537.45245,  -0.00003,   0.00008,   0.00001,   0.78724,   0.00000
-460989054.47411,26370258.02516,-415847.98973,  -0.00219,   0.00110,   0.00001,474716538.23969,   0.00008,274724359.97657,  -0.00004,   0.00008,   0.00001,   0.00000,   2.00000
-462870604.42472,22894960.21019,-481135.22073,  -0.00220,   0.00110,   0.00001,476638144.56490,   0.00008,274733055.71405,  -0.00005,   0.00009,   0.00001,   0.00000,   2.00000
-464738871.83947,19408701.29771,-546130.76994,  -0.00221,   0.00109,   0.00001,476662904.10642,   0.00009,274741813.41663,  -0.00005,   0.00009,   0.00001,   0.00000,   2.00000
-466571425.57123,15953913.75517,-610825.04504,  -0.00222,   0.00108,   0.00000,476692080.26793,   0.00010,274750652.58467,  -0.00006,   0.00010,   0.00001,   0.00000,   2.00000
-468390606.75989,12488593.42137,-675219.47311,  -0.00223,   0.00107,   0.00000,476716942.93825,   0.00011,274759552.91154,  -0.00007,   0.00010,   0.00001,   0.00000,   2.00000
-470174396.79134,9055273.25107,-739304.07498,  -0.00224,   0.00106,   0.00000,476745753.17392,   0.00012,274768531.73088,  -0.00008,   0.00011,   0.00001,   0.00000,   2.00000
-471950295.20213,5601068.13169,-803051.66723,  -0.00225,   0.00106,   0.00000,476787449.93179,   0.00013,274777646.41960,  -0.00009,   0.00011,   0.00001,   0.00000,   2.00000
-473696167.98283,2168996.04978,-866513.68610,  -0.00226,   0.00105,   0.00000,476797674.02040,   0.00013,274786753.98597,  -0.00010,   0.00012,   0.00001,   0.00000,   2.00000
-475407170.01011,-1230320.74195,-929654.02088,  -0.00227,   0.00104,   0.00000,476825926.38385,   0.00014,274795935.59108,  -0.00011,   0.00012,   0.00001,  -0.00000,   2.00000
-477104634.52559,-4639136.39490,-992475.21180,  -0.00228,   0.00103,  -0.00000,476851017.90172,   0.00015,274805176.27678,  -0.00012,   0.00012,   0.00001,  -0.00000,   2.00000
-478777940.17005,-8035956.87115,-1054970.36052,  -0.00229,   0.00103,  -0.00000,476877630.41582,   0.00016,274814482.30402,  -0.00013,   0.00013,   0.00001,   0.00000,   2.00000
-480427172.66804,-11420566.43585,-1117135.92967,  -0.00230,   0.00102,  -0.00000,476904167.57479,   0.00017,274823852.71860,  -0.00014,   0.00013,   0.00001,   0.00000,   2.00000
-482037379.37315,-14761345.93378,-1179009.77377,  -0.00231,   0.00101,  -0.00000,476914635.73579,   0.00018,274833215.06494,  -0.00015,   0.00014,   0.00001,   0.00000,   2.00000
-483639006.48109,-18121018.64913,-1234417.55864,  -0.00232,   0.00100,  -0.00000,476956734.42508,   0.00018,274842710.60125,  -0.00015,   0.00014,   0.00001,   0.00000,   2.00000
-485216795.24695,-21467861.40915,-1295603.02970,  -0.00233,   0.00100,  -0.00000,476983084.35536,   0.00019,274852267.88032,  -0.00016,   0.00015,   0.00001,   0.00000,   2.00000
-486770890.40643,-24801672.03860,-1356445.90376,  -0.00234,   0.00099,  -0.00001,477009309.05390,   0.00020,274861885.74959,  -0.00017,   0.00015,   0.00001,   0.00000,   2.00000
-488296947.10178,-28112538.47762,-1410908.54109,  -0.00235,   0.00098,  -0.00001,477018192.96247,   0.00021,274871486.45018,  -0.00018,   0.00016,   0.00001,   0.00000,   2.00000
-489804041.78267,-31419741.36100,-1471086.41300,  -0.00236,   0.00097,  -0.00001,477061387.21387,   0.00022,274881222.48532,  -0.00019,   0.00016,   0.00001,   0.00000,   2.00000
-491283519.03896,-34703838.89002,-1524883.58812,  -0.00237,   0.00097,  -0.00001,477070017.75991,   0.00023,274890939.29957,  -0.00020,   0.00017,   0.00001,  -0.00000,   2.00000
-492739847.89249,-37974296.62983,-1584446.23873,  -0.00238,   0.00096,  -0.00001,477095804.90677,   0.00024,274900712.96018,  -0.00021,   0.00017,   0.00001,   0.00000,   2.00000
-494177374.29225,-41240214.51170,-1637504.82773,  -0.00239,   0.00095,  -0.00001,477138758.26357,   0.00025,274910618.85253,  -0.00022,   0.00017,   0.00001,   0.00000,   2.00000
-495587805.23519,-44482819.48417,-1696386.55795,  -0.00240,   0.00094,  -0.00001,477147133.82446,   0.00026,274920503.06375,  -0.00023,   0.00018,   0.00001,   0.00000,   2.00000
-496971644.53377,-47702199.80174,-1748889.89237,  -0.00241,   0.00094,  -0.00001,477155096.22432,   0.00026,274930363.84374,  -0.00024,   0.00018,   0.00001,   0.00000,   2.00000
-498336863.79440,-50916352.31987,-1800994.89258,  -0.00242,   0.00093,  -0.00001,477197809.67456,   0.00027,274940354.32554,  -0.00025,   0.00019,   0.00001,  -0.00000,   2.00000
-499679532.15686,-54116012.90238,-1858853.22559,  -0.00243,   0.00092,  -0.00001,477223181.03820,   0.00028,274950397.10020,  -0.00027,   0.00019,   0.00001,   0.00000,   2.00000
-500996273.01764,-57292295.17107,-1910334.16358,  -0.00244,   0.00091,  -0.00001,477230765.68583,   0.00029,274960413.55049,  -0.00028,   0.00020,   0.00001,   0.00000,   2.00000
-502290949.10239,-60453926.52134,-1961480.65866,  -0.00245,   0.00090,  -0.00001,477255735.35000,   0.00030,274970480.00037,  -0.00029,   0.00020,   0.00001,   0.00000,   2.00000
-503563615.86133,-63600755.38799,-2018376.58319,  -0.00246,   0.00090,  -0.00002,477280695.11313,   0.00031,274980595.90121,  -0.00030,   0.00020,   0.00001,   0.00000,   2.00000
-504814566.13360,-66732642.53058,-2068817.75095,  -0.00247,   0.00089,  -0.00002,477305412.89741,   0.00032,274990759.69371,  -0.00031,   0.00021,   0.00001,  -0.00000,   2.00000
-506043862.38107,-69849444.61498,-2118919.55564,  -0.00248,   0.00088,  -0.00002,477330116.96298,   0.00033,275000970.82920,  -0.00032,   0.00021,   0.00001,   0.00000,   2.00000
-507248428.53344,-72942845.69104,-2168766.10121,  -0.00249,   0.00087,  -0.00002,477337004.10245,   0.00034,275011151.21313,  -0.00033,   0.00022,   0.00001,   0.00000,   2.00000
-508434901.94095,-76029112.74034,-2218184.69059,  -0.00250,   0.00087,  -0.00002,477379139.93445,   0.00035,275021454.29966,  -0.00034,   0.00022,   0.00001,   0.00000,   2.00000
-509597100.81260,-79091939.41430,-2267349.75615,  -0.00251,   0.00086,  -0.00002,477385782.81336,   0.00036,275031724.87582,  -0.00035,   0.00022,   0.00001,  -0.00000,   2.00000
-510735389.17501,-82131462.60925,-2316264.20144,  -0.00252,   0.00085,  -0.00002,477392160.10662,   0.00037,275041961.96377,  -0.00036,   0.00023,   0.00001,   0.00000,   2.00000
-511855918.06920,-85163298.67252,-2364742.40559,  -0.00253,   0.00084,  -0.00002,477433973.59063,   0.00038,275052319.11375,  -0.00037,   0.00023,   0.00001,   0.00000,   2.00000
-512952993.50621,-88171816.19784,-2412972.14619,  -0.00254,   0.00084,  -0.00002,477440110.54542,   0.00039,275062641.09145,  -0.00038,   0.00024,   0.00001,   0.00000,   2.00000
-514029714.78805,-91164680.69112,-2460857.86257,  -0.00255,   0.00083,  -0.00002,477463894.33985,   0.00040,275073004.22193,  -0.00039,   0.00024,   0.00001,   0.00000,   2.00000
-515086235.21148,-94141784.10792,-2508398.64149,  -0.00256,   0.00082,  -0.00002,477487587.26393,   0.00040,275083407.68580,  -0.00040,   0.00024,   0.00001,   0.00000,   2.00000
-516127500.52548,-97116860.67851,-2549602.68363,  -0.00257,   0.00081,  -0.00002,477494898.46764,   0.00041,275093780.51852,  -0.00042,   0.00025,   0.00001,   0.00000,   2.00000
-517143995.55860,-100062058.44658,-2596483.54246,  -0.00258,   0.00081,  -0.00002,477534687.48664,   0.00042,275104262.40390,  -0.00043,   0.00025,   0.00001,   0.00000,   2.00000
-518138314.70897,-102984117.31457,-2643124.14663,  -0.00259,   0.00080,  -0.00003,477540092.32427,   0.00043,275114705.01040,  -0.00044,   0.00026,   0.00001,   0.00000,   2.00000
-519110806.29598,-105883202.68097,-2689527.76668,  -0.00260,   0.00079,  -0.00003,477545247.01982,   0.00044,275125107.50869,  -0.00045,   0.00026,   0.00001,   0.00000,   2.00000
-520064233.70283,-108766354.32605,-2729503.50480,  -0.00261,   0.00078,  -0.00003,477568110.24820,   0.00045,275135545.77954,  -0.00046,   0.00026,   0.00001,   0.00000,   2.00000
-520998535.71753,-111633460.61659,-2775250.49795,  -0.00262,   0.00077,  -0.00003,477591091.92843,   0.00046,275146019.95250,  -0.00047,   0.00027,   0.00001,   0.00000,   2.00000
-521913982.92202,-114484453.14585,-2820651.68125,  -0.00263,   0.00077,  -0.00003,477613879.55502,   0.00047,275156528.82535,  -0.00048,   0.00027,   0.00001,  -0.00000,   2.00000
-522808746.01513,-117312738.02454,-2859741.34195,  -0.00264,   0.00076,  -0.00003,477618335.79662,   0.00048,275166994.13590,  -0.00049,   0.00027,   0.00001,   0.00000,   2.00000
-523684971.53334,-120124887.26860,-2904602.73106,  -0.00265,   0.00075,  -0.00003,477640922.98810,   0.00049,275177493.08289,  -0.00051,   0.00028,   0.00001,   0.00000,   2.00000
-524543059.02218,-122920863.31730,-2943036.87836,  -0.00266,   0.00074,  -0.00003,477663197.78649,   0.00050,275188023.98958,  -0.00052,   0.00028,   0.00001,   0.00000,   2.00000
-525381011.96805,-125694355.60654,-2987365.23935,  -0.00267,   0.00074,  -0.00003,477667414.77995,   0.00051,275198510.17643,  -0.00053,   0.00028,   0.00001,   0.00000,   2.00000
-526201260.77172,-128451689.27340,-3025267.79199,  -0.00268,   0.00073,  -0.00003,477689382.61009,   0.00052,275209026.85730,  -0.00054,   0.00029,   0.00001,   0.00000,   2.00000
-527001920.88306,-131186770.83081,-3069069.73171,  -0.00269,   0.00072,  -0.00003,477693260.94169,   0.00053,275219497.49587,  -0.00055,   0.00029,   0.00001,   0.00000,   2.00000
-527785306.56215,-133905719.94303,-3106447.44380,  -0.00270,   0.00071,  -0.00003,477714926.19310,   0.00054,275229997.21500,  -0.00056,   0.00029,   0.00001,   0.00000,   2.00000
-528551456.27942,-136608462.06524,-3143517.56272,  -0.00271,   0.00071,  -0.00003,477736619.26416,   0.00055,275240525.82482,  -0.00057,   0.00030,   0.00001,   0.00000,   2.00000
-529298773.21436,-139289247.53090,-3186494.16298,  -0.00272,   0.00070,  -0.00004,477740060.77666,   0.00056,275251006.52081,  -0.00058,   0.00030,   0.00001,   0.00000,   2.00000
-530034958.01665,-141974544.22836,-3223024.14571,  -0.00273,   0.00069,  -0.00004,477764649.34119,   0.00057,275261527.99589,  -0.00060,   0.00030,   0.00001,  -0.00000,   2.00000
-530747291.37631,-144617385.82651,-3259408.36983,  -0.00274,   0.00068,  -0.00004,477764427.85977,   0.00058,275271986.34256,  -0.00061,   0.00031,   0.00001,   0.00000,   2.00000
-531443227.71456,-147244112.80813,-3295488.61939,  -0.00275,   0.00068,  -0.00004,477785536.21989,   0.00059,275282470.96156,  -0.00062,   0.00031,   0.00001,   0.00000,   2.00000
-532121373.42611,-149849403.21163,-3337486.08492,  -0.00276,   0.00067,  -0.00004,477788336.47419,   0.00060,275292905.37080,  -0.00063,   0.00031,   0.00000,   0.00000,   2.00000
-532783671.79658,-152438667.02191,-3373065.27458,  -0.00277,   0.00066,  -0.00004,477809032.67382,   0.00061,275303364.28937,  -0.00064,   0.00031,   0.00000,   0.00000,   2.00000
-533430147.50668,-155011843.52093,-3408342.95405,  -0.00278,   0.00065,  -0.00004,477829770.08717,   0.00062,275313847.63247,  -0.00065,   0.00032,   0.00000,   0.00000,   2.00000
-534059692.60553,-157563956.36195,-3443464.49679,  -0.00279,   0.00064,  -0.00004,477832028.92400,   0.00063,275324278.62796,  -0.00066,   0.00032,   0.00000,   0.00000,   2.00000
-534673819.87836,-160100057.12346,-3478286.65928,  -0.00280,   0.00064,  -0.00004,477852486.34558,   0.00064,275334732.88154,  -0.00068,   0.00032,   0.00000,   0.00000,   2.00000
-535271512.34529,-162615378.85461,-3512958.26672,  -0.00281,   0.00063,  -0.00004,477854440.42350,   0.00065,275345133.79826,  -0.00069,   0.00033,   0.00000,   0.00000,   2.00000
-535853050.26111,-165110131.76842,-3547482.62941,  -0.00281,   0.00062,  -0.00004,477856191.26785,   0.00065,275355480.92834,  -0.00070,   0.00033,   0.00000,   0.00000,   2.00000
-536419801.59498,-167589065.90515,-3581711.44778,  -0.00282,   0.00061,  -0.00004,477876184.38686,   0.00066,275365849.68055,  -0.00071,   0.00033,   0.00000,   0.00000,   2.00000
-536971926.40463,-170052162.63535,-3615645.38723,  -0.00283,   0.00061,  -0.00004,477896095.34856,   0.00067,275376239.49749,  -0.00072,   0.00033,   0.00000,   0.00000,   2.00000
-537508576.06431,-172495066.92822,-3649440.05880,  -0.00284,   0.00060,  -0.00004,477897459.36887,   0.00068,275386574.16125,  -0.00073,   0.00034,   0.00000,  -0.00000,   2.00000
-538030985.58357,-174922232.17702,-3682942.20752,  -0.00285,   0.00059,  -0.00005,477917103.66928,   0.00069,275396928.85951,  -0.00074,   0.00034,   0.00000,   0.00000,   2.00000
-538537453.95339,-177325364.80505,-3716468.96051,  -0.00286,   0.00058,  -0.00005,477899697.10958,   0.00070,275407152.08648,  -0.00076,   0.00034,   0.00000,  -0.00000,   2.00000
-539031015.73884,-179717031.44826,-3749546.65927,  -0.00287,   0.00058,  -0.00005,477937473.15796,   0.00071,275417469.82451,  -0.00077,   0.00034,   0.00000,   0.00000,   2.00000
-539510180.43343,-182089152.71822,-3776416.03122,  -0.00288,   0.00057,  -0.00005,477938126.31379,   0.00072,275427730.20208,  -0.00078,   0.00034,   0.00000,  -0.00000,   2.00000
-539974878.09578,-184441862.55193,-3809276.48380,  -0.00289,   0.00056,  -0.00005,477938882.78555,   0.00073,275437934.06808,  -0.00079,   0.00035,   0.00000,   0.00000,   2.00000
-540426300.72212,-186779168.41799,-3841850.89732,  -0.00290,   0.00055,  -0.00005,477957831.12773,   0.00074,275448155.61949,  -0.00080,   0.00035,   0.00000,   0.00000,   2.00000
-540864017.55352,-189097457.36346,-3868225.64338,  -0.00290,   0.00055,  -0.00005,477958024.96143,   0.00075,275458318.75737,  -0.00081,   0.00035,   0.00000,   0.00000,   2.00000
-541287937.90332,-191396856.92790,-3900600.02539,  -0.00291,   0.00054,  -0.00005,477958335.69141,   0.00076,275468424.39378,  -0.00082,   0.00035,   0.00000,   0.00000,   2.00000
-541699148.03790,-193681091.54367,-3932692.46419,  -0.00292,   0.00053,  -0.00005,477976862.94143,   0.00077,275478546.45223,  -0.00083,   0.00036,  -0.00000,  -0.00000,   2.00000
-542097313.88795,-195946841.06667,-3958593.82854,  -0.00293,   0.00052,  -0.00005,477976613.98683,   0.00078,275488609.15564,  -0.00085,   0.00036,  -0.00000,   0.00000,   2.00000
-542482948.90727,-198197503.25672,-3990331.59960,  -0.00294,   0.00052,  -0.00005,477995049.39051,   0.00079,275498688.07220,  -0.00086,   0.00036,  -0.00000,   0.00000,   2.00000
-542855948.74477,-200429997.75926,-4015883.72468,  -0.00295,   0.00051,  -0.00005,477994544.86441,   0.00080,275508707.03396,  -0.00087,   0.00036,  -0.00000,   0.00000,   2.00000
-543216189.69175,-202644440.51632,-4047449.27398,  -0.00296,   0.00050,  -0.00005,477994178.67323,   0.00080,275518667.04976,  -0.00088,   0.00036,  -0.00000,   0.00000,   2.00000
-543564777.46522,-204844146.99816,-4072659.14786,  -0.00296,   0.00049,  -0.00005,478011904.18005,   0.00081,275528640.92473,  -0.00089,   0.00036,  -0.00000,   0.00000,   2.00000
-543900992.00407,-207026116.17305,-4103887.72689,  -0.00297,   0.00048,  -0.00006,478011296.33534,   0.00082,275538555.33160,  -0.00090,   0.00037,  -0.00000,   0.00000,   2.00000
-544225886.12070,-209193485.38118,-4128763.20436,  -0.00298,   0.00048,  -0.00006,478028788.17546,   0.00083,275548482.86408,  -0.00091,   0.00037,  -0.00000,  -0.00000,   2.00000
-544538498.03714,-211340761.11469,-4153762.10844,  -0.00299,   0.00047,  -0.00006,478009201.14105,   0.00084,275558275.86178,  -0.00092,   0.00037,  -0.00000,   0.00000,   2.00000
-544839792.26087,-213473572.88610,-4184606.94409,  -0.00300,   0.00046,  -0.00006,478026696.80235,   0.00085,275568082.66851,  -0.00093,   0.00037,  -0.00000,   0.00000,   2.00000
-545130269.85364,-215592048.82921,-4209102.65596,  -0.00301,   0.00045,  -0.00006,478043803.00095,   0.00086,275577901.61867,  -0.00095,   0.00037,  -0.00000,   0.00000,   2.00000
-545409097.73490,-217691229.45341,-4233733.65577,  -0.00301,   0.00045,  -0.00006,478023816.98578,   0.00087,275587585.76518,  -0.00096,   0.00037,  -0.00000,   0.00000,   2.00000
-545677272.43826,-219776263.07867,-4258133.92546,  -0.00302,   0.00044,  -0.00006,478040777.94936,   0.00088,275597282.16068,  -0.00097,   0.00037,  -0.00000,   0.00000,   2.00000
-545934929.29874,-221847168.39442,-4282304.54966,  -0.00303,   0.00043,  -0.00006,478057672.81155,   0.00089,275606990.44198,  -0.00098,   0.00038,  -0.00000,  -0.00000,   2.00000
-546181533.61455,-223899568.46606,-4306621.53522,  -0.00304,   0.00042,  -0.00006,478037305.25485,   0.00090,275616563.74388,  -0.00099,   0.00038,  -0.00000,   0.00000,   2.00000
-546417948.55274,-225938084.39756,-4330711.50318,  -0.00305,   0.00042,  -0.00006,478053904.17940,   0.00090,275626148.45249,  -0.00100,   0.00038,  -0.00000,   0.00000,   2.00000
-546646016.10344,-227979599.91962,-4354700.95848,  -0.00305,   0.00041,  -0.00006,478058135.69795,   0.00091,275635695.79424,  -0.00101,   0.00038,  -0.00001,  -0.00000,   2.00000
-546861800.99841,-229986414.39651,-4378720.79631,  -0.00306,   0.00040,  -0.00006,478049715.74704,   0.00092,275645156.60688,  -0.00102,   0.00038,  -0.00001,   0.00000,   2.00000
-547067842.06608,-231979609.04710,-4402517.26824,  -0.00307,   0.00039,  -0.00006,478065963.00156,   0.00093,275654628.05132,  -0.00103,   0.00038,  -0.00001,   0.00000,   2.00000
-547263767.31760,-233955660.01490,-4426478.27474,  -0.00308,   0.00039,  -0.00006,478044943.37519,   0.00094,275663964.49214,  -0.00104,   0.00038,  -0.00001,   0.00000,   2.00000
-547450249.71972,-235918330.66308,-4450218.40048,  -0.00308,   0.00038,  -0.00006,478060910.18819,   0.00095,275673311.16798,  -0.00105,   0.00038,  -0.00001,   0.00000,   2.00000
-547629004.26036,-237886253.75366,-4473668.65673,  -0.00309,   0.00037,  -0.00006,478083461.17326,   0.00096,275682693.50014,  -0.00106,   0.00038,  -0.00001,  -0.00000,   2.00000
-547796469.78870,-239819060.10408,-4497363.65744,  -0.00310,   0.00036,  -0.00007,478055548.51420,   0.00096,275691915.24421,  -0.00107,   0.00039,  -0.00001,   0.00000,   2.00000
-547955101.88444,-241738820.29331,-4514760.11916,  -0.00311,   0.00035,  -0.00007,478071008.15259,   0.00097,275701145.88000,  -0.00108,   0.00039,  -0.00001,  -0.00000,   2.00000
-548104257.69952,-243642688.79095,-4538453.49993,  -0.00311,   0.00035,  -0.00007,478049557.96177,   0.00098,275710242.38129,  -0.00109,   0.00039,  -0.00001,   0.00000,   2.00000
-548245924.08706,-245552051.81502,-4561857.21861,  -0.00312,   0.00034,  -0.00007,478071839.23686,   0.00099,275719374.73020,  -0.00110,   0.00039,  -0.00001,   0.00000,   2.00000
-548377802.07962,-247430128.02254,-4579039.73223,  -0.00313,   0.00033,  -0.00007,478080148.04139,   0.00100,275728488.85499,  -0.00112,   0.00039,  -0.00001,   0.00000,   2.00000
-548501759.91763,-249311313.69424,-4602452.01607,  -0.00313,   0.00032,  -0.00007,478065434.85380,   0.00101,275737496.03505,  -0.00113,   0.00039,  -0.00001,   0.00000,   2.00000
-548616007.02225,-251160438.38009,-4625932.02418,  -0.00314,   0.00032,  -0.00007,478054937.56891,   0.00102,275746413.42163,  -0.00114,   0.00039,  -0.00001,   0.00000,   2.00000
-548722209.15669,-252997128.56780,-4643119.57124,  -0.00315,   0.00031,  -0.00007,478069684.27733,   0.00102,275755338.66199,  -0.00115,   0.00039,  -0.00001,   0.00000,   2.00000
-548821021.05286,-254838532.44341,-4660256.02382,  -0.00316,   0.00030,  -0.00007,478073206.67322,   0.00103,275764228.52799,  -0.00116,   0.00039,  -0.00001,   0.00000,   2.00000
-548910538.34405,-256648459.90326,-4683584.68942,  -0.00316,   0.00029,  -0.00007,478062395.73271,   0.00104,275773028.53549,  -0.00117,   0.00039,  -0.00001,  -0.00000,   2.00000
-548992974.81850,-258463442.17114,-4700748.51463,  -0.00317,   0.00029,  -0.00007,478065624.61526,   0.00105,275781792.89402,  -0.00118,   0.00039,  -0.00001,   0.00000,   2.00000
-549067372.49301,-260265433.38632,-4717945.20681,  -0.00318,   0.00028,  -0.00007,478061696.81176,   0.00106,275790494.55920,  -0.00119,   0.00039,  -0.00001,   0.00000,   2.00000
-549133075.37672,-262036683.69149,-4741343.19215,  -0.00318,   0.00027,  -0.00007,478050341.17641,   0.00106,275799105.82251,  -0.00120,   0.00039,  -0.00001,  -0.00000,   2.00000
-549191937.21351,-263813880.71512,-4758368.64124,  -0.00319,   0.00026,  -0.00007,478071975.09796,   0.00107,275807752.73310,  -0.00120,   0.00039,  -0.00001,  -0.00000,   2.00000
-549243013.92821,-265578123.74083,-4775643.06002,  -0.00320,   0.00025,  -0.00007,478049202.44239,   0.00108,275816266.36942,  -0.00121,   0.00039,  -0.00001,   0.00000,   2.00000
-549286268.46172,-267312799.21521,-4792833.39023,  -0.00320,   0.00025,  -0.00007,478055696.44354,   0.00109,275824758.82158,  -0.00122,   0.00039,  -0.00001,   0.00000,   2.00000
-549322482.21882,-269053111.53639,-4809978.00440,  -0.00321,   0.00024,  -0.00007,478058857.36027,   0.00110,275833217.50987,  -0.00123,   0.00039,  -0.00001,   0.00000,   2.00000
-549351250.57288,-270781229.29878,-4827378.85889,  -0.00321,   0.00023,  -0.00008,478035763.54368,   0.00110,275841543.43599,  -0.00124,   0.00039,  -0.00001,  -0.00000,   2.00000
-549372859.87842,-272497765.97397,-4844610.18381,  -0.00322,   0.00022,  -0.00008,478049593.41857,   0.00111,275849876.92727,  -0.00125,   0.00039,  -0.00001,  -0.00000,   2.00000
-549387321.78062,-274202678.18412,-4861887.74719,  -0.00323,   0.00022,  -0.00008,478044835.24592,   0.00112,275858147.89849,  -0.00126,   0.00039,  -0.00001,   0.00000,   2.00000
-549394735.98953,-275896139.68549,-4879213.07196,  -0.00323,   0.00021,  -0.00008,478039971.38377,   0.00113,275866356.41105,  -0.00127,   0.00039,  -0.00001,   0.00000,   2.00000
-549395199.44839,-277578322.57198,-4896587.66694,  -0.00324,   0.00020,  -0.00008,478035003.31384,   0.00113,275874502.53105,  -0.00128,   0.00039,  -0.00001,  -0.00000,   2.00000
-549389023.22681,-279249492.09560,-4907929.43055,  -0.00324,   0.00019,  -0.00008,478029742.99027,   0.00114,275882585.61610,  -0.00129,   0.00039,  -0.00001,  -0.00000,   2.00000
-549375956.60836,-280909419.62001,-4925220.33811,  -0.00325,   0.00019,  -0.00008,478043276.89109,   0.00115,275890676.51373,  -0.00130,   0.00039,  -0.00001,  -0.00000,   2.00000
-549355831.24041,-282575911.00691,-4942686.36034,  -0.00326,   0.00018,  -0.00008,478027772.38154,   0.00116,275898666.48782,  -0.00131,   0.00039,  -0.00002,   0.00000,   2.00000
-549329559.69207,-284214653.34293,-4954220.03812,  -0.00326,   0.00017,  -0.00008,478014077.99777,   0.00116,275906563.13606,  -0.00132,   0.00039,  -0.00002,  -0.00000,   2.00000
-549296563.62813,-285842855.66561,-4971924.65505,  -0.00327,   0.00016,  -0.00008,478008799.82404,   0.00117,275914398.49862,  -0.00133,   0.00039,  -0.00002,   0.00000,   2.00000
-549256867.74428,-287477820.55390,-4983502.00894,  -0.00327,   0.00015,  -0.00008,478011434.23697,   0.00118,275922202.34836,  -0.00133,   0.00039,  -0.00002,   0.00000,   2.00000
-549211145.56167,-289084962.99795,-5001131.35315,  -0.00328,   0.00015,  -0.00008,478016145.32909,   0.00119,275929982.76255,  -0.00134,   0.00039,  -0.00002,  -0.00000,   2.00000
-549158640.43834,-290699620.03408,-5012856.06632,  -0.00328,   0.00014,  -0.00008,478000287.31002,   0.00119,275937663.48128,  -0.00135,   0.00039,  -0.00002,  -0.00000,   2.00000
-549099810.78640,-292304303.43640,-5024670.50701,  -0.00329,   0.00013,  -0.00008,477994583.10357,   0.00120,275945282.82696,  -0.00136,   0.00039,  -0.00002,  -0.00000,   2.00000
-549035492.88051,-293882476.34307,-5036679.83523,  -0.00329,   0.00012,  -0.00008,477980169.97246,   0.00121,275952809.13911,  -0.00137,   0.00039,  -0.00002,   0.00000,   2.00000
-548964295.37568,-295467791.79290,-5048676.65398,  -0.00330,   0.00012,  -0.00008,477982818.44637,   0.00121,275960305.97557,  -0.00138,   0.00039,  -0.00002,   0.00000,   2.00000
-548886900.72856,-297042613.77065,-5066626.66513,  -0.00330,   0.00011,  -0.00008,477995486.68148,   0.00122,275967810.51612,  -0.00139,   0.00039,  -0.00002,   0.00000,   2.00000
-548803549.29523,-298609071.94935,-5078780.92093,  -0.00331,   0.00010,  -0.00008,477970851.28386,   0.00123,275975185.36039,  -0.00139,   0.00039,  -0.00002,   0.00000,   2.00000
-548714441.35809,-300166433.23794,-5084943.94182,  -0.00331,   0.00009,  -0.00008,477964508.70850,   0.00123,275982498.66331,  -0.00140,   0.00039,  -0.00002,  -0.00000,   2.00000
-548619187.96736,-301714630.57759,-5097316.73488,  -0.00332,   0.00008,  -0.00009,477958472.72461,   0.00124,275989751.98934,  -0.00141,   0.00039,  -0.00002,   0.00000,   2.00000
-548518074.42640,-303253919.67027,-5109785.27768,  -0.00332,   0.00008,  -0.00009,477952158.42522,   0.00125,275996944.74312,  -0.00142,   0.00039,  -0.00002,  -0.00000,   2.00000
-548411158.18960,-304784446.45143,-5122350.40174,  -0.00333,   0.00007,  -0.00009,477945761.98658,   0.00125,276004077.05173,  -0.00143,   0.00039,  -0.00002,   0.00000,   2.00000
-548297028.08482,-306323808.07247,-5135128.28864,  -0.00333,   0.00006,  -0.00009,477929949.55790,   0.00126,276011114.81616,  -0.00144,   0.00039,  -0.00002,  -0.00000,   2.00000
-548178834.85051,-307837242.26928,-5141801.19906,  -0.00334,   0.00005,  -0.00009,477932549.69922,   0.00127,276018125.99308,  -0.00144,   0.00038,  -0.00002,  -0.00000,   2.00000
-548053373.37677,-309358294.38950,-5154573.54972,  -0.00334,   0.00005,  -0.00009,477935277.64264,   0.00127,276025111.14481,  -0.00145,   0.00038,  -0.00002,   0.00000,   2.00000
-547923887.49359,-310855101.49634,-5161472.46155,  -0.00335,   0.00004,  -0.00009,477919282.20979,   0.00128,276032002.44019,  -0.00146,   0.00038,  -0.00002,   0.00000,   2.00000
-547786868.95355,-312361183.59115,-5174699.50760,  -0.00335,   0.00003,  -0.00009,477903608.69226,   0.00129,276038801.58592,  -0.00147,   0.00038,  -0.00002,   0.00000,   2.00000
-547644694.99687,-313857781.32813,-5181708.65141,  -0.00335,   0.00002,  -0.00009,477914974.63659,   0.00129,276045607.31535,  -0.00147,   0.00038,  -0.00002,   0.00000,   2.00000
-547496683.78361,-315348062.14544,-5189075.31709,  -0.00336,   0.00001,  -0.00009,477889835.98054,   0.00130,276052287.35786,  -0.00148,   0.00038,  -0.00002,  -0.00000,   2.00000
-547343122.48699,-316830581.30824,-5196569.07528,  -0.00336,   0.00001,  -0.00009,477882908.50534,   0.00130,276058908.43862,  -0.00149,   0.00038,  -0.00002,  -0.00000,   2.00000
-547184051.13115,-318305471.56677,-5204190.23099,  -0.00337,  -0.00000,  -0.00009,477875909.51627,   0.00131,276065470.70798,  -0.00150,   0.00038,  -0.00002,   0.00000,   2.00000
-547019507.79802,-319772864.15914,-5211939.08654,  -0.00337,  -0.00001,  -0.00009,477868840.16544,   0.00132,276071974.31875,  -0.00150,   0.00038,  -0.00002,   0.00000,   2.00000
-546849528.65217,-321232888.81961,-5219815.94167,  -0.00337,  -0.00002,  -0.00009,477861701.59595,   0.00132,276078419.42616,  -0.00151,   0.00038,  -0.00002,   0.00000,   2.00000
-546672212.36289,-322701157.36895,-5227698.85078,  -0.00338,  -0.00003,  -0.00009,477864136.98842,   0.00133,276084840.77091,  -0.00152,   0.00038,  -0.00002,   0.00000,   2.00000
-546491409.03217,-324146732.77109,-5235832.38082,  -0.00338,  -0.00003,  -0.00009,477847305.16149,   0.00133,276091169.42982,  -0.00153,   0.00038,  -0.00002,  -0.00000,   2.00000
-546302846.80234,-325602714.73020,-5244202.93819,  -0.00338,  -0.00004,  -0.00009,477831452.92083,   0.00134,276097409.43814,  -0.00153,   0.00037,  -0.00002,   0.00000,   2.00000
-546109073.14476,-327051841.62691,-5246611.72868,  -0.00339,  -0.00005,  -0.00009,477823934.56647,   0.00135,276103591.23338,  -0.00154,   0.00037,  -0.00002,   0.00000,   2.00000
-545910055.55828,-328491831.70079,-5255029.91201,  -0.00339,  -0.00006,  -0.00009,477834990.88405,   0.00135,276109781.64463,  -0.00155,   0.00037,  -0.00002,   0.00000,   2.00000
-545705483.69770,-329927382.07680,-5257719.95999,  -0.00339,  -0.00007,  -0.00009,477809169.60747,   0.00136,276115848.94644,  -0.00155,   0.00037,  -0.00002,   0.00000,   2.00000
-545495312.99255,-331356190.92929,-5266652.30319,  -0.00340,  -0.00007,  -0.00009,477801868.03589,   0.00136,276121859.99014,  -0.00156,   0.00037,  -0.00002,   0.00000,   2.00000
-545279571.82002,-332780956.08545,-5269855.89459,  -0.00340,  -0.00008,  -0.00009,477775903.41228,   0.00137,276127748.69428,  -0.00157,   0.00037,  -0.00003,   0.00000,   2.00000
-545056569.51460,-334211958.72493,-5272848.88064,  -0.00340,  -0.00009,  -0.00009,477796473.61859,   0.00137,276133681.24757,  -0.00157,   0.00037,  -0.00003,  -0.00000,   2.00000
-544830102.65934,-335624088.27616,-5276356.44038,  -0.00340,  -0.00010,  -0.00009,477760650.05831,   0.00138,276139457.23538,  -0.00158,   0.00037,  -0.00003,  -0.00000,   2.00000
-544596340.43065,-337042440.57908,-5279651.30284,  -0.00341,  -0.00011,  -0.00009,477781181.61194,   0.00139,276145277.41690,  -0.00159,   0.00037,  -0.00003,  -0.00000,   2.00000
-544356661.40912,-338457146.83104,-5283330.76062,  -0.00341,  -0.00011,  -0.00009,477755375.30914,   0.00139,276150977.45807,  -0.00159,   0.00037,  -0.00003,   0.00000,   2.00000
-544113638.39564,-339853726.95949,-5287526.05903,  -0.00341,  -0.00012,  -0.00010,477719228.84305,   0.00140,276156521.65399,  -0.00160,   0.00036,  -0.00003,   0.00000,   2.00000
-543860568.09909,-341271154.28823,-5291371.49579,  -0.00342,  -0.00013,  -0.00010,477749972.63691,   0.00140,276162147.03835,  -0.00161,   0.00036,  -0.00003,  -0.00000,   2.00000
-543604977.74694,-342668188.49592,-5289408.24746,  -0.00342,  -0.00014,  -0.00010,477731683.43926,   0.00141,276167680.31361,  -0.00161,   0.00036,  -0.00003,  -0.00000,   2.00000
-543343165.84405,-344062138.95564,-5293942.58246,  -0.00342,  -0.00015,  -0.00010,477705879.92105,   0.00141,276173095.61664,  -0.00162,   0.00036,  -0.00003,  -0.00000,   2.00000
-543073381.16289,-345465068.51928,-5292398.10127,  -0.00342,  -0.00015,  -0.00010,477708127.01578,   0.00142,276178492.26238,  -0.00162,   0.00036,  -0.00003,   0.00000,   2.00000
-542800760.60064,-346847899.49416,-5297251.06644,  -0.00342,  -0.00016,  -0.00010,477689903.81274,   0.00142,276183798.59101,  -0.00163,   0.00036,  -0.00003,   0.00000,   2.00000
-542520072.25821,-348239782.22516,-5296022.82377,  -0.00343,  -0.00017,  -0.00010,477692153.88118,   0.00143,276189086.90200,  -0.00164,   0.00036,  -0.00003,   0.00000,   2.00000
-542233185.57438,-349629226.14025,-5295196.60758,  -0.00343,  -0.00018,  -0.00010,477666105.40976,   0.00143,276194258.22974,  -0.00164,   0.00036,  -0.00003,   0.00000,   2.00000
-541940793.89607,-351013393.82749,-5294537.32282,  -0.00343,  -0.00019,  -0.00010,477658006.80440,   0.00144,276199376.09405,  -0.00165,   0.00035,  -0.00003,   0.00000,   2.00000
-541642896.99834,-352392385.22034,-5294044.41680,  -0.00343,  -0.00019,  -0.00010,477649863.96964,   0.00144,276204440.69538,  -0.00165,   0.00035,  -0.00003,   0.00000,   2.00000
-541336356.67761,-353780294.55404,-5293577.89917,  -0.00343,  -0.00020,  -0.00010,477652433.96162,   0.00144,276209489.67701,  -0.00166,   0.00035,  -0.00003,   0.00000,   2.00000
-541027394.47080,-355149144.85126,-5293415.89148,  -0.00343,  -0.00021,  -0.00010,477633535.75025,   0.00145,276214448.46249,  -0.00166,   0.00035,  -0.00003,   0.00000,   2.00000
-540709051.30989,-356530336.97316,-5287417.02515,  -0.00343,  -0.00022,  -0.00010,477617961.04457,   0.00145,276219329.11116,  -0.00167,   0.00035,  -0.00003,   0.00000,   2.00000
-540384816.00165,-357906476.95483,-5287694.73448,  -0.00344,  -0.00023,  -0.00010,477609955.64018,   0.00146,276224158.42031,  -0.00168,   0.00035,  -0.00003,   0.00000,   2.00000
-540055146.13310,-359277941.24154,-5282039.91234,  -0.00344,  -0.00023,  -0.00010,477601504.86162,   0.00146,276228935.18234,  -0.00168,   0.00035,  -0.00003,   0.00000,   2.00000
-539719799.32404,-360644680.48535,-5276566.21903,  -0.00344,  -0.00024,  -0.00010,477593219.80350,   0.00147,276233660.31720,  -0.00169,   0.00035,  -0.00003,   0.00000,   2.00000
-539377557.01562,-362010074.08506,-5277598.74718,  -0.00344,  -0.00025,  -0.00010,477567210.61104,   0.00147,276238272.84436,  -0.00169,   0.00034,  -0.00003,   0.00000,   2.00000
-539026316.78786,-363384591.97728,-5272551.09300,  -0.00344,  -0.00026,  -0.00010,477569721.01814,   0.00148,276242871.93668,  -0.00170,   0.00034,  -0.00003,  -0.00000,   2.00000
-538669223.50385,-364754530.36372,-5267679.94164,  -0.00344,  -0.00027,  -0.00010,477561434.51444,   0.00148,276247420.45124,  -0.00170,   0.00034,  -0.00003,   0.00000,   2.00000
-538306492.37488,-366120121.22141,-5256889.34822,  -0.00344,  -0.00028,  -0.00010,477552912.61623,   0.00148,276251917.90734,  -0.00171,   0.00034,  -0.00003,   0.00000,   2.00000
-537936543.42581,-367484788.68268,-5252617.90073,  -0.00344,  -0.00028,  -0.00010,477526942.14351,   0.00149,276256304.59341,  -0.00171,   0.00034,  -0.00003,   0.00000,   2.00000
-537561780.24985,-368841485.11152,-5248289.00369,  -0.00344,  -0.00029,  -0.00010,477536335.31155,   0.00149,276260702.73591,  -0.00172,   0.00034,  -0.00003,  -0.00000,   2.00000
-537175257.72665,-370214667.72320,-5238349.19456,  -0.00344,  -0.00030,  -0.00010,477503499.90238,   0.00150,276264967.29189,  -0.00172,   0.00034,  -0.00003,   0.00000,   2.00000
-536787352.55844,-371566620.08979,-5234610.34393,  -0.00344,  -0.00031,  -0.00010,477501711.45071,   0.00150,276269205.56648,  -0.00172,   0.00033,  -0.00003,   0.00000,   2.00000
-536388600.29570,-372931469.98131,-5225025.69136,  -0.00344,  -0.00032,  -0.00010,477486714.52259,   0.00150,276273372.46642,  -0.00173,   0.00033,  -0.00003,   0.00000,   2.00000
-535983665.52288,-374292222.54962,-5215625.51340,  -0.00344,  -0.00033,  -0.00010,477478304.69123,   0.00151,276277490.96311,  -0.00173,   0.00033,  -0.00003,   0.00000,   2.00000
-535572521.95656,-375648955.40674,-5206408.55863,  -0.00344,  -0.00033,  -0.00010,477469871.16525,   0.00151,276281561.29100,  -0.00174,   0.00033,  -0.00003,  -0.00000,   2.00000
-535151176.21533,-377014499.58298,-5197224.98545,  -0.00344,  -0.00034,  -0.00010,477473010.77808,   0.00152,276285623.17273,  -0.00174,   0.00033,  -0.00003,  -0.00000,   2.00000
-534726103.64025,-378367352.56392,-5188596.58290,  -0.00344,  -0.00035,  -0.00010,477435353.71918,   0.00152,276289537.80534,  -0.00175,   0.00033,  -0.00003,  -0.00000,   2.00000
-534290850.00265,-379729184.91488,-5173899.42635,  -0.00344,  -0.00036,  -0.00010,477438325.94988,   0.00152,276293444.21219,  -0.00175,   0.00033,  -0.00003,   0.00000,   2.00000
-533848896.57669,-381087016.80562,-5165492.96263,  -0.00344,  -0.00037,  -0.00010,477430122.12692,   0.00153,276297304.51181,  -0.00176,   0.00033,  -0.00003,   0.00000,   2.00000
-533395016.13425,-382457810.40752,-5151237.44546,  -0.00344,  -0.00038,  -0.00010,477415684.71987,   0.00153,276301097.80184,  -0.00176,   0.00032,  -0.00003,   0.00000,   2.00000
-532940172.76013,-383808205.03409,-5137097.03953,  -0.00344,  -0.00038,  -0.00010,477413113.05961,   0.00153,276304864.75937,  -0.00176,   0.00032,  -0.00003,   0.00000,   2.00000
-532471360.92651,-385175716.79678,-5123439.38007,  -0.00344,  -0.00039,  -0.00010,477381413.54404,   0.00154,276308506.94845,  -0.00177,   0.00032,  -0.00003,   0.00000,   2.00000
-531997340.91079,-386535264.11174,-5109743.35531,  -0.00344,  -0.00040,  -0.00010,477390594.37344,   0.00154,276312163.28566,  -0.00177,   0.00032,  -0.00003,   0.00000,   2.00000
-531514857.05292,-387895492.98300,-5096451.46039,  -0.00344,  -0.00041,  -0.00010,477364707.99292,   0.00154,276315715.35343,  -0.00178,   0.00032,  -0.00003,   0.00000,   2.00000
-531025466.26786,-389252163.31509,-5083339.74658,  -0.00344,  -0.00042,  -0.00010,477356318.74921,   0.00155,276319222.76898,  -0.00178,   0.00032,  -0.00003,   0.00000,   2.00000
-530524930.23881,-390617464.54803,-5064155.91577,  -0.00343,  -0.00043,  -0.00010,477359815.93577,   0.00155,276322725.79716,  -0.00178,   0.00032,  -0.00003,   0.00000,   2.00000
-530021545.23945,-391967131.40906,-5051415.09574,  -0.00343,  -0.00044,  -0.00010,477339605.16845,   0.00155,276326144.81463,  -0.00179,   0.00031,  -0.00003,   0.00000,   2.00000
-529505005.96066,-393329884.07345,-5032815.45493,  -0.00343,  -0.00044,  -0.00010,477325750.24898,   0.00156,276329501.63308,  -0.00179,   0.00031,  -0.00003,   0.00000,   2.00000
-528981222.42342,-394689182.54801,-5014402.40324,  -0.00343,  -0.00045,  -0.00010,477317457.35165,   0.00156,276332815.29812,  -0.00179,   0.00031,  -0.00004,  -0.00000,   2.00000
-528443640.36072,-396061315.90937,-4996237.21906,  -0.00343,  -0.00046,  -0.00010,477304058.70751,   0.00156,276336068.93809,  -0.00180,   0.00031,  -0.00004,  -0.00000,   2.00000
-527903184.33794,-397418397.74903,-4978405.06946,  -0.00343,  -0.00047,  -0.00010,477283548.19458,   0.00157,276339239.16517,  -0.00180,   0.00031,  -0.00004,   0.00000,   2.00000
-527350597.56854,-398783692.44514,-4960599.86342,  -0.00343,  -0.00048,  -0.00010,477287624.86552,   0.00157,276342408.62804,  -0.00180,   0.00031,  -0.00004,   0.00000,   2.00000
-526785908.20183,-400157169.67823,-4936718.74043,  -0.00342,  -0.00049,  -0.00010,477291704.24833,   0.00157,276345577.33673,  -0.00181,   0.00031,  -0.00004,   0.00000,   2.00000
-526218212.99547,-401515845.28932,-4913178.84136,  -0.00342,  -0.00050,  -0.00010,477271191.39769,   0.00157,276348663.36331,  -0.00181,   0.00030,  -0.00004,   0.00000,   2.00000
-525640423.28495,-402875873.51284,-4896136.93225,  -0.00342,  -0.00051,  -0.00010,477245948.33752,   0.00158,276351651.44661,  -0.00181,   0.00030,  -0.00004,   0.00000,   2.00000
-525047952.30539,-404248813.79188,-4873219.50241,  -0.00342,  -0.00051,  -0.00010,477232937.20426,   0.00158,276354582.82027,  -0.00182,   0.00030,  -0.00004,  -0.00000,   2.00000
-524449670.41103,-405613572.13044,-4850273.50823,  -0.00341,  -0.00052,  -0.00010,477242130.51945,   0.00158,276357531.62086,  -0.00182,   0.00030,  -0.00004,  -0.00000,   2.00000
-523836310.05634,-406991086.39084,-4821458.43708,  -0.00341,  -0.00053,  -0.00010,477229433.83624,   0.00159,276360425.09703,  -0.00182,   0.00030,  -0.00004,  -0.00000,   2.00000
-523219398.66547,-408354159.37739,-4799084.65750,  -0.00341,  -0.00054,  -0.00010,477209018.46391,   0.00159,276363238.03306,  -0.00183,   0.00030,  -0.00004,   0.00000,   2.00000
-522589235.64814,-409724851.79402,-4776731.47093,  -0.00341,  -0.00055,  -0.00010,477213816.82147,   0.00159,276366054.37257,  -0.00183,   0.00030,  -0.00004,   0.00000,   2.00000
-521948377.60133,-411097402.45538,-4748648.25201,  -0.00340,  -0.00056,  -0.00010,477188686.44559,   0.00159,276368775.13034,  -0.00183,   0.00029,  -0.00004,   0.00000,   2.00000
-521298947.72778,-412466683.40211,-4720743.47548,  -0.00340,  -0.00057,  -0.00010,477180863.87608,   0.00160,276371458.05078,  -0.00183,   0.00029,  -0.00004,   0.00000,   2.00000
-520635780.16149,-413843283.73777,-4692863.66502,  -0.00340,  -0.00058,  -0.00010,477186000.98624,   0.00160,276374146.12252,  -0.00184,   0.00029,  -0.00004,   0.00000,   2.00000
-519961169.89460,-415221655.77277,-4665355.35307,  -0.00340,  -0.00058,  -0.00010,477161330.90583,   0.00160,276376741.07792,  -0.00184,   0.00029,  -0.00004,   0.94605,   1.00000
-519277798.23219,-416596854.38830,-4631912.98076,  -0.00339,  -0.00059,  -0.00010,477153531.18624,   0.00160,276379299.01759,  -0.00184,   0.00029,  -0.00004,   0.88898,   1.00000
-518585195.62235,-417968605.77168,-4604752.68797,  -0.00339,  -0.00060,  -0.00010,477146111.29908,   0.00161,276381821.42836,  -0.00184,   0.00029,  -0.00004,   0.83529,   1.00000
-517878437.77902,-419347439.13040,-4571503.57796,  -0.00339,  -0.00061,  -0.00010,477151505.74479,   0.00161,276384350.62545,  -0.00185,   0.00029,  -0.00004,   0.81051,   1.00000
-517159523.76284,-420728140.04095,-4538619.44910,  -0.00338,  -0.00062,  -0.00010,477127192.81894,   0.00161,276386789.08131,  -0.00185,   0.00029,  -0.00004,   0.72634,   1.00000
-516431165.53017,-422105462.47594,-4505904.15877,  -0.00338,  -0.00063,  -0.00010,477119821.78762,   0.00161,276389192.87586,  -0.00185,   0.00028,  -0.00004,   0.67983,   1.00000
-515693279.32864,-423479425.62604,-4473355.20621,  -0.00337,  -0.00064,  -0.00010,477112481.11039,   0.00161,276391562.32960,  -0.00185,   0.00028,  -0.00004,   0.63556,   1.00000
-514937343.98023,-424865257.08333,-4441008.53244,  -0.00337,  -0.00065,  -0.00010,477101701.04694,   0.00162,276393886.38038,  -0.00186,   0.00028,  -0.00004,   0.58742,   1.00000
-514171722.91373,-426247752.79664,-4402716.37906,  -0.00337,  -0.00066,  -0.00010,477094407.55762,   0.00162,276396176.70342,  -0.00186,   0.00028,  -0.00004,   0.54746,   1.00000
-513395956.80795,-427626629.61485,-4370696.25263,  -0.00336,  -0.00067,  -0.00009,477087490.34524,   0.00162,276398434.74348,  -0.00186,   0.00028,  -0.00004,   0.51007,   1.00000
-512601596.22582,-429017222.43030,-4332760.12482,  -0.00336,  -0.00067,  -0.00009,477077052.23185,   0.00162,276400649.19412,  -0.00186,   0.00028,  -0.00004,   0.46941,   1.00000
-511800245.68376,-430398707.31204,-4294804.76453,  -0.00335,  -0.00068,  -0.00009,477086890.83092,   0.00163,276402886.43240,  -0.00187,   0.00028,  -0.00004,   0.45795,   1.00000
-510985360.97103,-431782259.20788,-4251080.66850,  -0.00335,  -0.00069,  -0.00009,477063249.15922,   0.00163,276405037.32308,  -0.00187,   0.00028,  -0.00004,   0.40394,   1.00000
-510156326.33991,-433167613.84839,-4213801.37164,  -0.00335,  -0.00070,  -0.00009,477040023.14035,   0.00163,276407103.69281,  -0.00187,   0.00027,  -0.00004,   0.35521,   1.00000
-509314712.28479,-434553109.41066,-4170249.56657,  -0.00334,  -0.00071,  -0.00009,477063451.58455,   0.00163,276409237.69091,  -0.00187,   0.00027,  -0.00004,   0.36037,   1.00000
-508458540.49420,-435940310.45491,-4133133.69766,  -0.00334,  -0.00072,  -0.00009,477040532.39160,   0.00163,276411288.45348,  -0.00187,   0.00027,  -0.00004,   0.31602,   1.00000
-507587881.83567,-437329515.99843,-4090224.94512,  -0.00333,  -0.00073,  -0.00009,477017392.06954,   0.00164,276413255.71155,  -0.00188,   0.00027,  -0.00004,   0.27561,   1.00000
-506709784.44195,-438709262.00421,-4047297.72192,  -0.00333,  -0.00074,  -0.00009,477027482.92231,   0.00164,276415247.69512,  -0.00188,   0.00027,  -0.00004,   0.26741,   1.00000
-505811148.82911,-440099857.63142,-3998437.62322,  -0.00332,  -0.00075,  -0.00009,477018441.42408,   0.00164,276417202.31079,  -0.00188,   0.00027,  -0.00004,   0.24305,   1.00000
-504900874.10107,-441486338.21720,-3955836.57552,  -0.00332,  -0.00076,  -0.00009,477012463.65742,   0.00164,276419129.70386,  -0.00188,   0.00027,  -0.00004,   0.22266,   1.00000
-503973439.08624,-442877586.25887,-3907132.32968,  -0.00331,  -0.00077,  -0.00009,477020257.98735,   0.00164,276421074.59671,  -0.00188,   0.00027,  -0.00004,   0.21309,   1.00000
-503035953.90243,-444261910.08759,-3858869.24495,  -0.00331,  -0.00078,  -0.00009,476983987.93529,   0.00164,276422894.49455,  -0.00188,   0.00026,  -0.00004,   0.17500,   1.00000
-502080768.51879,-445650612.99235,-3810612.37274,  -0.00330,  -0.00079,  -0.00009,476992182.97765,   0.00165,276424733.67307,  -0.00189,   0.00026,  -0.00004,   0.16720,   1.00000
-501113487.67824,-447035089.37025,-3762494.46279,  -0.00330,  -0.00080,  -0.00009,476986469.31361,   0.00165,276426547.18396,  -0.00189,   0.00026,  -0.00004,   0.15171,   1.00000
-500128317.94815,-448423674.81861,-3708273.16907,  -0.00329,  -0.00080,  -0.00009,476994907.23705,   0.00165,276428380.83860,  -0.00189,   0.00026,  -0.00004,   0.14432,   1.00000
-499126235.01235,-449813538.57539,-3660450.29251,  -0.00329,  -0.00081,  -0.00009,476973443.59555,   0.00165,276430138.18234,  -0.00189,   0.00026,  -0.00004,   0.12298,   1.00000
-498111674.46681,-451199039.01679,-3606648.29261,  -0.00328,  -0.00082,  -0.00009,476967974.05903,   0.00165,276431871.13965,  -0.00189,   0.00026,  -0.00004,   0.11064,   1.00000
-497078478.06760,-452587940.63062,-3552852.21108,  -0.00327,  -0.00083,  -0.00009,476977105.30913,   0.00165,276433626.87636,  -0.00189,   0.00026,  -0.00004,   0.10472,   1.00000
-496038258.97291,-453964283.53106,-3499314.94931,  -0.00327,  -0.00084,  -0.00009,476957642.15973,   0.00166,276435313.32047,  -0.00190,   0.00026,  -0.00004,   0.08887,   1.00000
-494974563.52559,-455349801.83474,-3439810.92692,  -0.00326,  -0.00085,  -0.00008,476950882.51744,   0.00166,276436971.67232,  -0.00190,   0.00025,  -0.00004,   0.07873,   1.00000
-493891492.70653,-456737986.36980,-3386423.16222,  -0.00326,  -0.00086,  -0.00008,476960720.47204,   0.00166,276438655.45520,  -0.00190,   0.00025,  -0.00004,   0.07410,   1.00000
-492795074.89258,-458121247.35197,-3327049.19775,  -0.00325,  -0.00087,  -0.00008,476955989.42935,   0.00166,276440317.79592,  -0.00190,   0.00025,  -0.00004,   0.06572,   1.00000
-491685048.67031,-459499410.36216,-3267802.33039,  -0.00324,  -0.00088,  -0.00008,476951475.48789,   0.00166,276441959.53127,  -0.00190,   0.00025,  -0.00004,   0.05816,   1.00000
-490556359.43001,-460878525.23077,-3202698.41821,  -0.00324,  -0.00089,  -0.00008,476931083.30299,   0.00166,276443529.81761,  -0.00190,   0.00025,  -0.00004,   0.04811,   1.00000
-489407555.67461,-462259506.18241,-3143712.74901,  -0.00323,  -0.00090,  -0.00008,476941658.36092,   0.00166,276445128.36844,  -0.00190,   0.00025,  -0.00004,   0.04496,   1.00000
-488250705.78515,-463628014.48829,-3078849.62140,  -0.00322,  -0.00091,  -0.00008,476922680.75500,   0.00167,276446660.32194,  -0.00191,   0.00025,  -0.00004,   0.03717,   1.00000
-487067449.74899,-465005092.95310,-3019990.65617,  -0.00322,  -0.00092,  -0.00008,476948396.87589,   0.00167,276448269.30940,  -0.00191,   0.00025,  -0.00004,   0.03684,   1.00000
-485870535.88554,-466375748.25010,-2949253.43535,  -0.00321,  -0.00093,  -0.00008,476913890.61442,   0.00167,276449762.02279,  -0.00191,   0.00025,  -0.00004,   0.02849,   1.00000
-484658286.46542,-467741372.61315,-2884524.42407,  -0.00320,  -0.00094,  -0.00008,476940857.33633,   0.00167,276451335.97277,  -0.00191,   0.00024,  -0.00004,   0.02853,   1.00000
-483419622.25363,-469113864.93252,-2819914.79335,  -0.00320,  -0.00095,  -0.00008,476936796.02700,   0.00167,276452891.48716,  -0.00191,   0.00024,  -0.00004,   0.02518,   1.00000
-482172037.03437,-470473673.31343,-2749411.31312,  -0.00319,  -0.00096,  -0.00008,476918418.16044,   0.00167,276454382.82583,  -0.00191,   0.00024,  -0.00004,   0.02108,   1.00000
-480897419.75909,-471839951.08320,-2679024.24002,  -0.00318,  -0.00097,  -0.00008,476914819.32477,   0.00167,276455857.60754,  -0.00191,   0.00024,  -0.00004,   0.01897,   1.00000
-479613229.33260,-473193783.48752,-2608646.38124,  -0.00317,  -0.00098,  -0.00007,476927295.20453,   0.00168,276457367.42508,  -0.00192,   0.00024,  -0.00004,   0.01859,   1.00000
-478301482.82997,-474553558.44076,-2538380.54526,  -0.00317,  -0.00099,  -0.00007,476924272.44162,   0.00168,276458862.58155,  -0.00192,   0.00024,  -0.00004,   0.01737,   1.00000
-476974023.97484,-475906701.79611,-2462112.50312,  -0.00316,  -0.00100,  -0.00007,476921617.24786,   0.00168,276460344.35932,  -0.00192,   0.00024,  -0.00004,   0.01663,   1.00000
-475630525.38028,-477252930.20490,-2392066.12309,  -0.00315,  -0.00101,  -0.00007,476919270.83348,   0.00168,276461813.84815,  -0.00192,   0.00024,  -0.00004,   0.01636,   1.00000
-474264709.59145,-478598394.03083,-2316101.10408,  -0.00314,  -0.00102,  -0.00007,476901647.57904,   0.00168,276463222.22714,  -0.00192,   0.00023,  -0.00004,   0.01542,   1.00000
-472882984.38202,-479936701.87836,-2233958.41797,  -0.00314,  -0.00103,  -0.00007,476930002.42400,   0.00168,276464716.97542,  -0.00192,   0.00023,  -0.00004,   0.01826,   1.00000
-471478233.99307,-481273693.99907,-2158121.85221,  -0.00313,  -0.00104,  -0.00007,476913065.83664,   0.00168,276466152.84119,  -0.00192,   0.00023,  -0.00004,   0.01809,   1.00000
-470050749.28240,-482608921.83412,-2082306.12202,  -0.00312,  -0.00105,  -0.00007,476926858.29199,   0.00169,276467628.48363,  -0.00192,   0.00023,  -0.00004,   0.02087,   1.00000
-468606477.91581,-483936508.20862,-2000483.01191,  -0.00311,  -0.00106,  -0.00007,476925324.41212,   0.00169,276469094.74846,  -0.00192,   0.00023,  -0.00004,   0.02279,   1.00000
-467145201.79156,-485256256.83072,-1918767.36146,  -0.00310,  -0.00107,  -0.00007,476924004.76182,   0.00169,276470552.40912,  -0.00193,   0.00023,  -0.00004,   0.02513,   1.00000
-465659875.23751,-486574148.44335,-1831115.58253,  -0.00310,  -0.00108,  -0.00006,476907868.88516,   0.00169,276471954.06408,  -0.00193,   0.00023,  -0.00004,   0.02607,   1.00000
-464158115.32320,-487883075.79114,-1749546.71669,  -0.00309,  -0.00109,  -0.00006,476937516.30881,   0.00169,276473446.70607,  -0.00193,   0.00023,  -0.00004,   0.03325,   1.00000
-462625768.56704,-489194885.74816,-1661968.51608,  -0.00308,  -0.00110,  -0.00006,476937714.40151,   0.00169,276474935.71921,  -0.00193,   0.00022,  -0.00004,   0.03727,   1.00000
-461081631.35313,-490492905.34924,-1574562.38385,  -0.00307,  -0.00111,  -0.00006,476921484.56772,   0.00169,276476368.46623,  -0.00193,   0.00022,  -0.00004,   0.03880,   1.00000
-459513634.93296,-491787193.30355,-1487201.88634,  -0.00306,  -0.00112,  -0.00006,476936973.21358,   0.00170,276477846.95875,  -0.00193,   0.00022,  -0.00004,   0.04638,   1.00000
-457927591.05131,-493072494.59789,-1399947.99550,  -0.00305,  -0.00113,  -0.00006,476936871.20270,   0.00170,276479321.08766,  -0.00193,   0.00022,  -0.00004,   0.05161,   1.00000
-456317474.47411,-494353484.38479,-1306636.94284,  -0.00305,  -0.00114,  -0.00006,476952856.30841,   0.00170,276480842.61982,  -0.00193,   0.00022,  -0.00004,   0.06137,   1.00000
-454688970.35731,-495624998.96809,-1219550.25199,  -0.00304,  -0.00115,  -0.00006,476953258.01989,   0.00170,276482361.42192,  -0.00193,   0.00022,  -0.00004,   0.06801,   1.00000
-453034134.38984,-496892897.25100,-1126500.45385,  -0.00303,  -0.00116,  -0.00006,476939315.93875,   0.00170,276483831.42849,  -0.00194,   0.00022,  -0.00004,   0.07064,   1.00000
-451360557.13037,-498151028.89860,-1027449.07554,  -0.00302,  -0.00117,  -0.00005,476940020.40891,   0.00170,276485299.94915,  -0.00194,   0.00022,  -0.00004,   0.07788,   1.00000
-449670322.64697,-499397657.05651,-934551.26834,  -0.00301,  -0.00118,  -0.00005,476971428.21044,   0.00170,276486865.95808,  -0.00194,   0.00021,  -0.00004,   0.09747,   1.00000
-447952969.32098,-500639980.21868,-835687.62245,  -0.00300,  -0.00119,  -0.00005,476958318.47709,   0.00171,276488385.84219,  -0.00194,   0.00021,  -0.00004,   0.10074,   1.00000
-446210626.57636,-501876024.87746,-736911.04533,  -0.00299,  -0.00120,  -0.00005,476975991.14848,   0.00171,276489959.06882,  -0.00194,   0.00021,  -0.00004,   0.11806,   1.00000
-444448957.27240,-503101325.88480,-638254.97945,  -0.00298,  -0.00121,  -0.00005,476977692.18973,   0.00171,276491534.04971,  -0.00194,   0.00021,  -0.00004,   0.12899,   1.00000
-442667836.07370,-504315722.45734,-539719.06852,  -0.00297,  -0.00122,  -0.00005,476979561.63113,   0.00171,276493111.39800,  -0.00194,   0.00021,  -0.00004,   0.14059,   1.00000
-440861446.49299,-505522923.48243,-435175.41361,  -0.00296,  -0.00123,  -0.00005,476998017.41513,   0.00171,276494744.84562,  -0.00194,   0.00021,  -0.00004,   0.16339,   1.00000
-439035349.10995,-506718729.51702,-330763.26161,  -0.00295,  -0.00124,  -0.00005,477000385.77482,   0.00171,276496382.29614,  -0.00194,   0.00020,  -0.00004,   0.17742,   1.00000
-437180403.33590,-507908611.19332,-226490.48161,  -0.00294,  -0.00126,  -0.00004,476989125.10052,   0.00171,276497979.64564,  -0.00194,   0.00020,  -0.00004,   0.18199,   1.00000
-435308878.24157,-509084596.71804,-122336.52270,  -0.00293,  -0.00127,  -0.00004,477022252.89635,   0.00172,276499681.06104,  -0.00195,   0.00020,  -0.00004,   0.22195,   1.00000
-433417295.59499,-510248524.46941,-12209.70409,  -0.00292,  -0.00128,  -0.00004,477025299.15370,   0.00172,276501388.77654,  -0.00195,   0.00020,  -0.00004,   0.23974,   1.00000
-431496128.73887,-511405735.80795,91666.10512,  -0.00291,  -0.00129,  -0.00004,477014940.24173,   0.00172,276503059.26828,  -0.00195,   0.00020,  -0.00004,   0.24545,   1.00000
-429558547.18516,-512548191.40643,201502.07988,  -0.00290,  -0.00130,  -0.00004,477048698.90476,   0.00172,276504836.32133,  -0.00195,   0.00020,  -0.00004,   0.29648,   1.00000
-427590895.56717,-513683321.67185,317306.63386,  -0.00289,  -0.00131,  -0.00004,477039016.03184,   0.00172,276506578.28139,  -0.00195,   0.00019,  -0.00004,   0.30349,   1.00000
-425612372.95292,-514800002.59940,426831.25197,  -0.00288,  -0.00132,  -0.00004,477056426.86312,   0.00172,276508373.70676,  -0.00195,   0.00019,  -0.00004,   0.34265,   1.00000
-423597954.46126,-515911883.66677,542306.83571,  -0.00287,  -0.00133,  -0.00003,477064134.05509,   0.00173,276510190.93405,  -0.00195,   0.00019,  -0.00004,   0.37247,   1.00000
-421562659.14694,-517010167.74036,657618.24392,  -0.00286,  -0.00134,  -0.00003,477068718.51034,   0.00173,276512019.80624,  -0.00195,   0.00019,  -0.00004,   0.39953,   1.00000
-419516591.51619,-518089419.67030,772738.58974,  -0.00285,  -0.00135,  -0.00003,477086646.47527,   0.00173,276513904.13985,  -0.00195,   0.00019,  -0.00004,   0.44822,   1.00000
-417434111.80713,-519162750.42590,887679.43496,  -0.00284,  -0.00136,  -0.00003,477095431.81857,   0.00173,276515813.99136,  -0.00195,   0.00019,  -0.00004,   0.48592,   1.00000
-415340932.88779,-520216585.88146,1008521.61328,  -0.00283,  -0.00137,  -0.00003,477113784.77105,   0.00173,276517780.89043,  -0.00196,   0.00018,  -0.00004,   0.54284,   1.00000
-413216096.12482,-521261129.91865,1129211.30698,  -0.00282,  -0.00138,  -0.00003,477106287.59442,   0.00173,276519719.75972,  -0.00196,   0.00018,  -0.00004,   0.55481,   1.00000
-411075659.92180,-522288390.60444,1249620.25538,  -0.00281,  -0.00140,  -0.00002,477141980.84720,   0.00174,276521773.19897,  -0.00196,   0.00018,  -0.00004,   0.65345,   1.00000
-408903156.22876,-523305714.65911,1369874.05230,  -0.00280,  -0.00141,  -0.00002,477135189.95994,   0.00174,276523800.87467,  -0.00196,   0.00018,  -0.00004,   0.66816,   1.00000
-406720216.72314,-524302879.74659,1489882.94172,  -0.00279,  -0.00142,  -0.00002,477154158.34996,   0.00174,276525888.14241,  -0.00196,   0.00018,  -0.00004,   0.74122,   1.00000
-404499893.40654,-525291722.79653,1615776.76870,  -0.00278,  -0.00143,  -0.00002,477165254.25864,   0.00174,276528009.00565,  -0.00196,   0.00017,  -0.00004,   0.80029,   1.00000
-402269293.37250,-526259988.87414,1741397.64663,  -0.00277,  -0.00144,  -0.00002,477184629.65860,   0.00174,276530191.04764,  -0.00196,   0.00017,  -0.00004,   0.88450,   1.00000
-400001108.74219,-527219163.75047,1866770.74097,  -0.00275,  -0.00145,  -0.00002,477196481.52292,   0.00175,276532409.34973,  -0.00196,   0.00017,  -0.00004,   0.95350,   1.00000
-397727408.99538,-528155310.36722,1998044.35998,  -0.00274,  -0.00146,  -0.00001,477198964.95860,   0.00175,276534632.72760,  -0.00196,   0.00017,  -0.00004,   0.99755,   1.00000
-395422997.29706,-529078968.49121,2128892.18903,  -0.00273,  -0.00147,  -0.00001,477241177.27410,   0.00175,276536994.06168,  -0.00196,   0.00016,  -0.00004,   0.00000,   2.00000
-393101534.69383,-529984110.09165,2259580.09669,  -0.00272,  -0.00148,  -0.00001,477231607.86995,   0.00175,276539320.09284,  -0.00197,   0.00016,  -0.00004,   0.00000,   2.00000
-390754008.21611,-530874191.45596,2389908.96996,  -0.00271,  -0.00150,  -0.00001,477257062.92451,   0.00176,276541728.40973,  -0.00197,   0.00016,  -0.00004,  -0.00000,   2.00000
-388384840.03958,-531747155.04292,2519972.33089,  -0.00270,  -0.00151,  -0.00001,477265384.93720,   0.00176,276544161.53973,  -0.00197,   0.00016,  -0.00004,  -0.00000,   2.00000
-385993906.86985,-532602678.67414,2655871.51021,  -0.00269,  -0.00152,  -0.00001,477274033.53886,   0.00176,276546620.67963,  -0.00197,   0.00015,  -0.00004,  -0.00000,   2.00000
-383577056.04467,-533442174.07486,2791363.93038,  -0.00267,  -0.00153,  -0.00000,477300417.31975,   0.00176,276549165.81784,  -0.00197,   0.00015,  -0.00004,   0.00000,   2.00000
-381151040.95113,-534259703.63597,2926475.33708,  -0.00266,  -0.00154,  -0.00000,477321296.09906,   0.00176,276551778.44797,  -0.00197,   0.00015,  -0.00004,   0.00000,   2.00000
-378686769.58691,-535064758.63244,3061237.87555,  -0.00265,  -0.00155,  -0.00000,477336545.55971,   0.00177,276554439.65641,  -0.00197,   0.00014,  -0.00004,   0.00000,   2.00000
-376217463.89380,-535846045.00116,3201841.12958,  -0.00264,  -0.00156,   0.00000,477340246.39669,   0.00177,276557110.27543,  -0.00197,   0.00014,  -0.00004,   0.00000,   2.00000
-373718942.22028,-536611670.70501,3335723.04247,  -0.00263,  -0.00157,   0.00000,477385303.60135,   0.00177,276559931.27494,  -0.00197,   0.00014,  -0.00004,   0.00000,   2.00000
-371202599.75536,-537357272.09133,3475529.89333,  -0.00261,  -0.00159,   0.00001,477377828.27469,   0.00177,276562723.53274,  -0.00197,   0.00014,  -0.00004,  -0.00000,   2.00000
-368660908.58903,-538085026.33786,3620939.08332,  -0.00260,  -0.00160,   0.00001,477406070.00593,   0.00178,276565609.31562,  -0.00197,   0.00013,  -0.00004,   0.00000,   2.00000
-366097802.66246,-538793825.41047,3759877.53862,  -0.00259,  -0.00161,   0.00001,477416585.36179,   0.00178,276568528.00113,  -0.00198,   0.00013,  -0.00004,   0.00000,   2.00000
-363526589.76714,-539479653.14342,3904451.96606,  -0.00258,  -0.00162,   0.00001,477438721.15149,   0.00178,276571519.60954,  -0.00198,   0.00013,  -0.00004,   0.00000,   2.00000
-360930640.30412,-540147111.46881,4048467.01302,  -0.00257,  -0.00163,   0.00001,477467611.89531,   0.00179,276574607.58316,  -0.00198,   0.00012,  -0.00004,   0.00000,   2.00000
-358299640.87367,-540798268.71187,4192200.14895,  -0.00255,  -0.00164,   0.00002,477468040.30192,   0.00179,276577693.82721,  -0.00198,   0.00012,  -0.00004,   0.00000,   2.00000
-355671874.98084,-541423842.51890,4335113.76770,  -0.00254,  -0.00165,   0.00002,477519378.80604,   0.00179,276580954.61991,  -0.00198,   0.00012,  -0.00004,  -0.00000,   2.00000
-353012049.87558,-542031681.54867,4484029.23552,  -0.00253,  -0.00167,   0.00002,477502608.21647,   0.00179,276584153.86308,  -0.00198,   0.00011,  -0.00004,   0.00000,   2.00000
-350327998.88686,-542620046.97765,4632312.77457,  -0.00252,  -0.00168,   0.00002,477532713.95026,   0.00180,276587454.65806,  -0.00198,   0.00011,  -0.00004,   0.00000,   2.00000
-347634276.73659,-543185719.29397,4779821.31723,  -0.00250,  -0.00169,   0.00002,477573732.25940,   0.00180,276590895.23631,  -0.00198,   0.00010,  -0.00004,   0.00000,   2.00000
-344922523.83405,-543730234.74556,4927091.65998,  -0.00249,  -0.00170,   0.00003,477568273.76087,   0.00180,276594313.29787,  -0.00198,   0.00010,  -0.00004,   0.00000,   2.00000
-342187069.29455,-544254482.28879,5079781.34151,  -0.00248,  -0.00171,   0.00003,477599343.61256,   0.00181,276597836.93848,  -0.00198,   0.00010,  -0.00004,  -0.00000,   2.00000
-339443145.88490,-544756020.25850,5225524.84092,  -0.00247,  -0.00172,   0.00003,477640642.54479,   0.00181,276601502.27357,  -0.00198,   0.00009,  -0.00004,   0.00000,   2.00000
-336666239.19932,-545238373.89864,5377253.55592,  -0.00245,  -0.00174,   0.00003,477625857.24594,   0.00181,276605111.96173,  -0.00198,   0.00009,  -0.00004,   0.00000,   2.00000
-333896170.50152,-545694937.96564,5534065.83092,  -0.00244,  -0.00175,   0.00003,477677950.06740,   0.00182,276608902.14302,  -0.00198,   0.00008,  -0.00004,  -0.00000,   2.00000
-331090894.73897,-546132946.73219,5684385.30997,  -0.00243,  -0.00176,   0.00004,477681450.91338,   0.00182,276612701.06293,  -0.00199,   0.00008,  -0.00004,  -0.00000,   2.00000
-328263031.00477,-546549629.59659,5840021.39889,  -0.00241,  -0.00177,   0.00004,477713973.26214,   0.00183,276616611.83861,  -0.00199,   0.00007,  -0.00004,   0.00000,   2.00000
-325430558.25597,-546942834.69920,5988864.94674,  -0.00240,  -0.00178,   0.00004,477737896.44107,   0.00183,276620603.99795,  -0.00199,   0.00007,  -0.00004,   0.00000,   2.00000
-322577872.97590,-547313865.72726,6149357.57527,  -0.00239,  -0.00180,   0.00004,477752857.16386,   0.00183,276624645.70165,  -0.00199,   0.00007,  -0.00004,  -0.00000,   2.00000
-319721116.46840,-547661545.15675,6303020.92655,  -0.00237,  -0.00181,   0.00005,477776901.67565,   0.00184,276628769.49818,  -0.00199,   0.00006,  -0.00004,   0.00000,   2.00000
-316843031.80900,-547987763.88346,6455820.19494,  -0.00236,  -0.00182,   0.00005,477810049.90863,   0.00184,276633008.20654,  -0.00199,   0.00006,  -0.00004,   0.00000,   2.00000
-313945336.67102,-548291743.29208,6614122.70646,  -0.00235,  -0.00183,   0.00005,477825476.70343,   0.00184,276637298.26305,  -0.00199,   0.00005,  -0.00004,   0.00000,   2.00000
-311044284.84045,-548572149.52959,6771655.88844,  -0.00233,  -0.00184,   0.00005,477850127.54464,   0.00185,276641672.96620,  -0.00199,   0.00005,  -0.00004,   0.00000,   2.00000
-308106585.55859,-548832061.88780,6928407.72890,  -0.00232,  -0.00186,   0.00005,477874905.76298,   0.00185,276646132.98361,  -0.00199,   0.00004,  -0.00004,   0.00000,   2.00000
-305182189.64785,-549066766.49695,7090304.12880,  -0.00231,  -0.00187,   0.00006,477909225.67666,   0.00186,276650712.91794,  -0.00199,   0.00004,  -0.00004,   0.00000,   2.00000
-302222802.96636,-549280742.75730,7245594.18175,  -0.00229,  -0.00188,   0.00006,477915978.40926,   0.00186,276655312.78948,  -0.00199,   0.00003,  -0.00004,   0.00000,   2.00000
-299260999.34352,-549470896.83457,7406162.62443,  -0.00228,  -0.00189,   0.00006,477941416.01148,   0.00187,276660000.66487,  -0.00199,   0.00003,  -0.00003,   0.00000,   2.00000
-296296442.98436,-549637913.86217,7565552.85112,  -0.00227,  -0.00190,   0.00006,477984990.76919,   0.00187,276664842.88551,  -0.00199,   0.00002,  -0.00003,  -0.00000,   2.00000
-293313676.31143,-549782582.06202,7724244.25829,  -0.00225,  -0.00192,   0.00007,478001581.45498,   0.00188,276669740.78663,  -0.00199,   0.00001,  -0.00003,   0.00000,   2.00000
-290312054.49937,-549904534.31951,7887970.92492,  -0.00224,  -0.00193,   0.00007,478037203.64441,   0.00188,276674764.35398,  -0.00199,   0.00001,  -0.00003,   0.00000,   2.00000
-287293169.93733,-550004073.67921,8045219.78512,  -0.00223,  -0.00194,   0.00007,478035598.61111,   0.00188,276679776.61612,  -0.00199,   0.00000,  -0.00003,  -0.00000,   2.00000
-284290107.88855,-550079910.61357,8207147.14874,  -0.00221,  -0.00195,   0.00007,478088292.37657,   0.00189,276684977.90598,  -0.00199,  -0.00000,  -0.00003,   0.00000,   2.00000
-281252398.39039,-550133556.47037,8368480.78700,  -0.00220,  -0.00196,   0.00008,478097450.99640,   0.00189,276690207.34100,  -0.00199,  -0.00001,  -0.00003,   0.00000,   2.00000
-278214590.60793,-550164323.91821,8528882.99214,  -0.00219,  -0.00198,   0.00008,478123259.75496,   0.00190,276695526.65072,  -0.00199,  -0.00002,  -0.00003,   0.00000,   2.00000
-275176909.16729,-550172192.62770,8694051.62226,  -0.00217,  -0.00199,   0.00008,478167887.98347,   0.00190,276701005.87620,  -0.00199,  -0.00002,  -0.00003,   0.00000,   2.00000
-272104828.62096,-550157354.45727,8858577.06371,  -0.00216,  -0.00200,   0.00008,478178023.67622,   0.00191,276706516.56537,  -0.00199,  -0.00003,  -0.00003,  -0.00000,   2.00000
-269051395.86442,-550120599.93644,9015863.17374,  -0.00214,  -0.00201,   0.00009,478211542.10797,   0.00191,276712146.00706,  -0.00199,  -0.00003,  -0.00003,  -0.00000,   2.00000
-265981735.10400,-550061056.47511,9178031.10805,  -0.00213,  -0.00203,   0.00009,478248715.58459,   0.00192,276717908.00233,  -0.00199,  -0.00004,  -0.00003,   0.00000,   2.00000
-262895088.48604,-549978363.01591,9345859.35872,  -0.00212,  -0.00204,   0.00009,478249111.69301,   0.00193,276723664.38717,  -0.00199,  -0.00005,  -0.00003,   0.00000,   2.00000
-259811026.02786,-549874161.31662,9506151.67313,  -0.00210,  -0.00205,   0.00009,478293508.32626,   0.00193,276729580.84256,  -0.00199,  -0.00005,  -0.00003,   0.00000,   2.00000
-256710899.48488,-549746963.84751,9671677.23813,  -0.00209,  -0.00206,   0.00010,478312784.40810,   0.00194,276735562.56829,  -0.00199,  -0.00006,  -0.00003,   0.00000,   2.00000
-253614141.61085,-549598190.77845,9835719.02074,  -0.00207,  -0.00207,   0.00010,478357713.60189,   0.00194,276741706.64288,  -0.00199,  -0.00007,  -0.00003,  -0.00000,   2.00000
-250520236.41524,-549427994.40622,9998698.07691,  -0.00206,  -0.00209,   0.00010,478384072.39060,   0.00195,276747942.55318,  -0.00199,  -0.00008,  -0.00003,   0.00000,   2.00000
-247409903.69806,-549235261.83658,10161221.38060,  -0.00204,  -0.00210,   0.00010,478384821.15779,   0.00195,276754172.83318,  -0.00199,  -0.00008,  -0.00003,  -0.00000,   2.00000
-244305556.38500,-549021826.60474,10321769.32993,  -0.00203,  -0.00211,   0.00011,478448371.04882,   0.00196,276760636.92288,  -0.00199,  -0.00009,  -0.00003,   0.00000,   2.00000
-241184831.49729,-548785459.32770,10487939.53404,  -0.00202,  -0.00212,   0.00011,478449879.25207,   0.00197,276767097.65333,  -0.00199,  -0.00010,  -0.00003,  -0.00000,   2.00000
-238068039.99107,-548528328.89742,10652995.45041,  -0.00200,  -0.00214,   0.00011,478476407.48256,   0.00197,276773650.76543,  -0.00199,  -0.00010,  -0.00003,  -0.00000,   2.00000
-234938668.73394,-548249737.98240,10810544.87911,  -0.00199,  -0.00215,   0.00011,478514520.74878,   0.00198,276780340.75523,  -0.00199,  -0.00011,  -0.00003,   0.00000,   2.00000
-231813564.49571,-547949826.77293,10979151.22255,  -0.00197,  -0.00216,   0.00012,478542014.31926,   0.00199,276787126.63027,  -0.00199,  -0.00012,  -0.00003,  -0.00000,   2.00000
-228676623.15013,-547628637.33590,11140196.08223,  -0.00196,  -0.00217,   0.00012,478580477.25552,   0.00199,276794050.70291,  -0.00199,  -0.00013,  -0.00002,   0.00000,   2.00000
-225561771.04147,-547289262.12925,11300421.40373,  -0.00194,  -0.00219,   0.00012,478594877.10091,   0.00200,276801019.64152,  -0.00198,  -0.00014,  -0.00002,  -0.00000,   2.00000
-222435418.08730,-546928049.55179,11465250.48702,  -0.00193,  -0.00220,   0.00013,478634274.81237,   0.00200,276808130.32777,  -0.00198,  -0.00014,  -0.00002,   0.00000,   2.00000
-219295713.81795,-546545072.45905,11629062.82836,  -0.00192,  -0.00221,   0.00013,478654961.29997,   0.00201,276815309.98532,  -0.00198,  -0.00015,  -0.00002,   0.00000,   2.00000
-216162047.46034,-546142800.31496,11791688.71504,  -0.00190,  -0.00222,   0.00013,478681760.06791,   0.00202,276822582.25105,  -0.00198,  -0.00016,  -0.00002,  -0.00000,   2.00000
-213034689.57497,-545721548.06768,11953125.69233,  -0.00189,  -0.00224,   0.00013,478708487.80494,   0.00203,276829946.67090,  -0.00198,  -0.00017,  -0.00002,   0.00000,   2.00000
-209894508.94357,-545278829.68505,12113531.10497,  -0.00187,  -0.00225,   0.00014,478729494.02066,   0.00203,276837380.77125,  -0.00198,  -0.00018,  -0.00002,   0.00000,   2.00000
-206783385.81479,-544820479.23071,12278128.05461,  -0.00186,  -0.00226,   0.00014,478780853.93430,   0.00204,276845003.29480,  -0.00198,  -0.00019,  -0.00002,  -0.00000,   2.00000
-203640540.25666,-544338547.81492,12435737.75291,  -0.00184,  -0.00227,   0.00014,478796083.91409,   0.00205,276852672.25223,  -0.00198,  -0.00019,  -0.00002,   0.00000,   2.00000
-200524558.57099,-543841119.48986,12598058.34002,  -0.00183,  -0.00229,   0.00015,478828787.66527,   0.00205,276860456.15194,  -0.00198,  -0.00020,  -0.00002,   0.00000,   2.00000
-197396564.38933,-543322768.05945,12759300.31976,  -0.00181,  -0.00230,   0.00015,478850202.29196,   0.00206,276868310.32163,  -0.00197,  -0.00021,  -0.00002,   0.00000,   2.00000
-194276462.56644,-542786893.45961,12919303.35558,  -0.00180,  -0.00231,   0.00015,478876961.88526,   0.00207,276876255.67613,  -0.00197,  -0.00022,  -0.00002,   0.00000,   2.00000
-191168086.16981,-542234584.45035,13077508.06856,  -0.00178,  -0.00233,   0.00015,478922159.74124,   0.00208,276884365.05223,  -0.00197,  -0.00023,  -0.00002,  -0.00000,   2.00000
-188068037.21822,-541664886.74691,13240543.27109,  -0.00177,  -0.00234,   0.00016,478949318.52406,   0.00208,276892566.55507,  -0.00197,  -0.00024,  -0.00002,   0.00000,   2.00000
-184956886.51805,-541075402.01908,13396382.70443,  -0.00175,  -0.00235,   0.00016,478970606.30936,   0.00209,276900836.67394,  -0.00197,  -0.00025,  -0.00001,   0.00000,   2.00000
-181854500.86983,-540468915.64779,13557046.64265,  -0.00174,  -0.00236,   0.00016,478997827.58284,   0.00210,276909198.81916,  -0.00197,  -0.00026,  -0.00001,  -0.00000,   2.00000
-178761240.90880,-539846310.17121,13716434.13859,  -0.00172,  -0.00238,   0.00017,479024462.74478,   0.00211,276917650.38308,  -0.00196,  -0.00027,  -0.00001,  -0.00000,   2.00000
-175657186.32130,-539203679.15471,13874688.48381,  -0.00171,  -0.00239,   0.00017,479046559.46808,   0.00212,276926173.03672,  -0.00196,  -0.00028,  -0.00001,   0.00000,   2.00000
-172587222.48115,-538550743.00269,14030928.74969,  -0.00169,  -0.00240,   0.00017,479096036.89104,   0.00212,276934876.20141,  -0.00196,  -0.00029,  -0.00001,   0.00000,   2.00000
-169502375.29687,-537877110.23085,14186631.17366,  -0.00168,  -0.00241,   0.00017,479099796.24495,   0.00213,276943575.96239,  -0.00196,  -0.00030,  -0.00001,   0.00000,   2.00000
-166432078.11944,-537189556.77146,14340452.16185,  -0.00166,  -0.00243,   0.00018,479144733.33457,   0.00214,276952437.83690,  -0.00196,  -0.00031,  -0.00001,   0.00000,   2.00000
-163371881.68108,-536486687.88414,14499063.90845,  -0.00165,  -0.00244,   0.00018,479171768.64531,   0.00215,276961389.28334,  -0.00195,  -0.00032,  -0.00001,   0.00000,   2.00000
-160322233.18031,-535770026.31622,14650301.98219,  -0.00164,  -0.00245,   0.00018,479197615.37633,   0.00216,276970425.18926,  -0.00195,  -0.00033,  -0.00001,   0.00000,   2.00000
-157262602.01222,-535033686.31742,14806464.04963,  -0.00162,  -0.00247,   0.00019,479220677.86204,   0.00217,276979534.09402,  -0.00195,  -0.00034,  -0.00001,   0.00000,   2.00000
-154234250.28934,-534288425.21238,14961191.04739,  -0.00161,  -0.00248,   0.00019,479250849.64899,   0.00217,276988744.40599,  -0.00195,  -0.00035,  -0.00000,   0.00000,   2.00000
-151196288.23169,-533524460.42184,15114744.17306,  -0.00159,  -0.00249,   0.00019,479273404.15098,   0.00218,276998024.96562,  -0.00194,  -0.00036,  -0.00000,  -0.00000,   2.00000
-148174791.38801,-532748610.49109,15266360.09329,  -0.00158,  -0.00250,   0.00020,479318007.14284,   0.00219,277007465.15416,  -0.00194,  -0.00037,  -0.00000,   0.00000,   2.00000
-145159201.04528,-531958160.28775,15417316.57859,  -0.00156,  -0.00252,   0.00020,479325949.89923,   0.00220,277016915.17115,  -0.00194,  -0.00038,  -0.00000,   0.00000,   2.00000
-142160506.12370,-531155899.91281,15572396.42151,  -0.00155,  -0.00253,   0.00020,479370952.13149,   0.00221,277026526.03630,  -0.00193,  -0.00039,  -0.00000,   0.00000,   2.00000
-139173594.66500,-530341853.95269,15720088.13785,  -0.00153,  -0.00254,   0.00020,479396433.06514,   0.00222,277036217.49637,  -0.00193,  -0.00040,   0.00000,   0.00000,   2.00000
-136198378.54206,-529515018.55674,15872554.39775,  -0.00152,  -0.00256,   0.00021,479423034.33831,   0.00223,277045993.80234,  -0.00193,  -0.00041,   0.00000,   0.00000,   2.00000
-133229275.51043,-528675157.90858,16018300.97227,  -0.00150,  -0.00257,   0.00021,479430126.68767,   0.00224,277055774.59275,  -0.00193,  -0.00042,   0.00000,   0.00000,   2.00000
-130278096.28515,-527824880.78312,16168165.91656,  -0.00149,  -0.00258,   0.00021,479474748.05996,   0.00225,277065713.78831,  -0.00192,  -0.00043,   0.00000,  -0.00000,   2.00000
-127318263.13767,-526957170.58144,16316825.91689,  -0.00147,  -0.00259,   0.00022,479497716.33460,   0.00226,277075721.94907,  -0.00192,  -0.00044,   0.00000,   0.00000,   2.00000
-124397957.42625,-526086554.47152,16463401.98412,  -0.00146,  -0.00261,   0.00022,479544436.25751,   0.00227,277085896.47624,  -0.00192,  -0.00046,   0.00001,   0.00000,   2.00000
-121483770.71418,-525203210.57100,16609357.30061,  -0.00144,  -0.00262,   0.00022,479551926.57058,   0.00228,277096074.99903,  -0.00191,  -0.00047,   0.00001,   0.00000,   2.00000
-118561177.71612,-524302928.64212,16754113.57965,  -0.00143,  -0.00263,   0.00023,479574953.36204,   0.00229,277106321.59911,  -0.00191,  -0.00048,   0.00001,   0.00000,   2.00000
-115672254.46745,-523398879.46717,16897483.19369,  -0.00141,  -0.00265,   0.00023,479602981.51327,   0.00230,277116656.51307,  -0.00191,  -0.00049,   0.00001,   0.00000,   2.00000
-112796068.57555,-522484918.50186,17039570.06790,  -0.00140,  -0.00266,   0.00023,479628339.63858,   0.00231,277127068.29027,  -0.00190,  -0.00050,   0.00001,   0.00000,   2.00000
-109939462.22772,-521562978.33128,17185742.47771,  -0.00138,  -0.00267,   0.00024,479672313.82107,   0.00232,277137633.81085,  -0.00190,  -0.00051,   0.00001,   0.00000,   2.00000
-107067953.39476,-520623081.92877,17325333.36914,  -0.00137,  -0.00268,   0.00024,479676767.88773,   0.00233,277148188.44675,  -0.00189,  -0.00052,   0.00001,   0.00000,   2.00000
-104237639.97408,-519683412.19562,17462870.43969,  -0.00135,  -0.00270,   0.00024,479722069.82305,   0.00234,277158901.84474,  -0.00189,  -0.00054,   0.00001,  -0.00000,   2.00000
-101413261.52716,-518731685.57772,17605911.37930,  -0.00134,  -0.00271,   0.00025,479729842.81740,   0.00235,277169617.10742,  -0.00189,  -0.00055,   0.00002,   0.00000,   2.00000
-98602051.68272,-517771331.77536,17747663.51319,  -0.00132,  -0.00272,   0.00025,479754820.42495,   0.00236,277180405.78953,  -0.00188,  -0.00056,   0.00002,   0.00000,   2.00000
-95811511.49494,-516806022.57875,17881364.50358,  -0.00131,  -0.00274,   0.00025,479796941.69396,   0.00237,277191339.11376,  -0.00188,  -0.00057,   0.00002,   0.00000,   2.00000
-93026819.13986,-515829178.49014,18020598.65198,  -0.00129,  -0.00275,   0.00025,479804572.51390,   0.00238,277202272.30594,  -0.00187,  -0.00058,   0.00002,   0.00000,   2.00000
-90263065.78074,-514847293.27029,18157841.30609,  -0.00128,  -0.00276,   0.00026,479847175.44786,   0.00239,277213351.58929,  -0.00187,  -0.00060,   0.00002,   0.00000,   2.00000
-87505206.48442,-513855647.70205,18288495.18171,  -0.00126,  -0.00277,   0.00026,479853320.73893,   0.00240,277224423.56805,  -0.00186,  -0.00061,   0.00002,   0.00000,   2.00000
-84781977.95703,-512863604.58148,18423925.81008,  -0.00125,  -0.00279,   0.00026,479879944.98794,   0.00241,277235573.90327,  -0.00186,  -0.00062,   0.00002,  -0.00000,   2.00000
-82058858.15404,-511859749.06990,18557433.70307,  -0.00123,  -0.00280,   0.00027,479920806.58586,   0.00242,277246862.12974,  -0.00186,  -0.00063,   0.00003,   0.00000,   2.00000
-79362655.24074,-510853828.31096,18690388.19829,  -0.00122,  -0.00281,   0.00027,479928659.43882,   0.00243,277258148.72580,  -0.00185,  -0.00064,   0.00003,   0.00000,   2.00000
-76679999.80971,-509841320.22783,18822114.14427,  -0.00120,  -0.00283,   0.00027,479952839.10834,   0.00244,277269502.25947,  -0.00185,  -0.00066,   0.00003,   0.00000,   2.00000
-74019081.69979,-508825723.87086,18951876.36904,  -0.00119,  -0.00284,   0.00028,479994639.73685,   0.00245,277280996.64239,  -0.00184,  -0.00067,   0.00003,   0.00000,   2.00000
-71363598.54357,-507800711.57157,19081172.41192,  -0.00117,  -0.00285,   0.00028,480001014.73427,   0.00246,277292481.78741,  -0.00184,  -0.00068,   0.00003,   0.00000,   2.00000
-68721775.20117,-506769756.94706,19209261.43462,  -0.00116,  -0.00287,   0.00028,480024975.75383,   0.00247,277304031.83076,  -0.00183,  -0.00069,   0.00003,   0.00000,   2.00000
-66114910.08765,-505741478.57805,19336120.11981,  -0.00114,  -0.00288,   0.00029,480049565.05209,   0.00248,277315648.94762,  -0.00183,  -0.00071,   0.00003,   0.00000,   2.00000
-63521658.82372,-504707807.02890,19461793.75864,  -0.00113,  -0.00289,   0.00029,480073199.45520,   0.00249,277327328.71772,  -0.00182,  -0.00072,   0.00004,   0.00000,   2.00000
-60942044.51582,-503668941.07128,19586289.79507,  -0.00111,  -0.00290,   0.00029,480096763.89418,   0.00251,277339070.47867,  -0.00182,  -0.00073,   0.00004,  -0.00000,   2.00000
-58376087.42725,-502625076.43693,19709615.73630,  -0.00110,  -0.00292,   0.00030,480120258.82026,   0.00252,277350873.57074,  -0.00181,  -0.00074,   0.00004,   0.00000,   2.00000
-55823789.73345,-501575643.21198,19837825.59271,  -0.00108,  -0.00293,   0.00030,480144447.48726,   0.00253,277362740.58034,  -0.00181,  -0.00076,   0.00004,   0.00000,   2.00000
-53297616.58672,-500527350.10784,19959550.53568,  -0.00107,  -0.00294,   0.00030,480149850.72717,   0.00254,277374591.19160,  -0.00180,  -0.00077,   0.00004,   0.00000,   2.00000
-50793949.46211,-499478592.50992,20079362.98548,  -0.00105,  -0.00296,   0.00031,480190391.59107,   0.00255,277386574.74420,  -0.00180,  -0.00078,   0.00004,   0.00000,   2.00000
-48294839.31911,-498421705.25570,20198814.74418,  -0.00104,  -0.00297,   0.00031,480196030.42588,   0.00256,277398542.05641,  -0.00179,  -0.00079,   0.00005,   0.00000,   2.00000
-45818419.74880,-497364856.30428,20316364.02148,  -0.00102,  -0.00298,   0.00031,480236379.89921,   0.00257,277410640.91781,  -0.00179,  -0.00081,   0.00005,   0.00000,   2.00000
-43367693.30179,-496309272.46175,20433575.51003,  -0.00101,  -0.00299,   0.00031,480241875.77271,   0.00258,277422721.98467,  -0.00178,  -0.00082,   0.00005,   0.00000,   2.00000
-40930423.34232,-495250111.62780,20549681.08107,  -0.00099,  -0.00301,   0.00032,480264545.03401,   0.00260,277434858.45785,  -0.00177,  -0.00083,   0.00005,   0.00000,   2.00000
-38527898.65149,-494196887.47713,20664698.21042,  -0.00098,  -0.00302,   0.00032,480286916.20960,   0.00261,277447048.61206,  -0.00177,  -0.00085,   0.00005,   0.00000,   2.00000
-36117417.66847,-493131096.15145,20778618.22994,  -0.00097,  -0.00303,   0.00032,480309603.18873,   0.00262,277459293.56563,  -0.00176,  -0.00086,   0.00005,  -0.00000,   2.00000
-33741667.09667,-492071721.14045,20891472.69148,  -0.00095,  -0.00304,   0.00033,480331687.91862,   0.00263,277471590.29186,  -0.00176,  -0.00087,   0.00006,  -0.00000,   2.00000
-31390912.99138,-491014596.72410,21004068.41996,  -0.00094,  -0.00306,   0.00033,480336265.85403,   0.00264,277483863.39422,  -0.00175,  -0.00088,   0.00006,   0.00000,   2.00000
-29041717.14698,-489949730.79747,21114790.84541,  -0.00092,  -0.00307,   0.00033,480376002.24823,   0.00265,277496263.56929,  -0.00175,  -0.00090,   0.00006,   0.00000,   2.00000
-26717333.86634,-488887425.32015,21225281.79658,  -0.00091,  -0.00308,   0.00034,480380363.53167,   0.00267,277508638.41588,  -0.00174,  -0.00091,   0.00006,   0.00000,   2.00000
-24427314.24769,-487833353.95348,21328721.60648,  -0.00089,  -0.00310,   0.00034,480400732.20211,   0.00268,277521056.46707,  -0.00173,  -0.00092,   0.00006,   0.00000,   2.00000
-22119164.53969,-486761694.04039,21437972.93232,  -0.00088,  -0.00311,   0.00034,480406935.61725,   0.00269,277533456.70565,  -0.00173,  -0.00094,   0.00006,   0.00000,   2.00000
-19876567.48338,-485712625.59001,21545472.71121,  -0.00086,  -0.00312,   0.00035,480444031.46044,   0.00270,277545971.60424,  -0.00172,  -0.00095,   0.00007,   0.00000,   2.00000
-17615468.15277,-484647641.95362,21646683.68415,  -0.00085,  -0.00313,   0.00035,480448527.66132,   0.00271,277558460.51647,  -0.00171,  -0.00096,   0.00007,   0.00000,   2.00000
-15398674.03912,-483595135.31291,21752206.83410,  -0.00084,  -0.00315,   0.00035,480486825.30942,   0.00273,277571068.75454,  -0.00171,  -0.00098,   0.00007,   0.00000,   2.00000
-13205653.20813,-482547015.52259,21851554.77457,  -0.00082,  -0.00316,   0.00036,480489237.55545,   0.00274,277583641.11536,  -0.00170,  -0.00099,   0.00007,   0.00000,   2.00000
-10993834.89876,-481481349.52823,21956748.93757,  -0.00081,  -0.00317,   0.00036,480495388.65647,   0.00275,277596193.82642,  -0.00170,  -0.00100,   0.00007,   0.00000,   2.00000
-8847390.73147,-480440858.35404,22054227.34043,  -0.00079,  -0.00318,   0.00036,480530140.73435,   0.00276,277608849.93084,  -0.00169,  -0.00102,   0.00008,   0.00000,   2.00000
-6681795.68809,-479383673.34006,22151530.67703,  -0.00078,  -0.00320,   0.00037,480535392.97298,   0.00277,277621481.75220,  -0.00168,  -0.00103,   0.00008,   0.00000,   2.00000
-4549973.87646,-478334999.86591,22254010.28641,  -0.00076,  -0.00321,   0.00037,480555777.03249,   0.00279,277634154.48112,  -0.00168,  -0.00104,   0.00008,   0.00000,   2.00000
-2451617.93892,-477296711.65016,22349570.31709,  -0.00075,  -0.00322,   0.00037,480574180.13372,   0.00280,277646859.17756,  -0.00167,  -0.00106,   0.00008,   0.00000,   2.00000
-365456.51019,-476257687.95455,22444230.82697,  -0.00074,  -0.00323,   0.00037,480594677.98608,   0.00281,277659604.64951,  -0.00166,  -0.00107,   0.00008,   0.00000,   2.00000
1698099.88224,-475223929.67372,22532854.62692,  -0.00072,  -0.00325,   0.00038,480595934.44928,   0.00282,277672307.32969,  -0.00166,  -0.00108,   0.00008,   0.00000,   2.00000
3749582.76492,-474188825.23626,22626668.68427,  -0.00071,  -0.00326,   0.00038,480617040.90464,   0.00283,277685053.15063,  -0.00165,  -0.00109,   0.00009,   0.00000,   2.00000
5799854.95775,-473147626.64012,22720423.03290,  -0.00069,  -0.00327,   0.00038,480620565.68047,   0.00285,277697765.73604,  -0.00164,  -0.00111,   0.00009,   0.00000,   2.00000
7806359.84606,-472123371.28686,22806534.07146,  -0.00068,  -0.00328,   0.00039,480654694.66291,   0.00286,277710577.53244,  -0.00164,  -0.00112,   0.00009,  -0.00000,   2.00000
9790790.92939,-471103179.46338,22898772.66940,  -0.00067,  -0.00330,   0.00039,480657047.16695,   0.00287,277723350.26993,  -0.00163,  -0.00113,   0.00009,   0.00000,   2.00000
11763727.84068,-470083718.17316,22984125.77258,  -0.00065,  -0.00331,   0.00039,480675930.37919,   0.00288,277736155.65470,  -0.00162,  -0.00115,   0.00009,   0.00000,   2.00000
13715027.61992,-469069300.04923,23069594.69156,  -0.00064,  -0.00332,   0.00040,480677094.23625,   0.00289,277748916.51873,  -0.00162,  -0.00116,   0.00010,   0.00000,   2.00000
15654942.77750,-468054957.49762,23154265.08375,  -0.00063,  -0.00333,   0.00040,480696616.16619,   0.00291,277761712.59585,  -0.00161,  -0.00117,   0.00010,   0.00000,   2.00000
17562469.22987,-467051852.34351,23238248.66838,  -0.00061,  -0.00335,   0.00040,480713975.51820,   0.00292,277774534.16021,  -0.00160,  -0.00119,   0.00010,   0.00000,   2.00000
19469971.93880,-466042929.99037,23322278.28496,  -0.00060,  -0.00336,   0.00041,480716804.64392,   0.00293,277787317.91844,  -0.00160,  -0.00120,   0.00010,   0.00000,   2.00000
21334229.83805,-465052501.59452,23398780.60011,  -0.00058,  -0.00337,   0.00041,480749349.01279,   0.00294,277800192.92440,  -0.00159,  -0.00121,   0.00010,   0.00000,   2.00000
23209925.96977,-464049273.44045,23482248.54356,  -0.00057,  -0.00338,   0.00041,480736500.98222,   0.00296,277812961.43679,  -0.00158,  -0.00123,   0.00011,  -0.00000,   2.00000
25042512.32834,-463064909.19721,23558206.82260,  -0.00056,  -0.00340,   0.00041,480768633.73104,   0.00297,277825819.28671,  -0.00157,  -0.00124,   0.00011,   0.00000,   2.00000
26854742.69086,-462086155.89447,23634405.91045,  -0.00054,  -0.00341,   0.00042,480768699.32417,   0.00298,277838626.44213,  -0.00157,  -0.00125,   0.00011,   0.00000,   2.00000
28667792.31209,-461101668.32668,23710729.31728,  -0.00053,  -0.00342,   0.00042,480771047.14644,   0.00299,277851392.97308,  -0.00156,  -0.00127,   0.00011,   0.00000,   2.00000
30449346.49565,-460129312.60968,23786476.05613,  -0.00052,  -0.00343,   0.00042,480787123.40970,   0.00300,277864178.63932,  -0.00155,  -0.00128,   0.00011,   0.00000,   2.00000
32199733.68416,-459170073.41167,23855628.53749,  -0.00050,  -0.00344,   0.00043,480802053.06713,   0.00302,277876978.19058,  -0.00155,  -0.00129,   0.00012,   0.00000,   2.00000
33939778.71557,-458210897.79623,23930166.91948,  -0.00049,  -0.00346,   0.00043,480821251.17843,   0.00303,277889810.08298,  -0.00154,  -0.00130,   0.00012,   0.00000,   2.00000
35672111.08730,-457251795.13651,23999800.21691,  -0.00048,  -0.00347,   0.00043,480803446.91401,   0.00304,277902512.78615,  -0.00153,  -0.00132,   0.00012,   0.00000,   2.00000
37382770.09815,-456300344.97437,24067958.09416,  -0.00046,  -0.00348,   0.00043,480837693.52367,   0.00305,277915313.66580,  -0.00152,  -0.00133,   0.00012,   0.00000,   2.00000
39053458.99701,-455366532.07977,24136611.04681,  -0.00045,  -0.00349,   0.00044,480833908.57848,   0.00307,277928046.22207,  -0.00152,  -0.00134,   0.00012,   0.00000,   2.00000
40735303.13490,-454422121.55845,24204493.29381,  -0.00044,  -0.00350,   0.00044,480854548.36581,   0.00308,277940817.30157,  -0.00151,  -0.00136,   0.00013,   0.00000,   2.00000
42377683.23503,-453496337.08842,24266862.87067,  -0.00042,  -0.00352,   0.00044,480849467.57366,   0.00309,277953514.27844,  -0.00150,  -0.00137,   0.00013,   0.00000,   2.00000
44010585.21805,-452571754.29508,24328657.56334,  -0.00041,  -0.00353,   0.00045,480867009.12541,   0.00310,277966236.14347,  -0.00149,  -0.00138,   0.00013,   0.00000,   2.00000
45625135.32225,-451653283.34088,24390876.29828,  -0.00040,  -0.00354,   0.00045,480865426.24225,   0.00311,277978899.15427,  -0.00149,  -0.00140,   0.00013,  -0.00000,   2.00000
47209639.24764,-450747980.26384,24452689.76766,  -0.00039,  -0.00355,   0.00045,480879666.12043,   0.00313,277991572.52017,  -0.00148,  -0.00141,   0.00013,   0.00000,   2.00000
48797142.71790,-449837765.30258,24508751.50270,  -0.00037,  -0.00356,   0.00045,480879939.91760,   0.00314,278004195.13210,  -0.00147,  -0.00142,   0.00014,   0.00000,   2.00000
50354656.76124,-448940030.69354,24570489.50088,  -0.00036,  -0.00357,   0.00046,480894823.29083,   0.00315,278016830.90823,  -0.00147,  -0.00143,   0.00014,  -0.00000,   2.00000
51894738.61086,-448049354.19512,24626654.61497,  -0.00035,  -0.00359,   0.00046,480891695.58884,   0.00316,278029400.94042,  -0.00146,  -0.00145,   0.00014,  -0.00000,   2.00000
53426043.61314,-447160105.80452,24682309.44562,  -0.00034,  -0.00360,   0.00046,480908545.03174,   0.00317,278041992.79220,  -0.00145,  -0.00146,   0.00014,   0.00000,   2.00000
54919552.89110,-446290033.69287,24732618.76117,  -0.00032,  -0.00361,   0.00046,480901808.69802,   0.00319,278054503.02854,  -0.00144,  -0.00147,   0.00014,   0.00000,   2.00000
56416564.75870,-445413266.88716,24789332.23381,  -0.00031,  -0.00362,   0.00047,480903452.47181,   0.00320,278066968.62655,  -0.00144,  -0.00148,   0.00015,   0.00000,   2.00000
57893127.94617,-444546241.62507,24838677.05727,  -0.00030,  -0.00363,   0.00047,480934840.73680,   0.00321,278079519.83391,  -0.00143,  -0.00150,   0.00015,   0.00000,   2.00000
59344694.33323,-443691106.44188,24883582.50401,  -0.00029,  -0.00364,   0.00047,480911757.85053,   0.00322,278091917.73757,  -0.00142,  -0.00151,   0.00015,  -0.00000,   2.00000
60787932.15012,-442836687.75935,24934098.83467,  -0.00027,  -0.00365,   0.00048,480928925.95594,   0.00323,278104339.13943,  -0.00141,  -0.00152,   0.00015,   0.00000,   2.00000
62202678.41931,-441996965.27105,24978325.03718,  -0.00026,  -0.00367,   0.00048,480940555.36578,   0.00325,278116759.55712,  -0.00141,  -0.00153,   0.00015,   0.00000,   2.00000
63613571.49378,-441155966.57237,25024010.77874,  -0.00025,  -0.00368,   0.00048,480921510.22469,   0.00326,278129044.59614,  -0.00140,  -0.00155,   0.00016,   0.00000,   2.00000
64983735.27647,-440336561.72803,25068643.41711,  -0.00024,  -0.00369,   0.00048,480949400.25151,   0.00327,278141400.27104,  -0.00139,  -0.00156,   0.00016,   0.00000,   2.00000
66371243.55066,-439504261.44127,25108519.84197,  -0.00022,  -0.00370,   0.00049,480932868.11147,   0.00328,278153631.66992,  -0.00138,  -0.00157,   0.00016,   0.00000,   2.00000
67709872.37695,-438697570.24590,25154456.68225,  -0.00021,  -0.00371,   0.00049,480941973.01786,   0.00329,278165851.48181,  -0.00138,  -0.00158,   0.00016,  -0.00000,   2.00000
69041542.76786,-437894224.18900,25187936.40507,  -0.00020,  -0.00372,   0.00049,480955528.13119,   0.00330,278178079.20693,  -0.00137,  -0.00160,   0.00016,   0.00000,   2.00000
70357687.63044,-437096365.61744,25228164.68917,  -0.00019,  -0.00373,   0.00049,480952476.11125,   0.00332,278190241.93508,  -0.00136,  -0.00161,   0.00017,   0.00000,   2.00000
71658899.72651,-436305653.36015,25263049.16563,  -0.00018,  -0.00374,   0.00050,480947333.52805,   0.00333,278202330.70085,  -0.00135,  -0.00162,   0.00017,   0.00000,   2.00000
72965578.53465,-435508698.88365,25298444.73034,  -0.00017,  -0.00376,   0.00050,480946960.82727,   0.00334,278214366.72528,  -0.00135,  -0.00163,   0.00017,  -0.00000,   2.00000
74224339.95027,-434738556.41486,25333942.28712,  -0.00015,  -0.00377,   0.00050,480954091.96461,   0.00335,278226382.97252,  -0.00134,  -0.00164,   0.00017,   0.00000,   2.00000
75489130.27490,-433962937.78600,25363926.32150,  -0.00014,  -0.00378,   0.00050,480952532.14718,   0.00336,278238341.39668,  -0.00133,  -0.00166,   0.00017,   0.00000,   2.00000
76706357.90685,-433214265.26129,25394062.67372,  -0.00013,  -0.00379,   0.00050,480959231.72943,   0.00337,278250278.31453,  -0.00132,  -0.00167,   0.00017,  -0.00000,   2.00000
77929956.38112,-432460039.43066,25418724.33124,  -0.00012,  -0.00380,   0.00051,480957454.51786,   0.00339,278262156.62042,  -0.00132,  -0.00168,   0.00018,   0.00000,   2.00000
79139152.70361,-431711222.41159,25450224.84018,  -0.00011,  -0.00381,   0.00051,480953445.78044,   0.00340,278273966.71186,  -0.00131,  -0.00169,   0.00018,   0.00000,   2.00000
80334559.45924,-430969460.15681,25476470.83793,  -0.00010,  -0.00382,   0.00051,480947338.73271,   0.00341,278285699.61114,  -0.00130,  -0.00170,   0.00018,  -0.00000,   2.00000
81523902.92554,-430230221.70630,25496437.22451,  -0.00009,  -0.00383,   0.00051,480960713.18701,   0.00342,278297441.11913,  -0.00130,  -0.00171,   0.00018,   0.00000,   2.00000
82679171.54779,-429509940.04048,25517482.57588,  -0.00007,  -0.00384,   0.00052,480951105.58078,   0.00343,278309090.19851,  -0.00129,  -0.00173,   0.00018,   0.00000,   2.00000
83820938.12418,-428795826.53557,25539378.30004,  -0.00006,  -0.00385,   0.00052,480945537.78254,   0.00344,278320664.92903,  -0.00128,  -0.00174,   0.00019,   0.00000,   2.00000
84969614.71236,-428075041.49243,25561888.79520,  -0.00005,  -0.00386,   0.00052,480944187.08148,   0.00345,278332184.14930,  -0.00127,  -0.00175,   0.00019,  -0.00000,   2.00000
86072115.71085,-427382440.56701,25578625.27397,  -0.00004,  -0.00387,   0.00052,480948349.31003,   0.00346,278343672.16253,  -0.00127,  -0.00176,   0.00019,   0.00000,   2.00000
87182074.35425,-426683908.49535,25589980.58756,  -0.00003,  -0.00388,   0.00052,480945816.30768,   0.00347,278355099.70439,  -0.00126,  -0.00177,   0.00019,  -0.00000,   2.00000
88278810.40921,-425990632.25157,25608284.78818,  -0.00002,  -0.00389,   0.00053,480940761.71036,   0.00349,278366455.91363,  -0.00125,  -0.00178,   0.00019,   0.00000,   2.00000
89350029.94426,-425312750.20451,25620616.71312,  -0.00001,  -0.00390,   0.00053,480948844.25074,   0.00350,278377798.71801,  -0.00124,  -0.00179,   0.00020,  -0.00000,   2.00000
90401620.02353,-424646130.53506,25628909.81288,   0.00000,  -0.00391,   0.00053,480921802.11011,   0.00351,278388973.82042,  -0.00124,  -0.00180,   0.00020,   0.00000,   2.00000
91447964.40165,-423981121.66246,25637080.46997,   0.00001,  -0.00392,   0.00053,480935019.27326,   0.00352,278400158.78467,  -0.00123,  -0.00181,   0.00020,   0.00000,   2.00000
92481939.96158,-423322098.23786,25646201.85435,   0.00002,  -0.00393,   0.00053,480928438.95503,   0.00353,278411266.54571,  -0.00122,  -0.00183,   0.00020,  -0.00000,   2.00000
93503935.72118,-422669853.04206,25650240.40009,   0.00003,  -0.00394,   0.00054,480920737.47152,   0.00354,278422292.47164,  -0.00122,  -0.00184,   0.00020,  -0.00000,   2.00000
94513835.94536,-422023531.37608,25655257.20084,   0.00004,  -0.00395,   0.00054,480913879.17294,   0.00355,278433240.58423,  -0.00121,  -0.00185,   0.00020,  -0.00000,   2.00000
95498712.62714,-421391831.76502,25660430.36736,   0.00005,  -0.00396,   0.00054,480922004.19112,   0.00356,278444176.99121,  -0.00120,  -0.00186,   0.00021,   0.00000,   2.00000
96472057.78605,-420766829.39286,25660550.99679,   0.00006,  -0.00397,   0.00054,480913914.96585,   0.00357,278455030.44990,  -0.00120,  -0.00187,   0.00021,   0.00000,   2.00000
97446847.90495,-420138875.49891,25662496.64883,   0.00007,  -0.00398,   0.00054,480891592.34820,   0.00358,278465738.76773,  -0.00119,  -0.00188,   0.00021,   0.00000,   2.00000
98397200.05776,-419526369.65628,25658592.46207,   0.00008,  -0.00399,   0.00054,480898271.11179,   0.00359,278476429.97557,  -0.00118,  -0.00189,   0.00021,   0.00000,   2.00000
99336146.94931,-418919643.53236,25655720.76110,   0.00009,  -0.00400,   0.00055,480890760.95564,   0.00360,278487041.74848,  -0.00117,  -0.00190,   0.00021,   0.00000,   2.00000
