# sigma_xx, sigma_yy, sigma_xy, epsilon_xx, epsilon_yy, epsilon_xy, vonMises, epsPlastic, hardening, epsilonP__xx, epsilonP__yy, epsilonP__xy, yieldValue, iteration
   0.00000,   0.00000,   0.00000,   0.00000,   0.00000,   0.00000,   0.00000,   0.00000,274640135.82653,   0.00000,   0.00000,   0.00000,-474640135.82653,   0.00000
   0.00000,   0.00000,   0.00000,   0.00000,   0.00000,   0.00000,   0.00000,   0.00000,274640135.82653,   0.00000,   0.00000,   0.00000,-474640135.82653,   0.00000
1342424.46168,-2327690.12163,-123158.20749,   0.00001,  -0.00001,  -0.00000,3223429.34286,   0.00000,274640135.82653,   0.00000,   0.00000,   0.00000,-471416706.48367,   0.00000
2672533.10262,-4643064.42252,-246316.41499,   0.00002,  -0.00003,  -0.00000,6425825.94784,   0.00000,274640135.82653,   0.00000,   0.00000,   0.00000,-468214309.87869,   0.00000
4002641.74355,-6958438.72340,-375632.53286,   0.00003,  -0.00004,  -0.00000,9628938.00468,   0.00000,274640135.82653,   0.00000,   0.00000,   0.00000,-465011197.82185,   0.00000
5332750.38448,-9273813.02429,-511106.56110,   0.00004,  -0.00005,  -0.00001,12832788.25486,   0.00000,274640135.82653,   0.00000,   0.00000,   0.00000,-461807347.57167,   0.00000
6672095.89098,-11567634.63886,-646580.58934,   0.00005,  -0.00007,  -0.00001,16023782.37603,   0.00000,274640135.82653,   0.00000,   0.00000,   0.00000,-458616353.45050,   0.00000
8011441.39748,-13861456.25343,-782054.61759,   0.00006,  -0.00008,  -0.00001,19214792.10046,   0.00000,274640135.82653,   0.00000,   0.00000,   0.00000,-455425343.72607,   0.00000
9350786.90397,-16155277.86801,-929844.46658,   0.00007,  -0.00009,  -0.00001,22407333.88046,   0.00000,274640135.82653,   0.00000,   0.00000,   0.00000,-452232801.94607,   0.00000
10677816.58972,-18436783.66183,-1077634.31557,   0.00008,  -0.00010,  -0.00001,25578882.70657,   0.00000,274640135.82653,   0.00000,   0.00000,   0.00000,-449061253.11996,   0.00000
12035635.82734,-20687499.90378,-1225424.16456,   0.00010,  -0.00012,  -0.00002,28745806.48037,   0.00000,274640135.82653,   0.00000,   0.00000,   0.00000,-445894329.34616,   0.00000
13362665.51308,-22969005.69761,-1379371.92393,   0.00011,  -0.00013,  -0.00002,31918195.33385,   0.00000,274640135.82653,   0.00000,   0.00000,   0.00000,-442721940.49267,   0.00000
14698932.06439,-25228958.80512,-1533319.68330,   0.00012,  -0.00014,  -0.00002,35077783.93099,   0.00000,274640135.82653,   0.00000,   0.00000,   0.00000,-439562351.89554,   0.00000
16044435.48126,-27467359.22632,-1693425.35304,   0.00013,  -0.00016,  -0.00002,38225398.28447,   0.00000,274640135.82653,   0.00000,   0.00000,   0.00000,-436414737.54206,   0.00000
17389938.89813,-29705759.64752,-1859688.93316,   0.00014,  -0.00017,  -0.00002,41373890.37901,   0.00000,274640135.82653,   0.00000,   0.00000,   0.00000,-433266245.44752,   0.00000
18735442.31500,-31944160.06872,-2025952.51327,   0.00015,  -0.00018,  -0.00003,44522439.06461,   0.00000,274640135.82653,   0.00000,   0.00000,   0.00000,-430117696.76192,   0.00000
20068629.91113,-34170244.66917,-2198374.00377,   0.00016,  -0.00019,  -0.00003,47650855.88193,   0.00000,274640135.82653,   0.00000,   0.00000,   0.00000,-426989279.94460,   0.00000
21423370.19356,-36387092.40406,-2370795.49426,   0.00017,  -0.00021,  -0.00003,50787571.79408,   0.00000,274640135.82653,   0.00000,   0.00000,   0.00000,-423852564.03245,   0.00000
22756557.78968,-38613177.00452,-2549374.89512,   0.00018,  -0.00022,  -0.00003,53916966.64160,   0.00000,274640135.82653,   0.00000,   0.00000,   0.00000,-420723169.18493,   0.00000
24098982.25136,-40817708.91866,-2734112.20636,   0.00019,  -0.00023,  -0.00004,57034530.40363,   0.00000,274640135.82653,   0.00000,   0.00000,   0.00000,-417605605.42290,   0.00000
25441406.71305,-43022240.83280,-2918849.51760,   0.00020,  -0.00025,  -0.00004,60152171.66542,   0.00000,274640135.82653,   0.00000,   0.00000,   0.00000,-414487964.16110,   0.00000
26793068.04029,-45205220.06062,-3103586.82885,   0.00021,  -0.00026,  -0.00004,63257123.75863,   0.00000,274640135.82653,   0.00000,   0.00000,   0.00000,-411383012.06790,   0.00000
28123176.68122,-47397436.15402,-3294482.05046,   0.00022,  -0.00027,  -0.00004,66354783.75940,   0.00000,274640135.82653,   0.00000,   0.00000,   0.00000,-408285352.06713,   0.00000
29484074.87403,-49558862.69553,-3491535.18245,   0.00023,  -0.00028,  -0.00005,69448982.82214,   0.00000,274640135.82653,   0.00000,   0.00000,   0.00000,-405191153.00439,   0.00000
30823420.38053,-51729526.10261,-3694746.22482,   0.00024,  -0.00030,  -0.00005,72535932.42593,   0.00000,274640135.82653,   0.00000,   0.00000,   0.00000,-402104203.40060,   0.00000
32184318.57334,-53890952.64413,-3891799.35681,   0.00025,  -0.00031,  -0.00005,75630331.44012,   0.00000,274640135.82653,   0.00000,   0.00000,   0.00000,-399009804.38641,   0.00000
33532900.94539,-56040063.36490,-4101168.30955,   0.00026,  -0.00032,  -0.00005,78705709.99650,   0.00000,274640135.82653,   0.00000,   0.00000,   0.00000,-395934425.83003,   0.00000
34890720.18301,-58167621.39935,-4310537.26229,   0.00027,  -0.00033,  -0.00006,81768495.95396,   0.00000,274640135.82653,   0.00000,   0.00000,   0.00000,-392871639.87257,   0.00000
36248539.42063,-60295179.43381,-4519906.21502,   0.00028,  -0.00035,  -0.00006,84831398.18630,   0.00000,274640135.82653,   0.00000,   0.00000,   0.00000,-389808737.64023,   0.00000
37584805.97194,-62431974.33383,-4741590.98851,   0.00029,  -0.00036,  -0.00006,87888058.09812,   0.00000,274640135.82653,   0.00000,   0.00000,   0.00000,-386752077.72841,   0.00000
38951862.07512,-64537979.68197,-4957117.85163,   0.00030,  -0.00037,  -0.00006,90939495.90752,   0.00000,274640135.82653,   0.00000,   0.00000,   0.00000,-383700639.91901,   0.00000
40297365.49199,-66653221.89568,-5184960.53549,   0.00031,  -0.00038,  -0.00007,93984734.64283,   0.00000,274640135.82653,   0.00000,   0.00000,   0.00000,-380655401.18370,   0.00000
41664421.59518,-68759227.24383,-5406645.30898,   0.00032,  -0.00039,  -0.00007,97037437.26503,   0.00000,274640135.82653,   0.00000,   0.00000,   0.00000,-377602698.56149,   0.00000
43019161.87761,-70852916.77122,-5640645.90322,   0.00033,  -0.00041,  -0.00007,100071313.86337,   0.00000,274640135.82653,   0.00000,   0.00000,   0.00000,-374568821.96316,   0.00000
44383139.02560,-72925053.61231,-5874646.49746,   0.00034,  -0.00042,  -0.00008,103092694.60761,   0.00000,274640135.82653,   0.00000,   0.00000,   0.00000,-371547441.21892,   0.00000
45747116.17360,-74997190.45339,-6108647.09170,   0.00035,  -0.00043,  -0.00008,106114226.69152,   0.00000,274640135.82653,   0.00000,   0.00000,   0.00000,-368525909.13500,   0.00000
47111093.32159,-77069327.29448,-6348805.59631,   0.00036,  -0.00044,  -0.00008,109136971.69832,   0.00000,274640135.82653,   0.00000,   0.00000,   0.00000,-365503164.12821,   0.00000
48484307.33515,-79119911.44925,-6595122.01130,   0.00037,  -0.00045,  -0.00009,112148336.82036,   0.00000,274640135.82653,   0.00000,   0.00000,   0.00000,-362491799.00617,   0.00000
49845205.52796,-81158179.78327,-6841438.42628,   0.00039,  -0.00047,  -0.00009,115138858.12640,   0.00000,274640135.82653,   0.00000,   0.00000,   0.00000,-359501277.70013,   0.00000
51227656.40707,-83187211.25173,-7093912.75165,   0.00040,  -0.00048,  -0.00009,118139077.22110,   0.00000,274640135.82653,   0.00000,   0.00000,   0.00000,-356501058.60543,   0.00000
52588554.59988,-85225479.58576,-7346387.07701,   0.00041,  -0.00049,  -0.00010,121131050.69007,   0.00000,274640135.82653,   0.00000,   0.00000,   0.00000,-353509085.13646,   0.00000
53958689.65825,-87242195.23347,-7605019.31275,   0.00042,  -0.00050,  -0.00010,124111741.23643,   0.00000,274640135.82653,   0.00000,   0.00000,   0.00000,-350528394.59010,   0.00000
55328824.71662,-89258910.88118,-7869809.45886,   0.00043,  -0.00051,  -0.00010,127093762.05587,   0.00000,274640135.82653,   0.00000,   0.00000,   0.00000,-347546373.77066,   0.00000
56708196.64055,-91254073.84258,-8134599.60497,   0.00044,  -0.00053,  -0.00011,130063425.50851,   0.00000,274640135.82653,   0.00000,   0.00000,   0.00000,-344576710.31802,   0.00000
58087568.56448,-93249236.80398,-8405547.66146,   0.00045,  -0.00054,  -0.00011,133034457.63096,   0.00000,274640135.82653,   0.00000,   0.00000,   0.00000,-341605678.19557,   0.00000
59476177.35398,-95222847.07907,-8676495.71794,   0.00046,  -0.00055,  -0.00011,135993168.77455,   0.00000,274640135.82653,   0.00000,   0.00000,   0.00000,-338646967.05198,   0.00000
60874023.00903,-97174904.66785,-8947443.77443,   0.00047,  -0.00056,  -0.00012,138939578.26138,   0.00000,274640135.82653,   0.00000,   0.00000,   0.00000,-335700557.56515,   0.00000
62241079.11221,-99157751.80850,-9230707.65167,   0.00048,  -0.00057,  -0.00012,141892617.98601,   0.00000,274640135.82653,   0.00000,   0.00000,   0.00000,-332747517.84052,   0.00000
63626608.94652,-101097493.57653,-9513971.52890,   0.00049,  -0.00058,  -0.00012,144820876.34563,   0.00000,274640135.82653,   0.00000,   0.00000,   0.00000,-329819259.48090,   0.00000
65033691.46714,-103027998.47900,-9797235.40614,   0.00050,  -0.00060,  -0.00013,147757903.43261,   0.00000,274640135.82653,   0.00000,   0.00000,   0.00000,-326882232.39392,   0.00000
66419221.30144,-104967740.24702,-10086657.19375,   0.00051,  -0.00061,  -0.00013,150687879.33961,   0.00000,274640135.82653,   0.00000,   0.00000,   0.00000,-323952256.48692,   0.00000
67813988.00131,-106885929.32874,-10382236.89173,   0.00052,  -0.00062,  -0.00013,153606876.52168,   0.00000,274640135.82653,   0.00000,   0.00000,   0.00000,-321033259.30485,   0.00000
69208754.70118,-108804118.41046,-10677816.58972,   0.00053,  -0.00063,  -0.00014,156526140.79854,   0.00000,274640135.82653,   0.00000,   0.00000,   0.00000,-318113995.02799,   0.00000
70612758.26661,-110700754.80586,-10973396.28770,   0.00054,  -0.00064,  -0.00014,159433216.93394,   0.00000,274640135.82653,   0.00000,   0.00000,   0.00000,-315206918.89259,   0.00000
71995209.14573,-112606628.06683,-11275133.89606,   0.00055,  -0.00065,  -0.00015,162333257.51832,   0.00000,274640135.82653,   0.00000,   0.00000,   0.00000,-312306878.30821,   0.00000
73408449.57672,-114481711.77593,-11583029.41480,   0.00056,  -0.00066,  -0.00015,165231012.45842,   0.00000,274640135.82653,   0.00000,   0.00000,   0.00000,-309409123.36810,   0.00000
74809374.18696,-116344479.66427,-11890924.93353,   0.00057,  -0.00068,  -0.00015,168108061.72136,   0.00000,274640135.82653,   0.00000,   0.00000,   0.00000,-306532074.10517,   0.00000
76222614.61796,-118219563.37336,-12204978.36264,   0.00058,  -0.00069,  -0.00016,171007721.61863,   0.00000,274640135.82653,   0.00000,   0.00000,   0.00000,-303632414.20790,   0.00000
77632776.09376,-120060778.57540,-12525189.70213,   0.00059,  -0.00070,  -0.00016,173875619.76357,   0.00000,274640135.82653,   0.00000,   0.00000,   0.00000,-300764516.06296,   0.00000
79042937.56957,-121901993.77743,-12845401.04161,   0.00060,  -0.00071,  -0.00017,176743844.96795,   0.00000,274640135.82653,   0.00000,   0.00000,   0.00000,-297896290.85858,   0.00000
80453099.04537,-123743208.97946,-13165612.38109,   0.00061,  -0.00072,  -0.00017,179612381.56337,   0.00000,274640135.82653,   0.00000,   0.00000,   0.00000,-295027754.26316,   0.00000
81872497.38674,-125562871.49519,-13491981.63095,   0.00062,  -0.00073,  -0.00018,182470236.20253,   0.00000,274640135.82653,   0.00000,   0.00000,   0.00000,-292169899.62399,   0.00000
83301132.59367,-127360981.32460,-13824508.79119,   0.00063,  -0.00074,  -0.00018,185317466.46737,   0.00000,274640135.82653,   0.00000,   0.00000,   0.00000,-289322669.35916,   0.00000
84729767.80059,-129159091.15401,-14157035.95142,   0.00064,  -0.00075,  -0.00018,188165058.34739,   0.00000,274640135.82653,   0.00000,   0.00000,   0.00000,-286475077.47914,   0.00000
86146087.18677,-130944885.16267,-14489563.11165,   0.00065,  -0.00076,  -0.00019,190991997.47435,   0.00000,274640135.82653,   0.00000,   0.00000,   0.00000,-283648138.35218,   0.00000
87583959.25927,-132721442.30577,-14834406.09264,   0.00066,  -0.00077,  -0.00019,193830800.89438,   0.00000,274640135.82653,   0.00000,   0.00000,   0.00000,-280809334.93215,   0.00000
89009515.51101,-134485683.62812,-15173091.16324,   0.00067,  -0.00079,  -0.00020,196647569.47818,   0.00000,274640135.82653,   0.00000,   0.00000,   0.00000,-277992566.34835,   0.00000
90456624.44906,-136240688.08491,-15524092.05460,   0.00068,  -0.00080,  -0.00020,199476291.96399,   0.00000,274640135.82653,   0.00000,   0.00000,   0.00000,-275163843.86254,   0.00000
91891417.56636,-137983376.72094,-15875092.94596,   0.00069,  -0.00081,  -0.00021,202284425.22666,   0.00000,274640135.82653,   0.00000,   0.00000,   0.00000,-272355710.59987,   0.00000
93326210.68367,-139726065.35698,-16226093.83732,   0.00070,  -0.00082,  -0.00021,205092948.48403,   0.00000,274640135.82653,   0.00000,   0.00000,   0.00000,-269547187.34250,   0.00000
94770240.66653,-141447201.30671,-16583252.63905,   0.00071,  -0.00083,  -0.00022,207891095.01662,   0.00000,274640135.82653,   0.00000,   0.00000,   0.00000,-266749040.80991,   0.00000
96214270.64940,-143168337.25644,-16940411.44078,   0.00072,  -0.00084,  -0.00022,210689649.57475,   0.00000,274640135.82653,   0.00000,   0.00000,   0.00000,-263950486.25178,   0.00000
97667537.49783,-144867920.51985,-17303728.15289,   0.00073,  -0.00085,  -0.00022,213477896.65492,   0.00000,274640135.82653,   0.00000,   0.00000,   0.00000,-261162239.17161,   0.00000
99130041.21182,-146545951.09695,-17673202.77537,   0.00074,  -0.00086,  -0.00023,216255897.75599,   0.00000,274640135.82653,   0.00000,   0.00000,   0.00000,-258384238.07053,   0.00000
100570992.23949,-148233218.53962,-18042677.39785,   0.00075,  -0.00087,  -0.00023,219025542.01071,   0.00000,274640135.82653,   0.00000,   0.00000,   0.00000,-255614593.81582,   0.00000
102042732.81905,-149889696.43041,-18412152.02033,   0.00076,  -0.00088,  -0.00024,221792282.75217,   0.00000,274640135.82653,   0.00000,   0.00000,   0.00000,-252847853.07436,   0.00000
103492920.71229,-151555411.18677,-18787784.55319,   0.00077,  -0.00089,  -0.00024,224552181.00983,   0.00000,274640135.82653,   0.00000,   0.00000,   0.00000,-250087954.81670,   0.00000
104973898.15740,-153190336.39125,-19169574.99642,   0.00078,  -0.00090,  -0.00025,227310807.14671,   0.00000,274640135.82653,   0.00000,   0.00000,   0.00000,-247329328.67982,   0.00000
106433322.91620,-154834498.46129,-19551365.43965,   0.00079,  -0.00091,  -0.00025,230061061.42872,   0.00000,274640135.82653,   0.00000,   0.00000,   0.00000,-244579074.39781,   0.00000
107901984.54057,-156457107.84502,-19939313.79326,   0.00080,  -0.00092,  -0.00026,232801258.58469,   0.00000,274640135.82653,   0.00000,   0.00000,   0.00000,-241838877.24184,   0.00000
109379883.03049,-158058164.54244,-20327262.14686,   0.00081,  -0.00093,  -0.00026,235529867.53089,   0.00000,274640135.82653,   0.00000,   0.00000,   0.00000,-239110268.29564,   0.00000
110857781.52042,-159659221.23986,-20721368.41084,   0.00082,  -0.00094,  -0.00027,238260586.42363,   0.00000,274640135.82653,   0.00000,   0.00000,   0.00000,-236379549.40290,   0.00000
112335680.01035,-161260277.93728,-21115474.67482,   0.00083,  -0.00095,  -0.00027,240991815.29000,   0.00000,274640135.82653,   0.00000,   0.00000,   0.00000,-233648320.53653,   0.00000
113832052.23140,-162818229.26208,-21515738.84918,   0.00084,  -0.00096,  -0.00028,243701099.97190,   0.00000,274640135.82653,   0.00000,   0.00000,   0.00000,-230939035.85463,   0.00000
115306871.76613,-164385417.45244,-21916003.02353,   0.00085,  -0.00097,  -0.00028,246401992.61268,   0.00000,274640135.82653,   0.00000,   0.00000,   0.00000,-228238143.21385,   0.00000
116803243.98719,-165943368.77724,-22322425.10826,   0.00086,  -0.00098,  -0.00029,249114020.53388,   0.00000,274640135.82653,   0.00000,   0.00000,   0.00000,-225526115.29265,   0.00000
118287300.38749,-167489004.28129,-22728847.19299,   0.00086,  -0.00099,  -0.00030,251805630.66239,   0.00000,274640135.82653,   0.00000,   0.00000,   0.00000,-222834505.16414,   0.00000
119792909.47410,-169025402.91977,-23141427.18810,   0.00087,  -0.00100,  -0.00030,254508447.28645,   0.00000,274640135.82653,   0.00000,   0.00000,   0.00000,-220131688.54008,   0.00000
121286202.73996,-170549485.73751,-23554007.18320,   0.00088,  -0.00101,  -0.00031,257190869.44898,   0.00000,274640135.82653,   0.00000,   0.00000,   0.00000,-217449266.37755,   0.00000
122788732.87139,-172052015.86894,-23972745.08868,   0.00089,  -0.00102,  -0.00031,259863609.65418,   0.00000,274640135.82653,   0.00000,   0.00000,   0.00000,-214776526.17235,   0.00000
124291263.00281,-173554546.00036,-24391482.99416,   0.00090,  -0.00103,  -0.00032,262536941.29866,   0.00000,274640135.82653,   0.00000,   0.00000,   0.00000,-212103194.52787,   0.00000
125803029.99980,-175035523.44547,-24816378.81001,   0.00091,  -0.00104,  -0.00032,265200667.42701,   0.00000,274640135.82653,   0.00000,   0.00000,   0.00000,-209439468.39952,   0.00000
127324033.86235,-176494948.20428,-25241274.62587,   0.00092,  -0.00105,  -0.00033,267853114.47979,   0.00000,274640135.82653,   0.00000,   0.00000,   0.00000,-206787021.34674,   0.00000
128845037.72490,-177954372.96308,-25672328.35210,   0.00093,  -0.00106,  -0.00033,270507940.41914,   0.00000,274640135.82653,   0.00000,   0.00000,   0.00000,-204132195.40739,   0.00000
130366041.58745,-179413797.72188,-26103382.07833,   0.00094,  -0.00107,  -0.00034,273163397.79539,   0.00000,274640135.82653,   0.00000,   0.00000,   0.00000,-201476738.03114,   0.00000
131905519.18112,-180830117.10806,-26540593.71493,   0.00095,  -0.00108,  -0.00035,275797565.37849,   0.00000,274640135.82653,   0.00000,   0.00000,   0.00000,-198842570.44804,   0.00000
133423444.08848,-182255673.35980,-26977805.35153,   0.00096,  -0.00109,  -0.00035,278423295.52922,   0.00000,274640135.82653,   0.00000,   0.00000,   0.00000,-196216840.29731,   0.00000
134962921.68216,-183671992.74598,-27421174.89851,   0.00097,  -0.00110,  -0.00036,281060602.75124,   0.00000,274640135.82653,   0.00000,   0.00000,   0.00000,-193579533.07529,   0.00000
136490083.45508,-185075996.31141,-27864544.44549,   0.00098,  -0.00111,  -0.00036,283677640.96907,   0.00000,274640135.82653,   0.00000,   0.00000,   0.00000,-190962494.85746,   0.00000
138048034.77988,-186449210.32497,-28314071.90284,   0.00099,  -0.00112,  -0.00037,286294559.87177,   0.00000,274640135.82653,   0.00000,   0.00000,   0.00000,-188345575.95476,   0.00000
139584433.41836,-187831661.20409,-28763599.36019,   0.00100,  -0.00113,  -0.00037,288903023.44399,   0.00000,274640135.82653,   0.00000,   0.00000,   0.00000,-185737112.38254,   0.00000
141130068.92241,-189192559.39689,-29219284.72792,   0.00101,  -0.00114,  -0.00038,291502280.66435,   0.00000,274640135.82653,   0.00000,   0.00000,   0.00000,-183137855.16218,   0.00000
142675704.42646,-190553457.58970,-29674970.09565,   0.00102,  -0.00115,  -0.00039,294102256.32596,   0.00000,274640135.82653,   0.00000,   0.00000,   0.00000,-180537879.50057,   0.00000
144230576.79607,-191892803.09620,-30136813.37375,   0.00103,  -0.00115,  -0.00039,296693106.42075,   0.00000,274640135.82653,   0.00000,   0.00000,   0.00000,-177947029.40578,   0.00000
145794686.03124,-193210595.91638,-30598656.65185,   0.00104,  -0.00116,  -0.00040,299273013.12605,   0.00000,274640135.82653,   0.00000,   0.00000,   0.00000,-175367122.70048,   0.00000
147358795.26641,-194528388.73657,-31060499.92995,   0.00105,  -0.00117,  -0.00040,301853675.71697,   0.00000,274640135.82653,   0.00000,   0.00000,   0.00000,-172786460.10956,   0.00000
148932141.36715,-195824628.87044,-31528501.11843,   0.00106,  -0.00118,  -0.00041,304425341.36119,   0.00000,274640135.82653,   0.00000,   0.00000,   0.00000,-170214794.46534,   0.00000
150505487.46788,-197120869.00431,-32002660.21728,   0.00107,  -0.00119,  -0.00042,306999710.12608,   0.00000,274640135.82653,   0.00000,   0.00000,   0.00000,-167640425.70045,   0.00000
152066517.74787,-198404793.31744,-32476819.31613,   0.00108,  -0.00120,  -0.00042,309553945.59631,   0.00000,274640135.82653,   0.00000,   0.00000,   0.00000,-165086190.23022,   0.00000
153658337.57973,-199657928.07869,-32950978.41498,   0.00109,  -0.00121,  -0.00043,312106679.19982,   0.00000,274640135.82653,   0.00000,   0.00000,   0.00000,-162533456.62671,   0.00000
155228604.72527,-200920299.70550,-33431295.42421,   0.00110,  -0.00122,  -0.00043,314652854.56228,   0.00000,274640135.82653,   0.00000,   0.00000,   0.00000,-159987281.26425,   0.00000
156808108.73638,-202161118.64600,-33911612.43344,   0.00111,  -0.00123,  -0.00044,317188265.71312,   0.00000,274640135.82653,   0.00000,   0.00000,   0.00000,-157451870.11340,   0.00000
158418402.29936,-203371148.03463,-34398087.35304,   0.00112,  -0.00123,  -0.00045,319724305.65423,   0.00000,274640135.82653,   0.00000,   0.00000,   0.00000,-154915830.17230,   0.00000
160007143.17603,-204590414.28882,-34884562.27264,   0.00113,  -0.00124,  -0.00045,322251841.34872,   0.00000,274640135.82653,   0.00000,   0.00000,   0.00000,-152388294.47781,   0.00000
161595884.05271,-205809680.54300,-35377195.10261,   0.00114,  -0.00125,  -0.00046,324782218.45096,   0.00000,274640135.82653,   0.00000,   0.00000,   0.00000,-149857917.37557,   0.00000
163203098.66050,-206985841.42457,-35869827.93259,   0.00115,  -0.00126,  -0.00047,327290473.93670,   0.00000,274640135.82653,   0.00000,   0.00000,   0.00000,-147349661.88983,   0.00000
164810313.26830,-208162002.30614,-36368618.67294,   0.00116,  -0.00127,  -0.00047,329801656.52534,   0.00000,274640135.82653,   0.00000,   0.00000,   0.00000,-144838479.30119,   0.00000
166417527.87609,-209338163.18770,-36867409.41329,   0.00117,  -0.00128,  -0.00048,332313733.37488,   0.00000,274640135.82653,   0.00000,   0.00000,   0.00000,-142326402.45165,   0.00000
168021663.52870,-210480455.56221,-37366200.15364,   0.00117,  -0.00129,  -0.00049,334794379.60371,   0.00000,274640135.82653,   0.00000,   0.00000,   0.00000,-139845756.22282,   0.00000
169638115.00206,-211635063.75746,-37871148.80436,   0.00118,  -0.00129,  -0.00049,337298881.25003,   0.00000,274640135.82653,   0.00000,   0.00000,   0.00000,-137341254.57650,   0.00000
171273040.20654,-212746566.58010,-38376097.45509,   0.00119,  -0.00130,  -0.00050,339781520.55774,   0.00000,274640135.82653,   0.00000,   0.00000,   0.00000,-134858615.26879,   0.00000
172886412.72471,-213867306.26829,-38887204.01619,   0.00120,  -0.00131,  -0.00051,342257697.77126,   0.00000,274640135.82653,   0.00000,   0.00000,   0.00000,-132382438.05527,   0.00000
174530574.79475,-214957256.40461,-39398310.57729,   0.00121,  -0.00132,  -0.00051,344732994.88853,   0.00000,274640135.82653,   0.00000,   0.00000,   0.00000,-129907140.93800,   0.00000
176153184.17848,-216056443.40649,-39909417.13839,   0.00122,  -0.00133,  -0.00052,347199720.95466,   0.00000,274640135.82653,   0.00000,   0.00000,   0.00000,-127440414.87187,   0.00000
177785030.42777,-217134077.72207,-40426681.60986,   0.00123,  -0.00133,  -0.00053,349658209.00573,   0.00000,274640135.82653,   0.00000,   0.00000,   0.00000,-124981926.82080,   0.00000
179416876.67707,-218211712.03764,-40950103.99171,   0.00124,  -0.00134,  -0.00053,352119814.53178,   0.00000,274640135.82653,   0.00000,   0.00000,   0.00000,-122520321.29475,   0.00000
181067196.65749,-219246240.98059,-41473526.37356,   0.00125,  -0.00135,  -0.00054,354559876.87715,   0.00000,274640135.82653,   0.00000,   0.00000,   0.00000,-120080258.94938,   0.00000
182708279.77234,-220302322.60985,-41996948.75541,   0.00126,  -0.00136,  -0.00055,357012210.36941,   0.00000,274640135.82653,   0.00000,   0.00000,   0.00000,-117627925.45712,   0.00000
184367836.61832,-221315298.86648,-42520371.13726,   0.00127,  -0.00137,  -0.00055,359443082.33597,   0.00000,274640135.82653,   0.00000,   0.00000,   0.00000,-115197053.49056,   0.00000
186027393.46430,-222328275.12312,-43049951.42948,   0.00128,  -0.00137,  -0.00056,361877185.66822,   0.00000,274640135.82653,   0.00000,   0.00000,   0.00000,-112762950.15831,   0.00000
187696187.17584,-223319698.69345,-43585689.63208,   0.00129,  -0.00138,  -0.00057,364303361.90188,   0.00000,274640135.82653,   0.00000,   0.00000,   0.00000,-110336773.92465,   0.00000
189343428.20107,-224320359.12933,-44115269.92430,   0.00130,  -0.00139,  -0.00057,366718712.71749,   0.00000,274640135.82653,   0.00000,   0.00000,   0.00000,-107921423.10904,   0.00000
191021458.77818,-225290230.01335,-44657166.03728,   0.00131,  -0.00140,  -0.00058,369138105.96344,   0.00000,274640135.82653,   0.00000,   0.00000,   0.00000,-105502029.86309,   0.00000
192687173.53453,-226247785.07661,-45192904.23988,   0.00132,  -0.00141,  -0.00059,371535528.72177,   0.00000,274640135.82653,   0.00000,   0.00000,   0.00000,-103104607.10476,   0.00000
194374440.97720,-227196103.27431,-45734800.35285,   0.00133,  -0.00141,  -0.00059,373946017.63399,   0.00000,274640135.82653,   0.00000,   0.00000,   0.00000,-100694118.19254,   0.00000
196049392.59912,-228132105.65127,-46276696.46582,   0.00134,  -0.00142,  -0.00060,376336791.47809,   0.00000,274640135.82653,   0.00000,   0.00000,   0.00000,-98303344.34844,   0.00000
197724344.22103,-229068108.02822,-46824750.48917,   0.00135,  -0.00143,  -0.00061,378730943.58689,   0.00000,274640135.82653,   0.00000,   0.00000,   0.00000,-95909192.23964,   0.00000
199408532.70851,-229982557.71886,-47372804.51252,   0.00136,  -0.00144,  -0.00062,381115168.91523,   0.00000,274640135.82653,   0.00000,   0.00000,   0.00000,-93524966.91130,   0.00000
201101958.06155,-230875454.72319,-47927016.44624,   0.00137,  -0.00144,  -0.00062,383491819.80758,   0.00000,274640135.82653,   0.00000,   0.00000,   0.00000,-91148316.01895,   0.00000
202804620.28015,-231746799.04121,-48475070.46959,   0.00137,  -0.00145,  -0.00063,385856335.73212,   0.00000,274640135.82653,   0.00000,   0.00000,   0.00000,-88783800.09441,   0.00000
204507282.49876,-232618143.35923,-49029282.40331,   0.00138,  -0.00146,  -0.00064,388224349.02022,   0.00000,274640135.82653,   0.00000,   0.00000,   0.00000,-86415786.80631,   0.00000
206209944.71736,-233489487.67725,-49589652.24741,   0.00139,  -0.00146,  -0.00064,390595874.69940,   0.00000,274640135.82653,   0.00000,   0.00000,   0.00000,-84044261.12713,   0.00000
207931080.66709,-234317726.62265,-50150022.09150,   0.00140,  -0.00147,  -0.00065,392946743.94939,   0.00000,274640135.82653,   0.00000,   0.00000,   0.00000,-81693391.87714,   0.00000
209630663.93050,-235155202.43361,-50710391.93560,   0.00141,  -0.00148,  -0.00066,395288954.12747,   0.00000,274640135.82653,   0.00000,   0.00000,   0.00000,-79351181.69906,   0.00000
211351799.88023,-235983441.37900,-51276919.69007,   0.00142,  -0.00149,  -0.00067,397644640.94689,   0.00000,274640135.82653,   0.00000,   0.00000,   0.00000,-76995494.87964,   0.00000
213060620.00921,-236799364.50365,-51843447.44454,   0.00143,  -0.00149,  -0.00067,399980768.75742,   0.00000,274640135.82653,   0.00000,   0.00000,   0.00000,-74659367.06911,   0.00000
214778677.00375,-237593734.94198,-52409975.19902,   0.00144,  -0.00150,  -0.00068,402307279.99312,   0.00000,274640135.82653,   0.00000,   0.00000,   0.00000,-72332855.83341,   0.00000
216527523.55016,-238357315.82845,-52976502.95349,   0.00145,  -0.00151,  -0.00069,404634189.57825,   0.00000,274640135.82653,   0.00000,   0.00000,   0.00000,-70005946.24828,   0.00000
218254817.41026,-239130133.58047,-53549188.61833,   0.00146,  -0.00151,  -0.00070,406954833.55766,   0.00000,274640135.82653,   0.00000,   0.00000,   0.00000,-67685302.26887,   0.00000
219991348.13592,-239881398.64618,-54128032.19356,   0.00147,  -0.00152,  -0.00070,409268423.60419,   0.00000,274640135.82653,   0.00000,   0.00000,   0.00000,-65371712.22234,   0.00000
221727878.86159,-240632663.71190,-54700717.85840,   0.00148,  -0.00153,  -0.00071,411580863.04136,   0.00000,274640135.82653,   0.00000,   0.00000,   0.00000,-63059272.78517,   0.00000
223452093.76650,-241371612.95686,-55279561.43362,   0.00149,  -0.00153,  -0.00072,413876280.76264,   0.00000,274640135.82653,   0.00000,   0.00000,   0.00000,-60763855.06389,   0.00000
225207098.22329,-242079772.64995,-55858405.00884,   0.00150,  -0.00154,  -0.00073,416172345.04932,   0.00000,274640135.82653,   0.00000,   0.00000,   0.00000,-58467790.77721,   0.00000
226971339.54564,-242766379.65673,-56443406.49444,   0.00151,  -0.00155,  -0.00073,418461573.93983,   0.00000,274640135.82653,   0.00000,   0.00000,   0.00000,-56178561.88670,   0.00000
228714028.18168,-243462223.52907,-57028407.98004,   0.00152,  -0.00155,  -0.00074,420742088.19230,   0.00000,274640135.82653,   0.00000,   0.00000,   0.00000,-53898047.63423,   0.00000
230478269.50403,-244148830.53585,-57613409.46563,   0.00152,  -0.00156,  -0.00075,423034039.97751,   0.00000,274640135.82653,   0.00000,   0.00000,   0.00000,-51606095.84902,   0.00000
232239431.87119,-244801569.03556,-58198410.95123,   0.00153,  -0.00157,  -0.00076,425296019.66614,   0.00000,274640135.82653,   0.00000,   0.00000,   0.00000,-49344116.16039,   0.00000
234000594.23835,-245454307.53528,-58789570.34720,   0.00154,  -0.00157,  -0.00076,427561913.36223,   0.00000,274640135.82653,   0.00000,   0.00000,   0.00000,-47078222.46430,   0.00000
235761756.60551,-246107046.03500,-59380729.74317,   0.00155,  -0.00158,  -0.00077,429829183.12568,   0.00000,274640135.82653,   0.00000,   0.00000,   0.00000,-44810952.70085,   0.00000
237532155.83824,-246738231.84840,-59971889.13914,   0.00156,  -0.00159,  -0.00078,432087290.61644,   0.00000,274640135.82653,   0.00000,   0.00000,   0.00000,-42552845.21009,   0.00000
239311791.93652,-247347864.97550,-60569206.44548,   0.00157,  -0.00159,  -0.00079,434338862.15152,   0.00000,274640135.82653,   0.00000,   0.00000,   0.00000,-40301273.67501,   0.00000
241100664.90037,-247935945.41628,-61166523.75183,   0.00158,  -0.00160,  -0.00080,436581396.55863,   0.00000,274640135.82653,   0.00000,   0.00000,   0.00000,-38058739.26790,   0.00000
242889537.86422,-248524025.85707,-61763841.05818,   0.00159,  -0.00160,  -0.00080,438825387.83377,   0.00000,274640135.82653,   0.00000,   0.00000,   0.00000,-35814747.99276,   0.00000
244666095.00732,-249099790.47710,-62361158.36452,   0.00160,  -0.00161,  -0.00081,441050131.93823,   0.00000,274640135.82653,   0.00000,   0.00000,   0.00000,-33590003.88829,   0.00000
246464204.83673,-249666318.23157,-62964633.58124,   0.00161,  -0.00162,  -0.00082,443289206.46529,   0.00000,274640135.82653,   0.00000,   0.00000,   0.00000,-31350929.36124,   0.00000
248249998.84539,-250220530.16529,-63568108.79796,   0.00162,  -0.00162,  -0.00083,445509074.35878,   0.00000,274640135.82653,   0.00000,   0.00000,   0.00000,-29131061.46775,   0.00000
250045029.71962,-250753189.41270,-64171584.01468,   0.00163,  -0.00163,  -0.00083,447720051.11674,   0.00000,274640135.82653,   0.00000,   0.00000,   0.00000,-26920084.70979,   0.00000
251849297.45940,-251264295.97380,-64781217.14178,   0.00164,  -0.00163,  -0.00084,449924849.01675,   0.00000,274640135.82653,   0.00000,   0.00000,   0.00000,-24715286.80978,   0.00000
253653565.19919,-251775402.53490,-65384692.35850,   0.00165,  -0.00164,  -0.00085,452128507.09367,   0.00000,274640135.82653,   0.00000,   0.00000,   0.00000,-22511628.73286,   0.00000
255457832.93897,-252286509.09600,-65994325.48559,   0.00165,  -0.00165,  -0.00086,454336334.62890,   0.00000,274640135.82653,   0.00000,   0.00000,   0.00000,-20303801.19763,   0.00000
257280574.40988,-252754510.28448,-66603958.61268,   0.00166,  -0.00165,  -0.00087,456525162.43592,   0.00000,274640135.82653,   0.00000,   0.00000,   0.00000,-18114973.39061,   0.00000
259103315.88079,-253222511.47296,-67219749.65015,   0.00167,  -0.00166,  -0.00087,458718263.45207,   0.00000,274640135.82653,   0.00000,   0.00000,   0.00000,-15921872.37446,   0.00000
260904504.66539,-253699749.52700,-67835540.68762,   0.00168,  -0.00166,  -0.00088,460902498.02965,   0.00000,274640135.82653,   0.00000,   0.00000,   0.00000,-13737637.79688,   0.00000
262745719.86742,-254124645.34285,-68451331.72509,   0.00169,  -0.00167,  -0.00089,463078358.38090,   0.00000,274640135.82653,   0.00000,   0.00000,   0.00000,-11561777.44562,   0.00000
264565382.38314,-254558778.02427,-69067122.76256,   0.00170,  -0.00167,  -0.00090,465245371.61783,   0.00000,274640135.82653,   0.00000,   0.00000,   0.00000,-9394764.20869,   0.00000
266385044.89886,-254992910.70568,-69682913.80003,   0.00171,  -0.00168,  -0.00091,467413949.35339,   0.00000,274640135.82653,   0.00000,   0.00000,   0.00000,-7226186.47313,   0.00000
268223181.14571,-255383938.01447,-70304862.74788,   0.00172,  -0.00169,  -0.00091,469566655.70019,   0.00000,274640135.82653,   0.00000,   0.00000,   0.00000,-5073480.12634,   0.00000
270052080.52699,-255796518.00958,-70920653.78534,   0.00173,  -0.00169,  -0.00092,471728294.78721,   0.00000,274640135.82653,   0.00000,   0.00000,   0.00000,-2911841.03932,   0.00000
271899453.63940,-256165992.63206,-71542602.73319,   0.00174,  -0.00170,  -0.00093,473874196.51817,   0.00000,274640135.82653,   0.00000,   0.00000,   0.00000,-765939.30836,   0.00000
272557636.33569,-256297629.17132,-71766384.84993,   0.00174,  -0.00170,  -0.00093,474640135.08383,   0.00000,274640135.82653,   0.00000,   0.00000,   0.00000,  -0.74270,   0.00000
272958572.05521,-255788730.21574,-71961799.27324,   0.00175,  -0.00170,  -0.00094,474640135.08383,   0.00001,274646694.35342,   0.00001,  -0.00000,  -0.00000,   0.33140,   1.00000
273579411.13351,-255000726.25862,-72261201.66254,   0.00175,  -0.00171,  -0.00095,476775329.89137,   0.00002,274656777.22295,   0.00001,  -0.00001,  -0.00001,   0.79057,   1.00000
274210357.32840,-254197179.22018,-72566239.39820,   0.00176,  -0.00171,  -0.00095,476779920.62796,   0.00002,274666832.50749,   0.00002,  -0.00002,  -0.00001,   0.79424,   1.00000
274855104.28206,-253382409.23825,-72862353.28696,   0.00177,  -0.00172,  -0.00096,476799470.54278,   0.00003,274676931.17143,   0.00003,  -0.00003,  -0.00002,   0.80994,   1.00000
275494408.25097,-252566972.76292,-73165725.63871,   0.00178,  -0.00172,  -0.00097,476793570.83081,   0.00004,274686952.49812,   0.00004,  -0.00004,  -0.00002,   0.80685,   1.00000
276130443.43171,-251753696.79845,-73467494.91083,   0.00179,  -0.00173,  -0.00098,476805320.30052,   0.00005,274696980.42334,   0.00004,  -0.00004,  -0.00002,   0.81778,   1.00000
276776433.66056,-250924803.62294,-73774873.36597,   0.00180,  -0.00173,  -0.00099,476810083.21270,   0.00006,274706981.83712,   0.00005,  -0.00005,  -0.00003,   0.82406,   1.00000
277420288.07248,-250098168.30723,-74078112.66877,   0.00181,  -0.00174,  -0.00100,476798449.82638,   0.00007,274716879.28292,   0.00006,  -0.00006,  -0.00003,   0.81799,   1.00000
278074493.57282,-249257326.82768,-74383772.94797,   0.00182,  -0.00174,  -0.00100,476823721.98763,   0.00008,274726847.89752,   0.00007,  -0.00006,  -0.00004,   0.84174,   1.00000
278724901.07713,-248417180.76326,-74691007.65611,   0.00183,  -0.00175,  -0.00101,476814979.14157,   0.00009,274736726.39732,   0.00007,  -0.00007,  -0.00004,   0.83892,   1.00000
279402058.39348,-247548000.60763,-74996460.19764,   0.00184,  -0.00175,  -0.00102,476827690.63914,   0.00010,274746616.70789,   0.00008,  -0.00008,  -0.00005,   0.85440,   1.00000
280060509.57112,-246695900.19914,-75301979.95280,   0.00185,  -0.00176,  -0.00103,476828675.24673,   0.00011,274756463.30776,   0.00009,  -0.00009,  -0.00005,   0.86056,   1.00000
280730408.46356,-245829564.59840,-75607411.30242,   0.00185,  -0.00176,  -0.00104,476830669.53439,   0.00011,274766271.18613,   0.00010,  -0.00009,  -0.00005,   0.86828,   1.00000
281411690.01731,-244948983.78451,-75912753.01075,   0.00186,  -0.00176,  -0.00104,476832695.79618,   0.00012,274776040.68315,   0.00010,  -0.00010,  -0.00006,   0.87676,   1.00000
282072601.17101,-244083932.09788,-76223859.32560,   0.00187,  -0.00177,  -0.00105,476836489.32261,   0.00013,274785780.34724,   0.00011,  -0.00011,  -0.00006,   0.88689,   1.00000
282760049.15838,-243189746.91608,-76533121.68638,   0.00188,  -0.00177,  -0.00106,476849387.32876,   0.00014,274795533.34331,   0.00012,  -0.00012,  -0.00007,   0.90607,   1.00000
283445395.26377,-242297602.02424,-76838365.52140,   0.00189,  -0.00178,  -0.00107,476837655.79603,   0.00015,274805183.21694,   0.00013,  -0.00012,  -0.00007,   0.90404,   1.00000
284140557.48070,-241391377.32831,-77145884.00422,   0.00190,  -0.00178,  -0.00108,476863160.68814,   0.00016,274814906.40717,   0.00014,  -0.00013,  -0.00008,   0.93608,   1.00000
284831865.15952,-240485610.42811,-77455062.81437,   0.00191,  -0.00179,  -0.00109,476854433.24021,   0.00017,274824540.82726,   0.00014,  -0.00014,  -0.00008,   0.93762,   1.00000
285517838.40952,-239580578.18801,-77768240.22021,   0.00192,  -0.00179,  -0.00109,476869081.64764,   0.00018,274834197.32801,   0.00015,  -0.00014,  -0.00008,   0.96117,   1.00000
286216594.33323,-238660754.70149,-78078983.92220,   0.00193,  -0.00180,  -0.00110,476847836.25215,   0.00019,274843706.29209,   0.00016,  -0.00015,  -0.00009,   0.95171,   1.00000
286911978.27022,-237745150.99369,-78384744.31574,   0.00193,  -0.00180,  -0.00111,476879789.99913,   0.00019,274853319.63942,   0.00017,  -0.00016,  -0.00009,   0.99342,   1.00000
287616534.32008,-236811564.58206,-78699394.90095,   0.00194,  -0.00180,  -0.00112,476864683.69387,   0.00020,274862814.67268,   0.00017,  -0.00017,  -0.00010,   0.99036,   1.00000
288334198.37597,-235867057.89178,-79004928.27809,   0.00195,  -0.00181,  -0.00113,476884236.72422,   0.00021,274872355.57447,   0.00018,  -0.00017,  -0.00010,   0.00000,   2.00000
289046174.53753,-234921280.93090,-79317818.64784,   0.00196,  -0.00181,  -0.00114,476878567.07057,   0.00022,274881823.07253,   0.00019,  -0.00018,  -0.00011,  -0.00000,   2.00000
289754471.00699,-233977819.58097,-79629041.88329,   0.00197,  -0.00182,  -0.00114,476890148.31168,   0.00023,274891298.92873,   0.00019,  -0.00019,  -0.00011,   0.00000,   2.00000
290460843.34728,-233036075.15380,-79936390.98244,   0.00198,  -0.00182,  -0.00115,476878247.21372,   0.00024,274900672.32055,   0.00020,  -0.00019,  -0.00011,   0.00000,   2.00000
291191265.64160,-232063448.32772,-80247399.49189,   0.00199,  -0.00182,  -0.00116,476894731.46464,   0.00025,274910077.63474,   0.00021,  -0.00020,  -0.00012,   0.00000,   2.00000
291903113.96629,-231107895.83937,-80558615.61375,   0.00200,  -0.00183,  -0.00117,476895168.32236,   0.00025,274919439.03049,   0.00022,  -0.00021,  -0.00012,   0.00000,   2.00000
292625991.16207,-230137690.02113,-80869721.84832,   0.00200,  -0.00183,  -0.00118,476897501.73018,   0.00026,274928765.66229,   0.00022,  -0.00021,  -0.00013,  -0.00000,   2.00000
293359828.12136,-229152817.89539,-81180713.78002,   0.00201,  -0.00183,  -0.00119,476899879.47813,   0.00027,274938057.90399,   0.00023,  -0.00022,  -0.00013,   0.00000,   2.00000
294089868.48597,-228170305.22168,-81490039.91325,   0.00202,  -0.00184,  -0.00120,476911392.22201,   0.00028,274947358.97917,   0.00024,  -0.00023,  -0.00014,   0.00000,   2.00000
294830807.87096,-227173088.86785,-81799253.85093,   0.00203,  -0.00184,  -0.00120,476913839.91396,   0.00029,274956626.10891,   0.00025,  -0.00023,  -0.00014,   0.00000,   2.00000
295565990.58354,-226174278.96961,-82115868.64684,   0.00204,  -0.00185,  -0.00121,476908258.01420,   0.00030,274965821.62941,   0.00025,  -0.00024,  -0.00014,  -0.00000,   2.00000
296313921.88361,-225164712.73143,-82423266.28424,   0.00205,  -0.00185,  -0.00122,476927818.25186,   0.00031,274975064.33034,   0.00026,  -0.00025,  -0.00015,  -0.00000,   2.00000
297058023.85670,-224155044.84562,-82732503.73116,   0.00206,  -0.00185,  -0.00123,476919069.71747,   0.00031,274984220.63014,   0.00027,  -0.00025,  -0.00015,  -0.00000,   2.00000
297798271.97568,-223147762.06110,-83040079.34716,   0.00207,  -0.00186,  -0.00124,476930509.58908,   0.00032,274993386.03349,   0.00028,  -0.00026,  -0.00016,  -0.00000,   2.00000
298532798.12651,-222138726.80125,-83355094.16207,   0.00207,  -0.00186,  -0.00125,476924932.41190,   0.00033,275002480.36685,   0.00028,  -0.00027,  -0.00016,   0.00000,   2.00000
299294632.37860,-221101713.21330,-83662418.90878,   0.00208,  -0.00186,  -0.00125,476935597.87094,   0.00034,275011580.43142,   0.00029,  -0.00027,  -0.00017,  -0.00000,   2.00000
300052637.30279,-220064447.60468,-83971624.77639,   0.00209,  -0.00187,  -0.00126,476926834.28793,   0.00035,275020594.74832,   0.00030,  -0.00028,  -0.00017,   0.00000,   2.00000
300804698.44039,-219028037.85769,-84284720.44385,   0.00210,  -0.00187,  -0.00127,476941493.91355,   0.00036,275029633.97062,   0.00030,  -0.00029,  -0.00018,   0.00000,   2.00000
301554860.21436,-217995587.43980,-84590575.87727,   0.00211,  -0.00187,  -0.00128,476949616.80426,   0.00036,275038667.20681,   0.00031,  -0.00029,  -0.00018,  -0.00000,   2.00000
302328257.54272,-216929217.24786,-84903416.69898,   0.00212,  -0.00188,  -0.00129,476946854.40224,   0.00037,275047643.25983,   0.00032,  -0.00030,  -0.00018,   0.00000,   2.00000
303085287.39258,-215881418.54224,-85211060.93919,   0.00213,  -0.00188,  -0.00130,476943488.29005,   0.00038,275056559.58675,   0.00033,  -0.00031,  -0.00019,  -0.00000,   2.00000
303852951.48680,-214818567.53701,-85518590.53869,   0.00213,  -0.00188,  -0.00130,476946146.73172,   0.00039,275065444.80666,   0.00033,  -0.00031,  -0.00019,  -0.00000,   2.00000
304614551.93925,-213756602.68643,-85829989.01968,   0.00214,  -0.00188,  -0.00131,476960805.84968,   0.00040,275074355.48757,   0.00034,  -0.00032,  -0.00020,  -0.00000,   2.00000
305388791.68952,-212681092.94236,-86135711.64298,   0.00215,  -0.00189,  -0.00132,476960236.98392,   0.00040,275083219.90399,   0.00035,  -0.00032,  -0.00020,   0.00000,   2.00000
306158993.54742,-211608041.89957,-86439767.33307,   0.00216,  -0.00189,  -0.00133,476971570.79128,   0.00041,275092094.22052,   0.00035,  -0.00033,  -0.00021,   0.00000,   2.00000
306939996.70594,-210516789.44254,-86747351.46674,   0.00217,  -0.00189,  -0.00134,476954275.39479,   0.00042,275100843.85587,   0.00036,  -0.00034,  -0.00021,   0.00000,   2.00000
307700299.94112,-209444074.46109,-87057239.68461,   0.00218,  -0.00190,  -0.00135,476977399.93312,   0.00043,275109659.32908,   0.00037,  -0.00034,  -0.00022,   0.00000,   2.00000
308487741.15514,-208340027.07985,-87363009.68370,   0.00218,  -0.00190,  -0.00136,476968425.77559,   0.00044,275118389.51537,   0.00037,  -0.00035,  -0.00022,  -0.00000,   2.00000
309256936.74111,-207252944.41817,-87669247.53377,   0.00219,  -0.00190,  -0.00136,476968023.92204,   0.00044,275127075.11070,   0.00038,  -0.00035,  -0.00022,  -0.00000,   2.00000
310050689.78634,-206136099.30069,-87973204.53696,   0.00220,  -0.00190,  -0.00137,476982568.52287,   0.00045,275135786.48575,   0.00039,  -0.00036,  -0.00023,  -0.00000,   2.00000
310826211.88298,-205036224.29872,-88277651.45688,   0.00221,  -0.00191,  -0.00138,476982134.21443,   0.00046,275144453.19922,   0.00040,  -0.00037,  -0.00023,   0.00000,   2.00000
311612124.88357,-203921025.12315,-88581968.17996,   0.00222,  -0.00191,  -0.00139,476985051.47450,   0.00047,275153091.19135,   0.00040,  -0.00037,  -0.00024,  -0.00000,   2.00000
312408351.50468,-202790487.54484,-88886144.67349,   0.00223,  -0.00191,  -0.00140,476988031.46671,   0.00048,275161700.88509,   0.00041,  -0.00038,  -0.00024,  -0.00000,   2.00000
313188624.10339,-201678414.23523,-89185357.41216,   0.00223,  -0.00191,  -0.00141,476983996.85091,   0.00048,275170249.52337,   0.00042,  -0.00038,  -0.00025,  -0.00000,   2.00000
313977025.03189,-200549387.59312,-89489943.24933,   0.00224,  -0.00192,  -0.00141,476990405.82523,   0.00049,275178786.38320,   0.00042,  -0.00039,  -0.00025,  -0.00000,   2.00000
314775680.25129,-199404924.54736,-89794380.66174,   0.00225,  -0.00192,  -0.00142,476993440.18390,   0.00050,275187295.68090,   0.00043,  -0.00040,  -0.00026,   0.00000,   2.00000
315572367.30721,-198264496.41837,-90091660.16626,   0.00226,  -0.00192,  -0.00143,477001127.04383,   0.00051,275195799.36081,   0.00044,  -0.00040,  -0.00026,  -0.00000,   2.00000
316365401.00818,-197122966.36643,-90391064.53520,   0.00227,  -0.00192,  -0.00144,476992305.88584,   0.00052,275204220.06756,   0.00044,  -0.00041,  -0.00026,   0.00000,   2.00000
317152016.38028,-195982406.27326,-90694283.87007,   0.00228,  -0.00192,  -0.00145,477006897.26670,   0.00052,275212667.93666,   0.00045,  -0.00041,  -0.00027,   0.00000,   2.00000
317951104.11044,-194827809.27950,-90991887.55673,   0.00228,  -0.00193,  -0.00146,477006482.90952,   0.00053,275221072.50094,   0.00046,  -0.00042,  -0.00027,   0.00000,   2.00000
318760318.40203,-193657640.26078,-91289352.22818,   0.00229,  -0.00193,  -0.00146,477009634.29095,   0.00054,275229450.66606,   0.00046,  -0.00043,  -0.00028,   0.00000,   2.00000
319565862.94682,-192486203.00477,-91588967.96306,   0.00230,  -0.00193,  -0.00147,477000845.78134,   0.00055,275237746.64301,   0.00047,  -0.00043,  -0.00028,  -0.00000,   2.00000
320380846.46444,-191302974.81208,-91884603.62422,   0.00231,  -0.00193,  -0.00148,477023922.84063,   0.00055,275246110.03587,   0.00048,  -0.00044,  -0.00029,   0.00000,   2.00000
321164210.75556,-190150896.97425,-92183225.52415,   0.00232,  -0.00193,  -0.00149,477010944.27385,   0.00056,275254371.72704,   0.00048,  -0.00044,  -0.00029,   0.00000,   2.00000
321987956.90524,-188952086.57860,-92475433.98303,   0.00232,  -0.00194,  -0.00150,477014799.03100,   0.00057,275262610.98039,   0.00049,  -0.00045,  -0.00030,  -0.00000,   2.00000
322791416.90424,-187768592.81155,-92773776.28217,   0.00233,  -0.00194,  -0.00151,477017355.87422,   0.00058,275270821.84182,   0.00050,  -0.00045,  -0.00030,  -0.00000,   2.00000
323592988.55336,-186589127.26605,-93065022.94045,   0.00234,  -0.00194,  -0.00151,477024723.66922,   0.00058,275279026.95480,   0.00050,  -0.00046,  -0.00030,   0.00000,   2.00000
324404562.07367,-185393873.31706,-93356133.32687,   0.00235,  -0.00194,  -0.00152,477028002.93754,   0.00059,275287207.20372,   0.00051,  -0.00047,  -0.00031,   0.00000,   2.00000
325212568.52868,-184197031.46640,-93649483.25305,   0.00236,  -0.00194,  -0.00153,477019173.58455,   0.00060,275295306.08801,   0.00052,  -0.00047,  -0.00031,  -0.00000,   2.00000
326030501.40610,-182984326.85995,-93942678.01073,   0.00236,  -0.00194,  -0.00154,477022495.68347,   0.00061,275303380.81544,   0.00052,  -0.00048,  -0.00032,  -0.00000,   2.00000
326844097.53250,-181774170.96673,-94234216.27474,   0.00237,  -0.00195,  -0.00155,477033429.98761,   0.00061,275311467.07981,   0.00053,  -0.00048,  -0.00032,  -0.00000,   2.00000
327655800.64985,-180568060.90683,-94518695.59043,   0.00238,  -0.00195,  -0.00156,477040682.37783,   0.00062,275319547.60531,   0.00054,  -0.00049,  -0.00033,   0.00000,   2.00000
328478153.58672,-179341690.93820,-94806956.42389,   0.00239,  -0.00195,  -0.00156,477024368.69164,   0.00063,275327512.30273,   0.00054,  -0.00049,  -0.00033,   0.00000,   2.00000
329293699.60579,-178116393.14530,-95098978.29254,   0.00240,  -0.00195,  -0.00157,477038917.56853,   0.00064,275335505.91479,   0.00055,  -0.00050,  -0.00034,  -0.00000,   2.00000
330107360.82226,-176895136.26044,-95383946.37578,   0.00240,  -0.00195,  -0.00158,477046095.05865,   0.00064,275343493.85840,   0.00056,  -0.00050,  -0.00034,   0.00000,   2.00000
330920024.54930,-175673436.79649,-95665844.08929,   0.00241,  -0.00195,  -0.00159,477033525.73247,   0.00065,275351383.96443,   0.00056,  -0.00051,  -0.00034,  -0.00000,   2.00000
331739989.04716,-174434193.86398,-95952989.50615,   0.00242,  -0.00195,  -0.00160,477040692.91223,   0.00066,275359268.83714,   0.00057,  -0.00051,  -0.00035,  -0.00000,   2.00000
332572148.40949,-173180328.80058,-96234572.88786,   0.00243,  -0.00196,  -0.00160,477040511.10352,   0.00067,275367114.18585,   0.00058,  -0.00052,  -0.00035,  -0.00000,   2.00000
333384217.64978,-171941637.50324,-96522421.26848,   0.00243,  -0.00196,  -0.00161,477042636.50099,   0.00067,275374930.98425,   0.00058,  -0.00052,  -0.00036,   0.00000,   2.00000
334194482.79130,-170706954.95773,-96803257.58143,   0.00244,  -0.00196,  -0.00162,477049605.51609,   0.00068,275382741.96187,   0.00059,  -0.00053,  -0.00036,   0.00000,   2.00000
335031001.63664,-169438785.65521,-97080016.22066,   0.00245,  -0.00196,  -0.00163,477042270.61239,   0.00069,275390480.40988,   0.00059,  -0.00053,  -0.00037,   0.00000,   2.00000
335847473.39293,-168185750.52084,-97363079.72545,   0.00246,  -0.00196,  -0.00164,477044280.43483,   0.00069,275398190.27491,   0.00060,  -0.00054,  -0.00037,   0.00000,   2.00000
336662156.49736,-166936713.45334,-97639159.63630,   0.00246,  -0.00196,  -0.00164,477051143.44907,   0.00070,275405894.31484,   0.00061,  -0.00054,  -0.00038,   0.00000,   2.00000
337486465.74318,-165671395.22029,-97915082.54724,   0.00247,  -0.00196,  -0.00165,477054757.65001,   0.00071,275413577.39593,   0.00061,  -0.00055,  -0.00038,  -0.00000,   2.00000
338307372.58939,-164403723.69288,-98193423.41637,   0.00248,  -0.00196,  -0.00166,477045875.08347,   0.00072,275421181.40187,   0.00062,  -0.00055,  -0.00038,   0.00000,   2.00000
339137815.64019,-163119700.88622,-98471581.22874,   0.00249,  -0.00196,  -0.00167,477049551.68479,   0.00072,275428765.21084,   0.00063,  -0.00056,  -0.00039,  -0.00000,   2.00000
339966424.74478,-161839681.83914,-98742773.68608,   0.00250,  -0.00196,  -0.00168,477056345.16717,   0.00073,275436343.42979,   0.00063,  -0.00056,  -0.00039,   0.00000,   2.00000
340790609.73221,-160562251.91301,-99012372.89796,   0.00250,  -0.00196,  -0.00168,477066928.86149,   0.00074,275443933.71994,   0.00064,  -0.00057,  -0.00040,   0.00000,   2.00000
341611446.92208,-159282281.60134,-99284440.44576,   0.00251,  -0.00196,  -0.00169,477058042.30637,   0.00074,275451445.39805,   0.00065,  -0.00057,  -0.00040,   0.00000,   2.00000
342428969.44291,-157999692.51625,-99558979.94206,   0.00252,  -0.00197,  -0.00170,477049110.48408,   0.00075,275458878.65400,   0.00065,  -0.00058,  -0.00041,  -0.00000,   2.00000
343271332.23776,-156688165.84580,-99825331.65512,   0.00252,  -0.00197,  -0.00171,477061718.33160,   0.00076,275466334.04307,   0.00066,  -0.00058,  -0.00041,   0.00000,   2.00000
344083788.97984,-155406856.42309,-100095452.25454,   0.00253,  -0.00197,  -0.00172,477046769.84057,   0.00076,275473683.33027,   0.00066,  -0.00059,  -0.00041,   0.00000,   2.00000
344918349.00166,-154095165.30719,-100362698.26626,   0.00254,  -0.00197,  -0.00172,477063284.97147,   0.00077,275481073.29927,   0.00067,  -0.00059,  -0.00042,   0.00000,   2.00000
345738504.65686,-152801224.22819,-100625745.87992,   0.00255,  -0.00197,  -0.00173,477057064.74135,   0.00078,275488398.07514,   0.00068,  -0.00060,  -0.00042,   0.00000,   2.00000
346568020.36582,-151490651.20553,-100888618.26977,   0.00255,  -0.00197,  -0.00174,477060886.80280,   0.00078,275495704.63291,   0.00068,  -0.00060,  -0.00043,   0.00000,   2.00000
347406801.22024,-150163437.95741,-101151295.13598,   0.00256,  -0.00197,  -0.00175,477064801.10349,   0.00079,275502993.46833,   0.00069,  -0.00061,  -0.00043,   0.00000,   2.00000
348228547.60686,-148852528.45033,-101415132.58168,   0.00257,  -0.00197,  -0.00175,477062357.00489,   0.00080,275510235.15167,   0.00069,  -0.00061,  -0.00044,   0.00000,   2.00000
349062305.56844,-147526270.41198,-101673469.42768,   0.00258,  -0.00197,  -0.00176,477062342.65309,   0.00080,275517441.18247,   0.00070,  -0.00062,  -0.00044,   0.00000,   2.00000
349879142.92899,-146216254.66316,-101933016.11750,   0.00258,  -0.00197,  -0.00177,477059743.32249,   0.00081,275524599.75559,   0.00071,  -0.00062,  -0.00045,   0.00000,   2.00000
350705230.72904,-144889446.14878,-102192367.48142,   0.00259,  -0.00197,  -0.00178,477063662.84162,   0.00082,275531741.34035,   0.00071,  -0.00063,  -0.00045,  -0.00000,   2.00000
351530903.06807,-143560795.46085,-102449019.51162,   0.00260,  -0.00197,  -0.00179,477050715.87804,   0.00082,275538787.77172,   0.00072,  -0.00063,  -0.00045,  -0.00000,   2.00000
352364476.64595,-142221099.56414,-102701315.85022,   0.00260,  -0.00197,  -0.00179,477073892.40498,   0.00083,275545907.04919,   0.00072,  -0.00063,  -0.00046,   0.00000,   2.00000
353182524.28703,-140891706.71557,-102959043.08561,   0.00261,  -0.00197,  -0.00180,477051940.18321,   0.00084,275552889.56246,   0.00073,  -0.00064,  -0.00046,   0.00000,   2.00000
354008427.76576,-139551302.93835,-103212387.76789,   0.00262,  -0.00197,  -0.00181,477075102.41036,   0.00084,275559945.11007,   0.00074,  -0.00064,  -0.00047,   0.00000,   2.00000
354834001.62938,-138208843.06430,-103463088.63214,   0.00263,  -0.00197,  -0.00182,477062139.11374,   0.00085,275566905.89913,   0.00074,  -0.00065,  -0.00047,  -0.00000,   2.00000
355659295.82712,-136864233.93703,-103711173.19046,   0.00263,  -0.00197,  -0.00182,477049091.64767,   0.00086,275573772.02596,   0.00075,  -0.00065,  -0.00048,   0.00000,   2.00000
356489434.37101,-135507372.10164,-103960120.37592,   0.00264,  -0.00197,  -0.00183,477076280.41293,   0.00086,275580730.29866,   0.00075,  -0.00066,  -0.00048,   0.00000,   2.00000
357307174.74473,-134161732.23014,-104209348.38864,   0.00265,  -0.00197,  -0.00184,477050147.29425,   0.00087,275587533.36880,   0.00076,  -0.00066,  -0.00048,   0.00000,   2.00000
358135484.34344,-132806481.49609,-104448910.61219,   0.00265,  -0.00197,  -0.00185,477069228.36253,   0.00087,275594391.29583,   0.00076,  -0.00066,  -0.00049,   0.00000,   2.00000
358957780.04033,-131446279.52894,-104696414.14181,   0.00266,  -0.00197,  -0.00185,477064269.78106,   0.00088,275601192.54498,   0.00077,  -0.00067,  -0.00049,   0.00000,   2.00000
359779911.17159,-130083626.40900,-104941355.71067,   0.00267,  -0.00197,  -0.00186,477051173.11370,   0.00089,275607899.75761,   0.00078,  -0.00067,  -0.00050,   0.00000,   2.00000
360600535.50681,-128724774.79391,-105179548.15909,   0.00267,  -0.00197,  -0.00187,477057003.31432,   0.00089,275614600.94290,   0.00078,  -0.00068,  -0.00050,  -0.00000,   2.00000
361427114.95239,-127347460.52730,-105422748.35707,   0.00268,  -0.00196,  -0.00188,477065263.84251,   0.00090,275621307.33802,   0.00079,  -0.00068,  -0.00050,   0.00000,   2.00000
362256526.36529,-125968782.01893,-105658194.30211,   0.00269,  -0.00196,  -0.00188,477048059.32999,   0.00091,275627901.21246,   0.00079,  -0.00068,  -0.00051,  -0.00000,   2.00000
363078484.14315,-124591375.48024,-105897370.33577,   0.00269,  -0.00196,  -0.00189,477062011.67590,   0.00091,275634527.10092,   0.00080,  -0.00069,  -0.00051,   0.00000,   2.00000
363887143.94678,-123231019.54049,-106132810.74540,   0.00270,  -0.00196,  -0.00190,477054407.84457,   0.00092,275641085.27663,   0.00080,  -0.00069,  -0.00052,   0.00000,   2.00000
364717889.02768,-121833486.92489,-106369254.50185,   0.00271,  -0.00196,  -0.00190,477053084.65668,   0.00092,275647605.04710,   0.00081,  -0.00070,  -0.00052,   0.00000,   2.00000
365547113.21947,-120439727.30948,-106598978.13502,   0.00271,  -0.00196,  -0.00191,477058786.34714,   0.00093,275654119.03050,   0.00081,  -0.00070,  -0.00053,   0.00000,   2.00000
366360128.09192,-119061694.54705,-106830244.07094,   0.00272,  -0.00196,  -0.00192,477055158.61382,   0.00094,275660584.21295,   0.00082,  -0.00070,  -0.00053,   0.00000,   2.00000
367173256.53948,-117680619.12977,-107059093.68193,   0.00273,  -0.00196,  -0.00193,477041852.94050,   0.00094,275666956.19311,   0.00083,  -0.00071,  -0.00053,   0.00000,   2.00000
367995111.67828,-116282072.85223,-107287692.54747,   0.00273,  -0.00196,  -0.00193,477046116.15820,   0.00095,275673316.45557,   0.00083,  -0.00071,  -0.00054,   0.00000,   2.00000
368812493.12588,-114886034.28526,-107514815.58956,   0.00274,  -0.00196,  -0.00194,477055773.81132,   0.00095,275679689.92105,   0.00084,  -0.00072,  -0.00054,  -0.00000,   2.00000
369630010.25435,-113486777.32396,-107739548.55555,   0.00274,  -0.00196,  -0.00195,477042479.20843,   0.00096,275685970.72318,   0.00084,  -0.00072,  -0.00055,   0.00000,   2.00000
370443082.72205,-112090011.01753,-107962822.83078,   0.00275,  -0.00196,  -0.00195,477052046.49113,   0.00097,275692264.67432,   0.00085,  -0.00072,  -0.00055,   0.00000,   2.00000
371256366.27856,-110689885.85207,-108183741.10914,   0.00276,  -0.00195,  -0.00196,477038690.53219,   0.00097,275698466.10920,   0.00085,  -0.00073,  -0.00055,   0.00000,   2.00000
372078218.90089,-109272147.96929,-108404383.90118,   0.00276,  -0.00195,  -0.00197,477043072.15431,   0.00098,275704657.15731,   0.00086,  -0.00073,  -0.00056,   0.00000,   2.00000
372884177.29393,-107869872.92793,-108626694.44929,   0.00277,  -0.00195,  -0.00197,477038992.80256,   0.00098,275710798.93579,   0.00086,  -0.00073,  -0.00056,   0.00000,   2.00000
373701805.77789,-106451076.63939,-108843540.34878,   0.00278,  -0.00195,  -0.00198,477039191.70044,   0.00099,275716911.35952,   0.00087,  -0.00074,  -0.00057,  -0.00000,   2.00000
374503642.34967,-105047670.81507,-109062094.92689,   0.00278,  -0.00195,  -0.00199,477034977.05711,   0.00099,275722974.28961,   0.00087,  -0.00074,  -0.00057,   0.00000,   2.00000
375317143.63113,-103627658.63771,-109275191.56884,   0.00279,  -0.00195,  -0.00199,477035167.87351,   0.00100,275729008.21420,   0.00088,  -0.00074,  -0.00057,   0.00000,   2.00000
376114954.05783,-102222963.85043,-109490037.08788,   0.00279,  -0.00195,  -0.00200,477030819.52513,   0.00100,275734992.42863,   0.00088,  -0.00075,  -0.00058,  -0.00000,   2.00000
376924421.77079,-100801578.21466,-109699430.44235,   0.00280,  -0.00195,  -0.00201,477031003.94740,   0.00101,275740947.99385,   0.00089,  -0.00075,  -0.00058,  -0.00000,   2.00000
377742255.99167,-99362377.53261,-109908515.56930,   0.00281,  -0.00194,  -0.00201,477035526.93981,   0.00102,275746894.96035,   0.00089,  -0.00076,  -0.00059,   0.00000,   2.00000
378547670.79178,-97939517.81423,-110114237.76288,   0.00281,  -0.00194,  -0.00202,477026813.62347,   0.00102,275752772.59614,   0.00090,  -0.00076,  -0.00059,   0.00000,   2.00000
379350324.97970,-96511511.29011,-110322876.33683,   0.00282,  -0.00194,  -0.00203,477017536.45826,   0.00103,275758578.66736,   0.00090,  -0.00076,  -0.00059,  -0.00000,   2.00000
380164521.13206,-95066656.20158,-110526047.52673,   0.00282,  -0.00194,  -0.00203,477017786.98566,   0.00103,275764357.24533,   0.00091,  -0.00077,  -0.00060,   0.00000,   2.00000
380963231.03912,-93636904.85722,-110731060.79859,   0.00283,  -0.00194,  -0.00204,477013117.74795,   0.00104,275770085.91405,   0.00091,  -0.00077,  -0.00060,   0.00000,   2.00000
381757563.75027,-92209548.51085,-110934676.83143,   0.00284,  -0.00194,  -0.00205,477022195.56211,   0.00104,275775827.97176,   0.00092,  -0.00077,  -0.00060,   0.00000,   2.00000
382552478.82779,-90777861.10436,-111136104.40980,   0.00284,  -0.00193,  -0.00205,477008575.36441,   0.00105,275781479.27624,   0.00092,  -0.00077,  -0.00061,  -0.00000,   2.00000
383358906.23606,-89329160.54014,-111332069.35451,   0.00285,  -0.00193,  -0.00206,477008827.96957,   0.00105,275787103.85344,   0.00093,  -0.00078,  -0.00061,   0.00000,   2.00000
384150040.41189,-87895411.44098,-111529950.86474,   0.00285,  -0.00193,  -0.00207,477003905.69771,   0.00106,275792678.14625,   0.00093,  -0.00078,  -0.00062,   0.00000,   2.00000
384949355.53358,-86443542.80858,-111727484.47104,   0.00286,  -0.00193,  -0.00207,477008500.48007,   0.00106,275798245.97396,   0.00094,  -0.00078,  -0.00062,   0.00000,   2.00000
385749276.45152,-84987068.35749,-111922856.60747,   0.00286,  -0.00193,  -0.00208,476994868.33062,   0.00107,275803723.91464,   0.00094,  -0.00079,  -0.00062,  -0.00000,   2.00000
386548119.36806,-83533958.40491,-112111738.01562,   0.00287,  -0.00192,  -0.00208,476999432.86359,   0.00107,275809195.70897,   0.00095,  -0.00079,  -0.00063,   0.00000,   2.00000
387331858.71231,-82095644.64616,-112302608.08477,   0.00287,  -0.00192,  -0.00209,476994263.19866,   0.00108,275814616.86702,   0.00095,  -0.00079,  -0.00063,   0.00000,   2.00000
388127049.97272,-80640075.59561,-112488015.56344,   0.00288,  -0.00192,  -0.00210,476994533.85533,   0.00108,275820012.50399,   0.00096,  -0.00080,  -0.00063,   0.00000,   2.00000
388919593.12848,-79178627.92229,-112676421.85860,   0.00289,  -0.00192,  -0.00210,476985164.26251,   0.00109,275825338.67320,   0.00096,  -0.00080,  -0.00064,   0.00000,   2.00000
389697159.23334,-77731843.53007,-112866852.69901,   0.00289,  -0.00192,  -0.00211,476979813.89304,   0.00109,275830614.11946,   0.00097,  -0.00080,  -0.00064,   0.00000,   2.00000
390486127.60871,-76267670.43972,-113051801.63247,   0.00290,  -0.00191,  -0.00212,476980100.42080,   0.00110,275835864.82939,   0.00097,  -0.00081,  -0.00065,  -0.00000,   2.00000
391263619.70157,-74819027.48698,-113233724.68801,   0.00290,  -0.00191,  -0.00212,476970235.32688,   0.00110,275841044.58668,   0.00097,  -0.00081,  -0.00065,   0.00000,   2.00000
392049074.40190,-73351970.50983,-113415261.60872,   0.00291,  -0.00191,  -0.00213,476974902.90616,   0.00111,275846220.07359,   0.00098,  -0.00081,  -0.00065,  -0.00000,   2.00000
392845805.97803,-71867434.39358,-113591303.05929,   0.00291,  -0.00191,  -0.00213,476975286.86585,   0.00111,275851371.73374,   0.00098,  -0.00081,  -0.00066,  -0.00000,   2.00000
393617303.26109,-70409559.32214,-113772891.28470,   0.00292,  -0.00190,  -0.00214,476955486.62263,   0.00112,275856407.65728,   0.00099,  -0.00082,  -0.00066,  -0.00000,   2.00000
394400126.10121,-68934075.87243,-113948989.41841,   0.00292,  -0.00190,  -0.00214,476955776.06184,   0.00112,275861420.02712,   0.00099,  -0.00082,  -0.00066,   0.00000,   2.00000
395178605.03175,-67460843.59270,-114123759.40500,   0.00293,  -0.00190,  -0.00215,476964264.57563,   0.00113,275866446.32764,   0.00100,  -0.00082,  -0.00067,   0.00000,   2.00000
395958012.96458,-65982050.58595,-114296506.14993,   0.00293,  -0.00190,  -0.00216,476950380.78333,   0.00113,275871384.54206,   0.00100,  -0.00082,  -0.00067,   0.00000,   2.00000
396722840.81102,-64517532.00118,-114471427.05449,   0.00294,  -0.00189,  -0.00216,476944477.20693,   0.00114,275876271.49290,   0.00101,  -0.00083,  -0.00067,   0.00000,   2.00000
397498925.26498,-63035254.10076,-114640846.11659,   0.00294,  -0.00189,  -0.00217,476944805.02895,   0.00114,275881135.78940,   0.00101,  -0.00083,  -0.00068,   0.00000,   2.00000
398264031.44033,-61568020.26412,-114807417.07843,   0.00295,  -0.00189,  -0.00217,476934333.84460,   0.00114,275885928.41688,   0.00101,  -0.00083,  -0.00068,  -0.00000,   2.00000
399036838.10093,-60082099.92740,-114973545.43602,   0.00295,  -0.00189,  -0.00218,476939113.10585,   0.00115,275890719.09962,   0.00102,  -0.00083,  -0.00068,  -0.00000,   2.00000
399810670.11170,-58590235.49523,-115137691.87266,   0.00296,  -0.00188,  -0.00218,476925139.48798,   0.00115,275895422.56172,   0.00102,  -0.00084,  -0.00069,   0.00000,   2.00000
400570128.70988,-57112412.29258,-115304089.23750,   0.00296,  -0.00188,  -0.00219,476918931.34451,   0.00116,275900074.57466,   0.00103,  -0.00084,  -0.00069,   0.00000,   2.00000
401340740.66877,-55616619.62869,-115464965.28196,   0.00296,  -0.00188,  -0.00219,476919287.52988,   0.00116,275904705.20625,   0.00103,  -0.00084,  -0.00069,  -0.00000,   2.00000
402107037.25176,-54122989.74860,-115624546.08468,   0.00297,  -0.00187,  -0.00220,476927455.20220,   0.00117,275909350.03800,   0.00103,  -0.00084,  -0.00070,   0.00000,   2.00000
402852737.32644,-52655846.34444,-115784974.91757,   0.00297,  -0.00187,  -0.00221,476902120.60622,   0.00117,275913856.92344,   0.00104,  -0.00085,  -0.00070,   0.00000,   2.00000
403621335.82739,-51149612.63697,-115940667.18402,   0.00298,  -0.00187,  -0.00221,476899276.91231,   0.00117,275918328.61197,   0.00104,  -0.00085,  -0.00070,  -0.00000,   2.00000
404385618.46742,-49645495.55662,-116095072.34290,   0.00298,  -0.00187,  -0.00222,476907325.55818,   0.00118,275922814.69167,   0.00105,  -0.00085,  -0.00071,   0.00000,   2.00000
405129569.35052,-48167569.59910,-116250411.57554,   0.00299,  -0.00186,  -0.00222,476881722.28593,   0.00118,275927162.52177,   0.00105,  -0.00085,  -0.00071,  -0.00000,   2.00000
405890773.48534,-46659040.65513,-116401611.73063,   0.00299,  -0.00186,  -0.00223,476901134.04789,   0.00119,275931576.82323,   0.00105,  -0.00086,  -0.00071,   0.00000,   2.00000
406631823.62812,-45176521.54207,-116553802.13714,   0.00300,  -0.00186,  -0.00223,476875375.02582,   0.00119,275935852.61405,   0.00106,  -0.00086,  -0.00072,   0.00000,   2.00000
407380270.86272,-43674968.38657,-116705467.26836,   0.00300,  -0.00185,  -0.00224,476880240.49172,   0.00119,275940129.29567,   0.00106,  -0.00086,  -0.00072,   0.00000,   2.00000
408133649.54873,-42167314.28336,-116850215.51980,   0.00300,  -0.00185,  -0.00224,476861515.74965,   0.00120,275944300.05941,   0.00106,  -0.00086,  -0.00072,   0.00000,   2.00000
408879121.75221,-40660979.25350,-116998722.51023,   0.00301,  -0.00185,  -0.00225,476873795.36725,   0.00120,275948505.75723,   0.00107,  -0.00086,  -0.00072,   0.00000,   2.00000
409618144.26912,-39169485.66440,-117139646.03852,   0.00301,  -0.00184,  -0.00225,476857774.05815,   0.00121,275952618.20229,   0.00107,  -0.00087,  -0.00073,   0.00000,   2.00000
410375810.05078,-37637733.77354,-117280688.69300,   0.00302,  -0.00184,  -0.00226,476860034.27945,   0.00121,275956720.49583,   0.00108,  -0.00087,  -0.00073,  -0.00000,   2.00000
411098771.46553,-36151864.70497,-117427224.29955,   0.00302,  -0.00184,  -0.00226,476840942.27443,   0.00121,275960716.24516,   0.00108,  -0.00087,  -0.00073,   0.00000,   2.00000
411832692.65702,-34647425.04220,-117568188.10272,   0.00302,  -0.00183,  -0.00226,476841281.77072,   0.00122,275964693.76753,   0.00108,  -0.00087,  -0.00074,   0.00000,   2.00000
412577463.51189,-33124408.61429,-117703561.08454,   0.00303,  -0.00183,  -0.00227,476841724.67036,   0.00122,275968653.59634,   0.00109,  -0.00087,  -0.00074,  -0.00000,   2.00000
413308593.73758,-31614609.98335,-117841435.61896,   0.00303,  -0.00183,  -0.00227,476834504.49323,   0.00122,275972561.24879,   0.00109,  -0.00088,  -0.00074,   0.00000,   2.00000
414041151.48653,-30097372.28712,-117977457.35777,   0.00304,  -0.00182,  -0.00228,476820164.36802,   0.00123,275976384.87132,   0.00109,  -0.00088,  -0.00074,   0.00000,   2.00000
414763975.53855,-28593809.35117,-118111029.64289,   0.00304,  -0.00182,  -0.00228,476808160.35608,   0.00123,275980135.45729,   0.00110,  -0.00088,  -0.00075,   0.00000,   2.00000
415493831.95728,-27070889.53746,-118243982.76945,   0.00304,  -0.00182,  -0.00229,476813140.45506,   0.00124,275983889.92365,   0.00110,  -0.00088,  -0.00075,   0.00000,   2.00000
416225126.64368,-25540292.60720,-118375087.76125,   0.00305,  -0.00181,  -0.00229,476798781.59994,   0.00124,275987561.10682,   0.00110,  -0.00088,  -0.00075,  -0.00000,   2.00000
416944979.94409,-24033377.22734,-118499425.59621,   0.00305,  -0.00181,  -0.00230,476803721.97457,   0.00124,275991236.37675,   0.00111,  -0.00089,  -0.00076,   0.00000,   2.00000
417673584.28710,-22496805.28525,-118627479.25562,   0.00305,  -0.00180,  -0.00230,476791699.31285,   0.00125,275994839.32224,   0.00111,  -0.00089,  -0.00076,   0.00000,   2.00000
418392668.49392,-20973594.85701,-118753150.77973,   0.00306,  -0.00180,  -0.00230,476779430.28438,   0.00125,275998369.23162,   0.00111,  -0.00089,  -0.00076,   0.00000,   2.00000
419098536.07592,-19463124.54906,-118881446.17141,   0.00306,  -0.00180,  -0.00231,476771612.71251,   0.00125,276001846.52540,   0.00112,  -0.00089,  -0.00076,   0.00000,   2.00000
419815077.92583,-17933646.91687,-119004093.81835,   0.00306,  -0.00179,  -0.00231,476772044.88090,   0.00126,276005308.54192,   0.00112,  -0.00089,  -0.00077,   0.00000,   2.00000
420533159.25029,-16396004.90107,-119124921.39016,   0.00307,  -0.00179,  -0.00232,476757577.00577,   0.00126,276008688.40233,   0.00112,  -0.00089,  -0.00077,   0.00000,   2.00000
421236287.94827,-14881457.27398,-119244054.57861,   0.00307,  -0.00178,  -0.00232,476766540.59021,   0.00126,276012091.79330,   0.00113,  -0.00090,  -0.00077,   0.00000,   2.00000
421946745.62379,-13348496.28189,-119360781.37375,   0.00307,  -0.00178,  -0.00233,476730468.20732,   0.00126,276015316.40387,   0.00113,  -0.00090,  -0.00077,   0.00000,   2.00000
422649235.87397,-11816768.86235,-119481273.98155,   0.00308,  -0.00178,  -0.00233,476741997.89836,   0.00127,276018576.77840,   0.00113,  -0.00090,  -0.00078,  -0.00000,   2.00000
423355415.28147,-10287666.19312,-119590664.49101,   0.00308,  -0.00177,  -0.00233,476739642.98124,   0.00127,276021810.44309,   0.00113,  -0.00090,  -0.00078,  -0.00000,   2.00000
424050500.40827,-8760204.30391,-119707119.56853,   0.00308,  -0.00177,  -0.00234,476714604.28611,   0.00127,276024915.86143,   0.00114,  -0.00090,  -0.00078,   0.00000,   2.00000
424752150.34794,-7213018.64031,-119822816.68265,   0.00309,  -0.00176,  -0.00234,476719725.24911,   0.00128,276028028.83272,   0.00114,  -0.00090,  -0.00078,  -0.00000,   2.00000
425457514.58713,-5668338.75572,-119927420.69515,   0.00309,  -0.00176,  -0.00234,476717269.88709,   0.00128,276031115.37538,   0.00114,  -0.00090,  -0.00079,   0.00000,   2.00000
426137403.41513,-4145978.21897,-120043650.73699,   0.00309,  -0.00176,  -0.00235,476698382.81830,   0.00128,276034102.10238,   0.00114,  -0.00091,  -0.00079,   0.00000,   2.00000
426831666.25423,-2604590.20540,-120149214.51196,   0.00309,  -0.00175,  -0.00235,476694198.97014,   0.00128,276037055.31010,   0.00115,  -0.00091,  -0.00079,   0.00000,   2.00000
427523654.40984,-1053840.46496,-120257925.47115,   0.00310,  -0.00175,  -0.00236,476684224.11065,   0.00129,276039949.27137,   0.00115,  -0.00091,  -0.00079,  -0.00000,   2.00000
428215512.71423,494950.35570,-120360511.90471,   0.00310,  -0.00174,  -0.00236,476686205.16634,   0.00129,276042837.73892,   0.00115,  -0.00091,  -0.00079,  -0.00000,   2.00000
428890125.90753,2021094.24845,-120464933.83467,   0.00310,  -0.00174,  -0.00236,476657659.27906,   0.00129,276045584.37992,   0.00116,  -0.00091,  -0.00080,   0.00000,   2.00000
429571100.65692,3567163.65639,-120568538.64757,   0.00311,  -0.00173,  -0.00237,476662783.54759,   0.00130,276048340.29002,   0.00116,  -0.00091,  -0.00080,   0.00000,   2.00000
430262286.72618,5132813.80759,-120666359.24794,   0.00311,  -0.00173,  -0.00237,476663381.92184,   0.00130,276051085.19222,   0.00116,  -0.00091,  -0.00080,  -0.00000,   2.00000
430936434.53930,6676156.30767,-120766070.67800,   0.00311,  -0.00172,  -0.00237,476634648.85848,   0.00130,276053688.31871,   0.00116,  -0.00091,  -0.00080,   0.00000,   2.00000
431606594.67480,8218025.41346,-120864624.91207,   0.00311,  -0.00172,  -0.00238,476640977.59320,   0.00130,276056306.76447,   0.00116,  -0.00092,  -0.00080,   0.00000,   2.00000
432278533.34744,9769460.58110,-120961399.68982,   0.00311,  -0.00172,  -0.00238,476626222.61879,   0.00130,276058846.47407,   0.00117,  -0.00092,  -0.00081,   0.00000,   2.00000
432952227.26348,11330556.92530,-121056386.43468,   0.00312,  -0.00171,  -0.00238,476611467.61504,   0.00131,276061307.86441,   0.00117,  -0.00092,  -0.00081,  -0.00000,   2.00000
433611841.96652,12868738.92841,-121149955.35834,   0.00312,  -0.00171,  -0.00239,476618688.45334,   0.00131,276063789.20755,   0.00117,  -0.00092,  -0.00081,   0.00000,   2.00000
434283283.92638,14438217.46471,-121241988.53810,   0.00312,  -0.00170,  -0.00239,476602980.67625,   0.00131,276066188.34027,   0.00117,  -0.00092,  -0.00081,   0.00000,   2.00000
434946482.14701,15996095.98083,-121331993.80488,   0.00312,  -0.00170,  -0.00239,476589108.10431,   0.00131,276068513.87772,   0.00118,  -0.00092,  -0.00081,  -0.00000,   2.00000
435601554.35976,17542477.29188,-121420003.19177,   0.00313,  -0.00169,  -0.00239,476575085.53629,   0.00132,276070765.55885,   0.00118,  -0.00092,  -0.00082,  -0.00000,   2.00000
436262561.53524,19109023.11162,-121507068.91692,   0.00313,  -0.00169,  -0.00240,476580351.77913,   0.00132,276073029.46166,   0.00118,  -0.00092,  -0.00082,   0.00000,   2.00000
436911416.56873,20664376.44109,-121597058.99724,   0.00313,  -0.00168,  -0.00240,476570986.86806,   0.00132,276075240.55420,   0.00118,  -0.00092,  -0.00082,  -0.00000,   2.00000
437566181.55081,22229792.59480,-121680353.72558,   0.00313,  -0.00168,  -0.00240,476551435.98957,   0.00132,276077353.90557,   0.00118,  -0.00092,  -0.00082,   0.00000,   2.00000
438208906.13726,23784181.81156,-121766602.42116,   0.00313,  -0.00167,  -0.00241,476541883.79532,   0.00132,276079414.40795,   0.00119,  -0.00093,  -0.00082,   0.00000,   2.00000
438861497.85315,25358682.62965,-121846947.65358,   0.00313,  -0.00167,  -0.00241,476542496.70216,   0.00133,276081467.39573,   0.00119,  -0.00093,  -0.00082,   0.00000,   2.00000
439494107.66103,26912619.28736,-121934381.87198,   0.00314,  -0.00166,  -0.00241,476517350.07161,   0.00133,276083398.78078,   0.00119,  -0.00093,  -0.00083,   0.00000,   2.00000
440131083.80050,28465127.84977,-122010887.35292,   0.00314,  -0.00166,  -0.00241,476513621.42031,   0.00133,276085304.07670,   0.00119,  -0.00093,  -0.00083,   0.00000,   2.00000
440783256.72231,30059488.04803,-122086458.02065,   0.00314,  -0.00165,  -0.00242,476518599.44782,   0.00133,276087221.93240,   0.00119,  -0.00093,  -0.00083,   0.00000,   2.00000
441406100.70419,31612068.05947,-122169072.46084,   0.00314,  -0.00165,  -0.00242,476493619.82775,   0.00133,276089019.76932,   0.00119,  -0.00093,  -0.00083,   0.98875,   1.00000
442042842.43933,33184888.59399,-122240845.24259,   0.00314,  -0.00164,  -0.00242,476489489.26305,   0.00133,276090790.41617,   0.00120,  -0.00093,  -0.00083,   0.96672,   1.00000
442677226.79207,34768672.34086,-122315695.61907,   0.00314,  -0.00164,  -0.00242,476479325.76499,   0.00134,276092507.35284,   0.00120,  -0.00093,  -0.00083,   0.91619,   1.00000
443290488.64238,36320411.57030,-122393525.36297,   0.00315,  -0.00163,  -0.00243,476469493.77728,   0.00134,276094172.35493,   0.00120,  -0.00093,  -0.00083,   0.86825,   1.00000
443926894.69391,37914068.76967,-122460513.31412,   0.00315,  -0.00163,  -0.00243,476465287.76780,   0.00134,276095810.51085,   0.00120,  -0.00093,  -0.00084,   0.84711,   1.00000
444543877.68702,39488070.80307,-122534728.01444,   0.00315,  -0.00162,  -0.00243,476439563.41640,   0.00134,276097327.04530,   0.00120,  -0.00093,  -0.00084,   0.73159,   1.00000
445161144.89330,41061029.15753,-122602918.64267,   0.00315,  -0.00161,  -0.00243,476440249.45757,   0.00134,276098839.07572,   0.00120,  -0.00093,  -0.00084,   0.73281,   1.00000
445776036.39322,42645301.07043,-122674164.51339,   0.00315,  -0.00161,  -0.00243,476430034.25859,   0.00134,276100298.57787,   0.00120,  -0.00093,  -0.00084,   0.68799,   1.00000
446383597.00446,44219445.47210,-122743600.91981,   0.00315,  -0.00160,  -0.00244,476414979.43761,   0.00134,276101684.52782,   0.00121,  -0.00093,  -0.00084,   0.62506,   1.00000
446991486.19334,45792639.08563,-122807023.91835,   0.00315,  -0.00160,  -0.00244,476415535.72831,   0.00135,276103066.04496,   0.00121,  -0.00093,  -0.00084,   0.62570,   1.00000
447601217.39069,47377401.87142,-122868616.72523,   0.00315,  -0.00159,  -0.00244,476400544.84849,   0.00135,276104374.74628,   0.00121,  -0.00094,  -0.00084,   0.56566,   1.00000
448201012.01092,48964774.16272,-122937480.52918,   0.00315,  -0.00159,  -0.00244,476374565.81629,   0.00135,276105562.72036,   0.00121,  -0.00094,  -0.00084,   0.46956,   1.00000
448801129.37104,50551327.72474,-123000321.43815,   0.00315,  -0.00158,  -0.00244,476375001.59242,   0.00135,276106746.70674,   0.00121,  -0.00094,  -0.00084,   0.46982,   1.00000
449401581.09875,52137067.21541,-123057146.39632,   0.00315,  -0.00158,  -0.00244,476375421.49159,   0.00135,276107926.65265,   0.00121,  -0.00094,  -0.00084,   0.47001,   1.00000
449992168.74215,53725752.73546,-123121250.46104,   0.00316,  -0.00157,  -0.00245,476349395.39419,   0.00135,276108986.50110,   0.00121,  -0.00094,  -0.00085,   0.38194,   1.00000
450583113.39038,55313711.82825,-123179338.91623,   0.00316,  -0.00156,  -0.00245,476349712.49619,   0.00135,276110042.47331,   0.00121,  -0.00094,  -0.00085,   0.38186,   1.00000
451167113.21327,56892221.80230,-123235707.69654,   0.00316,  -0.00156,  -0.00245,476334151.94297,   0.00135,276111024.98195,   0.00121,  -0.00094,  -0.00085,   0.33291,   1.00000
451752944.23884,58482912.72749,-123290214.13461,   0.00316,  -0.00155,  -0.00245,476319075.98974,   0.00135,276111936.55119,   0.00122,  -0.00094,  -0.00085,   0.28859,   1.00000
452336247.23147,60085692.78509,-123347696.98581,   0.00316,  -0.00155,  -0.00245,476308818.71835,   0.00135,276112798.67043,   0.00122,  -0.00094,  -0.00085,   0.25994,   1.00000
452919898.00868,61687882.44661,-123399156.60372,   0.00316,  -0.00154,  -0.00245,476309016.76187,   0.00136,276113657.36671,   0.00122,  -0.00094,  -0.00085,   0.25968,   1.00000
453485230.49410,63272219.35911,-123458097.56644,   0.00316,  -0.00154,  -0.00246,476282142.31147,   0.00136,276114394.25816,   0.00122,  -0.00094,  -0.00085,   0.19254,   1.00000
454063833.16628,64877801.38799,-123505961.77659,   0.00316,  -0.00153,  -0.00246,476278180.10115,   0.00136,276115110.16331,   0.00122,  -0.00094,  -0.00085,   0.18297,   1.00000
454631368.06854,66474231.19311,-123557000.16178,   0.00316,  -0.00152,  -0.00246,476267085.32184,   0.00136,276115774.04246,   0.00122,  -0.00094,  -0.00085,   0.15841,   1.00000
455192258.21696,68061845.63408,-123606379.81567,   0.00316,  -0.00152,  -0.00246,476251092.43910,   0.00136,276116364.80209,   0.00122,  -0.00094,  -0.00085,   0.12627,   1.00000
455750567.82078,69661970.84910,-123658700.08318,   0.00316,  -0.00151,  -0.00246,476240772.02400,   0.00136,276116907.59535,   0.00122,  -0.00094,  -0.00085,   0.10731,   1.00000
456317590.52389,71283226.71529,-123704724.31483,   0.00316,  -0.00151,  -0.00246,476241719.46893,   0.00136,276117451.81520,   0.00122,  -0.00094,  -0.00085,   0.10859,   1.00000
456869759.87380,72874420.23410,-123749387.61272,   0.00316,  -0.00150,  -0.00246,476224583.31971,   0.00136,276117918.65597,   0.00122,  -0.00094,  -0.00085,   0.08043,   1.00000
457416714.81442,74470454.38856,-123796495.37636,   0.00316,  -0.00149,  -0.00246,476193461.12263,   0.00136,276118247.63963,   0.00122,  -0.00094,  -0.00085,   0.04020,   1.00000
457974830.14129,76095543.32088,-123837735.72697,   0.00316,  -0.00149,  -0.00246,476215199.60790,   0.00136,276118669.59396,   0.00122,  -0.00094,  -0.00085,   0.06656,   1.00000
458519541.11931,77704227.86192,-123881723.46754,   0.00316,  -0.00148,  -0.00246,476182985.26490,   0.00136,276118949.33244,   0.00122,  -0.00094,  -0.00085,   0.02944,   1.00000
459057867.30483,79304738.76023,-123924100.80939,   0.00316,  -0.00147,  -0.00246,476166601.26429,   0.00136,276119156.46257,   0.00122,  -0.00094,  -0.00085,   0.01624,   1.00000
459600268.30636,80926207.24294,-123964941.60801,   0.00316,  -0.00147,  -0.00247,476172379.87828,   0.00136,276119387.66277,   0.00122,  -0.00094,  -0.00085,   0.02037,   1.00000
460129512.73973,82531730.49688,-124008583.01423,   0.00315,  -0.00146,  -0.00247,476139893.00282,   0.00136,276119476.68050,   0.00122,  -0.00094,  -0.00085,   0.00304,   1.00000
460659273.00428,84137238.63616,-124046223.65828,   0.00315,  -0.00146,  -0.00247,476139393.74529,   0.00136,276119563.08928,   0.00122,  -0.00094,  -0.00085,   0.00288,   1.00000
461186208.72514,85755918.13124,-124086700.89615,   0.00315,  -0.00145,  -0.00247,476129134.23848,   0.00136,276119604.58623,   0.00122,  -0.00094,  -0.00085,   0.00067,   1.00000
461700394.24143,87366211.69422,-124123648.35840,   0.00315,  -0.00144,  -0.00247,476112523.30861,   0.00136,276119604.58623,   0.00122,  -0.00094,  -0.00085,-7081.27763,   0.00000
462223816.62328,88998057.94351,-124154437.91028,   0.00315,  -0.00144,  -0.00247,476106566.13330,   0.00136,276119604.58623,   0.00122,  -0.00094,  -0.00085,-13038.45293,   0.00000
462704133.63250,90611430.46168,-124179069.55177,   0.00315,  -0.00143,  -0.00247,476067838.78580,   0.00136,276119604.58623,   0.00122,  -0.00094,  -0.00085,-51765.80044,   0.00000
463184450.64173,92224802.97985,-124203701.19327,   0.00315,  -0.00142,  -0.00247,476033436.92173,   0.00136,276119604.58623,   0.00122,  -0.00094,  -0.00085,-86167.66451,   0.00000
463630899.14390,93841254.45321,-124222174.92440,   0.00315,  -0.00142,  -0.00247,475967995.48734,   0.00136,276119604.58623,   0.00122,  -0.00094,  -0.00085,-151609.09889,   0.00000
464077347.64606,95457705.92657,-124234490.74515,   0.00315,  -0.00141,  -0.00247,475902117.36481,   0.00136,276119604.58623,   0.00122,  -0.00094,  -0.00085,-217487.22143,   0.00000
464502243.46192,97064920.53436,-124246806.56590,   0.00315,  -0.00140,  -0.00247,475824407.16645,   0.00136,276119604.58623,   0.00122,  -0.00094,  -0.00085,-295197.41979,   0.00000
464914823.45702,98684450.96291,-124252964.47627,   0.00315,  -0.00140,  -0.00247,475732012.14336,   0.00136,276119604.58623,   0.00122,  -0.00094,  -0.00085,-387592.44287,   0.00000
465327403.45212,100303981.39145,-124252964.47627,   0.00314,  -0.00139,  -0.00247,475639240.82555,   0.00136,276119604.58623,   0.00122,  -0.00094,  -0.00085,-480363.76069,   0.00000
465706114.94017,101926590.77518,-124252964.47627,   0.00314,  -0.00139,  -0.00247,475520531.99009,   0.00136,276119604.58623,   0.00122,  -0.00094,  -0.00085,-599072.59615,   0.00000
466084826.42821,103549200.15891,-124240648.65552,   0.00314,  -0.00138,  -0.00247,475396684.49870,   0.00136,276119604.58623,   0.00122,  -0.00094,  -0.00085,-722920.08754,   0.00000
466441985.22994,105162572.67708,-124234490.74515,   0.00314,  -0.00137,  -0.00247,475265903.65610,   0.00136,276119604.58623,   0.00122,  -0.00094,  -0.00085,-853700.93014,   0.00000
466777591.34536,106766708.32969,-124216017.01402,   0.00314,  -0.00137,  -0.00247,475113670.07087,   0.00136,276119604.58623,   0.00122,  -0.00094,  -0.00085,-1005934.51536,   0.00000
467100881.64004,108383159.80305,-124197543.28290,   0.00314,  -0.00136,  -0.00247,474951958.34040,   0.00136,276119604.58623,   0.00122,  -0.00094,  -0.00085,-1167646.24584,   0.00000
467411856.11396,110011927.09715,-124172911.64140,   0.00313,  -0.00135,  -0.00247,474776078.01666,   0.00136,276119604.58623,   0.00122,  -0.00094,  -0.00085,-1343526.56958,   0.00000
467692041.03601,111609904.83939,-124142122.08953,   0.00313,  -0.00134,  -0.00247,474581237.87523,   0.00136,276119604.58623,   0.00122,  -0.00094,  -0.00085,-1538366.71100,   0.00000
467959910.13731,113220198.40237,-124111332.53765,   0.00313,  -0.00134,  -0.00247,474377113.21764,   0.00136,276119604.58623,   0.00122,  -0.00094,  -0.00085,-1742491.36859,   0.00000
468227779.23860,114830491.96535,-124074385.07540,   0.00313,  -0.00133,  -0.00247,474172782.84337,   0.00136,276119604.58623,   0.00122,  -0.00094,  -0.00085,-1946821.74286,   0.00000
468483332.51915,116453101.34908,-124031279.70278,   0.00313,  -0.00132,  -0.00247,473954529.14177,   0.00136,276119604.58623,   0.00122,  -0.00094,  -0.00085,-2165075.44447,   0.00000
468695780.42708,118057237.00169,-123988174.33016,   0.00312,  -0.00132,  -0.00247,473708263.69004,   0.00136,276119604.58623,   0.00122,  -0.00094,  -0.00085,-2411340.89620,   0.00000
468908228.33501,119661372.65430,-123938911.04716,   0.00312,  -0.00131,  -0.00247,473461856.40344,   0.00136,276119604.58623,   0.00122,  -0.00094,  -0.00085,-2657748.18279,   0.00000
469099123.55662,121256271.44134,-123883489.85379,   0.00312,  -0.00130,  -0.00246,473198919.69618,   0.00136,276119604.58623,   0.00122,  -0.00094,  -0.00085,-2920684.89005,   0.00000
469299255.64380,122872722.91470,-123828068.66042,   0.00312,  -0.00130,  -0.00246,472943539.70216,   0.00136,276119604.58623,   0.00122,  -0.00094,  -0.00085,-3176064.88407,   0.00000
469456282.35836,124470700.65693,-123766489.55667,   0.00312,  -0.00129,  -0.00246,472655303.35156,   0.00136,276119604.58623,   0.00122,  -0.00094,  -0.00085,-3464301.23467,   0.00000
469600993.25216,126080994.21992,-123698752.54255,   0.00311,  -0.00128,  -0.00246,472353568.83669,   0.00136,276119604.58623,   0.00122,  -0.00094,  -0.00085,-3766035.74955,   0.00000
469745704.14597,127691287.78290,-123631015.52843,   0.00311,  -0.00128,  -0.00246,472056714.44026,   0.00136,276119604.58623,   0.00122,  -0.00094,  -0.00085,-4062890.14598,   0.00000
469868862.35346,129292344.48032,-123557120.60393,   0.00311,  -0.00127,  -0.00246,471743465.76755,   0.00136,276119604.58623,   0.00122,  -0.00094,  -0.00085,-4376138.81869,   0.00000
469948915.18833,130874927.44662,-123477067.76906,   0.00311,  -0.00126,  -0.00246,471397346.34010,   0.00136,276119604.58623,   0.00122,  -0.00094,  -0.00085,-4722258.24613,   0.00000
470038204.88876,132479063.09922,-123397014.93419,   0.00310,  -0.00125,  -0.00246,471059301.03778,   0.00136,276119604.58623,   0.00122,  -0.00094,  -0.00085,-5060303.54846,   0.00000
470105941.90289,134073961.88627,-123310804.18894,   0.00310,  -0.00125,  -0.00246,470704919.26498,   0.00136,276119604.58623,   0.00122,  -0.00094,  -0.00085,-5414685.32125,   0.00000
470152126.23070,135659623.80775,-123218435.53332,   0.00310,  -0.00124,  -0.00246,470334182.59773,   0.00136,276119604.58623,   0.00122,  -0.00094,  -0.00085,-5785421.98851,   0.00000
470198310.55851,137245285.72924,-123126066.87770,   0.00309,  -0.00123,  -0.00245,469968406.66079,   0.00136,276119604.58623,   0.00122,  -0.00094,  -0.00085,-6151197.92544,   0.00000
470210626.37926,138834026.60591,-123027540.31171,   0.00309,  -0.00123,  -0.00245,469573223.80637,   0.00136,276119604.58623,   0.00122,  -0.00094,  -0.00085,-6546380.77986,   0.00000
470201389.51369,140413530.61702,-122922855.83534,   0.00309,  -0.00122,  -0.00245,469161757.32731,   0.00136,276119604.58623,   0.00122,  -0.00094,  -0.00085,-6957847.25893,   0.00000
470201389.51369,142014587.31444,-122818171.35897,   0.00308,  -0.00121,  -0.00245,468758939.19169,   0.00136,276119604.58623,   0.00122,  -0.00094,  -0.00085,-7360665.39454,   0.00000
470170599.96182,143584854.45998,-122701171.06185,   0.00308,  -0.00120,  -0.00245,468331462.18434,   0.00136,276119604.58623,   0.00122,  -0.00094,  -0.00085,-7788142.40190,   0.00000
470127494.58920,145167437.42628,-122590328.67510,   0.00308,  -0.00120,  -0.00245,467901066.95592,   0.00136,276119604.58623,   0.00122,  -0.00094,  -0.00085,-8218537.63031,   0.00000
470041283.84395,146731546.66145,-122473328.37798,   0.00307,  -0.00119,  -0.00245,467437930.87652,   0.00136,276119604.58623,   0.00122,  -0.00094,  -0.00085,-8681673.70972,   0.00000
469964309.96427,148317208.58293,-122350170.17049,   0.00307,  -0.00118,  -0.00244,466978955.45384,   0.00136,276119604.58623,   0.00122,  -0.00094,  -0.00085,-9140649.13239,   0.00000
469887336.08458,149902870.50442,-122220854.05262,   0.00307,  -0.00118,  -0.00244,466520449.92844,   0.00136,276119604.58623,   0.00122,  -0.00094,  -0.00085,-9599154.65779,   0.00000
469758019.96672,151448506.00847,-122091537.93475,   0.00306,  -0.00117,  -0.00244,466030179.16398,   0.00136,276119604.58623,   0.00122,  -0.00094,  -0.00085,-10089425.42225,   0.00000
469625624.89366,153028010.01958,-121956063.90651,   0.00306,  -0.00116,  -0.00244,465531705.84434,   0.00136,276119604.58623,   0.00122,  -0.00094,  -0.00085,-10587898.74189,   0.00000
469483992.95504,154585961.34437,-121814431.96789,   0.00306,  -0.00115,  -0.00244,465029754.10828,   0.00136,276119604.58623,   0.00122,  -0.00094,  -0.00085,-11089850.47796,   0.00000
469308492.50936,156146991.62436,-121672800.02927,   0.00305,  -0.00115,  -0.00244,464504085.75872,   0.00136,276119604.58623,   0.00122,  -0.00094,  -0.00085,-11615518.82752,   0.00000
469132992.06368,157708021.90434,-121525010.18028,   0.00305,  -0.00114,  -0.00243,463979021.64336,   0.00136,276119604.58623,   0.00122,  -0.00094,  -0.00085,-12140582.94287,   0.00000
468935938.93169,159259815.31876,-121377220.33129,   0.00305,  -0.00113,  -0.00243,463442813.52997,   0.00136,276119604.58623,   0.00122,  -0.00094,  -0.00085,-12676791.05626,   0.00000
468717333.11339,160802371.86763,-121223272.57192,   0.00304,  -0.00112,  -0.00243,462890621.74365,   0.00136,276119604.58623,   0.00122,  -0.00094,  -0.00085,-13228982.84258,   0.00000
468486411.47434,162357244.23724,-121063166.90218,   0.00304,  -0.00112,  -0.00243,462326833.42415,   0.00136,276119604.58623,   0.00122,  -0.00094,  -0.00085,-13792771.16208,   0.00000
468233937.14898,163902879.74128,-120903061.23244,   0.00303,  -0.00111,  -0.00243,461752026.35216,   0.00136,276119604.58623,   0.00122,  -0.00094,  -0.00085,-14367578.23407,   0.00000
467959910.13731,165439278.37977,-120736797.65232,   0.00303,  -0.00110,  -0.00242,461161365.90652,   0.00136,276119604.58623,   0.00122,  -0.00094,  -0.00085,-14958238.67971,   0.00000
467664330.43932,166966440.15269,-120564376.16183,   0.00302,  -0.00109,  -0.00242,460554856.73321,   0.00136,276119604.58623,   0.00122,  -0.00094,  -0.00085,-15564747.85302,   0.00000
467377987.60690,168515154.61193,-120391954.67134,   0.00302,  -0.00109,  -0.00242,459958623.18074,   0.00136,276119604.58623,   0.00122,  -0.00094,  -0.00085,-16160981.40549,   0.00000
467039302.53629,170023842.65373,-120213375.27047,   0.00302,  -0.00108,  -0.00242,459325339.03383,   0.00136,276119604.58623,   0.00122,  -0.00094,  -0.00085,-16794265.55240,   0.00000
466709854.33124,171554083.38184,-120034795.86961,   0.00301,  -0.00107,  -0.00241,458702482.06019,   0.00136,276119604.58623,   0.00122,  -0.00094,  -0.00085,-17417122.52604,   0.00000
466346537.61914,173087403.06514,-119850058.55837,   0.00301,  -0.00106,  -0.00241,458052115.73969,   0.00136,276119604.58623,   0.00122,  -0.00094,  -0.00085,-18067488.84655,   0.00000
465973984.04147,174599170.06213,-119659163.33675,   0.00300,  -0.00106,  -0.00241,457397965.90828,   0.00136,276119604.58623,   0.00122,  -0.00094,  -0.00085,-18721638.67796,   0.00000
465579877.77749,176101700.19355,-119468268.11513,   0.00300,  -0.00105,  -0.00241,456732990.49787,   0.00136,276119604.58623,   0.00122,  -0.00094,  -0.00085,-19386614.08837,   0.00000
465173455.69276,177616546.14573,-119271214.98314,   0.00299,  -0.00104,  -0.00240,456057394.36799,   0.00136,276119604.58623,   0.00122,  -0.00094,  -0.00085,-20062210.21824,   0.00000
464745480.92172,179122155.23234,-119068003.94078,   0.00299,  -0.00103,  -0.00240,455366297.65758,   0.00136,276119604.58623,   0.00122,  -0.00094,  -0.00085,-20753306.92865,   0.00000
464295953.46436,180618527.45339,-118864792.89841,   0.00298,  -0.00102,  -0.00240,454664547.13103,   0.00136,276119604.58623,   0.00122,  -0.00094,  -0.00085,-21455057.45521,   0.00000
463855662.87257,182136452.36075,-118661581.85605,   0.00298,  -0.00102,  -0.00240,453974064.72198,   0.00136,276119604.58623,   0.00122,  -0.00094,  -0.00085,-22145539.86425,   0.00000
463363030.04260,183614350.85068,-118452212.90331,   0.00297,  -0.00101,  -0.00239,453246296.95583,   0.00136,276119604.58623,   0.00122,  -0.00094,  -0.00085,-22873307.63041,   0.00000
462879634.07818,185113802.02692,-118236686.04020,   0.00297,  -0.00100,  -0.00239,452525146.45871,   0.00136,276119604.58623,   0.00122,  -0.00094,  -0.00085,-23594458.12752,   0.00000
462343895.87559,186573226.78572,-118015001.26671,   0.00296,  -0.00099,  -0.00239,451766616.78394,   0.00136,276119604.58623,   0.00122,  -0.00094,  -0.00085,-24352987.80230,   0.00000
461817394.53855,188054204.23083,-117793316.49322,   0.00296,  -0.00099,  -0.00239,451019714.90033,   0.00136,276119604.58623,   0.00122,  -0.00094,  -0.00085,-25099889.68590,   0.00000
461269340.51520,189525944.81038,-117571631.71973,   0.00295,  -0.00098,  -0.00238,450262419.52678,   0.00136,276119604.58623,   0.00122,  -0.00094,  -0.00085,-25857185.05945,   0.00000
460708970.67110,191010001.21068,-117343789.03586,   0.00295,  -0.00097,  -0.00238,449495550.19995,   0.00136,276119604.58623,   0.00122,  -0.00094,  -0.00085,-26624054.38629,   0.00000
460117811.27513,192463268.05911,-117109788.44163,   0.00294,  -0.00096,  -0.00238,448707967.16898,   0.00136,276119604.58623,   0.00122,  -0.00094,  -0.00085,-27411637.41725,   0.00000
459514336.05841,193928850.72829,-116875787.84739,   0.00293,  -0.00095,  -0.00237,447915825.19248,   0.00136,276119604.58623,   0.00122,  -0.00094,  -0.00085,-28203779.39375,   0.00000
458889308.15538,195385196.53190,-116635629.34278,   0.00293,  -0.00095,  -0.00237,447108716.75619,   0.00136,276119604.58623,   0.00122,  -0.00094,  -0.00085,-29010887.83005,   0.00000
458233490.70048,196810752.78365,-116389312.92779,   0.00292,  -0.00094,  -0.00237,446280789.01828,   0.00136,276119604.58623,   0.00122,  -0.00094,  -0.00085,-29838815.56795,   0.00000
457586910.11113,198257861.72170,-116142996.51280,   0.00292,  -0.00093,  -0.00236,445465312.46098,   0.00136,276119604.58623,   0.00122,  -0.00094,  -0.00085,-30654292.12525,   0.00000
456897224.14917,199686496.92863,-115896680.09781,   0.00291,  -0.00092,  -0.00236,444623082.75343,   0.00136,276119604.58623,   0.00122,  -0.00094,  -0.00085,-31496521.83280,   0.00000
456216775.05277,201136684.82187,-115644205.77245,   0.00291,  -0.00092,  -0.00236,443788833.92066,   0.00136,276119604.58623,   0.00122,  -0.00094,  -0.00085,-32330770.66557,   0.00000
455483983.71818,202546846.29767,-115385573.53671,   0.00290,  -0.00091,  -0.00235,442917070.87093,   0.00136,276119604.58623,   0.00122,  -0.00094,  -0.00085,-33202533.71530,   0.00000
454760429.24915,203978560.45979,-115126941.30098,   0.00289,  -0.00090,  -0.00235,442058323.37572,   0.00136,276119604.58623,   0.00122,  -0.00094,  -0.00085,-34061281.21051,   0.00000
454006085.22825,205379485.07003,-114862151.15486,   0.00289,  -0.00089,  -0.00235,441178720.71627,   0.00136,276119604.58623,   0.00122,  -0.00094,  -0.00085,-34940883.86997,   0.00000
453239425.38660,206792725.50102,-114597361.00875,   0.00288,  -0.00088,  -0.00234,440295647.73594,   0.00136,276119604.58623,   0.00122,  -0.00094,  -0.00085,-35823956.85029,   0.00000
452451212.85864,208196729.06645,-114326412.95226,   0.00288,  -0.00088,  -0.00234,439398112.79465,   0.00136,276119604.58623,   0.00122,  -0.00094,  -0.00085,-36721491.79158,   0.00000
451663000.33068,209600732.63188,-114055464.89578,   0.00287,  -0.00087,  -0.00234,438507678.87608,   0.00136,276119604.58623,   0.00122,  -0.00094,  -0.00085,-37611925.71016,   0.00000
450831682.43010,210986262.46619,-113778358.92892,   0.00286,  -0.00086,  -0.00233,437586176.69735,   0.00136,276119604.58623,   0.00122,  -0.00094,  -0.00085,-38533427.88888,   0.00000
449978811.84320,212362555.43493,-113495095.05168,   0.00286,  -0.00085,  -0.00233,436650369.84577,   0.00136,276119604.58623,   0.00122,  -0.00094,  -0.00085,-39469234.74046,   0.00000
449125941.25631,213738848.40368,-113211831.17445,   0.00285,  -0.00084,  -0.00233,435721816.19419,   0.00136,276119604.58623,   0.00122,  -0.00094,  -0.00085,-40397788.39204,   0.00000
448251517.98310,215105904.50686,-112928567.29721,   0.00284,  -0.00084,  -0.00232,434783864.97309,   0.00136,276119604.58623,   0.00122,  -0.00094,  -0.00085,-41335739.61314,   0.00000
447343226.20283,216476039.56523,-112639145.50960,   0.00284,  -0.00083,  -0.00232,433821944.00938,   0.00136,276119604.58623,   0.00122,  -0.00094,  -0.00085,-42297660.57685,   0.00000
446425697.55700,217824621.93729,-112343565.81161,   0.00283,  -0.00082,  -0.00231,432855854.65111,   0.00136,276119604.58623,   0.00122,  -0.00094,  -0.00085,-43263749.93513,   0.00000
445495853.09042,219185520.13009,-112047986.11363,   0.00282,  -0.00081,  -0.00231,431887555.57020,   0.00136,276119604.58623,   0.00122,  -0.00094,  -0.00085,-44232049.01604,   0.00000
444535219.07197,220515628.77103,-111752406.41564,   0.00281,  -0.00080,  -0.00231,430903169.17167,   0.00136,276119604.58623,   0.00122,  -0.00094,  -0.00085,-45216435.41457,   0.00000
443583821.91908,221867290.09827,-111450668.80728,   0.00281,  -0.00080,  -0.00230,429928733.29895,   0.00136,276119604.58623,   0.00122,  -0.00094,  -0.00085,-46190871.28728,   0.00000
442580082.52801,223178925.00808,-111142773.28855,   0.00280,  -0.00079,  -0.00230,428916732.16661,   0.00136,276119604.58623,   0.00122,  -0.00094,  -0.00085,-47202872.41963,   0.00000
441564027.31618,224502875.73864,-110834877.76981,   0.00279,  -0.00078,  -0.00230,427903082.33306,   0.00136,276119604.58623,   0.00122,  -0.00094,  -0.00085,-48216522.25317,   0.00000
440547972.10436,225826826.46920,-110526982.25108,   0.00279,  -0.00077,  -0.00229,426897367.34634,   0.00136,276119604.58623,   0.00122,  -0.00094,  -0.00085,-49222237.23990,   0.00000
439510364.20622,227141540.33420,-110212928.82197,   0.00278,  -0.00076,  -0.00229,425878207.36683,   0.00136,276119604.58623,   0.00122,  -0.00094,  -0.00085,-50241397.21941,   0.00000
438429650.93546,228437780.46807,-109892717.48249,   0.00277,  -0.00076,  -0.00228,424829036.29641,   0.00136,276119604.58623,   0.00122,  -0.00094,  -0.00085,-51290568.28982,   0.00000
437348937.66470,229734020.60194,-109578664.05338,   0.00276,  -0.00075,  -0.00228,423792796.64695,   0.00136,276119604.58623,   0.00122,  -0.00094,  -0.00085,-52326807.93928,   0.00000
436237434.84207,230999471.18394,-109252294.80352,   0.00276,  -0.00074,  -0.00227,422730919.43363,   0.00136,276119604.58623,   0.00122,  -0.00094,  -0.00085,-53388685.15261,   0.00000
435113616.19869,232277237.58669,-108925925.55366,   0.00275,  -0.00073,  -0.00227,421668302.18619,   0.00136,276119604.58623,   0.00122,  -0.00094,  -0.00085,-54451302.40005,   0.00000
433968244.86900,233545767.12388,-108599556.30380,   0.00274,  -0.00072,  -0.00227,420597440.70664,   0.00136,276119604.58623,   0.00122,  -0.00094,  -0.00085,-55522163.87960,   0.00000
432822873.53930,234814296.66107,-108267029.14357,   0.00273,  -0.00072,  -0.00226,419530265.82718,   0.00136,276119604.58623,   0.00122,  -0.00094,  -0.00085,-56589338.75906,   0.00000
431634396.83699,236064352.46713,-107934501.98333,   0.00273,  -0.00071,  -0.00226,418438414.58674,   0.00136,276119604.58623,   0.00122,  -0.00094,  -0.00085,-57681189.99950,   0.00000
430445920.13467,237314408.27319,-107595816.91273,   0.00272,  -0.00070,  -0.00225,417350427.28578,   0.00136,276119604.58623,   0.00122,  -0.00094,  -0.00085,-58769177.30046,   0.00000
429235890.74605,238555227.21369,-107257131.84212,   0.00271,  -0.00069,  -0.00225,416254558.99404,   0.00136,276119604.58623,   0.00122,  -0.00094,  -0.00085,-59865045.59219,   0.00000
427982755.98480,239777572.42307,-106912288.86113,   0.00270,  -0.00068,  -0.00224,415129582.07896,   0.00136,276119604.58623,   0.00122,  -0.00094,  -0.00085,-60990022.50727,   0.00000
426729621.22355,240999917.63245,-106567445.88015,   0.00269,  -0.00068,  -0.00224,414013511.76803,   0.00136,276119604.58623,   0.00122,  -0.00094,  -0.00085,-62106092.81821,   0.00000
425454933.77598,242213025.97626,-106216444.98879,   0.00269,  -0.00067,  -0.00224,412885121.13985,   0.00136,276119604.58623,   0.00122,  -0.00094,  -0.00085,-63234483.44639,   0.00000
424180246.32842,243426134.32007,-105865444.09744,   0.00268,  -0.00066,  -0.00223,411765811.33993,   0.00136,276119604.58623,   0.00122,  -0.00094,  -0.00085,-64353793.24630,   0.00000
422862453.50824,244620768.93277,-105514443.20608,   0.00267,  -0.00065,  -0.00223,410622612.41382,   0.00136,276119604.58623,   0.00122,  -0.00094,  -0.00085,-65496992.17242,   0.00000
421523108.00174,245806166.67989,-105157284.40435,   0.00266,  -0.00064,  -0.00222,409467442.17617,   0.00136,276119604.58623,   0.00122,  -0.00094,  -0.00085,-66652162.41006,   0.00000
420183762.49525,246991564.42702,-104800125.60261,   0.00265,  -0.00064,  -0.00222,408321664.00548,   0.00136,276119604.58623,   0.00122,  -0.00094,  -0.00085,-67797940.58075,   0.00000
418813627.43688,248146172.62228,-104436808.89051,   0.00264,  -0.00063,  -0.00221,407155400.27992,   0.00136,276119604.58623,   0.00122,  -0.00094,  -0.00085,-68964204.30631,   0.00000
417431176.55776,249313096.63828,-104073492.17840,   0.00264,  -0.00062,  -0.00221,405990915.39025,   0.00136,276119604.58623,   0.00122,  -0.00094,  -0.00085,-70128689.19599,   0.00000
416027172.99233,250470783.78872,-103704017.55592,   0.00263,  -0.00061,  -0.00220,404814945.22145,   0.00136,276119604.58623,   0.00122,  -0.00094,  -0.00085,-71304659.36478,   0.00000
414592379.87502,251597681.38729,-103340700.84381,   0.00262,  -0.00060,  -0.00220,403628114.21552,   0.00136,276119604.58623,   0.00122,  -0.00094,  -0.00085,-72491490.37072,   0.00000
413145270.93697,252736894.80661,-102965068.31096,   0.00261,  -0.00060,  -0.00219,402434237.96971,   0.00136,276119604.58623,   0.00122,  -0.00094,  -0.00085,-73685366.61652,   0.00000
411667372.44705,253845318.67406,-102589435.77810,   0.00260,  -0.00059,  -0.00219,401224890.80746,   0.00136,276119604.58623,   0.00122,  -0.00094,  -0.00085,-74894713.77877,   0.00000
410198710.82268,254975295.22781,-102213803.24524,   0.00259,  -0.00058,  -0.00218,400034787.06806,   0.00136,276119604.58623,   0.00122,  -0.00094,  -0.00085,-76084817.51817,   0.00000
408699259.64644,256074482.22970,-101838170.71239,   0.00258,  -0.00057,  -0.00218,398829303.11760,   0.00136,276119604.58623,   0.00122,  -0.00094,  -0.00085,-77290301.46863,   0.00000
407178255.78389,257164432.36602,-101456380.26916,   0.00257,  -0.00056,  -0.00217,397613007.24305,   0.00136,276119604.58623,   0.00122,  -0.00094,  -0.00085,-78506597.34319,   0.00000
405623383.41428,258257461.45752,-101068431.91555,   0.00256,  -0.00056,  -0.00217,396379192.25428,   0.00136,276119604.58623,   0.00122,  -0.00094,  -0.00085,-79740412.33195,   0.00000
404080826.86542,259338174.72828,-100686641.47232,   0.00256,  -0.00055,  -0.00216,395167583.11202,   0.00136,276119604.58623,   0.00122,  -0.00094,  -0.00085,-80952021.47422,   0.00000
402495164.94394,260400414.26792,-100298693.11871,   0.00255,  -0.00054,  -0.00216,393929320.29221,   0.00136,276119604.58623,   0.00122,  -0.00094,  -0.00085,-82190284.29403,   0.00000
400887950.33614,261453416.94199,-99904586.85473,   0.00254,  -0.00053,  -0.00215,392680904.74703,   0.00136,276119604.58623,   0.00122,  -0.00094,  -0.00085,-83438699.83920,   0.00000
399271498.86279,262484866.92975,-99510480.59075,   0.00253,  -0.00053,  -0.00215,391433667.64451,   0.00136,276119604.58623,   0.00122,  -0.00094,  -0.00085,-84685936.94172,   0.00000
397642731.56868,263528632.73826,-99116374.32677,   0.00252,  -0.00052,  -0.00214,390190983.81786,   0.00136,276119604.58623,   0.00122,  -0.00094,  -0.00085,-85928620.76837,   0.00000
395961622.03639,264532372.12934,-98722268.06279,   0.00251,  -0.00051,  -0.00214,388917180.79172,   0.00136,276119604.58623,   0.00122,  -0.00094,  -0.00085,-87202423.79451,   0.00000
394289749.36966,265557664.20672,-98322003.88844,   0.00250,  -0.00050,  -0.00213,387659984.98629,   0.00136,276119604.58623,   0.00122,  -0.00094,  -0.00085,-88459619.59994,   0.00000
392608639.83737,266561403.59780,-97915581.80371,   0.00249,  -0.00049,  -0.00213,386399533.31129,   0.00136,276119604.58623,   0.00122,  -0.00094,  -0.00085,-89720071.27495,   0.00000
390884424.93246,267546669.25775,-97515317.62935,   0.00248,  -0.00049,  -0.00212,385123018.58931,   0.00136,276119604.58623,   0.00122,  -0.00094,  -0.00085,-90996585.99692,   0.00000
389160210.02754,268531934.91770,-97108895.54462,   0.00247,  -0.00048,  -0.00212,383853536.82015,   0.00136,276119604.58623,   0.00122,  -0.00094,  -0.00085,-92266067.76608,   0.00000
387392889.75000,269498726.84653,-96702473.45989,   0.00246,  -0.00047,  -0.00211,382563758.53381,   0.00136,276119604.58623,   0.00122,  -0.00094,  -0.00085,-93555846.05242,   0.00000
385625569.47247,270465518.77535,-96289893.46479,   0.00245,  -0.00046,  -0.00211,381281376.05626,   0.00136,276119604.58623,   0.00122,  -0.00094,  -0.00085,-94838228.52998,   0.00000
383827459.64306,271401521.15231,-95877313.46968,   0.00244,  -0.00045,  -0.00210,379984638.85685,   0.00136,276119604.58623,   0.00122,  -0.00094,  -0.00085,-96134965.72939,   0.00000
382017033.99290,272349839.35001,-95464733.47458,   0.00243,  -0.00045,  -0.00210,378694754.95429,   0.00136,276119604.58623,   0.00122,  -0.00094,  -0.00085,-97424849.63194,   0.00000
380197371.47717,273276604.86140,-95045995.56910,   0.00242,  -0.00044,  -0.00209,377402068.10427,   0.00136,276119604.58623,   0.00122,  -0.00094,  -0.00085,-98717536.48196,   0.00000
378334603.58883,274184896.64167,-94627257.66362,   0.00241,  -0.00043,  -0.00208,376090081.38604,   0.00136,276119604.58623,   0.00122,  -0.00094,  -0.00085,-100029523.20019,   0.00000
376471835.70048,275093188.42194,-94208519.75814,   0.00240,  -0.00042,  -0.00208,374790879.48214,   0.00136,276119604.58623,   0.00122,  -0.00094,  -0.00085,-101328725.10410,   0.00000
374587515.12583,275992243.33664,-93783623.94229,   0.00239,  -0.00042,  -0.00207,373484110.24287,   0.00136,276119604.58623,   0.00122,  -0.00094,  -0.00085,-102635494.34337,   0.00000
372672404.99930,276860508.69947,-93364886.03681,   0.00238,  -0.00041,  -0.00207,372168237.40471,   0.00136,276119604.58623,   0.00122,  -0.00094,  -0.00085,-103951367.18152,   0.00000
370735742.18646,277719537.19674,-92933832.31058,   0.00237,  -0.00040,  -0.00206,370840484.16643,   0.00136,276119604.58623,   0.00122,  -0.00094,  -0.00085,-105279120.41980,   0.00000
368777526.68731,278569328.82845,-92508936.49473,   0.00236,  -0.00039,  -0.00206,369515002.47134,   0.00136,276119604.58623,   0.00122,  -0.00094,  -0.00085,-106604602.11489,   0.00000
366819311.18815,279419120.46016,-92077882.76850,   0.00235,  -0.00038,  -0.00205,368198495.54917,   0.00136,276119604.58623,   0.00122,  -0.00094,  -0.00085,-107921109.03706,   0.00000
364839543.00269,280259675.22630,-91646829.04227,   0.00234,  -0.00038,  -0.00205,366880075.34510,   0.00136,276119604.58623,   0.00122,  -0.00094,  -0.00085,-109239529.24113,   0.00000
362828985.26535,281069440.44058,-91215775.31604,   0.00233,  -0.00037,  -0.00204,365548513.92617,   0.00136,276119604.58623,   0.00122,  -0.00094,  -0.00085,-110571090.66007,   0.00000
360806111.70726,281891521.47560,-90778563.67944,   0.00231,  -0.00036,  -0.00203,364222376.04160,   0.00136,276119604.58623,   0.00122,  -0.00094,  -0.00085,-111897228.54463,   0.00000
358752448.59730,282682812.95875,-90347509.95321,   0.00230,  -0.00035,  -0.00203,362888079.79285,   0.00136,276119604.58623,   0.00122,  -0.00094,  -0.00085,-113231524.79338,   0.00000
356689548.62178,283452551.75558,-89904140.40623,   0.00229,  -0.00035,  -0.00202,361547346.60611,   0.00136,276119604.58623,   0.00122,  -0.00094,  -0.00085,-114572257.98012,   0.00000
354614332.82551,284234606.37317,-89466928.76963,   0.00228,  -0.00034,  -0.00202,360222105.41672,   0.00136,276119604.58623,   0.00122,  -0.00094,  -0.00085,-115897499.16951,   0.00000
352508327.47737,284985871.43888,-89023559.22265,   0.00227,  -0.00033,  -0.00201,358879864.65539,   0.00136,276119604.58623,   0.00122,  -0.00094,  -0.00085,-117239739.93084,   0.00000
350380769.44291,285727899.63903,-88580189.67567,   0.00226,  -0.00032,  -0.00201,357537277.65037,   0.00136,276119604.58623,   0.00122,  -0.00094,  -0.00085,-118582326.93586,   0.00000
348231658.72214,286460690.97362,-88136820.12869,   0.00225,  -0.00032,  -0.00200,356194653.55367,   0.00136,276119604.58623,   0.00122,  -0.00094,  -0.00085,-119924951.03257,   0.00000
346073311.13581,287171929.62190,-87693450.58172,   0.00224,  -0.00031,  -0.00199,354855374.93258,   0.00136,276119604.58623,   0.00122,  -0.00094,  -0.00085,-121264229.65366,   0.00000
343902647.72873,287895484.09092,-87243923.12436,   0.00223,  -0.00030,  -0.00199,353524154.75206,   0.00136,276119604.58623,   0.00122,  -0.00094,  -0.00085,-122595449.83418,   0.00000
341701194.76978,288588249.00808,-86794395.66701,   0.00221,  -0.00029,  -0.00198,352181396.22596,   0.00136,276119604.58623,   0.00122,  -0.00094,  -0.00085,-123938208.36027,   0.00000
339468952.25895,289250224.37336,-86344868.20966,   0.00220,  -0.00029,  -0.00198,350827165.47834,   0.00136,276119604.58623,   0.00122,  -0.00094,  -0.00085,-125292439.10789,   0.00000
337224393.92738,289924515.55939,-85895340.75231,   0.00219,  -0.00028,  -0.00197,349486661.01397,   0.00136,276119604.58623,   0.00122,  -0.00094,  -0.00085,-126632943.57227,   0.00000
334970598.73024,290577254.05910,-85439655.38458,   0.00218,  -0.00027,  -0.00197,348145673.47213,   0.00136,276119604.58623,   0.00122,  -0.00094,  -0.00085,-127973931.11410,   0.00000
332695250.84679,291220755.69326,-84990127.92723,   0.00217,  -0.00026,  -0.00196,346810988.36493,   0.00136,276119604.58623,   0.00122,  -0.00094,  -0.00085,-129308616.22131,   0.00000
330389113.41147,291833467.77554,-84528284.64912,   0.00216,  -0.00026,  -0.00195,345456554.73551,   0.00136,276119604.58623,   0.00122,  -0.00094,  -0.00085,-130663049.85073,   0.00000
328061423.28983,292436942.99226,-84072599.28140,   0.00214,  -0.00025,  -0.00195,344108978.64896,   0.00136,276119604.58623,   0.00122,  -0.00094,  -0.00085,-132010625.93727,   0.00000
325733733.16820,293040418.20898,-83616913.91367,   0.00213,  -0.00024,  -0.00194,342778889.53776,   0.00136,276119604.58623,   0.00122,  -0.00094,  -0.00085,-133340715.04847,   0.00000
323384490.36025,293634656.56014,-83155070.63557,   0.00212,  -0.00024,  -0.00194,341447278.05645,   0.00136,276119604.58623,   0.00122,  -0.00094,  -0.00085,-134672326.52978,   0.00000
321004458.00043,294198105.35942,-82693227.35746,   0.00211,  -0.00023,  -0.00193,340105856.24177,   0.00136,276119604.58623,   0.00122,  -0.00094,  -0.00085,-136013748.34446,   0.00000
318602872.95430,294752317.29315,-82231384.07936,   0.00210,  -0.00022,  -0.00192,338768041.12505,   0.00136,276119604.58623,   0.00122,  -0.00094,  -0.00085,-137351563.46118,   0.00000
316170498.35630,295275739.67499,-81769540.80126,   0.00209,  -0.00021,  -0.00192,337420867.92975,   0.00136,276119604.58623,   0.00122,  -0.00094,  -0.00085,-138698736.65649,   0.00000
313747360.62386,295820714.74315,-81307697.52316,   0.00207,  -0.00021,  -0.00191,336105873.39499,   0.00136,276119604.58623,   0.00122,  -0.00094,  -0.00085,-140013731.19124,   0.00000
311293433.33954,296334900.25944,-80839696.33468,   0.00206,  -0.00020,  -0.00191,334777591.45805,   0.00136,276119604.58623,   0.00122,  -0.00094,  -0.00085,-141342013.12819,   0.00000
308808716.50335,296818296.22385,-80371695.14621,   0.00205,  -0.00019,  -0.00190,333440662.50550,   0.00136,276119604.58623,   0.00122,  -0.00094,  -0.00085,-142678942.08074,   0.00000
306323999.66716,297301692.18827,-79903693.95773,   0.00204,  -0.00019,  -0.00189,332123239.80029,   0.00136,276119604.58623,   0.00122,  -0.00094,  -0.00085,-143996364.78594,   0.00000
303817730.14466,297775851.28712,-79435692.76925,   0.00202,  -0.00018,  -0.00189,330811389.44612,   0.00136,276119604.58623,   0.00122,  -0.00094,  -0.00085,-145308215.14012,   0.00000
301280671.07029,298219220.83410,-78967691.58078,   0.00201,  -0.00017,  -0.00188,329491651.48345,   0.00136,276119604.58623,   0.00122,  -0.00094,  -0.00085,-146627953.10278,   0.00000
298722059.30961,298653353.51551,-78499690.39230,   0.00200,  -0.00016,  -0.00187,328178234.61866,   0.00136,276119604.58623,   0.00122,  -0.00094,  -0.00085,-147941369.96757,   0.00000
296163447.54892,299087486.19693,-78025531.29345,   0.00199,  -0.00016,  -0.00187,326881142.97664,   0.00136,276119604.58623,   0.00122,  -0.00094,  -0.00085,-149238461.60960,   0.00000
293552493.55005,299481592.46091,-77551372.19460,   0.00197,  -0.00015,  -0.00186,325563155.84066,   0.00136,276119604.58623,   0.00122,  -0.00094,  -0.00085,-150556448.74558,   0.00000
290963092.23749,299884935.59045,-77077213.09574,   0.00196,  -0.00014,  -0.00186,324280338.28691,   0.00136,276119604.58623,   0.00122,  -0.00094,  -0.00085,-151839266.29932,   0.00000
288330585.55231,300269804.98887,-76603053.99689,   0.00195,  -0.00014,  -0.00185,322991636.58186,   0.00136,276119604.58623,   0.00122,  -0.00094,  -0.00085,-153127968.00438,   0.00000
285688842.00157,300633121.70098,-76128894.89804,   0.00194,  -0.00013,  -0.00184,321710562.17817,   0.00136,276119604.58623,   0.00122,  -0.00094,  -0.00085,-154409042.40807,   0.00000
282994756.21264,300956411.99565,-75654735.79919,   0.00192,  -0.00012,  -0.00184,320410088.27492,   0.00136,276119604.58623,   0.00122,  -0.00094,  -0.00085,-155709516.31131,   0.00000
280322223.11002,301288939.15588,-75174418.78996,   0.00191,  -0.00012,  -0.00183,319141298.05716,   0.00136,276119604.58623,   0.00122,  -0.00094,  -0.00085,-156978306.52907,   0.00000
277606584.63478,301602992.58499,-74700259.69111,   0.00190,  -0.00011,  -0.00183,317872915.91990,   0.00136,276119604.58623,   0.00122,  -0.00094,  -0.00085,-158246688.66633,   0.00000
274890946.15954,301917046.01410,-74219942.68189,   0.00188,  -0.00010,  -0.00182,316623549.64368,   0.00136,276119604.58623,   0.00122,  -0.00094,  -0.00085,-159496054.94255,   0.00000
272144518.13243,302200309.89134,-73739625.67266,   0.00187,  -0.00010,  -0.00181,315369791.69879,   0.00136,276119604.58623,   0.00122,  -0.00094,  -0.00085,-160749812.88745,   0.00000
269367300.55344,302452784.21670,-73265466.57381,   0.00186,  -0.00009,  -0.00181,314116260.38044,   0.00136,276119604.58623,   0.00122,  -0.00094,  -0.00085,-162003344.20580,   0.00000
266590082.97446,302705258.54206,-72785149.56458,   0.00185,  -0.00008,  -0.00180,312882661.53500,   0.00136,276119604.58623,   0.00122,  -0.00094,  -0.00085,-163236943.05123,   0.00000
263791312.70916,302948496.00186,-72298674.64498,   0.00183,  -0.00008,  -0.00179,311656479.97960,   0.00136,276119604.58623,   0.00122,  -0.00094,  -0.00085,-164463124.60663,   0.00000
260961752.89199,303160943.90979,-71818357.63576,   0.00182,  -0.00007,  -0.00179,310431655.17411,   0.00136,276119604.58623,   0.00122,  -0.00094,  -0.00085,-165687949.41213,   0.00000
258122956.20925,303351839.13140,-71338040.62653,   0.00181,  -0.00006,  -0.00178,309216871.24055,   0.00136,276119604.58623,   0.00122,  -0.00094,  -0.00085,-166902733.34568,   0.00000
255271843.70577,303555050.17377,-70857723.61730,   0.00179,  -0.00006,  -0.00178,308030479.56260,   0.00136,276119604.58623,   0.00122,  -0.00094,  -0.00085,-168089125.02363,   0.00000
252380704.78485,303705918.97795,-70371248.69770,   0.00178,  -0.00005,  -0.00177,306822635.11804,   0.00136,276119604.58623,   0.00122,  -0.00094,  -0.00085,-169296969.46820,   0.00000
249468013.17762,303847550.91657,-69884773.77810,   0.00176,  -0.00004,  -0.00176,305628898.79524,   0.00136,276119604.58623,   0.00122,  -0.00094,  -0.00085,-170490705.79099,   0.00000
246555321.57039,303989182.85519,-69404456.76888,   0.00175,  -0.00004,  -0.00176,304466311.78672,   0.00136,276119604.58623,   0.00122,  -0.00094,  -0.00085,-171653292.79951,   0.00000
243611840.41129,304100025.24193,-68917981.84928,   0.00174,  -0.00003,  -0.00175,303298948.21602,   0.00136,276119604.58623,   0.00122,  -0.00094,  -0.00085,-172820656.37022,   0.00000
240668359.25218,304210867.62867,-68431506.92967,   0.00172,  -0.00003,  -0.00174,302159219.90178,   0.00136,276119604.58623,   0.00122,  -0.00094,  -0.00085,-173960384.68446,   0.00000
237694088.54121,304290920.46355,-67951189.92045,   0.00171,  -0.00002,  -0.00174,301023892.15452,   0.00136,276119604.58623,   0.00122,  -0.00094,  -0.00085,-175095712.43172,   0.00000
234698265.14392,304361736.43285,-67464715.00085,   0.00170,  -0.00001,  -0.00173,299901040.44408,   0.00136,276119604.58623,   0.00122,  -0.00094,  -0.00085,-176218564.14215,   0.00000
231671652.19476,304401762.85029,-66978240.08125,   0.00168,  -0.00001,  -0.00173,298779487.68219,   0.00136,276119604.58623,   0.00122,  -0.00094,  -0.00085,-177340116.90404,   0.00000
228645039.24559,304441789.26773,-66491765.16165,   0.00167,  -0.00000,  -0.00172,297687279.99693,   0.00136,276119604.58623,   0.00122,  -0.00094,  -0.00085,-178432324.58931,   0.00000
225587636.74456,304451026.13329,-66005290.24205,   0.00166,   0.00000,  -0.00171,296597229.75030,   0.00136,276119604.58623,   0.00122,  -0.00094,  -0.00085,-179522374.83593,   0.00000
222520997.37796,304438710.31254,-65512657.41207,   0.00164,   0.00001,  -0.00171,295516906.44566,   0.00136,276119604.58623,   0.00122,  -0.00094,  -0.00085,-180602698.14058,   0.00000
219442042.19061,304438710.31254,-65026182.49247,   0.00163,   0.00002,  -0.00170,294476313.36547,   0.00136,276119604.58623,   0.00122,  -0.00094,  -0.00085,-181643291.22076,   0.00000
216323060.58583,304386368.07435,-64539707.57287,   0.00161,   0.00002,  -0.00169,293423002.55611,   0.00136,276119604.58623,   0.00122,  -0.00094,  -0.00085,-182696602.03013,   0.00000
213204078.98105,304334025.83617,-64053232.65327,   0.00160,   0.00003,  -0.00169,292401047.76627,   0.00136,276119604.58623,   0.00122,  -0.00094,  -0.00085,-183718556.81996,   0.00000
210054307.82439,304250894.04611,-63566757.73367,   0.00158,   0.00003,  -0.00168,291383606.05214,   0.00136,276119604.58623,   0.00122,  -0.00094,  -0.00085,-184735998.53410,   0.00000
206882983.98143,304158525.39049,-63074124.90369,   0.00157,   0.00004,  -0.00167,290383866.61401,   0.00136,276119604.58623,   0.00122,  -0.00094,  -0.00085,-185735737.97223,   0.00000
203702423.27290,304044604.04856,-62587649.98409,   0.00156,   0.00005,  -0.00167,289404246.10249,   0.00136,276119604.58623,   0.00122,  -0.00094,  -0.00085,-186715358.48375,   0.00000
200500309.87806,303921445.84106,-62101175.06449,   0.00154,   0.00005,  -0.00166,288447470.55013,   0.00136,276119604.58623,   0.00122,  -0.00094,  -0.00085,-187672134.03610,   0.00000
197267406.93134,303767498.08170,-61614700.14489,   0.00153,   0.00006,  -0.00166,287497495.45599,   0.00136,276119604.58623,   0.00122,  -0.00094,  -0.00085,-188622109.13025,   0.00000
194034503.98463,303613550.32233,-61122067.31491,   0.00151,   0.00006,  -0.00165,286577726.58501,   0.00136,276119604.58623,   0.00122,  -0.00094,  -0.00085,-189541878.00123,   0.00000
190761574.62048,303407260.32478,-60635592.39531,   0.00150,   0.00007,  -0.00164,285652800.50093,   0.00136,276119604.58623,   0.00122,  -0.00094,  -0.00085,-190466804.08531,   0.00000
187497882.12189,303222523.01354,-60149117.47571,   0.00148,   0.00007,  -0.00164,284779778.75108,   0.00136,276119604.58623,   0.00122,  -0.00094,  -0.00085,-191339825.83515,   0.00000
184194163.20587,302985443.46411,-59656484.64574,   0.00147,   0.00008,  -0.00163,283894711.06148,   0.00136,276119604.58623,   0.00122,  -0.00094,  -0.00085,-192224893.52475,   0.00000
180868891.60354,302739127.04912,-59170009.72614,   0.00145,   0.00008,  -0.00162,283040129.30136,   0.00136,276119604.58623,   0.00122,  -0.00094,  -0.00085,-193079475.28487,   0.00000
177543620.00120,302492810.63413,-58683534.80653,   0.00144,   0.00009,  -0.00162,282221970.50605,   0.00136,276119604.58623,   0.00122,  -0.00094,  -0.00085,-193897634.08019,   0.00000
174187558.84699,302215704.66727,-58197059.88693,   0.00143,   0.00009,  -0.00161,281414490.21300,   0.00136,276119604.58623,   0.00122,  -0.00094,  -0.00085,-194705114.37323,   0.00000
170822260.82722,301917046.01410,-57704427.05696,   0.00141,   0.00010,  -0.00160,280623231.02608,   0.00136,276119604.58623,   0.00122,  -0.00094,  -0.00085,-195496373.56016,   0.00000
167426173.25558,301587597.80905,-57217952.13736,   0.00140,   0.00010,  -0.00160,279847507.36983,   0.00136,276119604.58623,   0.00122,  -0.00094,  -0.00085,-196272097.21640,   0.00000
164008532.99762,301248912.73845,-56731477.21776,   0.00138,   0.00011,  -0.00159,279101586.52128,   0.00136,276119604.58623,   0.00122,  -0.00094,  -0.00085,-197018018.06496,   0.00000
160590892.73967,300910227.66784,-56245002.29816,   0.00137,   0.00012,  -0.00159,278394430.08242,   0.00136,276119604.58623,   0.00122,  -0.00094,  -0.00085,-197725174.50381,   0.00000
157133226.06428,300519200.35905,-55758527.37856,   0.00135,   0.00012,  -0.00158,277683505.44714,   0.00136,276119604.58623,   0.00122,  -0.00094,  -0.00085,-198436099.13910,   0.00000
153675559.38889,300128173.05025,-55272052.45895,   0.00134,   0.00013,  -0.00157,277012151.86194,   0.00136,276119604.58623,   0.00122,  -0.00094,  -0.00085,-199107452.72429,   0.00000
150187103.16162,299706356.18959,-54779419.62898,   0.00132,   0.00013,  -0.00157,276351933.05990,   0.00136,276119604.58623,   0.00122,  -0.00094,  -0.00085,-199767671.52634,   0.00000
146698646.93436,299284539.32892,-54292944.70938,   0.00131,   0.00013,  -0.00156,275735857.40962,   0.00136,276119604.58623,   0.00122,  -0.00094,  -0.00085,-200383747.17662,   0.00000
143179401.15522,298831932.91638,-53812627.70015,   0.00129,   0.00014,  -0.00155,275139391.11779,   0.00136,276119604.58623,   0.00122,  -0.00094,  -0.00085,-200980213.46844,   0.00000
139629365.82421,298348536.95197,-53326152.78055,   0.00128,   0.00014,  -0.00155,274556056.21401,   0.00136,276119604.58623,   0.00122,  -0.00094,  -0.00085,-201563548.37223,   0.00000
136079330.49320,297865140.98755,-52839677.86095,   0.00126,   0.00015,  -0.00154,274014656.74214,   0.00136,276119604.58623,   0.00122,  -0.00094,  -0.00085,-202104947.84410,   0.00000
132498505.61032,297350955.47127,-52353202.94135,   0.00125,   0.00015,  -0.00153,273491244.90841,   0.00136,276119604.58623,   0.00122,  -0.00094,  -0.00085,-202628359.67782,   0.00000
128908443.86187,296815217.26867,-51866728.02175,   0.00123,   0.00016,  -0.00153,272992939.02142,   0.00136,276119604.58623,   0.00122,  -0.00094,  -0.00085,-203126665.56481,   0.00000
125287592.56155,296248689.51420,-51386411.01252,   0.00121,   0.00016,  -0.00152,272517286.58976,   0.00136,276119604.58623,   0.00122,  -0.00094,  -0.00085,-203602317.99648,   0.00000
121666741.26123,295682161.75972,-50899936.09292,   0.00120,   0.00017,  -0.00152,272081719.57050,   0.00136,276119604.58623,   0.00122,  -0.00094,  -0.00085,-204037885.01574,   0.00000
118015100.40904,295084844.45338,-50419619.08370,   0.00118,   0.00017,  -0.00151,271669975.83265,   0.00136,276119604.58623,   0.00122,  -0.00094,  -0.00085,-204449628.75358,   0.00000
114354222.69128,294465974.46072,-49933144.16410,   0.00117,   0.00018,  -0.00150,271281454.21735,   0.00136,276119604.58623,   0.00122,  -0.00094,  -0.00085,-204838150.36888,   0.00000
110671792.28722,293837867.60250,-49452827.15487,   0.00115,   0.00018,  -0.00150,270935639.84211,   0.00136,276119604.58623,   0.00122,  -0.00094,  -0.00085,-205183964.74412,   0.00000
106958572.33128,293178971.19241,-48972510.14564,   0.00114,   0.00018,  -0.00149,270612197.43054,   0.00136,276119604.58623,   0.00122,  -0.00094,  -0.00085,-205507407.15569,   0.00000
103236115.50977,292498522.09601,-48492193.13642,   0.00112,   0.00019,  -0.00148,270316755.20747,   0.00136,276119604.58623,   0.00122,  -0.00094,  -0.00085,-205802849.37877,   0.00000
99504421.82271,291796520.31329,-48011876.12719,   0.00111,   0.00019,  -0.00148,270049469.41870,   0.00136,276119604.58623,   0.00122,  -0.00094,  -0.00085,-206070135.16753,   0.00000
95751175.44933,291085281.66501,-47531559.11797,   0.00109,   0.00020,  -0.00147,269823865.25854,   0.00136,276119604.58623,   0.00122,  -0.00094,  -0.00085,-206295739.32770,   0.00000
91988692.21040,290352490.33043,-47051242.10874,   0.00107,   0.00020,  -0.00147,269627150.75092,   0.00136,276119604.58623,   0.00122,  -0.00094,  -0.00085,-206492453.83532,   0.00000
88195419.41959,289588909.44396,-46570925.09951,   0.00106,   0.00020,  -0.00146,269455573.97416,   0.00136,276119604.58623,   0.00122,  -0.00094,  -0.00085,-206664030.61207,   0.00000
84371357.07690,288794539.00563,-46096766.00066,   0.00104,   0.00021,  -0.00145,269313126.28487,   0.00136,276119604.58623,   0.00122,  -0.00094,  -0.00085,-206806478.30137,   0.00000
80547294.73422,288000168.56729,-45616448.99144,   0.00103,   0.00021,  -0.00145,269215360.96304,   0.00136,276119604.58623,   0.00122,  -0.00094,  -0.00085,-206904243.62319,   0.00000
76713995.52597,287184245.44265,-45142289.89258,   0.00101,   0.00022,  -0.00144,269150991.13740,   0.00136,276119604.58623,   0.00122,  -0.00094,  -0.00085,-206968613.44884,   0.00000
72849906.76585,286337532.76613,-44668130.79373,   0.00100,   0.00022,  -0.00144,269114018.11617,   0.00136,276119604.58623,   0.00122,  -0.00094,  -0.00085,-207005586.47007,   0.00000
68955028.45386,285460030.53773,-44187813.78451,   0.00098,   0.00022,  -0.00143,269102228.00391,   0.00136,276119604.58623,   0.00122,  -0.00094,  -0.00085,-207017376.58232,   0.00000
65050913.27630,284560975.62303,-43713654.68566,   0.00096,   0.00023,  -0.00142,269125007.45280,   0.00136,276119604.58623,   0.00122,  -0.00094,  -0.00085,-206994597.13344,   0.00000
61146798.09874,283661920.70832,-43245653.49718,   0.00095,   0.00023,  -0.00142,269199846.99662,   0.00136,276119604.58623,   0.00122,  -0.00094,  -0.00085,-206919757.58962,   0.00000
57211893.36932,282732076.24174,-42771494.39833,   0.00093,   0.00023,  -0.00141,269301304.26725,   0.00136,276119604.58623,   0.00122,  -0.00094,  -0.00085,-206818300.31899,   0.00000
53267751.77432,281780679.08885,-42297335.29948,   0.00092,   0.00024,  -0.00140,269434917.81629,   0.00136,276119604.58623,   0.00122,  -0.00094,  -0.00085,-206684686.76995,   0.00000
49292820.62746,280798492.38409,-41829334.11100,   0.00090,   0.00024,  -0.00140,269602124.15622,   0.00136,276119604.58623,   0.00122,  -0.00094,  -0.00085,-206517480.43001,   0.00000
45317889.48060,279816305.67933,-41355175.01215,   0.00088,   0.00024,  -0.00139,269816498.96960,   0.00136,276119604.58623,   0.00122,  -0.00094,  -0.00085,-206303105.61663,   0.00000
41302931.91630,278781776.73638,-40887173.82367,   0.00087,   0.00025,  -0.00139,270048124.28711,   0.00136,276119604.58623,   0.00122,  -0.00094,  -0.00085,-206071480.29912,   0.00000
37287974.35200,277747247.79343,-40419172.63519,   0.00085,   0.00025,  -0.00138,270330211.01161,   0.00136,276119604.58623,   0.00122,  -0.00094,  -0.00085,-205789393.57462,   0.00000
33263779.92213,276691166.16417,-39951171.44672,   0.00083,   0.00025,  -0.00137,270645477.94155,   0.00136,276119604.58623,   0.00122,  -0.00094,  -0.00085,-205474126.64469,   0.00000
29208795.94040,275604294.98304,-39489328.16862,   0.00082,   0.00026,  -0.00137,270996370.23132,   0.00136,276119604.58623,   0.00122,  -0.00094,  -0.00085,-205123234.35491,   0.00000
25123022.40679,274486634.25003,-39021326.98014,   0.00080,   0.00026,  -0.00136,271378216.98140,   0.00136,276119604.58623,   0.00122,  -0.00094,  -0.00085,-204741387.60483,   0.00000
21058801.55949,273378210.38258,-38559483.70204,   0.00079,   0.00026,  -0.00136,271813544.36833,   0.00136,276119604.58623,   0.00122,  -0.00094,  -0.00085,-204306060.21790,   0.00000
16933001.60845,272208207.41139,-38097640.42393,   0.00077,   0.00026,  -0.00135,272266456.48937,   0.00136,276119604.58623,   0.00122,  -0.00094,  -0.00085,-203853148.09686,   0.00000
12828754.34371,271047441.30576,-37629639.23546,   0.00075,   0.00027,  -0.00134,272767411.14616,   0.00136,276119604.58623,   0.00122,  -0.00094,  -0.00085,-203352193.44007,   0.00000
8693717.52711,269855885.64826,-37173953.86773,   0.00074,   0.00027,  -0.00134,273308319.37406,   0.00136,276119604.58623,   0.00122,  -0.00094,  -0.00085,-202811285.21217,   0.00000
4527891.15863,268633540.43888,-36712110.58963,   0.00072,   0.00027,  -0.00133,273882227.62028,   0.00136,276119604.58623,   0.00122,  -0.00094,  -0.00085,-202237376.96596,   0.00000
352827.92458,267389642.54319,-36250267.31153,   0.00070,   0.00028,  -0.00133,274490889.71177,   0.00136,276119604.58623,   0.00122,  -0.00094,  -0.00085,-201628714.87446,   0.00000
-3831472.17502,266124191.96120,-35794581.94380,   0.00069,   0.00028,  -0.00132,275136637.78606,   0.00136,276119604.58623,   0.00122,  -0.00094,  -0.00085,-200982966.80017,   0.00000
-8046561.82650,264827951.82732,-35338896.57607,   0.00067,   0.00028,  -0.00131,275818887.22074,   0.00136,276119604.58623,   0.00122,  -0.00094,  -0.00085,-200300717.36549,   0.00000
-12261651.47798,263531711.69345,-34883211.20834,   0.00065,   0.00028,  -0.00131,276552274.33497,   0.00136,276119604.58623,   0.00122,  -0.00094,  -0.00085,-199567330.25127,   0.00000
-16495214.86058,262192366.18695,-34427525.84062,   0.00064,   0.00028,  -0.00130,277304186.80861,   0.00136,276119604.58623,   0.00122,  -0.00094,  -0.00085,-198815417.77762,   0.00000
-20750330.92949,260843783.81490,-33971840.47289,   0.00062,   0.00029,  -0.00130,278109526.01262,   0.00136,276119604.58623,   0.00122,  -0.00094,  -0.00085,-198010078.57362,   0.00000
-25014683.86397,259473648.75653,-33522313.01554,   0.00060,   0.00029,  -0.00129,278951960.93996,   0.00136,276119604.58623,   0.00122,  -0.00094,  -0.00085,-197167643.64628,   0.00000
-29319063.21588,258051171.45997,-33072785.55818,   0.00059,   0.00029,  -0.00128,279816476.64571,   0.00136,276119604.58623,   0.00122,  -0.00094,  -0.00085,-196303127.94052,   0.00000
-33623442.56779,256628694.16342,-32623258.10083,   0.00057,   0.00029,  -0.00128,280731889.21980,   0.00136,276119604.58623,   0.00122,  -0.00094,  -0.00085,-195387715.36643,   0.00000
-37937058.78526,255184664.18055,-32173730.64348,   0.00055,   0.00029,  -0.00127,281682153.67483,   0.00136,276119604.58623,   0.00122,  -0.00094,  -0.00085,-194437450.91141,   0.00000
-42281464.55461,253709844.64581,-31724203.18613,   0.00054,   0.00030,  -0.00127,282671021.72316,   0.00136,276119604.58623,   0.00122,  -0.00094,  -0.00085,-193448582.86307,   0.00000
-46625870.32395,252235025.11107,-31280833.63915,   0.00052,   0.00030,  -0.00126,283712229.04154,   0.00136,276119604.58623,   0.00122,  -0.00094,  -0.00085,-192407375.54470,   0.00000
-50988749.82442,250717100.20371,-30837464.09217,   0.00050,   0.00030,  -0.00126,284772744.51238,   0.00136,276119604.58623,   0.00122,  -0.00094,  -0.00085,-191346860.07385,   0.00000
-55382418.87677,249168385.74448,-30394094.54519,   0.00048,   0.00030,  -0.00125,285872432.45015,   0.00136,276119604.58623,   0.00122,  -0.00094,  -0.00085,-190247172.13609,   0.00000
-59785324.79467,247598118.59893,-29950724.99822,   0.00047,   0.00030,  -0.00124,287006942.62905,   0.00136,276119604.58623,   0.00122,  -0.00094,  -0.00085,-189112661.95718,   0.00000
-64209783.39889,246018614.58782,-29513513.36161,   0.00045,   0.00030,  -0.00124,288197847.62461,   0.00136,276119604.58623,   0.00122,  -0.00094,  -0.00085,-187921756.96162,   0.00000
-68631163.04792,244405242.06965,-29070143.81463,   0.00043,   0.00031,  -0.00123,289401442.10922,   0.00136,276119604.58623,   0.00122,  -0.00094,  -0.00085,-186718162.47702,   0.00000
-73095648.06957,242773395.82036,-28632932.17803,   0.00042,   0.00031,  -0.00123,290666662.35008,   0.00136,276119604.58623,   0.00122,  -0.00094,  -0.00085,-185452942.23616,   0.00000
-77557054.13604,241107681.06400,-28195720.54143,   0.00040,   0.00031,  -0.00122,291946241.55445,   0.00136,276119604.58623,   0.00122,  -0.00094,  -0.00085,-184173363.03179,   0.00000
-82040012.88881,239432729.44209,-27764666.81520,   0.00038,   0.00031,  -0.00122,293281929.24624,   0.00136,276119604.58623,   0.00122,  -0.00094,  -0.00085,-182837675.34000,   0.00000
-86532208.50715,237736225.13386,-27327455.17860,   0.00037,   0.00031,  -0.00121,294649869.96879,   0.00136,276119604.58623,   0.00122,  -0.00094,  -0.00085,-181469734.61745,   0.00000
-91042877.85662,235996615.45301,-26896401.45237,   0.00035,   0.00031,  -0.00120,296039302.09047,   0.00136,276119604.58623,   0.00122,  -0.00094,  -0.00085,-180080302.49576,   0.00000
-95575099.89239,234247768.90659,-26465347.72614,   0.00033,   0.00031,  -0.00120,297482965.49680,   0.00136,276119604.58623,   0.00122,  -0.00094,  -0.00085,-178636639.08943,   0.00000
-100095006.10742,232486606.53943,-26040451.91029,   0.00031,   0.00031,  -0.00119,298955006.94318,   0.00136,276119604.58623,   0.00122,  -0.00094,  -0.00085,-177164597.64305,   0.00000
-104667254.56063,230685417.75483,-25609398.18406,   0.00030,   0.00031,  -0.00119,300472510.07638,   0.00136,276119604.58623,   0.00122,  -0.00094,  -0.00085,-175647094.50986,   0.00000
-109236424.05865,228850360.46318,-25184502.36820,   0.00028,   0.00031,  -0.00118,302004397.85768,   0.00136,276119604.58623,   0.00122,  -0.00094,  -0.00085,-174115206.72856,   0.00000
-113827146.24298,227006066.30595,-24759606.55235,   0.00026,   0.00031,  -0.00118,303590086.16695,   0.00136,276119604.58623,   0.00122,  -0.00094,  -0.00085,-172529518.41928,   0.00000
-118427105.29288,225140219.46242,-24334710.73649,   0.00024,   0.00031,  -0.00117,305208677.14314,   0.00136,276119604.58623,   0.00122,  -0.00094,  -0.00085,-170910927.44310,   0.00000
-123036301.20834,223252819.93258,-23915972.83102,   0.00023,   0.00031,  -0.00117,306861329.41619,   0.00136,276119604.58623,   0.00122,  -0.00094,  -0.00085,-169258275.17004,   0.00000
-127685523.54123,221313078.16455,-23497234.92554,   0.00021,   0.00032,  -0.00116,308541582.10534,   0.00136,276119604.58623,   0.00122,  -0.00094,  -0.00085,-167578022.48089,   0.00000
-132334745.87412,219373336.39652,-23078497.02006,   0.00019,   0.00032,  -0.00115,310267161.46737,   0.00136,276119604.58623,   0.00122,  -0.00094,  -0.00085,-165852443.11887,   0.00000
-136993205.07258,217412041.94218,-22659759.11458,   0.00018,   0.00032,  -0.00115,312024839.89893,   0.00136,276119604.58623,   0.00122,  -0.00094,  -0.00085,-164094764.68730,   0.00000
-141660901.13660,215429194.80153,-22247179.11947,   0.00016,   0.00032,  -0.00114,313815636.45986,   0.00136,276119604.58623,   0.00122,  -0.00094,  -0.00085,-162303968.12637,   0.00000
-146359386.75249,213415558.10901,-21828441.21399,   0.00014,   0.00032,  -0.00114,315645502.54885,   0.00136,276119604.58623,   0.00122,  -0.00094,  -0.00085,-160474102.03739,   0.00000
-151076346.09950,211358816.04386,-21415861.21889,   0.00012,   0.00032,  -0.00113,317496214.85823,   0.00136,276119604.58623,   0.00122,  -0.00094,  -0.00085,-158623389.72801,   0.00000
-155793305.44652,209302073.97871,-21009439.13416,   0.00011,   0.00032,  -0.00113,319391552.38342,   0.00136,276119604.58623,   0.00122,  -0.00094,  -0.00085,-156728052.20281,   0.00000
-160519501.65910,207223779.22725,-20596859.13906,   0.00009,   0.00032,  -0.00112,321316595.71638,   0.00136,276119604.58623,   0.00122,  -0.00094,  -0.00085,-154803008.86985,   0.00000
-165285724.28911,205093142.23761,-20190437.05433,   0.00007,   0.00031,  -0.00112,323271553.73382,   0.00136,276119604.58623,   0.00122,  -0.00094,  -0.00085,-152848050.85242,   0.00000
-170051946.91912,202962505.24796,-19784014.96960,   0.00005,   0.00031,  -0.00111,325268864.32836,   0.00136,276119604.58623,   0.00122,  -0.00094,  -0.00085,-150850740.25787,   0.00000
-174827406.41470,200810315.57201,-19383750.79524,   0.00004,   0.00031,  -0.00111,327297633.52531,   0.00136,276119604.58623,   0.00122,  -0.00094,  -0.00085,-148821971.06093,   0.00000
-179621339.64139,198615020.52343,-18983486.62089,   0.00002,   0.00031,  -0.00110,329345360.35030,   0.00136,276119604.58623,   0.00122,  -0.00094,  -0.00085,-146774244.23593,   0.00000
-184415272.86809,196419725.47485,-18583222.44653,   0.00000,   0.00031,  -0.00110,331434016.30225,   0.00136,276119604.58623,   0.00122,  -0.00094,  -0.00085,-144685588.28398,   0.00000
-189249232.51223,194172088.18809,-18182958.27218,  -0.00002,   0.00031,  -0.00109,333551870.65472,   0.00136,276119604.58623,   0.00122,  -0.00094,  -0.00085,-142567733.93151,   0.00000
-194092429.02192,191902898.21501,-17782694.09782,  -0.00003,   0.00031,  -0.00109,335699516.86885,   0.00136,276119604.58623,   0.00122,  -0.00094,  -0.00085,-140420087.71738,   0.00000
-198935625.53162,189633708.24194,-17388587.83384,  -0.00005,   0.00031,  -0.00108,337888022.48497,   0.00136,276119604.58623,   0.00122,  -0.00094,  -0.00085,-138231582.10126,   0.00000
-203797295.77244,187321412.89624,-16994481.56986,  -0.00007,   0.00031,  -0.00108,340095110.36417,   0.00136,276119604.58623,   0.00122,  -0.00094,  -0.00085,-136024494.22206,   0.00000
-208668202.87882,184987564.86423,-16606533.21625,  -0.00009,   0.00031,  -0.00107,342331961.11175,   0.00136,276119604.58623,   0.00122,  -0.00094,  -0.00085,-133787643.47449,   0.00000
-213569899.53708,182622927.28035,-16212426.95227,  -0.00011,   0.00031,  -0.00107,344607783.06969,   0.00136,276119604.58623,   0.00122,  -0.00094,  -0.00085,-131511821.51655,   0.00000
-218471596.19534,180258289.69647,-15824478.59867,  -0.00012,   0.00031,  -0.00106,346922827.14549,   0.00136,276119604.58623,   0.00122,  -0.00094,  -0.00085,-129196777.44074,   0.00000
-223370213.89840,177859783.60553,-15442688.15544,  -0.00014,   0.00030,  -0.00106,349245419.21335,   0.00136,276119604.58623,   0.00122,  -0.00094,  -0.00085,-126874185.37288,   0.00000
-228321173.83966,175421251.09715,-15054739.80183,  -0.00016,   0.00030,  -0.00105,351618394.42559,   0.00136,276119604.58623,   0.00122,  -0.00094,  -0.00085,-124501210.16064,   0.00000
-233269054.82572,172948850.08171,-14672949.35860,  -0.00018,   0.00030,  -0.00105,353998951.69939,   0.00136,276119604.58623,   0.00122,  -0.00094,  -0.00085,-122120652.88684,   0.00000
-238216935.81179,170476449.06627,-14291158.91537,  -0.00019,   0.00030,  -0.00104,356416353.70431,   0.00136,276119604.58623,   0.00122,  -0.00094,  -0.00085,-119703250.88192,   0.00000
-243195606.34973,167973258.49896,-13915526.38251,  -0.00021,   0.00030,  -0.00104,358873797.58527,   0.00136,276119604.58623,   0.00122,  -0.00094,  -0.00085,-117245807.00097,   0.00000
-248161961.06692,165457752.11089,-13533735.93928,  -0.00023,   0.00030,  -0.00103,361345309.80373,   0.00136,276119604.58623,   0.00122,  -0.00094,  -0.00085,-114774294.78250,   0.00000
-253168342.20155,162889903.48465,-13158103.40643,  -0.00025,   0.00029,  -0.00103,363847913.32734,   0.00136,276119604.58623,   0.00122,  -0.00094,  -0.00085,-112271691.25890,   0.00000
-258174723.33617,160322054.85840,-12788628.78394,  -0.00026,   0.00029,  -0.00102,366386542.16552,   0.00136,276119604.58623,   0.00122,  -0.00094,  -0.00085,-109733062.42072,   0.00000
-263199578.20192,157711100.85953,-12412996.25109,  -0.00028,   0.00029,  -0.00102,368942477.83601,   0.00136,276119604.58623,   0.00122,  -0.00094,  -0.00085,-107177126.75023,   0.00000
-268233669.93323,155078594.17435,-12043521.62861,  -0.00030,   0.00029,  -0.00101,371525385.05474,   0.00136,276119604.58623,   0.00122,  -0.00094,  -0.00085,-104594219.53150,   0.00000
-273289314.35086,152436850.62360,-11680204.91650,  -0.00032,   0.00029,  -0.00101,374155965.76268,   0.00136,276119604.58623,   0.00122,  -0.00094,  -0.00085,-101963638.82355,   0.00000
-278341879.81329,149761238.56580,-11310730.29402,  -0.00034,   0.00028,  -0.00100,376790728.60101,   0.00136,276119604.58623,   0.00122,  -0.00094,  -0.00085,-99328875.98522,   0.00000
-283425234.82760,147054836.95612,-10947413.58191,  -0.00035,   0.00028,  -0.00100,379464857.52767,   0.00136,276119604.58623,   0.00122,  -0.00094,  -0.00085,-96654747.05856,   0.00000
-288496274.02116,144336119.52570,-10584096.86980,  -0.00037,   0.00028,  -0.00099,382151171.04794,   0.00136,276119604.58623,   0.00122,  -0.00094,  -0.00085,-93968433.53829,   0.00000
-293607339.63216,141565059.85708,-10226938.06807,  -0.00039,   0.00028,  -0.00099,384869130.29556,   0.00136,276119604.58623,   0.00122,  -0.00094,  -0.00085,-91250474.29067,   0.00000
-298718405.24315,138794000.18847,-9863621.35597,  -0.00041,   0.00027,  -0.00098,387619214.68331,   0.00136,276119604.58623,   0.00122,  -0.00094,  -0.00085,-88500389.90292,   0.00000
-303838707.71971,136001387.83355,-9506462.55423,  -0.00043,   0.00027,  -0.00098,390394598.09243,   0.00136,276119604.58623,   0.00122,  -0.00094,  -0.00085,-85725006.49380,   0.00000
-308977483.92739,133165670.10600,-9155461.66288,  -0.00044,   0.00027,  -0.00097,393188049.66392,   0.00136,276119604.58623,   0.00122,  -0.00094,  -0.00085,-82931554.92231,   0.00000
-314116260.13507,130329952.37846,-8804460.77152,  -0.00046,   0.00026,  -0.00097,396012921.73533,   0.00136,276119604.58623,   0.00122,  -0.00094,  -0.00085,-80106682.85091,   0.00000
-319273510.07388,127451129.27829,-8453459.88016,  -0.00048,   0.00026,  -0.00096,398855258.14335,   0.00136,276119604.58623,   0.00122,  -0.00094,  -0.00085,-77264346.44288,   0.00000
-324439996.87825,124550753.49181,-8102458.98880,  -0.00050,   0.00026,  -0.00096,401721791.00566,   0.00136,276119604.58623,   0.00122,  -0.00094,  -0.00085,-74397813.58058,   0.00000
-329615720.54818,121628825.01901,-7757616.00782,  -0.00051,   0.00026,  -0.00096,404612665.30405,   0.00136,276119604.58623,   0.00122,  -0.00094,  -0.00085,-71506939.28219,   0.00000
-334822233.76998,118676106.99435,-7412773.02684,  -0.00053,   0.00025,  -0.00095,407541646.27541,   0.00136,276119604.58623,   0.00122,  -0.00094,  -0.00085,-68577958.31083,   0.00000
-340016431.17103,115711073.14893,-7067930.04585,  -0.00055,   0.00025,  -0.00095,410479912.97996,   0.00136,276119604.58623,   0.00122,  -0.00094,  -0.00085,-65639691.60628,   0.00000
-345250654.98952,112693697.06533,-6729244.97525,  -0.00057,   0.00025,  -0.00094,413450486.83942,   0.00136,276119604.58623,   0.00122,  -0.00094,  -0.00085,-62669117.74681,   0.00000
-350463326.12170,109685557.84730,-6390559.90464,  -0.00059,   0.00024,  -0.00094,416435766.66146,   0.00136,276119604.58623,   0.00122,  -0.00094,  -0.00085,-59683837.92477,   0.00000
-355716023.67132,106625076.39107,-6051874.83403,  -0.00060,   0.00024,  -0.00093,419453120.35606,   0.00136,276119604.58623,   0.00122,  -0.00094,  -0.00085,-56666484.23017,   0.00000
-360956405.40018,103552279.11410,-5713189.76342,  -0.00062,   0.00023,  -0.00093,422478852.91572,   0.00136,276119604.58623,   0.00122,  -0.00094,  -0.00085,-53640751.67051,   0.00000
-366218339.81536,100470244.97157,-5380662.60319,  -0.00064,   0.00023,  -0.00092,425547933.19465,   0.00136,276119604.58623,   0.00122,  -0.00094,  -0.00085,-50571671.39158,   0.00000
-371477195.27534,97354342.32197,-5054293.35333,  -0.00066,   0.00023,  -0.00092,428619563.54806,   0.00136,276119604.58623,   0.00122,  -0.00094,  -0.00085,-47500041.03818,   0.00000
-376776077.15277,94186097.43419,-4721766.19310,  -0.00068,   0.00022,  -0.00092,431723507.35863,   0.00136,276119604.58623,   0.00122,  -0.00094,  -0.00085,-44396097.22760,   0.00000
-382053406.34388,91027089.41197,-4395396.94324,  -0.00069,   0.00022,  -0.00091,434840090.64029,   0.00136,276119604.58623,   0.00122,  -0.00094,  -0.00085,-41279513.94594,   0.00000
-387361525.08687,87837291.83788,-4069027.69338,  -0.00071,   0.00021,  -0.00091,437994063.01909,   0.00136,276119604.58623,   0.00122,  -0.00094,  -0.00085,-38125541.56715,   0.00000
-392688117.56098,84604388.89117,-3748816.35389,  -0.00073,   0.00021,  -0.00090,441165682.45554,   0.00136,276119604.58623,   0.00122,  -0.00094,  -0.00085,-34953922.13069,   0.00000
-397993157.34877,81380722.81002,-3428605.01441,  -0.00075,   0.00021,  -0.00090,444348525.54841,   0.00136,276119604.58623,   0.00122,  -0.00094,  -0.00085,-31771079.03783,   0.00000
-403338223.55401,78104714.49068,-3108393.67493,  -0.00077,   0.00020,  -0.00089,447564154.20915,   0.00136,276119604.58623,   0.00122,  -0.00094,  -0.00085,-28555450.37708,   0.00000
-408670973.93849,74816390.35059,-2794340.24582,  -0.00078,   0.00020,  -0.00089,450786168.07561,   0.00136,276119604.58623,   0.00122,  -0.00094,  -0.00085,-25333436.51062,   0.00000
-414034513.87485,71497276.65863,-2480286.81671,  -0.00080,   0.00019,  -0.00089,454045410.61660,   0.00136,276119604.58623,   0.00122,  -0.00094,  -0.00085,-22074193.96963,   0.00000
-419385737.99046,68165847.14592,-2166233.38760,  -0.00082,   0.00019,  -0.00088,457310443.52740,   0.00136,276119604.58623,   0.00122,  -0.00094,  -0.00085,-18809161.05883,   0.00000
-424776988.52350,64782075.39503,-1852179.95849,  -0.00084,   0.00018,  -0.00088,460608764.44113,   0.00136,276119604.58623,   0.00122,  -0.00094,  -0.00085,-15510840.14511,   0.00000
-430146686.37024,61407540.50970,-1544284.43975,  -0.00085,   0.00018,  -0.00087,463916438.96119,   0.00136,276119604.58623,   0.00122,  -0.00094,  -0.00085,-12203165.62505,   0.00000
-435556410.63440,57980663.38618,-1236388.92102,  -0.00087,   0.00017,  -0.00087,467257509.06198,   0.00136,276119604.58623,   0.00122,  -0.00094,  -0.00085,-8862095.52425,   0.00000
-440953819.07782,54541470.44192,-934651.31266,  -0.00089,   0.00017,  -0.00087,470603796.16615,   0.00136,276119604.58623,   0.00122,  -0.00094,  -0.00085,-5515808.42008,   0.00000
-446360464.38680,51080724.81134,-632913.70430,  -0.00091,   0.00016,  -0.00086,473971014.30586,   0.00136,276119604.58623,   0.00122,  -0.00094,  -0.00085,-2148590.28037,   0.00000
-449796814.15654,48874144.60812,-442221.58797,  -0.00092,   0.00016,  -0.00086,476119603.93971,   0.00136,276119604.58623,   0.00122,  -0.00094,  -0.00085,  -0.64652,   0.00000
-450669373.63414,47369826.06441,-330282.22286,  -0.00093,   0.00016,  -0.00086,476119603.93971,   0.00137,276125237.57285,   0.00122,  -0.00094,  -0.00085,   0.00000,   2.00000
-453014562.57206,43294756.22005,-34449.09666,  -0.00094,   0.00015,  -0.00085,479534611.12817,   0.00138,276140513.32503,   0.00120,  -0.00093,  -0.00085,   0.00000,   2.00000
-455332640.56145,39220056.70530,265321.97252,  -0.00096,   0.00015,  -0.00085,479572146.02156,   0.00140,276155866.89494,   0.00119,  -0.00092,  -0.00085,   0.00000,   2.00000
-457635143.05857,35125112.36661,550635.16038,  -0.00098,   0.00014,  -0.00085,479607048.28134,   0.00141,276171285.46468,   0.00117,  -0.00091,  -0.00085,   0.00000,   2.00000
-459909937.51591,31031376.30568,839900.40235,  -0.00100,   0.00013,  -0.00084,479645105.36854,   0.00142,276186782.23691,   0.00116,  -0.00090,  -0.00085,   0.00000,   2.00000
-462145513.68322,26960321.15642,1120826.18652,  -0.00102,   0.00013,  -0.00084,479685702.85430,   0.00144,276202367.65298,   0.00114,  -0.00089,  -0.00085,   0.00000,   2.00000
-464364765.73400,22870059.45209,1399567.03412,  -0.00103,   0.00012,  -0.00084,479721412.70304,   0.00145,276218018.80859,   0.00112,  -0.00089,  -0.00085,   0.00000,   2.00000
-466549991.91498,18793392.71296,1670050.53384,  -0.00105,   0.00012,  -0.00083,479743117.71819,   0.00147,276233672.67569,   0.00111,  -0.00088,  -0.00085,  -0.00000,   2.00000
-468724225.92744,14687046.93231,1938308.16024,  -0.00107,   0.00011,  -0.00083,479796096.37553,   0.00148,276249467.33718,   0.00109,  -0.00087,  -0.00085,   0.00000,   2.00000
-470853149.98078,10616135.13581,2204447.68563,  -0.00109,   0.00011,  -0.00082,479820135.02146,   0.00150,276265273.36156,   0.00108,  -0.00086,  -0.00085,   0.00000,   2.00000
-472970429.65704,6516519.94087,2462204.00467,  -0.00110,   0.00010,  -0.00082,479873667.46797,   0.00151,276281220.44029,   0.00106,  -0.00085,  -0.00085,   0.00000,   2.00000
-475042605.29070,2452930.60072,2723990.13477,  -0.00112,   0.00009,  -0.00082,479897635.66547,   0.00153,276297176.79179,   0.00104,  -0.00084,  -0.00085,   0.00000,   2.00000
-477097194.46580,-1627771.51675,2971347.36628,  -0.00114,   0.00009,  -0.00081,479934716.84389,   0.00154,276313199.58499,   0.00103,  -0.00084,  -0.00085,   0.00000,   2.00000
-479122889.93786,-5703828.02590,3222675.06891,  -0.00116,   0.00008,  -0.00081,479973983.25054,   0.00156,276329297.49584,   0.00101,  -0.00083,  -0.00085,   0.00000,   2.00000
-481119826.66929,-9774825.07029,3465695.25019,  -0.00118,   0.00007,  -0.00081,480013125.09355,   0.00157,276345468.96827,   0.00099,  -0.00082,  -0.00085,   0.00000,   2.00000
-483087805.62106,-13840376.23912,3706552.55984,  -0.00119,   0.00007,  -0.00080,480052494.64033,   0.00159,276361713.99843,   0.00098,  -0.00081,  -0.00085,   0.00000,   2.00000
-485032119.98940,-17911337.71551,3939283.38578,  -0.00121,   0.00006,  -0.00080,480073700.08294,   0.00160,276377952.04748,   0.00096,  -0.00080,  -0.00085,   0.00000,   2.00000
-486941997.16143,-21964727.73945,4169720.70444,  -0.00123,   0.00005,  -0.00080,480131377.97867,   0.00162,276394342.09900,   0.00094,  -0.00080,  -0.00085,   0.00000,   2.00000
-488827918.04865,-26023031.04347,4398182.49011,  -0.00125,   0.00005,  -0.00079,480153099.48109,   0.00163,276410725.68722,   0.00093,  -0.00079,  -0.00085,   0.00000,   2.00000
-490684656.35593,-30074365.15655,4618386.51799,  -0.00126,   0.00004,  -0.00079,480192773.40441,   0.00165,276427180.55630,   0.00091,  -0.00078,  -0.00085,   0.00000,   2.00000
-492511991.53640,-34118340.32130,4836478.62245,  -0.00128,   0.00003,  -0.00079,480232711.27522,   0.00166,276443706.84297,   0.00089,  -0.00077,  -0.00085,   0.00000,   2.00000
-494309867.64990,-38154561.56852,5052448.62171,  -0.00130,   0.00002,  -0.00078,480272749.57178,   0.00168,276460303.96729,   0.00088,  -0.00077,  -0.00085,   0.00000,   2.00000
-496078436.54828,-42182633.75559,5260183.04846,  -0.00132,   0.00002,  -0.00078,480312681.62631,   0.00169,276476970.45387,   0.00086,  -0.00076,  -0.00085,   0.00000,   2.00000
-497822398.71018,-46214399.77619,5472141.58956,  -0.00133,   0.00001,  -0.00078,480335590.98467,   0.00171,276493631.70290,   0.00084,  -0.00075,  -0.00085,   0.00000,   2.00000
-499531952.82187,-50224913.01943,5669531.65697,  -0.00135,   0.00000,  -0.00077,480392987.58165,   0.00173,276510436.05000,   0.00082,  -0.00074,  -0.00085,   0.00000,   2.00000
-501216785.39111,-54238605.17720,5871194.19816,  -0.00137,  -0.00001,  -0.00077,480416259.25987,   0.00174,276527234.98484,   0.00080,  -0.00074,  -0.00085,   0.00000,   2.00000
-502872080.84260,-58242630.68397,6064644.33225,  -0.00139,  -0.00001,  -0.00077,480456598.27775,   0.00176,276544101.38705,   0.00079,  -0.00073,  -0.00085,   0.00000,   2.00000
-504497841.84542,-62236604.25013,6249928.39701,  -0.00141,  -0.00002,  -0.00076,480497000.60009,   0.00177,276561034.51940,   0.00077,  -0.00072,  -0.00084,   0.00000,   2.00000
-506090142.13830,-66211657.08486,6439546.99002,  -0.00142,  -0.00003,  -0.00076,480520198.83171,   0.00179,276577959.89168,   0.00075,  -0.00071,  -0.00084,   0.00000,   2.00000
-507653093.29147,-70176099.22930,6620992.89819,  -0.00144,  -0.00004,  -0.00076,480560586.86608,   0.00180,276594950.48042,   0.00073,  -0.00071,  -0.00084,   0.00000,   2.00000
-509186445.28118,-74129539.42771,6800414.12734,  -0.00146,  -0.00004,  -0.00075,480601297.75038,   0.00182,276612006.66709,   0.00071,  -0.00070,  -0.00084,   0.00000,   2.00000
-510698492.44399,-78092926.88196,6971688.20202,  -0.00148,  -0.00005,  -0.00075,480642928.23367,   0.00184,276629131.18436,   0.00070,  -0.00069,  -0.00084,   0.00000,   2.00000
-512172749.80735,-82023068.79828,7140996.68744,  -0.00149,  -0.00006,  -0.00075,480682793.96542,   0.00185,276646315.69680,   0.00068,  -0.00069,  -0.00084,   0.00000,   2.00000
-513622275.62723,-85954595.33260,7308587.76642,  -0.00151,  -0.00007,  -0.00074,480707133.48812,   0.00187,276663493.45147,   0.00066,  -0.00068,  -0.00084,   0.00000,   2.00000
-515045204.27341,-89881263.10707,7467792.89592,  -0.00153,  -0.00008,  -0.00074,480765946.12251,   0.00189,276680809.53362,   0.00064,  -0.00067,  -0.00084,   0.00000,   2.00000
-516435594.41603,-93787386.86948,7625360.62319,  -0.00155,  -0.00009,  -0.00074,480789216.84797,   0.00190,276698112.64875,   0.00062,  -0.00067,  -0.00084,   0.00000,   2.00000
-517793750.07081,-97672953.28057,7781299.74711,  -0.00156,  -0.00009,  -0.00074,480812364.54665,   0.00192,276715402.02994,   0.00060,  -0.00066,  -0.00084,   0.00000,   2.00000
-519125324.27003,-101552344.61979,7928882.69524,  -0.00158,  -0.00010,  -0.00073,480871301.35793,   0.00193,276732827.38604,   0.00058,  -0.00065,  -0.00084,   0.00000,   2.00000
-520424955.81163,-105410746.79162,8074901.82251,  -0.00160,  -0.00011,  -0.00073,480894495.59750,   0.00195,276750237.59610,   0.00056,  -0.00065,  -0.00084,   0.00000,   2.00000
-521695281.45666,-109255046.40757,8219032.19218,  -0.00162,  -0.00012,  -0.00073,480935744.08964,   0.00197,276767707.74040,   0.00055,  -0.00064,  -0.00083,   0.00000,   2.00000
-522943073.94312,-113105951.35393,8361227.75039,  -0.00163,  -0.00013,  -0.00072,480979365.52511,   0.00198,276785246.54498,   0.00053,  -0.00063,  -0.00083,   0.00000,   2.00000
-524152974.12856,-116914242.36382,8495825.87913,  -0.00165,  -0.00014,  -0.00072,480999977.92759,   0.00200,276802757.62043,   0.00051,  -0.00063,  -0.00083,   0.00000,   2.00000
-525340702.23079,-120728629.29600,8622449.22535,  -0.00167,  -0.00015,  -0.00072,481043483.75831,   0.00202,276820335.50409,   0.00049,  -0.00062,  -0.00083,   0.00000,   2.00000
-526498871.28739,-124527445.03442,8753385.70528,  -0.00168,  -0.00016,  -0.00072,481085386.44849,   0.00203,276837972.54695,   0.00047,  -0.00062,  -0.00083,   0.00000,   2.00000
-527628284.72348,-128310454.76033,8876391.46189,  -0.00170,  -0.00017,  -0.00071,481126667.00304,   0.00205,276855665.22788,   0.00045,  -0.00061,  -0.00083,   0.00000,   2.00000
-528726862.62059,-132071261.05293,8997989.48619,  -0.00172,  -0.00018,  -0.00071,481149981.11360,   0.00207,276873338.73707,   0.00043,  -0.00061,  -0.00083,   0.00000,   2.00000
-529797035.33277,-135815812.29299,9111720.71299,  -0.00174,  -0.00019,  -0.00071,481191199.16989,   0.00208,276891066.36119,   0.00041,  -0.00060,  -0.00083,   0.00000,   2.00000
-530838537.83901,-139543722.64586,9223736.79225,  -0.00175,  -0.00019,  -0.00071,481232804.07536,   0.00210,276908848.78793,   0.00039,  -0.00059,  -0.00083,   0.00000,   2.00000
-531849895.63458,-143249101.87187,9334427.45151,  -0.00177,  -0.00020,  -0.00070,481256031.58623,   0.00212,276926610.07838,   0.00037,  -0.00059,  -0.00082,   0.00000,   2.00000
-532838327.18260,-146958057.62244,9443332.98189,  -0.00179,  -0.00021,  -0.00070,481301072.32218,   0.00213,276944438.73347,   0.00035,  -0.00058,  -0.00082,   0.00000,   2.00000
-533793385.03151,-150628839.99532,9544514.15500,  -0.00180,  -0.00022,  -0.00070,481338944.09019,   0.00215,276962304.80891,   0.00033,  -0.00058,  -0.00082,   0.00000,   2.00000
-534725480.72044,-154302473.22595,9643968.28536,  -0.00182,  -0.00023,  -0.00069,481384303.53150,   0.00217,276980237.72072,   0.00031,  -0.00057,  -0.00082,   0.00000,   2.00000
-535623477.29409,-157932464.14845,9736182.04380,  -0.00184,  -0.00024,  -0.00069,481403469.64059,   0.00218,276998130.77010,   0.00029,  -0.00057,  -0.00082,   0.00000,   2.00000
-536498613.20469,-161564795.46037,9826730.68439,  -0.00186,  -0.00025,  -0.00069,481449016.25316,   0.00220,277016090.19335,   0.00027,  -0.00056,  -0.00082,   0.00000,   2.00000
-537344727.55540,-165173783.96271,9916119.78426,  -0.00187,  -0.00026,  -0.00069,481472317.81058,   0.00222,277034025.50776,   0.00025,  -0.00056,  -0.00082,   0.00000,   2.00000
-538163252.00918,-168764028.65215,10003935.54860,  -0.00189,  -0.00027,  -0.00069,481514070.18508,   0.00223,277052010.66316,   0.00023,  -0.00056,  -0.00082,   0.00000,   2.00000
-538950405.30865,-172315117.19058,10084197.20480,  -0.00191,  -0.00028,  -0.00068,481551096.50107,   0.00225,277070026.14279,   0.00021,  -0.00055,  -0.00081,   0.00000,   2.00000
-539714838.20169,-175867361.68289,10162858.26220,  -0.00192,  -0.00029,  -0.00068,481597127.84188,   0.00227,277088107.05037,   0.00019,  -0.00055,  -0.00081,   0.00000,   2.00000
-540451238.11844,-179395927.35701,10240457.89610,  -0.00194,  -0.00031,  -0.00068,481620345.23097,   0.00229,277106161.57864,   0.00017,  -0.00054,  -0.00081,   0.00000,   2.00000
-541161246.85539,-182904961.85939,10310481.25650,  -0.00196,  -0.00032,  -0.00068,481661675.94832,   0.00230,277124261.61978,   0.00015,  -0.00054,  -0.00081,   0.00000,   2.00000
-541843778.27416,-186390276.95801,10379525.49335,  -0.00197,  -0.00033,  -0.00067,481684790.98357,   0.00232,277142334.26390,   0.00013,  -0.00054,  -0.00081,   0.00000,   2.00000
-542503574.19494,-189875508.58725,10447032.61609,  -0.00199,  -0.00034,  -0.00067,481731418.34695,   0.00234,277160472.15411,   0.00011,  -0.00053,  -0.00081,   0.00000,   2.00000
-543133812.80490,-193320541.10450,10507163.27089,  -0.00201,  -0.00035,  -0.00067,481767836.88210,   0.00235,277178634.35126,   0.00009,  -0.00053,  -0.00081,   0.00000,   2.00000
-543737374.02252,-196741732.81320,10566407.51094,  -0.00202,  -0.00036,  -0.00067,481790857.07408,   0.00237,277196767.67746,   0.00007,  -0.00052,  -0.00080,   0.00000,   2.00000
-544315213.56056,-200142423.93360,10624317.13709,  -0.00204,  -0.00037,  -0.00066,481832450.31776,   0.00239,277214944.95608,   0.00004,  -0.00052,  -0.00080,   0.00000,   2.00000
-544867395.60862,-203519407.94260,10675276.74663,  -0.00206,  -0.00038,  -0.00066,481854966.34464,   0.00241,277233090.89583,   0.00002,  -0.00052,  -0.00080,   0.00000,   2.00000
-545397267.31869,-206895112.93975,10724841.20190,  -0.00207,  -0.00039,  -0.00066,481902047.13779,   0.00242,277251301.09255,   0.00000,  -0.00051,  -0.00080,   0.00000,   2.00000
-545899003.31656,-210230099.34341,10773292.83111,  -0.00209,  -0.00040,  -0.00066,481938131.42390,   0.00244,277269532.13936,  -0.00002,  -0.00051,  -0.00080,   0.00000,   2.00000
-546375439.98373,-213541193.99242,10820970.31922,  -0.00211,  -0.00041,  -0.00066,481960969.15278,   0.00246,277287732.21486,  -0.00004,  -0.00051,  -0.00080,   0.00000,   2.00000
-546830320.87230,-216850448.69045,10861181.43047,  -0.00212,  -0.00043,  -0.00065,482007911.72039,   0.00247,277305994.37891,  -0.00006,  -0.00051,  -0.00079,   0.00000,   2.00000
-547258202.40057,-220118791.80832,10900378.64171,  -0.00214,  -0.00044,  -0.00065,482043572.26815,   0.00249,277324274.51980,  -0.00008,  -0.00050,  -0.00079,   0.00000,   2.00000
-547664329.06600,-223382463.09205,10932660.97071,  -0.00216,  -0.00045,  -0.00065,482072037.80173,   0.00251,277342544.30300,  -0.00010,  -0.00050,  -0.00079,   0.00000,   2.00000
-548043765.17672,-226605025.14867,10970096.86652,  -0.00217,  -0.00046,  -0.00065,482107810.11849,   0.00253,277360831.92596,  -0.00012,  -0.00050,  -0.00079,   0.00000,   2.00000
-548399777.22050,-229803921.17079,11000792.79887,  -0.00219,  -0.00047,  -0.00065,482130045.47751,   0.00254,277379085.20704,  -0.00014,  -0.00050,  -0.00079,   0.00000,   2.00000
-548734804.81896,-232999958.18223,11024176.78727,  -0.00221,  -0.00048,  -0.00064,482177385.75465,   0.00256,277397399.84439,  -0.00016,  -0.00049,  -0.00079,   0.00000,   2.00000
-549044025.80857,-236153039.53232,11053297.24403,  -0.00222,  -0.00050,  -0.00064,482194027.73488,   0.00258,277415658.48281,  -0.00019,  -0.00049,  -0.00078,   0.00000,   2.00000
-549330945.16988,-239284289.14495,11075287.17729,  -0.00224,  -0.00051,  -0.00064,482234806.97084,   0.00260,277433953.11888,  -0.00021,  -0.00049,  -0.00078,   0.00000,   2.00000
-549596764.99340,-242411909.31983,11096124.92746,  -0.00226,  -0.00052,  -0.00064,482282820.98899,   0.00261,277452310.37085,  -0.00023,  -0.00049,  -0.00078,   0.00000,   2.00000
-549838980.61334,-245497279.13119,11110582.15807,  -0.00227,  -0.00053,  -0.00064,482298193.72954,   0.00263,277470606.49800,  -0.00025,  -0.00049,  -0.00078,   0.00000,   2.00000
-550058500.92226,-248558947.05371,11130712.38017,  -0.00229,  -0.00054,  -0.00063,482321036.88921,   0.00265,277488870.09477,  -0.00027,  -0.00049,  -0.00078,   0.00000,   2.00000
-550256772.45905,-251598504.90625,11143810.22826,  -0.00230,  -0.00056,  -0.00063,482361651.42152,   0.00266,277507168.07403,  -0.00029,  -0.00048,  -0.00078,   0.00000,   2.00000
-550434974.48298,-254633972.27775,11149765.39726,  -0.00232,  -0.00057,  -0.00063,482409498.78690,   0.00268,277525526.79837,  -0.00031,  -0.00048,  -0.00078,   0.00000,   2.00000
-550590241.00456,-257627465.29707,11161678.56035,  -0.00234,  -0.00058,  -0.00063,482425147.46487,   0.00270,277543825.59342,  -0.00033,  -0.00048,  -0.00077,   0.00000,   2.00000
-550725048.16198,-260598618.81539,11166653.65317,  -0.00235,  -0.00059,  -0.00063,482465673.36868,   0.00272,277562157.59301,  -0.00036,  -0.00048,  -0.00077,   0.00000,   2.00000
-550839028.65566,-263546536.39823,11171337.66971,  -0.00237,  -0.00061,  -0.00062,482487939.56024,   0.00273,277580454.56095,  -0.00038,  -0.00048,  -0.00077,   0.00000,   2.00000
-550933082.82806,-266472030.38421,11169169.19792,  -0.00238,  -0.00062,  -0.00062,482528383.30903,   0.00275,277598784.09205,  -0.00040,  -0.00048,  -0.00077,   0.00000,   2.00000
-551006856.90849,-269374454.00649,11166795.63411,  -0.00240,  -0.00063,  -0.00062,482550580.82463,   0.00277,277617078.39242,  -0.00042,  -0.00048,  -0.00077,   0.00000,   2.00000
-551060559.60924,-272236628.35892,11163937.57242,  -0.00242,  -0.00064,  -0.00062,482583514.84179,   0.00279,277635377.57775,  -0.00044,  -0.00048,  -0.00076,   0.00000,   2.00000
-551094956.96467,-275093811.73482,11160189.71502,  -0.00243,  -0.00066,  -0.00062,482632045.83028,   0.00280,277653738.61288,  -0.00046,  -0.00048,  -0.00076,   0.00000,   2.00000
-551110259.94713,-277928358.78331,11150677.99123,  -0.00245,  -0.00067,  -0.00062,482635105.55252,   0.00282,277671994.19499,  -0.00048,  -0.00048,  -0.00076,   0.00000,   2.00000
-551106767.61432,-280722809.74420,11140288.48239,  -0.00246,  -0.00068,  -0.00061,482686226.87012,   0.00284,277690321.26438,  -0.00050,  -0.00048,  -0.00076,   0.00000,   2.00000
-551084169.28226,-283512334.19709,11130078.46419,  -0.00248,  -0.00070,  -0.00061,482697722.20406,   0.00286,277708574.38713,  -0.00053,  -0.00048,  -0.00076,   0.00000,   2.00000
-551043550.00856,-286261701.95129,11119009.55706,  -0.00250,  -0.00071,  -0.00061,482748552.00054,   0.00287,277726897.56381,  -0.00055,  -0.00048,  -0.00076,   0.00000,   2.00000
-550985243.51288,-288989185.02256,11101787.22693,  -0.00251,  -0.00072,  -0.00061,482769927.70598,   0.00289,277745183.32015,  -0.00057,  -0.00048,  -0.00075,   0.00000,   2.00000
-550909007.89642,-291694720.02284,11084560.15470,  -0.00253,  -0.00074,  -0.00061,482791681.16374,   0.00291,277763433.38067,  -0.00059,  -0.00048,  -0.00075,   0.00000,   2.00000
-550815245.15373,-294377768.66128,11066842.01625,  -0.00254,  -0.00075,  -0.00061,482831961.83745,   0.00293,277781714.94881,  -0.00061,  -0.00048,  -0.00075,   0.00000,   2.00000
-550704550.06149,-297039315.78208,11043057.58760,  -0.00256,  -0.00076,  -0.00061,482853241.89141,   0.00294,277799959.38993,  -0.00063,  -0.00049,  -0.00075,   0.00000,   2.00000
-550576188.08002,-299679061.33088,11025427.16641,  -0.00257,  -0.00078,  -0.00060,482875329.78087,   0.00296,277818169.99622,  -0.00065,  -0.00049,  -0.00075,   0.00000,   2.00000
-550431754.69531,-302295586.67989,11000762.29119,  -0.00259,  -0.00079,  -0.00060,482933591.77771,   0.00298,277836476.63526,  -0.00067,  -0.00049,  -0.00075,   0.00000,   2.00000
-550272098.76754,-304875744.66107,10970845.72527,  -0.00260,  -0.00080,  -0.00060,482927295.88056,   0.00300,277854648.25038,  -0.00070,  -0.00049,  -0.00074,   0.00000,   2.00000
-550095922.72353,-307433603.16822,10946686.57815,  -0.00262,  -0.00082,  -0.00060,482967601.56962,   0.00301,277872852.11040,  -0.00072,  -0.00049,  -0.00074,   0.00000,   2.00000
-549904464.63043,-309969610.86893,10916075.86218,  -0.00264,  -0.00083,  -0.00060,483007052.45974,   0.00303,277891084.97943,  -0.00074,  -0.00049,  -0.00074,   0.00000,   2.00000
-549697247.63201,-312484940.47688,10885649.84514,  -0.00265,  -0.00085,  -0.00060,483028442.85574,   0.00305,277909282.69925,  -0.00076,  -0.00050,  -0.00074,   0.00000,   2.00000
-549474970.92979,-314979996.32247,10849337.05013,  -0.00267,  -0.00086,  -0.00060,483049377.85993,   0.00306,277927444.05623,  -0.00078,  -0.00050,  -0.00074,   0.00000,   2.00000
-549237189.19638,-317452815.22157,10818877.35957,  -0.00268,  -0.00087,  -0.00059,483089558.99047,   0.00308,277945637.36437,  -0.00080,  -0.00050,  -0.00074,   0.00000,   2.00000
-548986574.47049,-319889956.55718,10782785.26276,  -0.00270,  -0.00089,  -0.00059,483100918.18335,   0.00310,277963761.35772,  -0.00082,  -0.00050,  -0.00073,   0.00000,   2.00000
-548721612.73415,-322305508.49752,10746486.27419,  -0.00271,  -0.00090,  -0.00059,483140426.57953,   0.00312,277981915.53162,  -0.00084,  -0.00050,  -0.00073,   0.00000,   2.00000
-548442196.13908,-324701391.39354,10710461.25091,  -0.00273,  -0.00092,  -0.00059,483161540.68671,   0.00313,278000035.39130,  -0.00086,  -0.00051,  -0.00073,   0.00000,   2.00000
-548148995.02981,-327078014.42316,10668638.05274,  -0.00274,  -0.00093,  -0.00059,483182216.01777,   0.00315,278018119.82653,  -0.00088,  -0.00051,  -0.00073,   0.00000,   2.00000
-547842153.73929,-329433171.70279,10626693.30373,  -0.00276,  -0.00094,  -0.00059,483221630.33445,   0.00317,278036234.57302,  -0.00091,  -0.00051,  -0.00073,   0.00000,   2.00000
-547524167.42679,-331751753.45783,10584889.68752,  -0.00277,  -0.00096,  -0.00059,483251060.27256,   0.00319,278054345.13605,  -0.00093,  -0.00052,  -0.00072,   0.00000,   2.00000
-547192258.61464,-334053817.70825,10543909.99311,  -0.00279,  -0.00097,  -0.00059,483253649.54106,   0.00320,278072358.66180,  -0.00095,  -0.00052,  -0.00072,   0.00000,   2.00000
-546848542.30713,-336332776.27534,10496284.24115,  -0.00280,  -0.00099,  -0.00058,483310671.05493,   0.00322,278090464.38184,  -0.00097,  -0.00052,  -0.00072,   0.00000,   2.00000
-546491240.16260,-338595650.76622,10449557.69436,  -0.00282,  -0.00100,  -0.00058,483313298.23728,   0.00324,278108474.05101,  -0.00099,  -0.00053,  -0.00072,   0.00000,   2.00000
-546124195.85958,-340822934.41482,10403060.07825,  -0.00283,  -0.00102,  -0.00058,483342095.23399,   0.00326,278126478.99440,  -0.00101,  -0.00053,  -0.00072,   0.00000,   2.00000
-545741946.49424,-343046897.90498,10356735.24832,  -0.00284,  -0.00103,  -0.00058,483373157.36679,   0.00327,278144486.96925,  -0.00103,  -0.00053,  -0.00072,   0.00000,   2.00000
-545353784.43846,-345221359.76114,10304838.32472,  -0.00286,  -0.00105,  -0.00058,483390899.46692,   0.00329,278162453.04358,  -0.00105,  -0.00054,  -0.00071,   0.00000,   2.00000
-544950763.68258,-347392883.34560,10253190.69462,  -0.00287,  -0.00106,  -0.00058,483421944.16264,   0.00331,278180422.97712,  -0.00107,  -0.00054,  -0.00071,   0.00000,   2.00000
-544539369.83497,-349529764.27131,10201864.25587,  -0.00289,  -0.00108,  -0.00058,483450174.50267,   0.00332,278198387.63827,  -0.00109,  -0.00055,  -0.00071,   0.00000,   2.00000
-544113321.81301,-351663750.59452,10150785.24570,  -0.00290,  -0.00109,  -0.00058,483481386.63024,   0.00334,278216357.18856,  -0.00111,  -0.00055,  -0.00071,   0.00000,   2.00000
-543681771.81186,-353752398.75984,10100739.86417,  -0.00292,  -0.00111,  -0.00058,483480552.08262,   0.00336,278234223.49910,  -0.00113,  -0.00056,  -0.00071,   0.00000,   2.00000
-543236283.61876,-355838824.02858,10044860.76766,  -0.00293,  -0.00112,  -0.00058,483511341.31099,   0.00338,278252094.48254,  -0.00115,  -0.00056,  -0.00071,   0.00000,   2.00000
-542783668.86637,-357891591.68110,9989383.04503,  -0.00295,  -0.00114,  -0.00057,483539013.75123,   0.00339,278269960.08095,  -0.00117,  -0.00057,  -0.00070,   0.00000,   2.00000
-542321064.61727,-359924912.94094,9934047.26859,  -0.00296,  -0.00115,  -0.00057,483577424.71555,   0.00341,278287856.83953,  -0.00119,  -0.00057,  -0.00070,   0.00000,   2.00000
-541850583.47016,-361932143.73689,9873918.23252,  -0.00297,  -0.00117,  -0.00057,483568349.55894,   0.00343,278305625.09789,  -0.00122,  -0.00058,  -0.00070,   0.00000,   2.00000
-541366709.19898,-363933633.18845,9819806.33164,  -0.00299,  -0.00118,  -0.00057,483618062.23949,   0.00344,278323463.37786,  -0.00124,  -0.00058,  -0.00070,   0.00000,   2.00000
-540880871.80158,-365889271.78200,9760298.07032,  -0.00300,  -0.00120,  -0.00057,483633652.17110,   0.00346,278341257.51075,  -0.00126,  -0.00059,  -0.00070,   0.00000,   2.00000
-540380312.98568,-367846741.96812,9701592.54093,  -0.00302,  -0.00121,  -0.00057,483647063.00340,   0.00348,278359000.51850,  -0.00128,  -0.00059,  -0.00070,   0.00000,   2.00000
-539874853.42072,-369772425.44930,9637295.17712,  -0.00303,  -0.00123,  -0.00057,483673521.00915,   0.00350,278376736.85624,  -0.00130,  -0.00060,  -0.00069,   0.00000,   2.00000
-539360328.18001,-371679373.68733,9579361.56021,  -0.00305,  -0.00124,  -0.00057,483711903.71209,   0.00351,278394506.62923,  -0.00132,  -0.00060,  -0.00069,   0.00000,   2.00000
-538839121.03810,-373562663.32020,9516671.94018,  -0.00306,  -0.00126,  -0.00057,483702321.72542,   0.00353,278412150.52122,  -0.00134,  -0.00061,  -0.00069,   0.00000,   2.00000
-538309681.21469,-375427910.21417,9454266.46220,  -0.00307,  -0.00127,  -0.00057,483740146.19869,   0.00355,278429827.09459,  -0.00136,  -0.00061,  -0.00069,   0.00000,   2.00000
-537772219.64955,-377275166.25732,9392149.58894,  -0.00309,  -0.00129,  -0.00057,483777978.70521,   0.00356,278447536.46156,  -0.00138,  -0.00062,  -0.00069,   0.00000,   2.00000
-537228178.98781,-379099659.44129,9331400.56640,  -0.00310,  -0.00130,  -0.00056,483768543.48583,   0.00358,278465122.55347,  -0.00140,  -0.00063,  -0.00069,   0.00000,   2.00000
-536676909.20769,-380906841.42165,9264859.20850,  -0.00311,  -0.00132,  -0.00056,483805841.43319,   0.00360,278482740.77208,  -0.00142,  -0.00063,  -0.00068,   0.00000,   2.00000
-536121887.62290,-382683734.02872,9205014.01319,  -0.00313,  -0.00134,  -0.00056,483832056.87612,   0.00361,278500354.93968,  -0.00143,  -0.00064,  -0.00068,   0.00000,   2.00000
-535557094.08210,-384451967.46383,9140172.28331,  -0.00314,  -0.00135,  -0.00056,483833780.95073,   0.00363,278517884.77287,  -0.00145,  -0.00065,  -0.00068,   0.00000,   2.00000
-534985621.85456,-386203338.37500,9069609.54265,  -0.00315,  -0.00137,  -0.00056,483870935.66322,   0.00365,278535447.45611,  -0.00147,  -0.00065,  -0.00068,   0.00000,   2.00000
-534409519.66116,-387929398.70901,9006201.12373,  -0.00317,  -0.00138,  -0.00056,483879138.45829,   0.00366,278552948.41504,  -0.00149,  -0.00066,  -0.00068,   0.00000,   2.00000
-533827140.15792,-389639002.09993,8937066.88850,  -0.00318,  -0.00140,  -0.00056,483916153.85542,   0.00368,278570482.62019,  -0.00151,  -0.00067,  -0.00068,  -0.00000,   2.00000
-533240544.64449,-391324007.32731,8875074.67816,  -0.00320,  -0.00142,  -0.00056,483924139.23034,   0.00370,278587955.56868,  -0.00153,  -0.00067,  -0.00068,  -0.00000,   2.00000
-532646290.31259,-392997342.42819,8807729.95780,  -0.00321,  -0.00143,  -0.00056,483943436.63825,   0.00372,278605404.80999,  -0.00155,  -0.00068,  -0.00067,   0.00000,   2.00000
-532048901.86372,-394647275.49958,8735365.35252,  -0.00322,  -0.00145,  -0.00056,483950528.64264,   0.00373,278622791.25016,  -0.00157,  -0.00069,  -0.00067,   0.00000,   2.00000
-531445168.08476,-396280985.05620,8669555.09163,  -0.00323,  -0.00146,  -0.00056,483987953.78381,   0.00375,278640214.19248,  -0.00159,  -0.00070,  -0.00067,   0.00000,   2.00000
-530838288.81356,-397891713.80687,8604780.40465,  -0.00325,  -0.00148,  -0.00056,483995191.74921,   0.00377,278657575.97032,  -0.00161,  -0.00070,  -0.00067,   0.00000,   2.00000
-530224191.78149,-399491713.66141,8534698.23375,  -0.00326,  -0.00150,  -0.00056,484014347.95326,   0.00378,278674915.84244,  -0.00163,  -0.00071,  -0.00067,   0.00000,   2.00000
-529609252.42122,-401064728.28061,8465346.55048,  -0.00327,  -0.00151,  -0.00056,484038847.61923,   0.00380,278692251.74470,  -0.00165,  -0.00072,  -0.00067,  -0.00000,   2.00000
-528984873.09238,-402631899.66645,8397181.99479,  -0.00329,  -0.00153,  -0.00056,484040853.68484,   0.00382,278709511.33014,  -0.00167,  -0.00073,  -0.00066,  -0.00000,   2.00000
-528360378.77948,-404172865.78320,8323659.23998,  -0.00330,  -0.00154,  -0.00056,484064795.83817,   0.00383,278726766.27825,  -0.00168,  -0.00074,  -0.00066,  -0.00000,   2.00000
-527730523.08744,-405698699.47182,8256741.16583,  -0.00331,  -0.00156,  -0.00055,484101848.76947,   0.00385,278744059.16643,  -0.00170,  -0.00074,  -0.00066,   0.00000,   2.00000
-527096518.14360,-407208538.75107,8185159.03930,  -0.00333,  -0.00158,  -0.00055,484090907.66441,   0.00387,278761235.92282,  -0.00172,  -0.00075,  -0.00066,   0.00000,   2.00000
-526462636.29975,-408692848.63722,8114348.16353,  -0.00334,  -0.00159,  -0.00055,484114774.09205,   0.00388,278778409.44934,  -0.00174,  -0.00076,  -0.00066,   0.00000,   2.00000
-525821845.18071,-410167829.97042,8044393.49498,  -0.00335,  -0.00161,  -0.00055,484133996.02467,   0.00390,278795565.16658,  -0.00176,  -0.00077,  -0.00066,  -0.00000,   2.00000
-525174192.14156,-411633533.80644,7975284.36256,  -0.00336,  -0.00163,  -0.00055,484153267.00016,   0.00392,278812703.62464,  -0.00178,  -0.00078,  -0.00066,  -0.00000,   2.00000
-524532178.24823,-413063638.08041,7907177.92806,  -0.00338,  -0.00164,  -0.00055,484163980.30539,   0.00393,278829798.22998,  -0.00179,  -0.00079,  -0.00065,   0.00000,   2.00000
-523878808.99767,-414496016.23158,7833576.84480,  -0.00339,  -0.00166,  -0.00055,484195738.51815,   0.00395,278846916.50834,  -0.00181,  -0.00079,  -0.00065,   0.00000,   2.00000
-523228596.40716,-415898282.18789,7767443.21308,  -0.00340,  -0.00168,  -0.00055,484189288.59752,   0.00396,278863937.15745,  -0.00183,  -0.00080,  -0.00065,  -0.00000,   2.00000
-522572160.04193,-417292560.60878,7696039.36201,  -0.00341,  -0.00169,  -0.00055,484208050.88691,   0.00398,278880941.24651,  -0.00185,  -0.00081,  -0.00065,   0.00000,   2.00000
-521909203.24452,-418678633.62633,7625506.22029,  -0.00343,  -0.00171,  -0.00055,484227169.96094,   0.00400,278897930.28417,  -0.00187,  -0.00082,  -0.00065,   0.00000,   2.00000
-521253174.35694,-420031100.90065,7549933.46788,  -0.00344,  -0.00173,  -0.00055,484236793.69426,   0.00401,278914874.80971,  -0.00189,  -0.00083,  -0.00065,   0.00000,   2.00000
-520590466.76456,-421375762.29106,7481362.10475,  -0.00345,  -0.00174,  -0.00055,484256047.32235,   0.00403,278931805.89199,  -0.00190,  -0.00084,  -0.00065,   0.00000,   2.00000
-519921743.34160,-422713132.52720,7407556.94511,  -0.00346,  -0.00176,  -0.00055,484274780.46729,   0.00405,278948722.21677,  -0.00192,  -0.00085,  -0.00065,   0.00000,   2.00000
-519254599.29444,-424027488.60532,7340664.63043,  -0.00347,  -0.00178,  -0.00055,484297827.60593,   0.00406,278965637.98192,  -0.00194,  -0.00086,  -0.00064,   0.00000,   2.00000
-518583884.50904,-425330280.87588,7269063.22110,  -0.00349,  -0.00179,  -0.00055,484286217.04371,   0.00408,278982444.02779,  -0.00196,  -0.00087,  -0.00064,   0.00000,   2.00000
-517915316.82406,-426610956.42157,7198277.38432,  -0.00350,  -0.00181,  -0.00055,484308682.37700,   0.00410,278999248.93063,  -0.00197,  -0.00088,  -0.00064,  -0.00000,   2.00000
-517240911.65258,-427885235.77910,7122289.83424,  -0.00351,  -0.00183,  -0.00055,484327275.51535,   0.00411,279016040.73905,  -0.00199,  -0.00089,  -0.00064,   0.00000,   2.00000
-516565484.93976,-429142980.26524,7053548.58639,  -0.00352,  -0.00184,  -0.00055,484332978.68405,   0.00413,279032779.33327,  -0.00201,  -0.00090,  -0.00064,   0.00000,   2.00000
-515892601.14919,-430379367.03318,6985594.67177,  -0.00353,  -0.00186,  -0.00055,484355149.41471,   0.00414,279049517.21865,  -0.00203,  -0.00091,  -0.00064,   0.00000,   2.00000
-515213997.27724,-431609941.49660,6912404.93551,  -0.00354,  -0.00188,  -0.00055,484373685.07518,   0.00416,279066243.21904,  -0.00204,  -0.00092,  -0.00064,  -0.00000,   2.00000
-514537020.46409,-432821059.60656,6840863.88893,  -0.00356,  -0.00189,  -0.00055,484348476.53760,   0.00418,279082820.52186,  -0.00206,  -0.00093,  -0.00064,  -0.00000,   2.00000
-513857403.51998,-434021064.43220,6769921.89817,  -0.00357,  -0.00191,  -0.00055,484383931.68859,   0.00419,279099440.41772,  -0.00208,  -0.00094,  -0.00063,   0.00000,   2.00000
-513175263.45456,-435209995.78321,6699578.45396,  -0.00358,  -0.00193,  -0.00055,484419427.92180,   0.00421,279116103.11234,  -0.00209,  -0.00095,  -0.00063,  -0.00000,   2.00000
-512494825.72718,-436380564.25905,6630829.59261,  -0.00359,  -0.00194,  -0.00055,484393991.91409,   0.00423,279132618.10564,  -0.00211,  -0.00096,  -0.00063,   0.00000,   2.00000
-511812276.59746,-437540692.61657,6556582.18585,  -0.00360,  -0.00196,  -0.00055,484429065.67644,   0.00424,279149175.61134,  -0.00213,  -0.00097,  -0.00063,   0.00000,   2.00000
-511125566.08220,-438692080.70374,6489817.03727,  -0.00361,  -0.00198,  -0.00055,484417518.97759,   0.00426,279165630.09578,  -0.00214,  -0.00098,  -0.00063,   0.00000,   2.00000
-510442486.60705,-439824218.07496,6417753.25984,  -0.00362,  -0.00199,  -0.00055,484438661.19202,   0.00427,279182084.45784,  -0.00216,  -0.00099,  -0.00063,   0.00000,   2.00000
-509757257.28772,-440946112.30012,6346319.65606,  -0.00364,  -0.00201,  -0.00055,484473875.59617,   0.00429,279198582.85666,  -0.00218,  -0.00100,  -0.00063,  -0.00000,   2.00000
-509073739.78190,-442051450.19453,6276461.34322,  -0.00365,  -0.00203,  -0.00055,484448026.87941,   0.00431,279214935.21076,  -0.00219,  -0.00101,  -0.00063,  -0.00000,   2.00000
-508384357.36673,-443152575.05207,6207462.39957,  -0.00366,  -0.00205,  -0.00055,484466545.83479,   0.00432,279231280.56872,  -0.00221,  -0.00102,  -0.00063,   0.00000,   2.00000
-507698701.27030,-444235110.66875,6139274.75472,  -0.00367,  -0.00206,  -0.00055,484487592.71876,   0.00434,279247627.18325,  -0.00223,  -0.00103,  -0.00062,   0.00000,   2.00000
-507012933.25720,-445305085.35378,6072138.87101,  -0.00368,  -0.00208,  -0.00054,484492039.01936,   0.00435,279263923.76627,  -0.00224,  -0.00104,  -0.00062,   0.00000,   2.00000
-506327308.17442,-446362969.05385,5999963.22736,  -0.00369,  -0.00210,  -0.00054,484496171.49392,   0.00437,279280169.87158,  -0.00226,  -0.00105,  -0.00062,   0.00000,   2.00000
-505641583.54519,-447408801.88977,5928884.62317,  -0.00370,  -0.00211,  -0.00054,484500459.96229,   0.00438,279296366.51821,  -0.00227,  -0.00106,  -0.00062,  -0.00000,   2.00000
-504949768.18446,-448451009.11835,5864755.45503,  -0.00371,  -0.00213,  -0.00054,484519116.05455,   0.00440,279312558.71514,  -0.00229,  -0.00108,  -0.00062,   0.00000,   2.00000
-504268077.23451,-449467579.41869,5795509.43955,  -0.00372,  -0.00215,  -0.00054,484525256.68620,   0.00442,279328708.09348,  -0.00230,  -0.00109,  -0.00062,   0.00000,   2.00000
-503580538.98073,-450481157.57632,5727114.85742,  -0.00373,  -0.00217,  -0.00054,484543608.98811,   0.00443,279344852.86925,  -0.00232,  -0.00110,  -0.00062,   0.00000,   2.00000
-502888905.77741,-451489527.09260,5653912.98373,  -0.00374,  -0.00218,  -0.00054,484531175.09473,   0.00445,279360898.04533,  -0.00234,  -0.00111,  -0.00062,   0.00000,   2.00000
-502201317.51185,-452480817.77516,5587657.95674,  -0.00375,  -0.00220,  -0.00054,484551717.23860,   0.00446,279376946.35215,  -0.00235,  -0.00112,  -0.00062,   0.00000,   2.00000
-501513689.20609,-453461361.25544,5522409.90924,  -0.00376,  -0.00222,  -0.00054,484555677.64470,   0.00448,279392946.80953,  -0.00237,  -0.00113,  -0.00062,   0.00000,   2.00000
-500836538.59447,-454417765.48492,5452052.15908,  -0.00377,  -0.00223,  -0.00054,484561151.58677,   0.00449,279408904.64877,  -0.00238,  -0.00114,  -0.00062,   0.00000,   2.00000
-500148738.98835,-455377702.74242,5388848.69920,  -0.00378,  -0.00225,  -0.00054,484563344.44355,   0.00451,279424810.10840,  -0.00240,  -0.00115,  -0.00061,   0.00000,   2.00000
-499465655.64434,-456321861.36217,5320313.99271,  -0.00379,  -0.00227,  -0.00054,484583079.35961,   0.00453,279440717.79325,  -0.00241,  -0.00117,  -0.00061,   0.00000,   2.00000
-498777890.52944,-457262085.35452,5253014.82592,  -0.00380,  -0.00229,  -0.00054,484570629.94621,   0.00454,279456528.71332,  -0.00243,  -0.00118,  -0.00061,   0.00000,   2.00000
-498094708.79523,-458186718.39349,5186512.52107,  -0.00381,  -0.00230,  -0.00054,484590394.73750,   0.00456,279472342.79606,  -0.00244,  -0.00119,  -0.00061,   0.00000,   2.00000
-497405532.95259,-459109573.99536,5120818.49020,  -0.00382,  -0.00232,  -0.00054,484608589.80005,   0.00457,279488155.38580,  -0.00246,  -0.00120,  -0.00061,   0.00000,   2.00000
-496722400.68751,-460015626.16513,5050210.76818,  -0.00383,  -0.00234,  -0.00054,484597377.53238,   0.00459,279503876.27709,  -0.00247,  -0.00121,  -0.00061,   0.00000,   2.00000
-496038941.55125,-460912459.97622,4986718.85927,  -0.00384,  -0.00235,  -0.00054,484601038.13091,   0.00460,279519551.84035,  -0.00249,  -0.00122,  -0.00061,  -0.00000,   2.00000
-495355340.68687,-461800445.73218,4924171.87912,  -0.00385,  -0.00237,  -0.00054,484604446.93618,   0.00462,279535181.71926,  -0.00250,  -0.00124,  -0.00061,  -0.00000,   2.00000
-494682670.67699,-462666615.59414,4856461.22531,  -0.00386,  -0.00239,  -0.00054,484608849.79995,   0.00463,279550769.43444,  -0.00252,  -0.00125,  -0.00061,   0.00000,   2.00000
-493998829.53277,-463537831.15241,4789756.59140,  -0.00387,  -0.00241,  -0.00054,484610867.90794,   0.00465,279566307.99128,  -0.00253,  -0.00126,  -0.00061,   0.00000,   2.00000
-493319653.68616,-464394585.11153,4729919.07331,  -0.00388,  -0.00242,  -0.00054,484630235.96225,   0.00466,279581851.09146,  -0.00254,  -0.00127,  -0.00061,   0.00000,   2.00000
-492640446.64262,-465243442.87310,4664890.94992,  -0.00389,  -0.00244,  -0.00054,484633254.10502,   0.00468,279597348.75500,  -0.00256,  -0.00128,  -0.00061,  -0.00000,   2.00000
-491960991.88319,-466084389.74739,4600812.26242,  -0.00390,  -0.00246,  -0.00054,484636407.83741,   0.00469,279612801.78902,  -0.00257,  -0.00130,  -0.00060,   0.00000,   2.00000
-491287244.27531,-466910504.68090,4537834.86108,  -0.00391,  -0.00247,  -0.00054,484624606.93474,   0.00471,279628164.76601,  -0.00259,  -0.00131,  -0.00060,  -0.00000,   2.00000
-490607342.46852,-467736382.84582,4469527.47057,  -0.00392,  -0.00249,  -0.00054,484642326.65880,   0.00472,279643528.65990,  -0.00260,  -0.00132,  -0.00060,   0.00000,   2.00000
-489932923.74352,-468547682.50936,4408442.01593,  -0.00393,  -0.00251,  -0.00054,484630548.08591,   0.00474,279658803.34955,  -0.00261,  -0.00133,  -0.00060,   0.00000,   2.00000
-489258104.67443,-469351854.38087,4348241.10978,  -0.00394,  -0.00252,  -0.00055,484633415.02563,   0.00475,279674034.21783,  -0.00263,  -0.00134,  -0.00060,   0.00000,   2.00000
-488588466.11277,-470143196.82330,4282662.94421,  -0.00395,  -0.00254,  -0.00055,484651814.98801,   0.00477,279689269.16713,  -0.00264,  -0.00136,  -0.00060,   0.00000,   2.00000
-487912707.94013,-470933627.48589,4224264.83665,  -0.00396,  -0.00256,  -0.00055,484639048.74491,   0.00478,279704413.00869,  -0.00265,  -0.00137,  -0.00060,  -0.00000,   2.00000
-487242167.57492,-471711486.02680,4160465.13360,  -0.00397,  -0.00258,  -0.00055,484657319.80742,   0.00480,279719561.20364,  -0.00267,  -0.00138,  -0.00060,   0.00000,   2.00000
-486577119.93236,-472476171.92555,4097724.58593,  -0.00397,  -0.00259,  -0.00055,484644909.68506,   0.00481,279734620.12579,  -0.00268,  -0.00139,  -0.00060,   0.00000,   2.00000
-485905452.77139,-473241273.22270,4035720.42667,  -0.00398,  -0.00261,  -0.00055,484662620.11350,   0.00483,279749682.33144,  -0.00269,  -0.00140,  -0.00060,   0.00000,   2.00000
-485239215.94463,-473993561.75163,3974742.03239,  -0.00399,  -0.00263,  -0.00055,484650079.38052,   0.00484,279764655.56361,  -0.00271,  -0.00142,  -0.00060,  -0.00000,   2.00000
-484572308.46877,-474739885.06423,3914622.41330,  -0.00400,  -0.00264,  -0.00055,484652574.19855,   0.00486,279779586.25153,  -0.00272,  -0.00143,  -0.00060,   0.00000,   2.00000
