# sigma_xx, sigma_yy, sigma_xy, epsilon_xx, epsilon_yy, epsilon_xy, vonMises, epsPlastic, hardening, epsilonP__xx, epsilonP__yy, epsilonP__xy, yieldValue, iteration
   0.00000,   0.00000,   0.00000,   0.00000,   0.00000,   0.00000,1181185.37500,   0.00000,274640576.00000,   0.00000,   0.00000,   0.00000,-473459392.00000,   0.00000
   0.00000,   0.00000,   0.00000,   0.00000,   0.00000,   0.00000,1181185.37500,   0.00000,274640576.00000,   0.00000,   0.00000,   0.00000,-473459392.00000,   0.00000
-3532455.36787,-2894720.12516,104628.43826,  -0.00001,  -0.00001,   0.00000,2881225.00000,   0.00000,274640576.00000,   0.00000,   0.00000,   0.00000,-471759360.00000,   0.00000
-7047472.66271,-5781966.79044,204274.56993,  -0.00002,  -0.00001,   0.00000,6122499.00000,   0.00000,274640576.00000,   0.00000,   0.00000,   0.00000,-468518080.00000,   0.00000
-10579928.03058,-8676686.91559,303920.70161,  -0.00003,  -0.00002,   0.00000,9452693.00000,   0.00000,274640576.00000,   0.00000,   0.00000,   0.00000,-465187888.00000,   0.00000
-14087471.86554,-11546495.50783,398584.52670,  -0.00004,  -0.00003,   0.00001,12673244.00000,   0.00000,274640576.00000,   0.00000,   0.00000,   0.00000,-461967328.00000,   0.00000
-17612453.77354,-14423777.55994,488266.04521,  -0.00005,  -0.00003,   0.00001,15893541.00000,   0.00000,274640576.00000,   0.00000,   0.00000,   0.00000,-458747040.00000,   0.00000
-21137435.68154,-17301059.61205,572965.25713,  -0.00006,  -0.00004,   0.00001,19134018.00000,   0.00000,274640576.00000,   0.00000,   0.00000,   0.00000,-455506560.00000,   0.00000
-24644979.51649,-20170868.20429,657664.46905,  -0.00007,  -0.00004,   0.00001,22382110.00000,   0.00000,274640576.00000,   0.00000,   0.00000,   0.00000,-452258464.00000,   0.00000
-28169961.42449,-23048150.25640,737381.37439,  -0.00008,  -0.00005,   0.00001,25651464.00000,   0.00000,274640576.00000,   0.00000,   0.00000,   0.00000,-448989120.00000,   0.00000
-31670031.79957,-25900520.77560,817098.27973,  -0.00009,  -0.00006,   0.00001,28893002.00000,   0.00000,274640576.00000,   0.00000,   0.00000,   0.00000,-445747568.00000,   0.00000
-35187540.24770,-28760364.75467,886850.57191,  -0.00010,  -0.00006,   0.00001,32141186.00000,   0.00000,274640576.00000,   0.00000,   0.00000,   0.00000,-442499392.00000,   0.00000
-38705048.69582,-31620208.73373,956602.86408,  -0.00011,  -0.00007,   0.00001,35385640.00000,   0.00000,274640576.00000,   0.00000,   0.00000,   0.00000,-439254944.00000,   0.00000
-42205119.07090,-34472579.25293,1026355.15625,  -0.00012,  -0.00007,   0.00001,38616408.00000,   0.00000,274640576.00000,   0.00000,   0.00000,   0.00000,-436024160.00000,   0.00000
-45715154.05915,-37314985.15895,1086142.83526,  -0.00014,  -0.00008,   0.00001,41851752.00000,   0.00000,274640576.00000,   0.00000,   0.00000,   0.00000,-432788832.00000,   0.00000
-49207750.97435,-40149917.60510,1145930.51426,  -0.00015,  -0.00009,   0.00001,45075204.00000,   0.00000,274640576.00000,   0.00000,   0.00000,   0.00000,-429565376.00000,   0.00000
-52717785.96260,-42992323.51113,1200735.88668,  -0.00016,  -0.00009,   0.00002,48312452.00000,   0.00000,274640576.00000,   0.00000,   0.00000,   0.00000,-426328128.00000,   0.00000
-56202909.41793,-45809817.88424,1255541.25910,  -0.00017,  -0.00010,   0.00002,51523588.00000,   0.00000,274640576.00000,   0.00000,   0.00000,   0.00000,-423116992.00000,   0.00000
-59695506.33313,-48644750.33039,1305364.32494,  -0.00018,  -0.00010,   0.00002,54742644.00000,   0.00000,274640576.00000,   0.00000,   0.00000,   0.00000,-419897936.00000,   0.00000
-63180629.78846,-51462244.70350,1350205.08419,  -0.00019,  -0.00011,   0.00002,57948764.00000,   0.00000,274640576.00000,   0.00000,   0.00000,   0.00000,-416691808.00000,   0.00000
-66675717.85696,-54269774.46344,1390063.53686,  -0.00020,  -0.00012,   0.00002,61157124.00000,   0.00000,274640576.00000,   0.00000,   0.00000,   0.00000,-413483456.00000,   0.00000
-70160841.31229,-57087268.83654,1429921.98953,  -0.00021,  -0.00012,   0.00002,64363756.00000,   0.00000,274640576.00000,   0.00000,   0.00000,   0.00000,-410276816.00000,   0.00000
-73638491.30774,-59887325.13661,1464798.13562,  -0.00022,  -0.00013,   0.00002,67562008.00000,   0.00000,274640576.00000,   0.00000,   0.00000,   0.00000,-407078560.00000,   0.00000
-77091229.77028,-62662469.90375,1494691.97512,  -0.00023,  -0.00013,   0.00002,70738560.00000,   0.00000,274640576.00000,   0.00000,   0.00000,   0.00000,-403902016.00000,   0.00000
-80568879.76573,-65462526.20382,1524585.81463,  -0.00024,  -0.00014,   0.00002,73942392.00000,   0.00000,274640576.00000,   0.00000,   0.00000,   0.00000,-400698176.00000,   0.00000
-84039056.30131,-68245144.43084,1544515.04096,  -0.00025,  -0.00015,   0.00002,77136208.00000,   0.00000,274640576.00000,   0.00000,   0.00000,   0.00000,-397504368.00000,   0.00000
-87491794.76384,-71020289.19799,1569426.57388,  -0.00026,  -0.00015,   0.00002,80316184.00000,   0.00000,274640576.00000,   0.00000,   0.00000,   0.00000,-394324384.00000,   0.00000
-90954497.83955,-73785469.35196,1584373.49363,  -0.00027,  -0.00016,   0.00002,83496616.00000,   0.00000,274640576.00000,   0.00000,   0.00000,   0.00000,-391143968.00000,   0.00000
-94399762.84221,-76543176.04607,1599320.41338,  -0.00028,  -0.00016,   0.00002,86659736.00000,   0.00000,274640576.00000,   0.00000,   0.00000,   0.00000,-387980832.00000,   0.00000
-97845027.84487,-79300882.74017,1609285.02655,  -0.00029,  -0.00017,   0.00002,89818448.00000,   0.00000,274640576.00000,   0.00000,   0.00000,   0.00000,-384822128.00000,   0.00000
-101282819.38765,-82041151.36123,1614267.33313,  -0.00030,  -0.00018,   0.00002,92962040.00000,   0.00000,274640576.00000,   0.00000,   0.00000,   0.00000,-381678528.00000,   0.00000
-104720610.93043,-84781419.98229,1619249.63972,  -0.00031,  -0.00018,   0.00002,96102184.00000,   0.00000,274640576.00000,   0.00000,   0.00000,   0.00000,-378538400.00000,   0.00000
-108140964.40017,-87514215.14347,1619249.63972,  -0.00032,  -0.00019,   0.00002,99226176.00000,   0.00000,274640576.00000,   0.00000,   0.00000,   0.00000,-375414400.00000,   0.00000
-111578755.94296,-90254483.76453,1614267.33313,  -0.00033,  -0.00019,   0.00002,102362952.00000,   0.00000,274640576.00000,   0.00000,   0.00000,   0.00000,-372277632.00000,   0.00000
-114984162.49295,-92952402.77963,1609285.02655,  -0.00034,  -0.00020,   0.00002,105465488.00000,   0.00000,274640576.00000,   0.00000,   0.00000,   0.00000,-369175088.00000,   0.00000
-118397042.50281,-95667759.86777,1599320.41338,  -0.00035,  -0.00020,   0.00002,108580728.00000,   0.00000,274640576.00000,   0.00000,   0.00000,   0.00000,-366059840.00000,   0.00000
-121802449.05280,-98365678.88287,1584373.49363,  -0.00036,  -0.00021,   0.00002,111688048.00000,   0.00000,274640576.00000,   0.00000,   0.00000,   0.00000,-362952528.00000,   0.00000
-125207855.60279,-101063597.89796,1569426.57388,  -0.00037,  -0.00022,   0.00002,114798840.00000,   0.00000,274640576.00000,   0.00000,   0.00000,   0.00000,-359841728.00000,   0.00000
-128605788.69290,-103744078.84002,1549497.34754,  -0.00038,  -0.00022,   0.00002,117901920.00000,   0.00000,274640576.00000,   0.00000,   0.00000,   0.00000,-356738656.00000,   0.00000
-131993757.16985,-106434524.39524,1524585.81463,  -0.00039,  -0.00023,   0.00002,121004352.00000,   0.00000,274640576.00000,   0.00000,   0.00000,   0.00000,-353636224.00000,   0.00000
-135366778.72705,-109090093.80438,1494691.97512,  -0.00040,  -0.00023,   0.00002,124086832.00000,   0.00000,274640576.00000,   0.00000,   0.00000,   0.00000,-350553744.00000,   0.00000
-138739800.28424,-111745663.21351,1464798.13562,  -0.00041,  -0.00024,   0.00002,127169720.00000,   0.00000,274640576.00000,   0.00000,   0.00000,   0.00000,-347470848.00000,   0.00000
-142112821.84144,-114401232.62265,1429921.98953,  -0.00042,  -0.00024,   0.00002,130251696.00000,   0.00000,274640576.00000,   0.00000,   0.00000,   0.00000,-344388880.00000,   0.00000
-145468405.32559,-117049328.57191,1395045.84345,  -0.00043,  -0.00025,   0.00002,133318032.00000,   0.00000,274640576.00000,   0.00000,   0.00000,   0.00000,-341322544.00000,   0.00000
-148816515.34986,-119679986.44813,1350205.08419,  -0.00044,  -0.00025,   0.00002,136370752.00000,   0.00000,274640576.00000,   0.00000,   0.00000,   0.00000,-338269824.00000,   0.00000
-152157151.91426,-122293206.25130,1305364.32494,  -0.00045,  -0.00026,   0.00002,139409840.00000,   0.00000,274640576.00000,   0.00000,   0.00000,   0.00000,-335230736.00000,   0.00000
-155497788.47867,-124906426.05447,1260523.56569,  -0.00046,  -0.00027,   0.00002,142446064.00000,   0.00000,274640576.00000,   0.00000,   0.00000,   0.00000,-332194512.00000,   0.00000
-158838425.04307,-127519645.85765,1210700.49985,  -0.00047,  -0.00027,   0.00002,145479632.00000,   0.00000,274640576.00000,   0.00000,   0.00000,   0.00000,-329160944.00000,   0.00000
-162154150.07455,-130107954.12790,1155895.12743,  -0.00048,  -0.00028,   0.00002,148487072.00000,   0.00000,274640576.00000,   0.00000,   0.00000,   0.00000,-326153504.00000,   0.00000
-165469875.10603,-132696262.39816,1096107.44842,  -0.00049,  -0.00028,   0.00001,151494016.00000,   0.00000,274640576.00000,   0.00000,   0.00000,   0.00000,-323146560.00000,   0.00000
-168778126.67764,-135267132.59537,1036319.76942,  -0.00050,  -0.00029,   0.00001,154491248.00000,   0.00000,274640576.00000,   0.00000,   0.00000,   0.00000,-320149328.00000,   0.00000
-172068940.17620,-137830529.33271,971549.78383,  -0.00051,  -0.00029,   0.00001,157476672.00000,   0.00000,274640576.00000,   0.00000,   0.00000,   0.00000,-317163904.00000,   0.00000
-175359753.67476,-140393926.07004,901797.49166,  -0.00052,  -0.00030,   0.00001,160465312.00000,   0.00000,274640576.00000,   0.00000,   0.00000,   0.00000,-314175264.00000,   0.00000
-178643093.71345,-142939884.73434,832045.19949,  -0.00053,  -0.00030,   0.00001,163447088.00000,   0.00000,274640576.00000,   0.00000,   0.00000,   0.00000,-311193488.00000,   0.00000
-181918960.29226,-145468405.32559,757310.60073,  -0.00054,  -0.00031,   0.00001,166421952.00000,   0.00000,274640576.00000,   0.00000,   0.00000,   0.00000,-308218624.00000,   0.00000
-185177388.79803,-147989452.45696,677593.69539,  -0.00055,  -0.00031,   0.00001,169385664.00000,   0.00000,274640576.00000,   0.00000,   0.00000,   0.00000,-305254912.00000,   0.00000
-188435817.30380,-150510499.58834,597876.79005,  -0.00056,  -0.00032,   0.00001,172351088.00000,   0.00000,274640576.00000,   0.00000,   0.00000,   0.00000,-302289488.00000,   0.00000
-191686772.34969,-153014108.64667,513177.57813,  -0.00057,  -0.00032,   0.00001,175306304.00000,   0.00000,274640576.00000,   0.00000,   0.00000,   0.00000,-299334272.00000,   0.00000
-194920289.32254,-155510244.24512,428478.36620,  -0.00058,  -0.00033,   0.00001,178247632.00000,   0.00000,274640576.00000,   0.00000,   0.00000,   0.00000,-296392944.00000,   0.00000
-198146332.83552,-157988941.77054,333814.54111,  -0.00059,  -0.00033,   0.00000,181177984.00000,   0.00000,274640576.00000,   0.00000,   0.00000,   0.00000,-293462592.00000,   0.00000
-201372376.34849,-160467639.29595,239150.71602,  -0.00060,  -0.00034,   0.00000,184107056.00000,   0.00000,274640576.00000,   0.00000,   0.00000,   0.00000,-290533520.00000,   0.00000
-204573508.32855,-162921425.28844,144486.89093,  -0.00061,  -0.00034,   0.00000,187007152.00000,   0.00000,274640576.00000,   0.00000,   0.00000,   0.00000,-287633424.00000,   0.00000
-207774640.30860,-165375211.28094,44840.75925,  -0.00062,  -0.00035,   0.00000,189899216.00000,   0.00000,274640576.00000,   0.00000,   0.00000,   0.00000,-284741360.00000,   0.00000
-210968298.82878,-167811559.20039,-59787.67900,  -0.00063,  -0.00035,  -0.00000,192775552.00000,   0.00000,274640576.00000,   0.00000,   0.00000,   0.00000,-281865024.00000,   0.00000
-214137045.81605,-170222995.58692,-164416.11726,  -0.00064,  -0.00036,  -0.00000,195651456.00000,   0.00000,274640576.00000,   0.00000,   0.00000,   0.00000,-278989120.00000,   0.00000
-217313266.26318,-172651870.04650,-279009.16869,  -0.00065,  -0.00036,  -0.00000,198664752.00000,   0.00000,274640576.00000,   0.00000,   0.00000,   0.00000,-275975824.00000,   0.00000
-220474539.79057,-175045868.35999,-388619.91353,  -0.00066,  -0.00037,  -0.00001,201751952.00000,   0.00000,274640576.00000,   0.00000,   0.00000,   0.00000,-272888624.00000,   0.00000
-223625848.70479,-177449831.28664,-508195.27154,  -0.00067,  -0.00037,  -0.00001,204607200.00000,   0.00000,274640576.00000,   0.00000,   0.00000,   0.00000,-270033376.00000,   0.00000
-226762210.69925,-179818918.06721,-627770.62955,  -0.00068,  -0.00038,  -0.00001,207350224.00000,   0.00000,274640576.00000,   0.00000,   0.00000,   0.00000,-267290352.00000,   0.00000
-229898572.69372,-182188004.84778,-747345.98756,  -0.00069,  -0.00038,  -0.00001,210117456.00000,   0.00000,274640576.00000,   0.00000,   0.00000,   0.00000,-264523120.00000,   0.00000
-233017496.61515,-184549618.16848,-871903.65216,  -0.00070,  -0.00039,  -0.00001,212903312.00000,   0.00000,274640576.00000,   0.00000,   0.00000,   0.00000,-261737264.00000,   0.00000
-236128947.07669,-186893793.41613,-1001443.62333,  -0.00071,  -0.00039,  -0.00001,215697344.00000,   0.00000,274640576.00000,   0.00000,   0.00000,   0.00000,-258943232.00000,   0.00000
-239240397.53824,-189237968.66378,-1135965.90109,  -0.00072,  -0.00039,  -0.00001,218498288.00000,   0.00000,274640576.00000,   0.00000,   0.00000,   0.00000,-256142288.00000,   0.00000
-242326936.46687,-191557232.37852,-1270488.17885,  -0.00073,  -0.00040,  -0.00002,221274672.00000,   0.00000,274640576.00000,   0.00000,   0.00000,   0.00000,-253365904.00000,   0.00000
-245396037.32246,-193869022.63337,-1409992.76320,  -0.00074,  -0.00040,  -0.00002,224035840.00000,   0.00000,274640576.00000,   0.00000,   0.00000,   0.00000,-250604736.00000,   0.00000
-248475102.79121,-196170848.27506,-1549497.34754,  -0.00075,  -0.00041,  -0.00002,226804768.00000,   0.00000,274640576.00000,   0.00000,   0.00000,   0.00000,-247835808.00000,   0.00000
-251529256.72705,-198447762.38383,-1693984.23847,  -0.00076,  -0.00041,  -0.00002,229558256.00000,   0.00000,274640576.00000,   0.00000,   0.00000,   0.00000,-245082320.00000,   0.00000
-254565972.58984,-200717203.03273,-1838471.12940,  -0.00077,  -0.00042,  -0.00002,232304304.00000,   0.00000,274640576.00000,   0.00000,   0.00000,   0.00000,-242336272.00000,   0.00000
-257595214.99276,-202969205.60858,-1987940.32691,  -0.00078,  -0.00042,  -0.00003,235042880.00000,   0.00000,274640576.00000,   0.00000,   0.00000,   0.00000,-239597696.00000,   0.00000
-260624457.39567,-205221208.18444,-2142391.83101,  -0.00079,  -0.00043,  -0.00003,237782656.00000,   0.00000,274640576.00000,   0.00000,   0.00000,   0.00000,-236857920.00000,   0.00000
-263636261.72555,-207465737.30041,-2296843.33511,  -0.00079,  -0.00043,  -0.00003,240508848.00000,   0.00000,274640576.00000,   0.00000,   0.00000,   0.00000,-234131728.00000,   0.00000
-266640592.59554,-209692828.34335,-2456277.14579,  -0.00080,  -0.00043,  -0.00003,243224576.00000,   0.00000,274640576.00000,   0.00000,   0.00000,   0.00000,-231416000.00000,   0.00000
-269620011.93262,-211895007.85336,-2620693.26305,  -0.00081,  -0.00044,  -0.00003,245915648.00000,   0.00000,274640576.00000,   0.00000,   0.00000,   0.00000,-228724928.00000,   0.00000
-272599431.26970,-214097187.36338,-2785109.38031,  -0.00082,  -0.00044,  -0.00004,248606128.00000,   0.00000,274640576.00000,   0.00000,   0.00000,   0.00000,-226034448.00000,   0.00000
-275571377.14691,-216281928.80035,-2949525.49758,  -0.00083,  -0.00045,  -0.00004,251284896.00000,   0.00000,274640576.00000,   0.00000,   0.00000,   0.00000,-223355680.00000,   0.00000
-278518411.49119,-218441758.70440,-3123906.22801,  -0.00084,  -0.00045,  -0.00004,253937776.00000,   0.00000,274640576.00000,   0.00000,   0.00000,   0.00000,-220702800.00000,   0.00000
-281465445.83548,-220601588.60845,-3298286.95844,  -0.00085,  -0.00045,  -0.00004,256588352.00000,   0.00000,274640576.00000,   0.00000,   0.00000,   0.00000,-218052224.00000,   0.00000
-284395042.10672,-222753945.05263,-3472667.68887,  -0.00086,  -0.00046,  -0.00005,259222112.00000,   0.00000,274640576.00000,   0.00000,   0.00000,   0.00000,-215418464.00000,   0.00000
-287317164.91808,-224888863.42377,-3652030.72588,  -0.00087,  -0.00046,  -0.00005,261842208.00000,   0.00000,274640576.00000,   0.00000,   0.00000,   0.00000,-212798368.00000,   0.00000
-290214376.19653,-226998870.26198,-3831393.76290,  -0.00088,  -0.00047,  -0.00005,264434144.00000,   0.00000,274640576.00000,   0.00000,   0.00000,   0.00000,-210206432.00000,   0.00000
-293111587.47498,-229108877.10020,-4015739.10650,  -0.00089,  -0.00047,  -0.00005,267022912.00000,   0.00000,274640576.00000,   0.00000,   0.00000,   0.00000,-207617664.00000,   0.00000
-296001325.29355,-231201445.86537,-4205066.75668,  -0.00090,  -0.00047,  -0.00005,269600608.00000,   0.00000,274640576.00000,   0.00000,   0.00000,   0.00000,-205039968.00000,   0.00000
-298873625.03908,-233286541.17067,-4394394.40686,  -0.00090,  -0.00048,  -0.00006,272170688.00000,   0.00000,274640576.00000,   0.00000,   0.00000,   0.00000,-202469888.00000,   0.00000
-301721013.25169,-235346724.94305,-4588704.36363,  -0.00091,  -0.00048,  -0.00006,274718272.00000,   0.00000,274640576.00000,   0.00000,   0.00000,   0.00000,-199922304.00000,   0.00000
-304568401.46430,-237406908.71542,-4783014.32039,  -0.00092,  -0.00049,  -0.00006,277232640.00000,   0.00000,274640576.00000,   0.00000,   0.00000,   0.00000,-197407936.00000,   0.00000
-307408316.21703,-239449654.41476,-4982306.58374,  -0.00093,  -0.00049,  -0.00006,279722752.00000,   0.00000,274640576.00000,   0.00000,   0.00000,   0.00000,-194917824.00000,   0.00000
-310223319.43685,-241467488.58118,-5181598.84709,  -0.00094,  -0.00049,  -0.00007,282222816.00000,   0.00000,274640576.00000,   0.00000,   0.00000,   0.00000,-192417760.00000,   0.00000
-313038322.65667,-243485322.74759,-5385873.41703,  -0.00095,  -0.00050,  -0.00007,284750912.00000,   0.00000,274640576.00000,   0.00000,   0.00000,   0.00000,-189889664.00000,   0.00000
-315828414.34356,-245478245.38109,-5595130.29355,  -0.00096,  -0.00050,  -0.00007,287258336.00000,   0.00000,274640576.00000,   0.00000,   0.00000,   0.00000,-187382240.00000,   0.00000
-318618506.03046,-247471168.01459,-5804387.17006,  -0.00097,  -0.00050,  -0.00008,289757408.00000,   0.00000,274640576.00000,   0.00000,   0.00000,   0.00000,-184883168.00000,   0.00000
-321383686.18444,-249439179.11517,-6013644.04658,  -0.00098,  -0.00051,  -0.00008,292222944.00000,   0.00000,274640576.00000,   0.00000,   0.00000,   0.00000,-182417632.00000,   0.00000
-324148866.33842,-251407190.21575,-6227883.22968,  -0.00098,  -0.00051,  -0.00008,294682272.00000,   0.00000,274640576.00000,   0.00000,   0.00000,   0.00000,-179958304.00000,   0.00000
-326889134.95948,-253350289.78341,-6447104.71937,  -0.00099,  -0.00052,  -0.00008,297114368.00000,   0.00000,274640576.00000,   0.00000,   0.00000,   0.00000,-177526208.00000,   0.00000
-329621930.12066,-255275951.27802,-6666326.20905,  -0.00100,  -0.00052,  -0.00009,299535200.00000,   0.00000,274640576.00000,   0.00000,   0.00000,   0.00000,-175105376.00000,   0.00000
-332337287.20880,-257194139.31277,-6885547.69873,  -0.00101,  -0.00052,  -0.00009,301942592.00000,   0.00000,274640576.00000,   0.00000,   0.00000,   0.00000,-172697984.00000,   0.00000
-335045170.83706,-259094889.27446,-7109751.49500,  -0.00102,  -0.00053,  -0.00009,304341280.00000,   0.00000,274640576.00000,   0.00000,   0.00000,   0.00000,-170299296.00000,   0.00000
-337735616.39229,-260988165.77629,-7338937.59786,  -0.00103,  -0.00053,  -0.00010,306728384.00000,   0.00000,274640576.00000,   0.00000,   0.00000,   0.00000,-167912192.00000,   0.00000
-340418588.48763,-262864004.20507,-7568123.70071,  -0.00104,  -0.00053,  -0.00010,309107520.00000,   0.00000,274640576.00000,   0.00000,   0.00000,   0.00000,-165533056.00000,   0.00000
-343084122.50994,-264732369.17397,-7802292.11014,  -0.00104,  -0.00054,  -0.00010,311475616.00000,   0.00000,274640576.00000,   0.00000,   0.00000,   0.00000,-163164960.00000,   0.00000
-345742183.07236,-266583296.06983,-8036460.51958,  -0.00105,  -0.00054,  -0.00010,313836416.00000,   0.00000,274640576.00000,   0.00000,   0.00000,   0.00000,-160804160.00000,   0.00000
-348375332.10187,-268409311.43277,-8270628.92902,  -0.00106,  -0.00054,  -0.00011,316176000.00000,   0.00000,274640576.00000,   0.00000,   0.00000,   0.00000,-158464576.00000,   0.00000
-351008481.13138,-270235326.79572,-8509779.64504,  -0.00107,  -0.00055,  -0.00011,318519040.00000,   0.00000,274640576.00000,   0.00000,   0.00000,   0.00000,-156121536.00000,   0.00000
-353616718.62797,-272036430.62574,-8753912.66764,  -0.00108,  -0.00055,  -0.00011,320840896.00000,   0.00000,274640576.00000,   0.00000,   0.00000,   0.00000,-153799680.00000,   0.00000
-356224956.12456,-273837534.45576,-8993063.38366,  -0.00109,  -0.00055,  -0.00012,323164608.00000,   0.00000,274640576.00000,   0.00000,   0.00000,   0.00000,-151475968.00000,   0.00000
-358808282.08823,-275613726.75287,-9242178.71285,  -0.00110,  -0.00055,  -0.00012,325466464.00000,   0.00000,274640576.00000,   0.00000,   0.00000,   0.00000,-149174112.00000,   0.00000
-361391608.05191,-277389919.04997,-9491294.04203,  -0.00110,  -0.00056,  -0.00012,327768864.00000,   0.00000,274640576.00000,   0.00000,   0.00000,   0.00000,-146871712.00000,   0.00000
-363942549.02278,-279123761.74112,-9740409.37122,  -0.00111,  -0.00056,  -0.00013,330036384.00000,   0.00000,274640576.00000,   0.00000,   0.00000,   0.00000,-144604192.00000,   0.00000
-366500963.45354,-280875042.50530,-9994507.00699,  -0.00112,  -0.00056,  -0.00013,332312896.00000,   0.00000,274640576.00000,   0.00000,   0.00000,   0.00000,-142327680.00000,   0.00000
-369034466.35137,-282601411.73657,-10248604.64276,  -0.00113,  -0.00057,  -0.00013,334562400.00000,   0.00000,274640576.00000,   0.00000,   0.00000,   0.00000,-140078176.00000,   0.00000
-371543057.71628,-284302869.43492,-10507684.58512,  -0.00114,  -0.00057,  -0.00014,336784576.00000,   0.00000,274640576.00000,   0.00000,   0.00000,   0.00000,-137856000.00000,   0.00000
-374051649.08120,-286004327.13327,-10766764.52747,  -0.00114,  -0.00057,  -0.00014,339002720.00000,   0.00000,274640576.00000,   0.00000,   0.00000,   0.00000,-135637856.00000,   0.00000
-376552766.98624,-287688346.75857,-11030826.77641,  -0.00115,  -0.00057,  -0.00014,341206880.00000,   0.00000,274640576.00000,   0.00000,   0.00000,   0.00000,-133433696.00000,   0.00000
-379028973.35836,-289347454.85096,-11294889.02535,  -0.00116,  -0.00058,  -0.00015,343382912.00000,   0.00000,274640576.00000,   0.00000,   0.00000,   0.00000,-131257664.00000,   0.00000
-381487741.65744,-290999089.48347,-11558951.27429,  -0.00117,  -0.00058,  -0.00015,345541696.00000,   0.00000,274640576.00000,   0.00000,   0.00000,   0.00000,-129098880.00000,   0.00000
-383946509.95652,-292650724.11598,-11827995.82981,  -0.00118,  -0.00058,  -0.00015,347698368.00000,   0.00000,274640576.00000,   0.00000,   0.00000,   0.00000,-126942208.00000,   0.00000
-386390331.33584,-294267482.60241,-12097040.38533,  -0.00118,  -0.00059,  -0.00016,349833824.00000,   0.00000,274640576.00000,   0.00000,   0.00000,   0.00000,-124806752.00000,   0.00000
-388824188.10200,-295894205.70200,-12371067.24744,  -0.00119,  -0.00059,  -0.00016,351966304.00000,   0.00000,274640576.00000,   0.00000,   0.00000,   0.00000,-122674272.00000,   0.00000
-391225659.87537,-297478579.19563,-12645094.10954,  -0.00120,  -0.00059,  -0.00016,354066624.00000,   0.00000,274640576.00000,   0.00000,   0.00000,   0.00000,-120573952.00000,   0.00000
-393627131.64873,-299062952.68926,-12924103.27823,  -0.00121,  -0.00059,  -0.00017,356171008.00000,   0.00000,274640576.00000,   0.00000,   0.00000,   0.00000,-118469568.00000,   0.00000
-396011165.34905,-300639852.72302,-13198130.14034,  -0.00122,  -0.00060,  -0.00017,358265792.00000,   0.00000,274640576.00000,   0.00000,   0.00000,   0.00000,-116374784.00000,   0.00000
-398387725.58950,-302199314.68373,-13482121.61561,  -0.00122,  -0.00060,  -0.00018,360358016.00000,   0.00000,274640576.00000,   0.00000,   0.00000,   0.00000,-114282560.00000,   0.00000
-400739374.29703,-303733865.11152,-13761130.78430,  -0.00123,  -0.00060,  -0.00018,362433056.00000,   0.00000,274640576.00000,   0.00000,   0.00000,   0.00000,-112207520.00000,   0.00000
-403091023.00455,-305268415.53932,-14050104.56616,  -0.00124,  -0.00060,  -0.00018,364517184.00000,   0.00000,274640576.00000,   0.00000,   0.00000,   0.00000,-110123392.00000,   0.00000
-405425233.63904,-306795492.50723,-14334096.04143,  -0.00125,  -0.00061,  -0.00019,366595456.00000,   0.00000,274640576.00000,   0.00000,   0.00000,   0.00000,-108045120.00000,   0.00000
-407727059.28073,-308280219.86919,-14623069.82329,  -0.00125,  -0.00061,  -0.00019,368648672.00000,   0.00000,274640576.00000,   0.00000,   0.00000,   0.00000,-105991904.00000,   0.00000
-410036358.38229,-309782385.30419,-14912043.60515,  -0.00126,  -0.00061,  -0.00019,370720480.00000,   0.00000,274640576.00000,   0.00000,   0.00000,   0.00000,-103920096.00000,   0.00000
-412330710.56411,-311249674.59310,-15205999.69359,  -0.00127,  -0.00061,  -0.00020,372780768.00000,   0.00000,274640576.00000,   0.00000,   0.00000,   0.00000,-101859808.00000,   0.00000
-414607624.67288,-312709490.42214,-15499955.78203,  -0.00128,  -0.00061,  -0.00020,374834016.00000,   0.00000,274640576.00000,   0.00000,   0.00000,   0.00000,-99806560.00000,   0.00000
-416867100.70861,-314161832.79130,-15793911.87047,  -0.00128,  -0.00062,  -0.00021,376879264.00000,   0.00000,274640576.00000,   0.00000,   0.00000,   0.00000,-97761312.00000,   0.00000
-419119103.28446,-315596737.08742,-16092850.26549,  -0.00129,  -0.00062,  -0.00021,378920000.00000,   0.00000,274640576.00000,   0.00000,   0.00000,   0.00000,-95720576.00000,   0.00000
-421346194.32739,-317006729.85062,-16391788.66052,  -0.00130,  -0.00062,  -0.00021,380939872.00000,   0.00000,274640576.00000,   0.00000,   0.00000,   0.00000,-93700704.00000,   0.00000
-423573285.37033,-318416722.61382,-16695709.36213,  -0.00131,  -0.00062,  -0.00022,382962624.00000,   0.00000,274640576.00000,   0.00000,   0.00000,   0.00000,-91677952.00000,   0.00000
-425782938.34022,-319819241.91714,-16994647.75715,  -0.00131,  -0.00062,  -0.00022,384970528.00000,   0.00000,274640576.00000,   0.00000,   0.00000,   0.00000,-89670048.00000,   0.00000
-427967679.77719,-321196849.68755,-17298568.45876,  -0.00132,  -0.00063,  -0.00022,386953280.00000,   0.00000,274640576.00000,   0.00000,   0.00000,   0.00000,-87687296.00000,   0.00000
-430144947.75429,-322557019.38491,-17607471.46695,  -0.00133,  -0.00063,  -0.00023,388923776.00000,   0.00000,274640576.00000,   0.00000,   0.00000,   0.00000,-85716800.00000,   0.00000
-432322215.73138,-323917189.08227,-17916374.47515,  -0.00134,  -0.00063,  -0.00023,390890464.00000,   0.00000,274640576.00000,   0.00000,   0.00000,   0.00000,-83750112.00000,   0.00000
-434474572.17556,-325252447.24672,-18225277.48334,  -0.00134,  -0.00063,  -0.00024,392828256.00000,   0.00000,274640576.00000,   0.00000,   0.00000,   0.00000,-81812320.00000,   0.00000
-436609490.54670,-326580231.95128,-18534180.49153,  -0.00135,  -0.00063,  -0.00024,394747616.00000,   0.00000,274640576.00000,   0.00000,   0.00000,   0.00000,-79892960.00000,   0.00000
-438736935.45795,-327890578.58281,-18848065.80631,  -0.00136,  -0.00064,  -0.00025,396654208.00000,   0.00000,274640576.00000,   0.00000,   0.00000,   0.00000,-77986368.00000,   0.00000
-440864380.36921,-329200925.21433,-19161951.12108,  -0.00136,  -0.00064,  -0.00025,398558240.00000,   0.00000,274640576.00000,   0.00000,   0.00000,   0.00000,-76082336.00000,   0.00000
-442949475.67451,-330478886.85306,-19475836.43586,  -0.00137,  -0.00064,  -0.00025,400421664.00000,   0.00000,274640576.00000,   0.00000,   0.00000,   0.00000,-74218912.00000,   0.00000
-445052009.05285,-331764321.95167,-19794704.05722,  -0.00138,  -0.00064,  -0.00026,402298304.00000,   0.00000,274640576.00000,   0.00000,   0.00000,   0.00000,-72342272.00000,   0.00000
-447112192.82523,-333017372.05748,-20113571.67858,  -0.00138,  -0.00064,  -0.00026,404133504.00000,   0.00000,274640576.00000,   0.00000,   0.00000,   0.00000,-70507072.00000,   0.00000
-449164903.13773,-334252984.09025,-20432439.29994,  -0.00139,  -0.00064,  -0.00027,405955168.00000,   0.00000,274640576.00000,   0.00000,   0.00000,   0.00000,-68685408.00000,   0.00000
-451217613.45023,-335488596.12302,-20756289.22788,  -0.00140,  -0.00065,  -0.00027,407772608.00000,   0.00000,274640576.00000,   0.00000,   0.00000,   0.00000,-66867968.00000,   0.00000
-453252885.68969,-336716734.69591,-21080139.15582,  -0.00141,  -0.00065,  -0.00027,409571040.00000,   0.00000,274640576.00000,   0.00000,   0.00000,   0.00000,-65069536.00000,   0.00000
-455263246.39624,-337919961.73589,-21403989.08377,  -0.00141,  -0.00065,  -0.00028,411341120.00000,   0.00000,274640576.00000,   0.00000,   0.00000,   0.00000,-63299456.00000,   0.00000
-457273607.10278,-339123188.77586,-21727839.01171,  -0.00142,  -0.00065,  -0.00028,413109152.00000,   0.00000,274640576.00000,   0.00000,   0.00000,   0.00000,-61531424.00000,   0.00000
-459276494.34944,-340308977.74279,-22056671.24624,  -0.00143,  -0.00065,  -0.00029,414867712.00000,   0.00000,274640576.00000,   0.00000,   0.00000,   0.00000,-59772864.00000,   0.00000
-461254470.06319,-341469855.17680,-22385503.48076,  -0.00143,  -0.00065,  -0.00029,416604288.00000,   0.00000,274640576.00000,   0.00000,   0.00000,   0.00000,-58036288.00000,   0.00000
-463222481.16377,-342640697.22398,-22714335.71529,  -0.00144,  -0.00066,  -0.00030,418340800.00000,   0.00000,274640576.00000,   0.00000,   0.00000,   0.00000,-56299776.00000,   0.00000
-465175545.34459,-343776663.12508,-23043167.94982,  -0.00145,  -0.00066,  -0.00030,420062400.00000,   0.00000,274640576.00000,   0.00000,   0.00000,   0.00000,-54578176.00000,   0.00000
-467111171.45238,-344905155.56630,-23376982.49093,  -0.00145,  -0.00066,  -0.00030,421775680.00000,   0.00000,274640576.00000,   0.00000,   0.00000,   0.00000,-52864896.00000,   0.00000
-469046797.56016,-346033648.00751,-23710797.03204,  -0.00146,  -0.00066,  -0.00031,423493600.00000,   0.00000,274640576.00000,   0.00000,   0.00000,   0.00000,-51146976.00000,   0.00000
-470957512.13503,-347137228.91581,-24044611.57315,  -0.00147,  -0.00066,  -0.00031,425188768.00000,   0.00000,274640576.00000,   0.00000,   0.00000,   0.00000,-49451808.00000,   0.00000
-472850788.63685,-348233336.36424,-24383408.42085,  -0.00147,  -0.00066,  -0.00032,426867456.00000,   0.00000,274640576.00000,   0.00000,   0.00000,   0.00000,-47773120.00000,   0.00000
-474736591.67880,-349312005.73962,-24717222.96196,  -0.00148,  -0.00066,  -0.00032,428529312.00000,   0.00000,274640576.00000,   0.00000,   0.00000,   0.00000,-46111264.00000,   0.00000
-476622394.72075,-350390675.11500,-25056019.80965,  -0.00149,  -0.00066,  -0.00033,430183552.00000,   0.00000,274640576.00000,   0.00000,   0.00000,   0.00000,-44457024.00000,   0.00000
-478490759.68965,-351461871.03050,-25394816.65735,  -0.00149,  -0.00067,  -0.00033,431815712.00000,   0.00000,274640576.00000,   0.00000,   0.00000,   0.00000,-42824864.00000,   0.00000
-480326739.66576,-352490717.34005,-25738595.81162,  -0.00150,  -0.00067,  -0.00033,433409248.00000,   0.00000,274640576.00000,   0.00000,   0.00000,   0.00000,-41231328.00000,   0.00000
-482170193.10175,-353537001.72263,-26077392.65932,  -0.00150,  -0.00067,  -0.00034,435007712.00000,   0.00000,274640576.00000,   0.00000,   0.00000,   0.00000,-39632864.00000,   0.00000
-484006173.07786,-354565848.03218,-26421171.81360,  -0.00151,  -0.00067,  -0.00034,436595328.00000,   0.00000,274640576.00000,   0.00000,   0.00000,   0.00000,-38045248.00000,   0.00000
-485799803.44801,-355562309.34892,-26764950.96788,  -0.00152,  -0.00067,  -0.00035,438145376.00000,   0.00000,274640576.00000,   0.00000,   0.00000,   0.00000,-36495200.00000,   0.00000
-487618345.35107,-356583682.19859,-27108730.12215,  -0.00152,  -0.00067,  -0.00035,439721408.00000,   0.00000,274640576.00000,   0.00000,   0.00000,   0.00000,-34919168.00000,   0.00000
-489404502.26134,-357562705.44230,-27452509.27643,  -0.00153,  -0.00067,  -0.00036,441268672.00000,   0.00000,274640576.00000,   0.00000,   0.00000,   0.00000,-33371904.00000,   0.00000
-491180694.55845,-358551693.29917,-27801270.73729,  -0.00154,  -0.00067,  -0.00036,442818112.00000,   0.00000,274640576.00000,   0.00000,   0.00000,   0.00000,-31822464.00000,   0.00000
-492941939.93580,-359505805.00996,-28150032.19816,  -0.00154,  -0.00067,  -0.00037,444354048.00000,   0.00000,274640576.00000,   0.00000,   0.00000,   0.00000,-30286528.00000,   0.00000
-494693220.69999,-360469881.33391,-28498793.65902,  -0.00155,  -0.00068,  -0.00037,445889888.00000,   0.00000,274640576.00000,   0.00000,   0.00000,   0.00000,-28750688.00000,   0.00000
-496419589.93126,-361409046.12495,-28847555.11988,  -0.00155,  -0.00068,  -0.00038,447404608.00000,   0.00000,274640576.00000,   0.00000,   0.00000,   0.00000,-27235968.00000,   0.00000
-498155923.77569,-362338246.30282,-29196316.58074,  -0.00156,  -0.00068,  -0.00038,448924928.00000,   0.00000,274640576.00000,   0.00000,   0.00000,   0.00000,-25715648.00000,   0.00000
-499857381.47404,-363252499.56093,-29545078.04160,  -0.00157,  -0.00068,  -0.00038,450417728.00000,   0.00000,274640576.00000,   0.00000,   0.00000,   0.00000,-24222848.00000,   0.00000
-501558839.17239,-364166752.81905,-29898821.80905,  -0.00157,  -0.00068,  -0.00039,451912928.00000,   0.00000,274640576.00000,   0.00000,   0.00000,   0.00000,-22727648.00000,   0.00000
-503260296.87074,-365081006.07717,-30252565.57650,  -0.00158,  -0.00068,  -0.00039,453410272.00000,   0.00000,274640576.00000,   0.00000,   0.00000,   0.00000,-21230304.00000,   0.00000
-504929369.57629,-365952909.72932,-30606309.34394,  -0.00158,  -0.00068,  -0.00040,454876640.00000,   0.00000,274640576.00000,   0.00000,   0.00000,   0.00000,-19763936.00000,   0.00000
-506605915.74172,-366842251.45452,-30960053.11139,  -0.00159,  -0.00068,  -0.00040,456355136.00000,   0.00000,274640576.00000,   0.00000,   0.00000,   0.00000,-18285440.00000,   0.00000
-508257550.37423,-367706681.64680,-31313796.87883,  -0.00160,  -0.00068,  -0.00041,457812256.00000,   0.00000,274640576.00000,   0.00000,   0.00000,   0.00000,-16828320.00000,   0.00000
-509891746.93370,-368563638.37921,-31667540.64628,  -0.00160,  -0.00068,  -0.00041,459256928.00000,   0.00000,274640576.00000,   0.00000,   0.00000,   0.00000,-15383648.00000,   0.00000
-511518470.03329,-369403157.03857,-32026266.72031,  -0.00161,  -0.00068,  -0.00042,460694368.00000,   0.00000,274640576.00000,   0.00000,   0.00000,   0.00000,-13946208.00000,   0.00000
-513145193.13289,-370242675.69793,-32380010.48776,  -0.00161,  -0.00068,  -0.00042,462131552.00000,   0.00000,274640576.00000,   0.00000,   0.00000,   0.00000,-12509024.00000,   0.00000
-514754478.15944,-371074720.89741,-32738736.56178,  -0.00162,  -0.00068,  -0.00043,463556032.00000,   0.00000,274640576.00000,   0.00000,   0.00000,   0.00000,-11084544.00000,   0.00000
-516356289.72611,-371889328.02386,-33097462.63581,  -0.00162,  -0.00069,  -0.00043,464971104.00000,   0.00000,274640576.00000,   0.00000,   0.00000,   0.00000,-9669472.00000,   0.00000
-517940663.21974,-372696461.69042,-33456188.70984,  -0.00163,  -0.00069,  -0.00043,466372032.00000,   0.00000,274640576.00000,   0.00000,   0.00000,   0.00000,-8268544.00000,   0.00000
-519507598.64033,-373496121.89711,-33814914.78387,  -0.00164,  -0.00069,  -0.00044,467758912.00000,   0.00000,274640576.00000,   0.00000,   0.00000,   0.00000,-6881664.00000,   0.00000
-521067060.60104,-374278344.03076,-34173640.85790,  -0.00164,  -0.00069,  -0.00044,469136768.00000,   0.00000,274640576.00000,   0.00000,   0.00000,   0.00000,-5503808.00000,   0.00000
-522626522.56175,-375060566.16441,-34532366.93193,  -0.00165,  -0.00069,  -0.00045,470515008.00000,   0.00000,274640576.00000,   0.00000,   0.00000,   0.00000,-4125568.00000,   0.00000
-524168546.44942,-375835314.83818,-34896075.31255,  -0.00165,  -0.00069,  -0.00045,471880992.00000,   0.00000,274640576.00000,   0.00000,   0.00000,   0.00000,-2759584.00000,   0.00000
-525703096.87721,-376592625.43891,-35254801.38658,  -0.00166,  -0.00069,  -0.00046,473237216.00000,   0.00000,274640576.00000,   0.00000,   0.00000,   0.00000,-1403360.00000,   0.00000
-527220209.23196,-377342462.57976,-35618509.76719,  -0.00166,  -0.00069,  -0.00046,474581280.00000,   0.00000,274640576.00000,   0.00000,   0.00000,   0.00000,-59296.00000,   0.00000
-527287577.41259,-377375810.94825,-35634624.41505,  -0.00166,  -0.00069,  -0.00046,474640960.00000,   0.00000,274640576.00000,   0.00000,   0.00000,   0.00000, 384.00000,   0.00000
-527300263.59706,-377137242.91651,-35864586.01686,  -0.00167,  -0.00069,  -0.00047,474640960.00000,   0.00000,274645024.00000,  -0.00000,  -0.00000,  -0.00000,   0.00000,   2.00000
-527316973.96534,-376874007.30551,-36109049.88836,  -0.00167,  -0.00069,  -0.00047,475980992.00000,   0.00001,274649728.00000,  -0.00001,  -0.00000,  -0.00000,  96.00000,   2.00000
-527329869.01931,-376617339.78522,-36355204.66601,  -0.00168,  -0.00069,  -0.00048,475957824.00000,   0.00001,274654336.00000,  -0.00001,  -0.00000,  -0.00000,   0.00000,   2.00000
-527345466.30966,-376350854.69505,-36601398.35982,  -0.00168,  -0.00069,  -0.00048,475953248.00000,   0.00002,274658880.00000,  -0.00002,  -0.00001,  -0.00001,  32.00000,   2.00000
-527357155.55672,-376095043.13420,-36845893.68805,  -0.00169,  -0.00069,  -0.00049,475967904.00000,   0.00002,274663488.00000,  -0.00002,  -0.00001,  -0.00001,  64.00000,   2.00000
-527371479.35747,-375829355.59445,-37090437.34213,  -0.00170,  -0.00069,  -0.00049,475963424.00000,   0.00003,274668064.00000,  -0.00003,  -0.00001,  -0.00001,  64.00000,   2.00000
-527382073.68464,-375570211.13981,-37336766.05221,  -0.00170,  -0.00069,  -0.00050,475940096.00000,   0.00003,274672544.00000,  -0.00003,  -0.00001,  -0.00001,  32.00000,   2.00000
-527396664.70935,-375297991.03336,-37581841.32710,  -0.00171,  -0.00069,  -0.00050,475949728.00000,   0.00003,274677056.00000,  -0.00004,  -0.00001,  -0.00001, -32.00000,   2.00000
-527409282.18468,-375029381.48109,-37827443.01660,  -0.00171,  -0.00069,  -0.00051,475940480.00000,   0.00004,274681504.00000,  -0.00004,  -0.00001,  -0.00001,   0.00000,   2.00000
-527419681.21434,-374764189.87296,-38073564.76762,  -0.00172,  -0.00069,  -0.00051,475931232.00000,   0.00004,274685888.00000,  -0.00005,  -0.00002,  -0.00002,   0.00000,   2.00000
-527428003.36676,-374498429.30284,-38323730.17270,  -0.00172,  -0.00069,  -0.00052,475937344.00000,   0.00005,274690304.00000,  -0.00005,  -0.00002,  -0.00002,   0.00000,   2.00000
-527440339.87774,-374223665.78129,-38569142.04342,  -0.00173,  -0.00069,  -0.00052,475931552.00000,   0.00005,274694688.00000,  -0.00006,  -0.00002,  -0.00002,  64.00000,   2.00000
-527447318.80901,-373962695.45130,-38814205.26613,  -0.00173,  -0.00069,  -0.00052,475931776.00000,   0.00005,274699072.00000,  -0.00006,  -0.00002,  -0.00002,  64.00000,   2.00000
-527459819.12255,-373681208.91600,-39060289.71216,  -0.00174,  -0.00069,  -0.00053,475917664.00000,   0.00006,274703360.00000,  -0.00006,  -0.00002,  -0.00002, -96.00000,   2.00000
-527465819.99441,-373412765.62072,-39310910.39051,  -0.00174,  -0.00069,  -0.00053,475918816.00000,   0.00006,274707648.00000,  -0.00007,  -0.00002,  -0.00002, -64.00000,   2.00000
-527472666.37556,-373145671.02938,-39555894.78146,  -0.00175,  -0.00069,  -0.00054,475922464.00000,   0.00006,274711936.00000,  -0.00007,  -0.00002,  -0.00002,  96.00000,   2.00000
-527478898.14013,-372870467.09305,-39807248.29391,  -0.00175,  -0.00069,  -0.00054,475904960.00000,   0.00007,274716160.00000,  -0.00008,  -0.00003,  -0.00003,  96.00000,   2.00000
-527485836.81251,-372596527.58792,-40052965.29569,  -0.00176,  -0.00069,  -0.00055,475908416.00000,   0.00007,274720384.00000,  -0.00008,  -0.00003,  -0.00003, -64.00000,   2.00000
-527493819.36402,-372315546.58988,-40300269.27507,  -0.00176,  -0.00069,  -0.00055,475889472.00000,   0.00008,274724512.00000,  -0.00009,  -0.00003,  -0.00003,  64.00000,   2.00000
-527496672.16006,-372044503.80228,-40550711.23344,  -0.00177,  -0.00069,  -0.00056,475904832.00000,   0.00008,274728672.00000,  -0.00009,  -0.00003,  -0.00003, -32.00000,   2.00000
-527503328.36053,-371764228.31636,-40796476.43175,  -0.00177,  -0.00069,  -0.00056,475898880.00000,   0.00008,274732832.00000,  -0.00010,  -0.00003,  -0.00003,   0.00000,   2.00000
-527506455.46633,-371486382.91447,-41047763.54834,  -0.00178,  -0.00069,  -0.00057,475890592.00000,   0.00009,274736928.00000,  -0.00010,  -0.00003,  -0.00003,   0.00000,   2.00000
-527510384.65694,-371209845.72337,-41293445.38863,  -0.00178,  -0.00069,  -0.00057,475893984.00000,   0.00009,274741024.00000,  -0.00010,  -0.00003,  -0.00004, -96.00000,   2.00000
-527512249.25232,-370932740.50641,-41543212.55712,  -0.00178,  -0.00069,  -0.00058,475899904.00000,   0.00010,274745120.00000,  -0.00011,  -0.00004,  -0.00004,  32.00000,   2.00000
-527513367.18064,-370659834.77029,-41788838.96827,  -0.00179,  -0.00069,  -0.00058,475889056.00000,   0.00010,274749184.00000,  -0.00011,  -0.00004,  -0.00004, -96.00000,   2.00000
-527515535.52463,-370379743.20696,-42036180.60730,  -0.00179,  -0.00069,  -0.00059,475869952.00000,   0.00010,274753152.00000,  -0.00012,  -0.00004,  -0.00004,  64.00000,   2.00000
-527516925.70684,-370096025.04242,-42286119.37119,  -0.00180,  -0.00069,  -0.00059,475890208.00000,   0.00011,274757184.00000,  -0.00012,  -0.00004,  -0.00004,   0.00000,   2.00000
-527516277.05501,-369819513.82435,-42533468.64571,  -0.00180,  -0.00069,  -0.00060,475864960.00000,   0.00011,274761088.00000,  -0.00012,  -0.00004,  -0.00004,  96.00000,   2.00000
-527516441.22789,-369540410.53434,-42778584.16576,  -0.00181,  -0.00069,  -0.00060,475883648.00000,   0.00011,274765088.00000,  -0.00013,  -0.00004,  -0.00004,  32.00000,   2.00000
-527514557.56938,-369264591.37378,-43024484.71857,  -0.00181,  -0.00069,  -0.00061,475873984.00000,   0.00012,274769024.00000,  -0.00013,  -0.00004,  -0.00005,   0.00000,   2.00000
-527513356.89546,-368981249.65359,-43272157.17655,  -0.00182,  -0.00069,  -0.00061,475854880.00000,   0.00012,274772864.00000,  -0.00014,  -0.00004,  -0.00005, -32.00000,   2.00000
-527508862.25397,-368705238.42726,-43521440.28970,  -0.00182,  -0.00069,  -0.00061,475884128.00000,   0.00012,274776800.00000,  -0.00014,  -0.00005,  -0.00005,  32.00000,   2.00000
-527506534.31739,-368422633.46625,-43767687.00950,  -0.00183,  -0.00069,  -0.00062,475863872.00000,   0.00013,274780672.00000,  -0.00014,  -0.00005,  -0.00005,   0.00000,   2.00000
-527502144.19401,-368143247.91288,-44014770.04926,  -0.00183,  -0.00069,  -0.00062,475854112.00000,   0.00013,274784480.00000,  -0.00015,  -0.00005,  -0.00005,  32.00000,   2.00000
-527497077.71979,-367864146.49792,-44261140.29470,  -0.00184,  -0.00069,  -0.00063,475858432.00000,   0.00013,274788288.00000,  -0.00015,  -0.00005,  -0.00005,   0.00000,   2.00000
-527491485.02994,-367585424.66804,-44506813.84492,  -0.00184,  -0.00069,  -0.00063,475862848.00000,   0.00014,274792128.00000,  -0.00016,  -0.00005,  -0.00006,   0.00000,   2.00000
-527486912.11438,-367308079.76614,-44746975.66677,  -0.00184,  -0.00069,  -0.00064,475865792.00000,   0.00014,274795936.00000,  -0.00016,  -0.00005,  -0.00006, -64.00000,   2.00000
-527481477.05746,-367022081.74849,-44993860.35052,  -0.00185,  -0.00069,  -0.00064,475848160.00000,   0.00014,274799680.00000,  -0.00016,  -0.00005,  -0.00006,  64.00000,   2.00000
-527471067.08992,-366749944.99027,-45240608.45317,  -0.00185,  -0.00069,  -0.00065,475847552.00000,   0.00015,274803392.00000,  -0.00017,  -0.00005,  -0.00006, -32.00000,   2.00000
-527466087.77085,-366465638.94813,-45481304.41989,  -0.00186,  -0.00069,  -0.00065,475855360.00000,   0.00015,274807136.00000,  -0.00017,  -0.00005,  -0.00006,   0.00000,   2.00000
-527454707.34811,-366194265.40089,-45726711.70899,  -0.00186,  -0.00069,  -0.00066,475856128.00000,   0.00016,274810880.00000,  -0.00018,  -0.00006,  -0.00006, 160.00000,   2.00000
-527445463.05908,-365916064.59140,-45969260.05004,  -0.00187,  -0.00069,  -0.00066,475835648.00000,   0.00016,274814528.00000,  -0.00018,  -0.00006,  -0.00006,  32.00000,   2.00000
-527435679.32634,-365634472.00288,-46214345.37984,  -0.00187,  -0.00069,  -0.00067,475855488.00000,   0.00016,274818240.00000,  -0.00018,  -0.00006,  -0.00007,  64.00000,   2.00000
-527422631.13023,-365367794.98824,-46454525.42896,  -0.00187,  -0.00069,  -0.00067,475853248.00000,   0.00017,274821920.00000,  -0.00019,  -0.00006,  -0.00007,   0.00000,   2.00000
-527410293.97557,-365093304.05824,-46696734.75065,  -0.00188,  -0.00069,  -0.00068,475834112.00000,   0.00017,274825504.00000,  -0.00019,  -0.00006,  -0.00007,  64.00000,   2.00000
-527398906.12214,-364816381.32142,-46936645.51856,  -0.00188,  -0.00069,  -0.00068,475852576.00000,   0.00017,274829184.00000,  -0.00020,  -0.00006,  -0.00007, -32.00000,   2.00000
-527385477.32867,-364542497.57091,-47177556.62042,  -0.00189,  -0.00069,  -0.00069,475842464.00000,   0.00018,274832800.00000,  -0.00020,  -0.00006,  -0.00007, -32.00000,   2.00000
-527370048.06724,-364271649.74100,-47419486.17438,  -0.00189,  -0.00069,  -0.00069,475832416.00000,   0.00018,274836352.00000,  -0.00020,  -0.00006,  -0.00007,  32.00000,   2.00000
-527355623.46761,-363998409.04415,-47659105.45203,  -0.00190,  -0.00069,  -0.00069,475850880.00000,   0.00018,274839968.00000,  -0.00021,  -0.00006,  -0.00008,  32.00000,   2.00000
-527343529.40641,-363718311.05869,-47896037.49461,  -0.00190,  -0.00069,  -0.00070,475830208.00000,   0.00018,274843520.00000,  -0.00021,  -0.00007,  -0.00008,  64.00000,   2.00000
-527326435.71859,-363448309.39594,-48136049.50213,  -0.00190,  -0.00069,  -0.00070,475845024.00000,   0.00019,274847072.00000,  -0.00021,  -0.00007,  -0.00008,  32.00000,   2.00000
-527309072.03997,-363182385.48773,-48372336.21584,  -0.00191,  -0.00069,  -0.00071,475833280.00000,   0.00019,274850592.00000,  -0.00022,  -0.00007,  -0.00008, -32.00000,   2.00000
-527291190.46727,-362916730.19771,-48608002.74768,  -0.00191,  -0.00069,  -0.00071,475837376.00000,   0.00019,274854112.00000,  -0.00022,  -0.00007,  -0.00008,  64.00000,   2.00000
-527271077.30226,-362650251.36245,-48847836.04707,  -0.00192,  -0.00069,  -0.00072,475842944.00000,   0.00020,274857664.00000,  -0.00022,  -0.00007,  -0.00008, -32.00000,   2.00000
-527252246.63342,-362385182.74792,-49082262.92872,  -0.00192,  -0.00069,  -0.00072,475845472.00000,   0.00020,274861184.00000,  -0.00023,  -0.00007,  -0.00008, -32.00000,   2.00000
-527235749.10552,-362113120.19759,-49314115.86752,  -0.00192,  -0.00069,  -0.00073,475824704.00000,   0.00020,274864640.00000,  -0.00023,  -0.00007,  -0.00009, -32.00000,   2.00000
-527214531.20542,-361851324.24112,-49549068.88914,  -0.00193,  -0.00069,  -0.00073,475839328.00000,   0.00021,274868096.00000,  -0.00024,  -0.00007,  -0.00009,  64.00000,   2.00000
-527192634.68423,-361589668.92650,-49783392.85485,  -0.00193,  -0.00069,  -0.00074,475843456.00000,   0.00021,274871584.00000,  -0.00024,  -0.00007,  -0.00009,   0.00000,   2.00000
-527170618.13917,-361332073.00363,-50014098.44798,  -0.00194,  -0.00069,  -0.00074,475831648.00000,   0.00021,274875040.00000,  -0.00024,  -0.00007,  -0.00009, 128.00000,   2.00000
-527148104.04896,-361074711.83628,-50244212.69639,  -0.00194,  -0.00069,  -0.00075,475835680.00000,   0.00022,274878464.00000,  -0.00025,  -0.00008,  -0.00009,  32.00000,   2.00000
-527125059.18366,-360817563.33306,-50473732.88329,  -0.00194,  -0.00069,  -0.00075,475839616.00000,   0.00022,274881920.00000,  -0.00025,  -0.00008,  -0.00009,   0.00000,   2.00000
-527101772.50854,-360560808.28423,-50702691.93943,  -0.00195,  -0.00069,  -0.00075,475843520.00000,   0.00022,274885344.00000,  -0.00025,  -0.00008,  -0.00010,  64.00000,   2.00000
-527076361.08107,-360306786.72396,-50932833.21833,  -0.00195,  -0.00069,  -0.00076,475833344.00000,   0.00023,274888736.00000,  -0.00026,  -0.00008,  -0.00010,  32.00000,   2.00000
-527050463.49358,-360052984.94343,-51162391.16238,  -0.00196,  -0.00069,  -0.00076,475837184.00000,   0.00023,274892128.00000,  -0.00026,  -0.00008,  -0.00010, -32.00000,   2.00000
-527026046.25971,-359800641.77778,-51386618.25805,  -0.00196,  -0.00069,  -0.00077,475839584.00000,   0.00023,274895520.00000,  -0.00026,  -0.00008,  -0.00010,   0.00000,   2.00000
-526999427.22751,-359547434.15082,-51615051.45043,  -0.00196,  -0.00069,  -0.00077,475845088.00000,   0.00024,274898944.00000,  -0.00027,  -0.00008,  -0.00010, -32.00000,   2.00000
-526972648.12753,-359298144.29398,-51839958.15469,  -0.00197,  -0.00069,  -0.00078,475833120.00000,   0.00024,274902272.00000,  -0.00027,  -0.00008,  -0.00010,  96.00000,   2.00000
-526942730.73239,-359060092.47136,-52063139.19011,  -0.00197,  -0.00069,  -0.00078,475846048.00000,   0.00024,274905664.00000,  -0.00027,  -0.00008,  -0.00010,-128.00000,   2.00000
-526915169.34260,-358811288.95672,-52286939.88289,  -0.00198,  -0.00069,  -0.00079,475840864.00000,   0.00024,274909024.00000,  -0.00028,  -0.00008,  -0.00011,   0.00000,   2.00000
-526886510.81264,-358575013.03045,-52504271.68237,  -0.00198,  -0.00069,  -0.00079,475851968.00000,   0.00025,274912384.00000,  -0.00028,  -0.00009,  -0.00011,   0.00000,   2.00000
-526856514.90058,-358329118.50783,-52728810.41088,  -0.00198,  -0.00069,  -0.00079,475834432.00000,   0.00025,274915712.00000,  -0.00028,  -0.00009,  -0.00011, -32.00000,   2.00000
-526827049.13184,-358093306.21378,-52945036.01950,  -0.00199,  -0.00069,  -0.00080,475859712.00000,   0.00025,274919104.00000,  -0.00029,  -0.00009,  -0.00011,-160.00000,   2.00000
-526795734.44230,-357860256.64459,-53162587.54084,  -0.00199,  -0.00069,  -0.00080,475849280.00000,   0.00026,274922432.00000,  -0.00029,  -0.00009,  -0.00011,  32.00000,   2.00000
-526762391.62842,-357629835.20132,-53381455.08700,  -0.00199,  -0.00069,  -0.00081,475838944.00000,   0.00026,274925728.00000,  -0.00029,  -0.00009,  -0.00011, -32.00000,   2.00000
-526732166.57575,-357398373.18687,-53593175.67570,  -0.00200,  -0.00069,  -0.00081,475855232.00000,   0.00026,274929056.00000,  -0.00030,  -0.00009,  -0.00012,   0.00000,   2.00000
-526698122.97898,-357168402.90041,-53810999.10872,  -0.00200,  -0.00069,  -0.00082,475846432.00000,   0.00027,274932352.00000,  -0.00030,  -0.00009,  -0.00012, -64.00000,   2.00000
-526664919.99926,-356948717.37080,-54020504.18432,  -0.00201,  -0.00069,  -0.00082,475871584.00000,   0.00027,274935712.00000,  -0.00031,  -0.00009,  -0.00012,  96.00000,   2.00000
-526632214.37109,-356720441.09522,-54232559.77276,  -0.00201,  -0.00069,  -0.00083,475852384.00000,   0.00027,274939008.00000,  -0.00031,  -0.00009,  -0.00012, 128.00000,   2.00000
-526594974.07224,-356505920.71159,-54444789.99874,  -0.00201,  -0.00069,  -0.00083,475850816.00000,   0.00028,274942304.00000,  -0.00031,  -0.00009,  -0.00012, -64.00000,   2.00000
-526563432.47519,-356279208.68995,-54651064.36772,  -0.00202,  -0.00069,  -0.00083,475858080.00000,   0.00028,274945600.00000,  -0.00032,  -0.00009,  -0.00012, -32.00000,   2.00000
-526525712.11726,-356065220.90002,-54862304.13370,  -0.00202,  -0.00069,  -0.00084,475858112.00000,   0.00028,274948864.00000,  -0.00032,  -0.00010,  -0.00012,  32.00000,   2.00000
-526488749.87083,-355861472.47582,-55065175.24643,  -0.00202,  -0.00069,  -0.00084,475883232.00000,   0.00028,274952224.00000,  -0.00032,  -0.00010,  -0.00013, -64.00000,   2.00000
-526452445.89375,-355649140.44420,-55270690.02925,  -0.00203,  -0.00069,  -0.00085,475863904.00000,   0.00029,274955520.00000,  -0.00033,  -0.00010,  -0.00013,   0.00000,   2.00000
-526415672.90428,-355436911.71673,-55475688.40695,  -0.00203,  -0.00069,  -0.00085,475867744.00000,   0.00029,274958784.00000,  -0.00033,  -0.00010,  -0.00013,  32.00000,   2.00000
-526378297.85026,-355237465.98964,-55674267.68810,  -0.00203,  -0.00069,  -0.00086,475878496.00000,   0.00029,274962112.00000,  -0.00033,  -0.00010,  -0.00013,  64.00000,   2.00000
-526336982.20668,-355039298.25917,-55879027.48072,  -0.00204,  -0.00069,  -0.00086,475869664.00000,   0.00030,274965376.00000,  -0.00034,  -0.00010,  -0.00013, -32.00000,   2.00000
-526299143.43277,-354840295.04929,-56076637.39642,  -0.00204,  -0.00069,  -0.00086,475885824.00000,   0.00030,274968672.00000,  -0.00034,  -0.00010,  -0.00013,  64.00000,   2.00000
-526261239.14399,-354644965.79176,-56270979.20052,  -0.00205,  -0.00069,  -0.00087,475873536.00000,   0.00030,274971936.00000,  -0.00034,  -0.00010,  -0.00014,  32.00000,   2.00000
-526221192.16843,-354448661.04586,-56469593.01271,  -0.00205,  -0.00069,  -0.00087,475878912.00000,   0.00031,274975200.00000,  -0.00035,  -0.00010,  -0.00014,   0.00000,   2.00000
-526180517.14177,-354265096.83982,-56661781.54495,  -0.00205,  -0.00069,  -0.00088,475889600.00000,   0.00031,274978496.00000,  -0.00035,  -0.00010,  -0.00014,   0.00000,   2.00000
-526137705.94294,-354080537.49474,-56858239.82714,  -0.00206,  -0.00069,  -0.00088,475895040.00000,   0.00031,274981792.00000,  -0.00035,  -0.00010,  -0.00014,  96.00000,   2.00000
-526098703.52267,-353898667.78944,-57044789.96789,  -0.00206,  -0.00069,  -0.00088,475895168.00000,   0.00031,274985088.00000,  -0.00036,  -0.00011,  -0.00014,  96.00000,   2.00000
-526055635.10736,-353717925.64107,-57237573.67113,  -0.00206,  -0.00069,  -0.00089,475886432.00000,   0.00032,274988352.00000,  -0.00036,  -0.00011,  -0.00014,  32.00000,   2.00000
-526013803.58870,-353547737.68761,-57421965.03151,  -0.00207,  -0.00069,  -0.00089,475911136.00000,   0.00032,274991680.00000,  -0.00036,  -0.00011,  -0.00015,   0.00000,   2.00000
-525970517.18428,-353367471.81254,-57613879.64655,  -0.00207,  -0.00069,  -0.00090,475893600.00000,   0.00032,274994944.00000,  -0.00037,  -0.00011,  -0.00015,  64.00000,   2.00000
-525928639.91224,-353201182.45359,-57794651.83788,  -0.00207,  -0.00069,  -0.00090,475902432.00000,   0.00033,274998208.00000,  -0.00037,  -0.00011,  -0.00015,   0.00000,   2.00000
-525882268.73114,-353045195.77769,-57978460.31126,  -0.00208,  -0.00069,  -0.00090,475916704.00000,   0.00033,275001504.00000,  -0.00037,  -0.00011,  -0.00015, -32.00000,   2.00000
-525840141.27802,-352879302.63863,-58158378.94103,  -0.00208,  -0.00069,  -0.00091,475909472.00000,   0.00033,275004800.00000,  -0.00038,  -0.00011,  -0.00015,  32.00000,   2.00000
-525793454.15899,-352723677.39375,-58341317.18160,  -0.00208,  -0.00069,  -0.00091,475923744.00000,   0.00034,275008096.00000,  -0.00038,  -0.00011,  -0.00015, -64.00000,   2.00000
-525750821.95252,-352570819.64549,-58514417.95538,  -0.00209,  -0.00069,  -0.00092,475923680.00000,   0.00034,275011424.00000,  -0.00038,  -0.00011,  -0.00016,  32.00000,   2.00000
-525705841.58050,-352416775.72418,-58691791.94062,  -0.00209,  -0.00069,  -0.00092,475929248.00000,   0.00034,275014720.00000,  -0.00039,  -0.00011,  -0.00016, -32.00000,   2.00000
-525658944.02700,-352277887.99831,-58864831.50418,  -0.00209,  -0.00069,  -0.00092,475925504.00000,   0.00034,275018016.00000,  -0.00039,  -0.00011,  -0.00016,  64.00000,   2.00000
-525613538.33796,-352136875.04957,-59035405.57899,  -0.00210,  -0.00069,  -0.00093,475943392.00000,   0.00035,275021344.00000,  -0.00039,  -0.00012,  -0.00016,  32.00000,   2.00000
-525566392.36606,-351998292.93707,-59207631.80663,  -0.00210,  -0.00069,  -0.00093,475932704.00000,   0.00035,275024640.00000,  -0.00040,  -0.00012,  -0.00016,  96.00000,   2.00000
-525520709.77944,-351857574.77687,-59377377.96095,  -0.00211,  -0.00069,  -0.00094,475950528.00000,   0.00035,275028000.00000,  -0.00040,  -0.00012,  -0.00016,  64.00000,   2.00000
-525473104.90640,-351731975.14261,-59542814.33882,  -0.00211,  -0.00069,  -0.00094,475946784.00000,   0.00036,275031328.00000,  -0.00040,  -0.00012,  -0.00017,   0.00000,   2.00000
-525425324.66195,-351606466.47293,-59707847.05864,  -0.00211,  -0.00069,  -0.00094,475950336.00000,   0.00036,275034624.00000,  -0.00041,  -0.00012,  -0.00017, -32.00000,   2.00000
-525377547.17582,-351481158.27958,-59872500.18774,  -0.00212,  -0.00069,  -0.00095,475953856.00000,   0.00036,275037952.00000,  -0.00041,  -0.00012,  -0.00017,  64.00000,   2.00000
-525331176.58553,-351366476.19705,-60028695.35044,  -0.00212,  -0.00069,  -0.00095,475978624.00000,   0.00037,275041344.00000,  -0.00041,  -0.00012,  -0.00017,   0.00000,   2.00000
-525283119.52140,-351254185.15861,-60186609.66678,  -0.00212,  -0.00070,  -0.00096,475968032.00000,   0.00037,275044704.00000,  -0.00042,  -0.00012,  -0.00017,   0.00000,   2.00000
-525234851.35013,-351141935.84400,-60344128.53823,  -0.00213,  -0.00070,  -0.00096,475971744.00000,   0.00037,275048064.00000,  -0.00042,  -0.00012,  -0.00018, -32.00000,   2.00000
-525182669.09492,-351043507.40205,-60502085.60380,  -0.00213,  -0.00070,  -0.00096,475969728.00000,   0.00038,275051392.00000,  -0.00042,  -0.00012,  -0.00018,  32.00000,   2.00000
-525134280.92478,-350944307.04800,-60652881.95802,  -0.00213,  -0.00070,  -0.00097,475985568.00000,   0.00038,275054784.00000,  -0.00043,  -0.00012,  -0.00018,   0.00000,   2.00000
-525085787.52432,-350845186.11374,-60803309.43181,  -0.00214,  -0.00070,  -0.00097,475989120.00000,   0.00038,275058144.00000,  -0.00043,  -0.00012,  -0.00018,   0.00000,   2.00000
-525035111.80653,-350757685.17864,-60952084.82731,  -0.00214,  -0.00070,  -0.00097,476001472.00000,   0.00038,275061568.00000,  -0.00043,  -0.00013,  -0.00018, -64.00000,   2.00000
-524986460.59674,-350671544.67592,-61095807.85305,  -0.00214,  -0.00070,  -0.00098,476003168.00000,   0.00039,275064960.00000,  -0.00044,  -0.00013,  -0.00018,   0.00000,   2.00000
-524936068.08789,-350587681.84475,-61241307.26725,  -0.00215,  -0.00070,  -0.00098,475992576.00000,   0.00039,275068320.00000,  -0.00044,  -0.00013,  -0.00019,  64.00000,   2.00000
-524885135.99013,-350513184.23665,-61383020.76080,  -0.00215,  -0.00070,  -0.00099,476019040.00000,   0.00039,275071776.00000,  -0.00044,  -0.00013,  -0.00019, -64.00000,   2.00000
-524836367.45910,-350440103.82996,-61519715.88206,  -0.00215,  -0.00070,  -0.00099,476020736.00000,   0.00040,275075200.00000,  -0.00045,  -0.00013,  -0.00019, -32.00000,   2.00000
-524783655.65669,-350367916.36161,-61662886.55463,  -0.00216,  -0.00070,  -0.00099,476011968.00000,   0.00040,275078592.00000,  -0.00045,  -0.00013,  -0.00019, -64.00000,   2.00000
-524734950.76591,-350307863.84676,-61792926.94733,  -0.00216,  -0.00070,  -0.00100,476034592.00000,   0.00040,275082048.00000,  -0.00046,  -0.00013,  -0.00019,  32.00000,   2.00000
-524683943.81349,-350246456.83555,-61927306.82301,  -0.00216,  -0.00070,  -0.00100,476040288.00000,   0.00041,275085504.00000,  -0.00046,  -0.00013,  -0.00020, -32.00000,   2.00000
-524631170.18602,-350200069.82851,-62057509.43638,  -0.00217,  -0.00070,  -0.00100,476036448.00000,   0.00041,275088960.00000,  -0.00046,  -0.00013,  -0.00020,   0.00000,   2.00000
-524582470.68197,-350140161.42813,-62186589.04358,  -0.00217,  -0.00070,  -0.00101,476045536.00000,   0.00041,275092416.00000,  -0.00047,  -0.00013,  -0.00020,  32.00000,   2.00000
-524527600.42311,-350105389.79055,-62314845.94906,  -0.00217,  -0.00070,  -0.00101,476052416.00000,   0.00042,275095872.00000,  -0.00047,  -0.00013,  -0.00020,  64.00000,   2.00000
-524478789.94123,-350058287.26349,-62437280.51758,  -0.00218,  -0.00071,  -0.00101,476059616.00000,   0.00042,275099360.00000,  -0.00047,  -0.00014,  -0.00020,  32.00000,   2.00000
-524424020.61550,-350036422.28229,-62558932.24442,  -0.00218,  -0.00071,  -0.00102,476066400.00000,   0.00042,275102880.00000,  -0.00048,  -0.00014,  -0.00020, 128.00000,   2.00000
-524373084.42048,-350000829.59214,-62679434.23476,  -0.00218,  -0.00071,  -0.00102,476075616.00000,   0.00043,275106400.00000,  -0.00048,  -0.00014,  -0.00021,  64.00000,   2.00000
-524319987.66528,-349976732.02002,-62798299.15486,  -0.00219,  -0.00071,  -0.00103,476087968.00000,   0.00043,275109952.00000,  -0.00048,  -0.00014,  -0.00021, -96.00000,   2.00000
-524267452.15410,-349956174.46977,-62914392.60986,  -0.00219,  -0.00071,  -0.00103,476075360.00000,   0.00043,275113440.00000,  -0.00049,  -0.00014,  -0.00021, -64.00000,   2.00000
-524216795.44327,-349946329.35375,-63022021.98059,  -0.00219,  -0.00071,  -0.00103,476099968.00000,   0.00044,275117024.00000,  -0.00049,  -0.00014,  -0.00021,   0.00000,   2.00000
-524164051.78075,-349935143.79299,-63134055.20181,  -0.00220,  -0.00071,  -0.00104,476105632.00000,   0.00044,275120576.00000,  -0.00049,  -0.00014,  -0.00021, 128.00000,   2.00000
-524111609.84562,-349927312.01585,-63243308.66772,  -0.00220,  -0.00071,  -0.00104,476093280.00000,   0.00044,275124096.00000,  -0.00050,  -0.00014,  -0.00022, -32.00000,   2.00000
-524058974.73406,-349928885.42303,-63348774.02269,  -0.00220,  -0.00071,  -0.00104,476119744.00000,   0.00045,275127712.00000,  -0.00050,  -0.00014,  -0.00022, 128.00000,   2.00000
-524006339.73868,-349943186.48701,-63447947.99585,  -0.00221,  -0.00071,  -0.00105,476130208.00000,   0.00045,275131328.00000,  -0.00051,  -0.00014,  -0.00022,  64.00000,   2.00000
-523953771.07822,-349944591.75469,-63552890.62973,  -0.00221,  -0.00072,  -0.00105,476127136.00000,   0.00045,275134944.00000,  -0.00051,  -0.00014,  -0.00022, -32.00000,   2.00000
-523897370.62083,-349972417.71851,-63652400.12042,  -0.00221,  -0.00072,  -0.00105,476132128.00000,   0.00045,275138560.00000,  -0.00051,  -0.00015,  -0.00022,   0.00000,   2.00000
-523847173.30492,-349987848.58588,-63746150.55645,  -0.00222,  -0.00072,  -0.00106,476139360.00000,   0.00046,275142176.00000,  -0.00052,  -0.00015,  -0.00023,  32.00000,   2.00000
-523794890.45825,-350014691.41262,-63838305.51489,  -0.00222,  -0.00072,  -0.00106,476151776.00000,   0.00046,275145824.00000,  -0.00052,  -0.00015,  -0.00023,  32.00000,   2.00000
-523740634.44073,-350052981.58451,-63928879.19886,  -0.00222,  -0.00072,  -0.00106,476164256.00000,   0.00047,275149504.00000,  -0.00052,  -0.00015,  -0.00023, -64.00000,   2.00000
-523686412.50908,-350091109.49030,-64019212.80037,  -0.00223,  -0.00072,  -0.00107,476168064.00000,   0.00047,275153184.00000,  -0.00053,  -0.00015,  -0.00023,   0.00000,   2.00000
-523634480.17833,-350130463.83527,-64104657.54910,  -0.00223,  -0.00072,  -0.00107,476169760.00000,   0.00047,275156864.00000,  -0.00053,  -0.00015,  -0.00023,  64.00000,   2.00000
-523582205.38412,-350178982.99018,-64186286.96145,  -0.00224,  -0.00072,  -0.00107,476196416.00000,   0.00048,275160640.00000,  -0.00054,  -0.00015,  -0.00024,   0.00000,   2.00000
-523530511.03858,-350230904.29262,-64265280.12539,  -0.00224,  -0.00072,  -0.00107,476184064.00000,   0.00048,275164320.00000,  -0.00054,  -0.00015,  -0.00024, -32.00000,   2.00000
-523474625.08427,-350292834.98698,-64347364.40983,  -0.00224,  -0.00073,  -0.00108,476198592.00000,   0.00048,275168064.00000,  -0.00054,  -0.00015,  -0.00024,  64.00000,   2.00000
-523422783.30476,-350366551.78350,-64416308.05494,  -0.00225,  -0.00073,  -0.00108,476221280.00000,   0.00049,275171872.00000,  -0.00055,  -0.00015,  -0.00024,   0.00000,   2.00000
-523369169.33837,-350429366.77232,-64493323.78945,  -0.00225,  -0.00073,  -0.00108,476204224.00000,   0.00049,275175616.00000,  -0.00055,  -0.00016,  -0.00025,   0.00000,   2.00000
-523317626.70565,-350502743.99952,-64561892.31049,  -0.00225,  -0.00073,  -0.00109,476228992.00000,   0.00049,275179424.00000,  -0.00055,  -0.00016,  -0.00025,   0.00000,   2.00000
-523262154.56296,-350589494.33355,-64631124.53246,  -0.00226,  -0.00073,  -0.00109,476227392.00000,   0.00050,275183200.00000,  -0.00056,  -0.00016,  -0.00025,   0.00000,   2.00000
-523208568.06117,-350673818.37305,-64697930.53405,  -0.00226,  -0.00073,  -0.00109,476245504.00000,   0.00050,275187040.00000,  -0.00056,  -0.00016,  -0.00025, -64.00000,   2.00000
-523155236.53545,-350770785.46315,-64758536.16575,  -0.00226,  -0.00073,  -0.00110,476256064.00000,   0.00050,275190912.00000,  -0.00057,  -0.00016,  -0.00025,  64.00000,   2.00000
-523100065.49453,-350869564.69582,-64821197.78121,  -0.00227,  -0.00074,  -0.00110,476245888.00000,   0.00051,275194720.00000,  -0.00057,  -0.00016,  -0.00026,  32.00000,   2.00000
-523046943.51693,-350978760.81823,-64875421.05428,  -0.00227,  -0.00074,  -0.00110,476270560.00000,   0.00051,275198624.00000,  -0.00057,  -0.00016,  -0.00026, -64.00000,   2.00000
-522993910.01866,-351087638.54458,-64929490.68675,  -0.00227,  -0.00074,  -0.00110,476274592.00000,   0.00051,275202496.00000,  -0.00058,  -0.00016,  -0.00026, -32.00000,   2.00000
-522942937.52885,-351194114.39114,-64981182.13710,  -0.00228,  -0.00074,  -0.00111,476292704.00000,   0.00052,275206432.00000,  -0.00058,  -0.00016,  -0.00026,  96.00000,   2.00000
-522887846.97533,-351313763.72256,-65033552.54174,  -0.00228,  -0.00074,  -0.00111,476291328.00000,   0.00052,275210368.00000,  -0.00059,  -0.00016,  -0.00027, -64.00000,   2.00000
-522832978.90881,-351445920.75361,-65079743.74532,  -0.00228,  -0.00074,  -0.00111,476301952.00000,   0.00052,275214304.00000,  -0.00059,  -0.00017,  -0.00027,   0.00000,   2.00000
-522780143.33094,-351575573.09859,-65123563.44202,  -0.00229,  -0.00075,  -0.00112,476320160.00000,   0.00053,275218304.00000,  -0.00059,  -0.00017,  -0.00027,  32.00000,   2.00000
-522727732.12867,-351708381.31161,-65164849.53734,  -0.00229,  -0.00075,  -0.00112,476308032.00000,   0.00053,275222240.00000,  -0.00060,  -0.00017,  -0.00027,  32.00000,   2.00000
-522675160.46312,-351850084.24968,-65202376.55905,  -0.00229,  -0.00075,  -0.00112,476335072.00000,   0.00054,275226240.00000,  -0.00060,  -0.00017,  -0.00027,  64.00000,   2.00000
-522620342.34936,-352002685.96016,-65238368.10979,  -0.00230,  -0.00075,  -0.00112,476347936.00000,   0.00054,275230304.00000,  -0.00061,  -0.00017,  -0.00028,  64.00000,   2.00000
-522567963.73627,-352156296.03602,-65269618.28775,  -0.00230,  -0.00075,  -0.00113,476349856.00000,   0.00054,275234336.00000,  -0.00061,  -0.00017,  -0.00028,   0.00000,   2.00000
-522513343.32204,-352308007.17046,-65305398.85946,  -0.00231,  -0.00076,  -0.00113,476356128.00000,   0.00055,275238368.00000,  -0.00061,  -0.00017,  -0.00028, -32.00000,   2.00000
-522461191.45403,-352473504.32986,-65330391.07114,  -0.00231,  -0.00076,  -0.00113,476364864.00000,   0.00055,275242432.00000,  -0.00062,  -0.00017,  -0.00028,  64.00000,   2.00000
-522404541.78509,-352648412.96079,-65358517.39969,  -0.00231,  -0.00076,  -0.00114,476379872.00000,   0.00055,275246560.00000,  -0.00062,  -0.00017,  -0.00029,   0.00000,   2.00000
-522352323.64026,-352822124.01958,-65379681.65490,  -0.00232,  -0.00076,  -0.00114,476396096.00000,   0.00056,275250688.00000,  -0.00063,  -0.00017,  -0.00029,  64.00000,   2.00000
-522300289.72288,-352998766.12460,-65398345.87140,  -0.00232,  -0.00076,  -0.00114,476384256.00000,   0.00056,275254784.00000,  -0.00063,  -0.00018,  -0.00029, -96.00000,   2.00000
-522245965.71794,-353182750.16916,-65417947.62316,  -0.00232,  -0.00077,  -0.00114,476413280.00000,   0.00057,275258944.00000,  -0.00064,  -0.00018,  -0.00029,  96.00000,   2.00000
-522191611.43182,-353378842.50967,-65431404.38492,  -0.00233,  -0.00077,  -0.00115,476424416.00000,   0.00057,275263136.00000,  -0.00064,  -0.00018,  -0.00030, -32.00000,   2.00000
-522139576.23329,-353575738.70106,-65440160.70769,  -0.00233,  -0.00077,  -0.00115,476426656.00000,   0.00057,275267328.00000,  -0.00064,  -0.00018,  -0.00030,  32.00000,   2.00000
-522085358.71621,-353783355.44559,-65447456.51027,  -0.00233,  -0.00077,  -0.00115,476439744.00000,   0.00058,275271552.00000,  -0.00065,  -0.00018,  -0.00030, -32.00000,   2.00000
-522031280.18439,-353990377.82830,-65454718.95344,  -0.00234,  -0.00077,  -0.00115,476444064.00000,   0.00058,275275776.00000,  -0.00065,  -0.00018,  -0.00030,  64.00000,   2.00000
-521974956.34217,-354208033.53951,-65460513.45686,  -0.00234,  -0.00078,  -0.00116,476457216.00000,   0.00058,275280032.00000,  -0.00066,  -0.00018,  -0.00031,  64.00000,   2.00000
-521922815.47953,-354424142.56287,-65459363.07771,  -0.00234,  -0.00078,  -0.00116,476473696.00000,   0.00059,275284320.00000,  -0.00066,  -0.00018,  -0.00031,  32.00000,   2.00000
-521870628.03372,-354639509.31039,-65458176.21852,  -0.00235,  -0.00078,  -0.00116,476478048.00000,   0.00059,275288640.00000,  -0.00067,  -0.00019,  -0.00031, -64.00000,   2.00000
-521814395.02985,-354880508.44786,-65451762.73554,  -0.00235,  -0.00078,  -0.00116,476483872.00000,   0.00060,275292928.00000,  -0.00067,  -0.00019,  -0.00031, -64.00000,   2.00000
-521760197.49214,-355105810.94484,-65449147.79482,  -0.00236,  -0.00079,  -0.00117,476495648.00000,   0.00060,275297248.00000,  -0.00067,  -0.00019,  -0.00032,  64.00000,   2.00000
-521707838.14451,-355353426.25540,-65432126.05010,  -0.00236,  -0.00079,  -0.00117,476527904.00000,   0.00060,275301664.00000,  -0.00068,  -0.00019,  -0.00032,  64.00000,   2.00000
-521651378.91859,-355601134.12521,-65422025.13865,  -0.00236,  -0.00079,  -0.00117,476520256.00000,   0.00061,275306048.00000,  -0.00068,  -0.00019,  -0.00032,  64.00000,   2.00000
-521597052.35740,-355849360.88539,-65407260.14859,  -0.00237,  -0.00079,  -0.00117,476522848.00000,   0.00061,275310432.00000,  -0.00069,  -0.00019,  -0.00032,  32.00000,   2.00000
-521542489.75620,-356105774.58446,-65388843.94440,  -0.00237,  -0.00080,  -0.00118,476550336.00000,   0.00062,275314880.00000,  -0.00069,  -0.00019,  -0.00033,  32.00000,   2.00000
-521490084.58589,-356362689.95674,-65365792.76199,  -0.00237,  -0.00080,  -0.00118,476552928.00000,   0.00062,275319328.00000,  -0.00070,  -0.00019,  -0.00033,   0.00000,   2.00000
-521435385.60166,-356629969.71080,-65341352.47171,  -0.00238,  -0.00080,  -0.00118,476566336.00000,   0.00063,275323808.00000,  -0.00070,  -0.00020,  -0.00033,   0.00000,   2.00000
-521378433.58231,-356907591.27683,-65315531.81390,  -0.00238,  -0.00080,  -0.00118,476579840.00000,   0.00063,275328320.00000,  -0.00071,  -0.00020,  -0.00033, -64.00000,   2.00000
-521323675.32979,-357185664.00668,-65285102.16930,  -0.00239,  -0.00081,  -0.00118,476582400.00000,   0.00063,275332800.00000,  -0.00071,  -0.00020,  -0.00034,  32.00000,   2.00000
-521270809.68113,-357460420.23380,-65252468.13905,  -0.00239,  -0.00081,  -0.00119,476601152.00000,   0.00064,275337376.00000,  -0.00071,  -0.00020,  -0.00034, -32.00000,   2.00000
-521213591.47568,-357747725.46132,-65220708.08043,  -0.00239,  -0.00081,  -0.00119,476600736.00000,   0.00064,275341888.00000,  -0.00072,  -0.00020,  -0.00034,  64.00000,   2.00000
-521158250.05323,-358044289.90719,-65180693.10222,  -0.00240,  -0.00081,  -0.00119,476626400.00000,   0.00065,275346496.00000,  -0.00072,  -0.00020,  -0.00034, -32.00000,   2.00000
-521102846.94906,-358339800.88733,-65140752.22668,  -0.00240,  -0.00082,  -0.00119,476631168.00000,   0.00065,275351104.00000,  -0.00073,  -0.00020,  -0.00035, -32.00000,   2.00000
-521047289.05012,-358646837.53266,-65094820.29541,  -0.00240,  -0.00082,  -0.00120,476642880.00000,   0.00065,275355744.00000,  -0.00073,  -0.00020,  -0.00035,   0.00000,   2.00000
-520993691.65827,-358950429.11186,-65046746.98751,  -0.00241,  -0.00082,  -0.00120,476661760.00000,   0.00066,275360416.00000,  -0.00074,  -0.00021,  -0.00035,  64.00000,   2.00000
-520937926.07713,-359255245.16837,-65000995.66716,  -0.00241,  -0.00083,  -0.00120,476652576.00000,   0.00066,275365024.00000,  -0.00074,  -0.00021,  -0.00035,  64.00000,   2.00000
-520879318.28641,-359578762.07816,-64950241.43411,  -0.00242,  -0.00083,  -0.00120,476689472.00000,   0.00067,275369792.00000,  -0.00075,  -0.00021,  -0.00036, -64.00000,   2.00000
-520822893.32882,-359902542.93192,-64894955.29493,  -0.00242,  -0.00083,  -0.00120,476692320.00000,   0.00067,275374496.00000,  -0.00075,  -0.00021,  -0.00036, -32.00000,   2.00000
-520768571.03948,-360226543.34343,-64835140.70518,  -0.00242,  -0.00083,  -0.00121,476695200.00000,   0.00068,275379232.00000,  -0.00076,  -0.00021,  -0.00036,   0.00000,   2.00000
-520709600.24180,-360559034.35689,-64778685.84795,  -0.00243,  -0.00084,  -0.00121,476711200.00000,   0.00068,275384000.00000,  -0.00076,  -0.00021,  -0.00037, -32.00000,   2.00000
-520654595.99626,-360889180.77647,-64715457.47425,  -0.00243,  -0.00084,  -0.00121,476728320.00000,   0.00068,275388800.00000,  -0.00077,  -0.00021,  -0.00037, -32.00000,   2.00000
-520597358.65832,-361233053.47017,-64648538.48975,  -0.00244,  -0.00084,  -0.00121,476726176.00000,   0.00069,275393568.00000,  -0.00077,  -0.00022,  -0.00037,  64.00000,   2.00000
-520537303.24770,-361582729.08366,-64582756.63178,  -0.00244,  -0.00085,  -0.00121,476756384.00000,   0.00069,275398464.00000,  -0.00078,  -0.00022,  -0.00037,   0.00000,   2.00000
-520479321.55195,-361932490.66358,-64512477.88325,  -0.00244,  -0.00085,  -0.00121,476759488.00000,   0.00070,275403296.00000,  -0.00078,  -0.00022,  -0.00038,  32.00000,   2.00000
-520423473.53069,-362282385.40405,-64437726.12374,  -0.00245,  -0.00085,  -0.00122,476762496.00000,   0.00070,275408160.00000,  -0.00079,  -0.00022,  -0.00038,  32.00000,   2.00000
-520364805.17105,-362637976.37970,-64364151.39445,  -0.00245,  -0.00086,  -0.00122,476792832.00000,   0.00071,275413120.00000,  -0.00079,  -0.00022,  -0.00038,   0.00000,   2.00000
-520303524.01092,-363006953.93477,-64286864.16300,  -0.00246,  -0.00086,  -0.00122,476791008.00000,   0.00071,275418016.00000,  -0.00080,  -0.00022,  -0.00038, -64.00000,   2.00000
-520246526.03063,-363373551.18303,-64202934.60355,  -0.00246,  -0.00086,  -0.00122,476808160.00000,   0.00072,275422976.00000,  -0.00080,  -0.00022,  -0.00039,  64.00000,   2.00000
-520189168.53783,-363738589.80387,-64119188.73517,  -0.00246,  -0.00087,  -0.00122,476813472.00000,   0.00072,275427936.00000,  -0.00081,  -0.00023,  -0.00039,   0.00000,   2.00000
-520126698.86893,-364124048.27060,-64032802.11369,  -0.00247,  -0.00087,  -0.00123,476836928.00000,   0.00073,275432960.00000,  -0.00081,  -0.00023,  -0.00039,  64.00000,   2.00000
-520068671.97696,-364494581.79954,-63945872.63053,  -0.00247,  -0.00087,  -0.00123,476847200.00000,   0.00073,275437984.00000,  -0.00082,  -0.00023,  -0.00040,  96.00000,   2.00000
-520007779.18204,-364878293.78213,-63855239.83958,  -0.00248,  -0.00088,  -0.00123,476845760.00000,   0.00073,275443008.00000,  -0.00082,  -0.00023,  -0.00040, -32.00000,   2.00000
-519948564.50082,-365270301.19744,-63756587.49823,  -0.00248,  -0.00088,  -0.00123,476872000.00000,   0.00074,275448096.00000,  -0.00083,  -0.00023,  -0.00040,  64.00000,   2.00000
-519886895.41655,-365659250.24346,-63662841.98122,  -0.00248,  -0.00088,  -0.00123,476879456.00000,   0.00074,275453184.00000,  -0.00083,  -0.00023,  -0.00040, -32.00000,   2.00000
-519826806.31870,-366056343.28844,-63561087.28024,  -0.00249,  -0.00089,  -0.00123,476906080.00000,   0.00075,275458336.00000,  -0.00084,  -0.00024,  -0.00041,  32.00000,   2.00000
-519761719.96957,-366465108.56606,-63460343.64307,  -0.00249,  -0.00089,  -0.00124,476906848.00000,   0.00075,275463488.00000,  -0.00084,  -0.00024,  -0.00041,  64.00000,   2.00000
-519703148.05872,-366860156.37200,-63354450.88073,  -0.00250,  -0.00089,  -0.00124,476915168.00000,   0.00076,275468640.00000,  -0.00085,  -0.00024,  -0.00041,  32.00000,   2.00000
-519637078.75210,-367277727.75015,-63248168.83368,  -0.00250,  -0.00090,  -0.00124,476924992.00000,   0.00076,275473824.00000,  -0.00085,  -0.00024,  -0.00042,   0.00000,   2.00000
-519572795.13370,-367690884.92405,-63139996.59027,  -0.00250,  -0.00090,  -0.00124,476944576.00000,   0.00077,275479040.00000,  -0.00086,  -0.00024,  -0.00042,   0.00000,   2.00000
-519512530.87920,-368101091.37873,-63025301.13023,  -0.00251,  -0.00091,  -0.00124,476962240.00000,   0.00077,275484320.00000,  -0.00086,  -0.00024,  -0.00042, -96.00000,   2.00000
-519447306.00582,-368522939.89745,-62911671.72095,  -0.00251,  -0.00091,  -0.00124,476963008.00000,   0.00078,275489568.00000,  -0.00087,  -0.00025,  -0.00043, -32.00000,   2.00000
-519383764.82971,-368940222.01582,-62796181.92143,  -0.00252,  -0.00091,  -0.00124,476982784.00000,   0.00078,275494848.00000,  -0.00087,  -0.00025,  -0.00043,   0.00000,   2.00000
-519319529.40255,-369367864.68968,-62674947.43338,  -0.00252,  -0.00092,  -0.00125,476995744.00000,   0.00079,275500160.00000,  -0.00088,  -0.00025,  -0.00043,   0.00000,   2.00000
-519252119.87191,-369804164.21252,-62552608.26821,  -0.00253,  -0.00092,  -0.00125,477010784.00000,   0.00079,275505504.00000,  -0.00088,  -0.00025,  -0.00043,   0.00000,   2.00000
-519186697.19053,-370240072.64434,-62425980.93906,  -0.00253,  -0.00092,  -0.00125,477014496.00000,   0.00080,275510848.00000,  -0.00089,  -0.00025,  -0.00044,  64.00000,   2.00000
-519118642.14782,-370672520.25608,-62304362.10297,  -0.00253,  -0.00093,  -0.00125,477022336.00000,   0.00080,275516224.00000,  -0.00089,  -0.00025,  -0.00044,   0.00000,   2.00000
-519054032.93184,-371113821.38002,-62170217.09190,  -0.00254,  -0.00093,  -0.00125,477047488.00000,   0.00081,275521632.00000,  -0.00090,  -0.00026,  -0.00044,  64.00000,   2.00000
-518987002.36099,-371551754.73692,-62041147.22151,  -0.00254,  -0.00094,  -0.00125,477055328.00000,   0.00081,275527040.00000,  -0.00091,  -0.00026,  -0.00045,  64.00000,   2.00000
-518918849.07569,-371999579.56402,-61906349.01124,  -0.00255,  -0.00094,  -0.00125,477068800.00000,   0.00082,275532480.00000,  -0.00091,  -0.00026,  -0.00045,   0.00000,   2.00000
-518847587.09898,-372455906.52529,-61770536.05353,  -0.00255,  -0.00094,  -0.00126,477083968.00000,   0.00082,275537984.00000,  -0.00092,  -0.00026,  -0.00045, -32.00000,   2.00000
-518783058.05220,-372898314.88946,-61629776.79673,  -0.00256,  -0.00095,  -0.00126,477092544.00000,   0.00083,275543456.00000,  -0.00092,  -0.00026,  -0.00046,   0.00000,   2.00000
-518710484.54686,-373358258.48049,-61491285.30799,  -0.00256,  -0.00095,  -0.00126,477119264.00000,   0.00083,275549024.00000,  -0.00093,  -0.00027,  -0.00046,   0.00000,   2.00000
-518641682.21307,-373818852.66428,-61343868.61901,  -0.00256,  -0.00096,  -0.00126,477121600.00000,   0.00084,275554560.00000,  -0.00093,  -0.00027,  -0.00046,  96.00000,   2.00000
-518570281.61014,-374275812.32579,-61201572.18833,  -0.00257,  -0.00096,  -0.00126,477129536.00000,   0.00084,275560128.00000,  -0.00094,  -0.00027,  -0.00046, -64.00000,   2.00000
-518497901.84140,-374742572.20494,-61053648.28034,  -0.00257,  -0.00097,  -0.00126,477143104.00000,   0.00085,275565696.00000,  -0.00094,  -0.00027,  -0.00047,  64.00000,   2.00000
-518427139.90745,-375204182.11672,-60904079.78822,  -0.00258,  -0.00097,  -0.00126,477163264.00000,   0.00085,275571328.00000,  -0.00095,  -0.00027,  -0.00047,   0.00000,   2.00000
-518353094.91044,-375678305.86593,-60750993.34594,  -0.00258,  -0.00097,  -0.00126,477163008.00000,   0.00086,275576928.00000,  -0.00096,  -0.00028,  -0.00047,  64.00000,   2.00000
-518280789.00334,-376147283.08363,-60596312.84605,  -0.00259,  -0.00098,  -0.00127,477183232.00000,   0.00086,275582560.00000,  -0.00096,  -0.00028,  -0.00048,  96.00000,   2.00000
-518207360.45800,-376621458.63378,-60438650.26072,  -0.00259,  -0.00098,  -0.00127,477212864.00000,   0.00087,275588288.00000,  -0.00097,  -0.00028,  -0.00048,  64.00000,   2.00000
-518133217.20948,-377097529.72669,-60278871.25187,  -0.00259,  -0.00099,  -0.00127,477203360.00000,   0.00087,275593952.00000,  -0.00097,  -0.00028,  -0.00048,  64.00000,   2.00000
-518058007.02678,-377578734.00552,-60116159.30844,  -0.00260,  -0.00099,  -0.00127,477232992.00000,   0.00088,275599712.00000,  -0.00098,  -0.00028,  -0.00049,   0.00000,   2.00000
-517980174.45349,-378060524.69383,-59956048.07360,  -0.00260,  -0.00100,  -0.00127,477225504.00000,   0.00088,275605408.00000,  -0.00098,  -0.00029,  -0.00049,  64.00000,   2.00000
-517901027.67257,-378547173.06052,-59792993.22460,  -0.00261,  -0.00100,  -0.00127,477255488.00000,   0.00089,275611200.00000,  -0.00099,  -0.00029,  -0.00049, -32.00000,   2.00000
-517825705.67945,-379029862.83778,-59623758.46229,  -0.00261,  -0.00100,  -0.00127,477273888.00000,   0.00090,275617024.00000,  -0.00100,  -0.00029,  -0.00050, -32.00000,   2.00000
-517749759.32398,-379514528.93373,-59452452.63014,  -0.00262,  -0.00101,  -0.00127,477264544.00000,   0.00090,275622784.00000,  -0.00100,  -0.00029,  -0.00050,  32.00000,   2.00000
-517670528.32526,-380002569.18859,-59282986.08378,  -0.00262,  -0.00101,  -0.00127,477296352.00000,   0.00091,275628640.00000,  -0.00101,  -0.00029,  -0.00050,   0.00000,   2.00000
-517589790.29367,-380499662.38361,-59108006.08495,  -0.00263,  -0.00102,  -0.00127,477310656.00000,   0.00091,275634528.00000,  -0.00101,  -0.00030,  -0.00051,  64.00000,   2.00000
-517510510.75948,-380995572.98891,-58928929.58030,  -0.00263,  -0.00102,  -0.00127,477315392.00000,   0.00092,275640416.00000,  -0.00102,  -0.00030,  -0.00051, -32.00000,   2.00000
-517428889.13009,-381487681.30636,-58755192.25852,  -0.00264,  -0.00103,  -0.00128,477323744.00000,   0.00092,275646304.00000,  -0.00102,  -0.00030,  -0.00051, 128.00000,   2.00000
-517345475.79047,-381988577.64849,-58575936.19313,  -0.00264,  -0.00103,  -0.00128,477338304.00000,   0.00093,275652192.00000,  -0.00103,  -0.00030,  -0.00052, -32.00000,   2.00000
-517263933.51206,-382483923.60485,-58395324.67123,  -0.00264,  -0.00104,  -0.00128,477358816.00000,   0.00093,275658144.00000,  -0.00104,  -0.00030,  -0.00052,  64.00000,   2.00000
-517183841.29631,-382978061.20010,-58210648.65406,  -0.00265,  -0.00104,  -0.00128,477363744.00000,   0.00094,275664096.00000,  -0.00104,  -0.00031,  -0.00052,  32.00000,   2.00000
-517097042.59229,-383489670.65904,-58023859.16226,  -0.00265,  -0.00105,  -0.00128,477389792.00000,   0.00094,275670112.00000,  -0.00105,  -0.00031,  -0.00052,  32.00000,   2.00000
-517012823.90737,-383988590.79535,-57839120.25753,  -0.00266,  -0.00105,  -0.00128,477386944.00000,   0.00095,275676096.00000,  -0.00105,  -0.00031,  -0.00053,  32.00000,   2.00000
-516929105.15090,-384493057.72361,-57646972.30327,  -0.00266,  -0.00106,  -0.00128,477415552.00000,   0.00096,275682144.00000,  -0.00106,  -0.00031,  -0.00053,   0.00000,   2.00000
-516842600.12265,-384997998.38752,-57457490.35701,  -0.00267,  -0.00106,  -0.00128,477408416.00000,   0.00096,275688128.00000,  -0.00107,  -0.00032,  -0.00053,  32.00000,   2.00000
-516754675.79927,-385507033.46213,-57265354.46588,  -0.00267,  -0.00107,  -0.00128,477438944.00000,   0.00097,275694240.00000,  -0.00107,  -0.00032,  -0.00054, -32.00000,   2.00000
-516668261.50458,-386014779.13077,-57069223.50530,  -0.00268,  -0.00107,  -0.00128,477443936.00000,   0.00097,275700288.00000,  -0.00108,  -0.00032,  -0.00054,  32.00000,   2.00000
-516581125.59150,-386519675.04956,-56873787.35314,  -0.00268,  -0.00107,  -0.00128,477450944.00000,   0.00098,275706368.00000,  -0.00108,  -0.00032,  -0.00054,   0.00000,   2.00000
-516492710.98617,-387028629.30212,-56675783.34102,  -0.00269,  -0.00108,  -0.00128,477481536.00000,   0.00098,275712544.00000,  -0.00109,  -0.00033,  -0.00055,  96.00000,   2.00000
-516398130.19284,-387547774.33593,-56479066.15284,  -0.00269,  -0.00108,  -0.00128,477484576.00000,   0.00099,275718688.00000,  -0.00110,  -0.00033,  -0.00055,  32.00000,   2.00000
-516310331.36987,-388052322.85876,-56277781.69146,  -0.00270,  -0.00109,  -0.00129,477493856.00000,   0.00099,275724832.00000,  -0.00110,  -0.00033,  -0.00055, -32.00000,   2.00000
-516218951.29346,-388564039.44454,-56075914.19145,  -0.00270,  -0.00109,  -0.00129,477510656.00000,   0.00100,275731008.00000,  -0.00111,  -0.00033,  -0.00056,  64.00000,   2.00000
-516125473.18966,-389083905.07570,-55868699.82300,  -0.00271,  -0.00110,  -0.00129,477525824.00000,   0.00101,275737216.00000,  -0.00112,  -0.00034,  -0.00056,  32.00000,   2.00000
-516033892.32007,-389597707.05903,-55660380.98921,  -0.00271,  -0.00110,  -0.00129,477546784.00000,   0.00101,275743456.00000,  -0.00112,  -0.00034,  -0.00056,  32.00000,   2.00000
-515939230.50398,-390111776.13465,-55454722.08431,  -0.00271,  -0.00111,  -0.00129,477540128.00000,   0.00102,275749664.00000,  -0.00113,  -0.00034,  -0.00057,  32.00000,   2.00000
-515843191.12425,-390629453.10715,-55246619.45399,  -0.00272,  -0.00112,  -0.00129,477570880.00000,   0.00102,275755936.00000,  -0.00113,  -0.00034,  -0.00057,  64.00000,   2.00000
-515748359.40966,-391145454.02373,-55034569.54215,  -0.00272,  -0.00112,  -0.00129,477576512.00000,   0.00103,275762240.00000,  -0.00114,  -0.00035,  -0.00057,   0.00000,   2.00000
-515652961.57402,-391658512.46029,-54823328.31792,  -0.00273,  -0.00113,  -0.00129,477583584.00000,   0.00104,275768512.00000,  -0.00115,  -0.00035,  -0.00058, -32.00000,   2.00000
-515558841.10924,-392169954.29959,-54608160.13196,  -0.00273,  -0.00113,  -0.00129,477589088.00000,   0.00104,275774784.00000,  -0.00115,  -0.00035,  -0.00058,  64.00000,   2.00000
-515458018.49900,-392692988.10351,-54394026.90878,  -0.00274,  -0.00114,  -0.00129,477631776.00000,   0.00105,275781184.00000,  -0.00116,  -0.00035,  -0.00058,  64.00000,   2.00000
-515363591.97559,-393205975.57400,-54172578.85111,  -0.00274,  -0.00114,  -0.00129,477625728.00000,   0.00105,275787520.00000,  -0.00117,  -0.00036,  -0.00059, -32.00000,   2.00000
-515260980.95294,-393727542.38872,-53957233.65564,  -0.00275,  -0.00115,  -0.00129,477630880.00000,   0.00106,275793856.00000,  -0.00117,  -0.00036,  -0.00059,  32.00000,   2.00000
-515162072.50118,-394243990.30567,-53736154.61922,  -0.00275,  -0.00115,  -0.00129,477650272.00000,   0.00106,275800224.00000,  -0.00118,  -0.00036,  -0.00059,  64.00000,   2.00000
-515064918.54508,-394753890.74512,-53514104.05751,  -0.00276,  -0.00116,  -0.00129,477671424.00000,   0.00107,275806656.00000,  -0.00118,  -0.00036,  -0.00060,   0.00000,   2.00000
-514961332.93837,-395273573.69981,-53293419.45131,  -0.00276,  -0.00116,  -0.00129,477675008.00000,   0.00108,275813056.00000,  -0.00119,  -0.00037,  -0.00060, -32.00000,   2.00000
-514857315.86836,-395790191.89067,-53073613.30501,  -0.00277,  -0.00117,  -0.00129,477682368.00000,   0.00108,275819456.00000,  -0.00120,  -0.00037,  -0.00060,  64.00000,   2.00000
-514756828.31296,-396301407.12110,-52848108.52511,  -0.00277,  -0.00117,  -0.00129,477701952.00000,   0.00109,275825920.00000,  -0.00120,  -0.00037,  -0.00060,  32.00000,   2.00000
-514654132.83687,-396820169.51515,-52617447.13155,  -0.00278,  -0.00118,  -0.00129,477717824.00000,   0.00109,275832384.00000,  -0.00121,  -0.00038,  -0.00061,   0.00000,   2.00000
-514548970.74970,-397334287.48390,-52392438.63027,  -0.00278,  -0.00118,  -0.00129,477726880.00000,   0.00110,275838880.00000,  -0.00122,  -0.00038,  -0.00061, -32.00000,   2.00000
-514445160.35717,-397846544.80696,-52163593.36681,  -0.00279,  -0.00119,  -0.00129,477732576.00000,   0.00111,275845344.00000,  -0.00122,  -0.00038,  -0.00061,  64.00000,   2.00000
-514337202.56027,-398364781.29391,-51934355.36636,  -0.00279,  -0.00119,  -0.00129,477750272.00000,   0.00111,275851840.00000,  -0.00123,  -0.00038,  -0.00062,  64.00000,   2.00000
-514232933.62705,-398877446.35574,-51699530.08448,  -0.00280,  -0.00120,  -0.00129,477769888.00000,   0.00112,275858400.00000,  -0.00124,  -0.00039,  -0.00062,  96.00000,   2.00000
-514126255.78850,-399385381.22943,-51470402.03866,  -0.00280,  -0.00120,  -0.00129,477779136.00000,   0.00112,275864960.00000,  -0.00124,  -0.00039,  -0.00062,   0.00000,   2.00000
-514018414.65623,-399894873.93053,-51239206.32467,  -0.00281,  -0.00121,  -0.00129,477771136.00000,   0.00113,275871456.00000,  -0.00125,  -0.00039,  -0.00063,  32.00000,   2.00000
-513910527.85918,-400407776.08984,-51001152.68006,  -0.00281,  -0.00122,  -0.00129,477801056.00000,   0.00114,275878048.00000,  -0.00125,  -0.00040,  -0.00063,   0.00000,   2.00000
-513803014.23748,-400912449.34374,-50767129.63637,  -0.00282,  -0.00122,  -0.00129,477823904.00000,   0.00114,275884672.00000,  -0.00126,  -0.00040,  -0.00063, -32.00000,   2.00000
-513694061.22496,-401418435.88088,-50531021.48336,  -0.00282,  -0.00123,  -0.00129,477816256.00000,   0.00115,275891232.00000,  -0.00127,  -0.00040,  -0.00064, -32.00000,   2.00000
-513582689.94028,-401931333.86728,-50289856.10313,  -0.00283,  -0.00123,  -0.00129,477832416.00000,   0.00116,275897824.00000,  -0.00127,  -0.00041,  -0.00064,   0.00000,   2.00000
-513471663.55205,-402435791.62833,-50052765.91900,  -0.00283,  -0.00124,  -0.00129,477855296.00000,   0.00116,275904480.00000,  -0.00128,  -0.00041,  -0.00064, -64.00000,   2.00000
-513359207.84867,-402941530.85389,-49813590.24523,  -0.00284,  -0.00124,  -0.00129,477847712.00000,   0.00117,275911072.00000,  -0.00129,  -0.00041,  -0.00065,  32.00000,   2.00000
-513248839.18972,-403440067.83317,-49573739.15081,  -0.00284,  -0.00125,  -0.00129,477869056.00000,   0.00117,275917728.00000,  -0.00129,  -0.00041,  -0.00065,  64.00000,   2.00000
-513135877.46002,-403945221.27821,-49328868.23667,  -0.00285,  -0.00125,  -0.00129,477885440.00000,   0.00118,275924416.00000,  -0.00130,  -0.00042,  -0.00065,  32.00000,   2.00000
-513024408.38559,-404436471.32299,-49091062.20399,  -0.00285,  -0.00126,  -0.00129,477884224.00000,   0.00119,275931040.00000,  -0.00131,  -0.00042,  -0.00066,  32.00000,   2.00000
-512912974.53490,-404930649.59637,-48846589.77833,  -0.00286,  -0.00127,  -0.00129,477914400.00000,   0.00119,275937760.00000,  -0.00131,  -0.00042,  -0.00066, -96.00000,   2.00000
-512796481.83375,-405435146.39957,-48598811.62690,  -0.00286,  -0.00127,  -0.00129,477917152.00000,   0.00120,275944480.00000,  -0.00132,  -0.00043,  -0.00066, -32.00000,   2.00000
-512684285.61935,-405922157.24922,-48356490.99405,  -0.00287,  -0.00128,  -0.00129,477929760.00000,   0.00120,275951200.00000,  -0.00133,  -0.00043,  -0.00066,  96.00000,   2.00000
-512566641.56893,-406419245.15029,-48110807.87934,  -0.00287,  -0.00128,  -0.00129,477932672.00000,   0.00121,275957888.00000,  -0.00133,  -0.00043,  -0.00067,  64.00000,   2.00000
-512451238.23914,-406909012.34926,-47864577.73132,  -0.00288,  -0.00129,  -0.00129,477953952.00000,   0.00122,275964640.00000,  -0.00134,  -0.00044,  -0.00067,  32.00000,   2.00000
-512336795.65155,-407396284.03229,-47614619.73941,  -0.00288,  -0.00129,  -0.00129,477960128.00000,   0.00122,275971360.00000,  -0.00135,  -0.00044,  -0.00067, -64.00000,   2.00000
-512220514.52777,-407878977.15906,-47370563.11852,  -0.00289,  -0.00130,  -0.00129,477969120.00000,   0.00123,275978112.00000,  -0.00135,  -0.00044,  -0.00068,  32.00000,   2.00000
-512106891.02580,-408360579.33351,-47117991.03826,  -0.00289,  -0.00131,  -0.00129,477973952.00000,   0.00124,275984864.00000,  -0.00136,  -0.00045,  -0.00068, -64.00000,   2.00000
-511987430.88634,-408846313.94172,-46870100.87443,  -0.00290,  -0.00131,  -0.00129,477993504.00000,   0.00124,275991616.00000,  -0.00137,  -0.00045,  -0.00068,  64.00000,   2.00000
-511870145.77423,-409324791.28505,-46621716.80881,  -0.00290,  -0.00132,  -0.00129,478014912.00000,   0.00125,275998432.00000,  -0.00137,  -0.00045,  -0.00069,  64.00000,   2.00000
-511751225.71895,-409804959.59367,-46371193.35657,  -0.00291,  -0.00132,  -0.00129,478007552.00000,   0.00125,276005216.00000,  -0.00138,  -0.00046,  -0.00069,  64.00000,   2.00000
-511634510.29624,-410278041.08311,-46120202.86600,  -0.00291,  -0.00133,  -0.00129,478028736.00000,   0.00126,276012000.00000,  -0.00139,  -0.00046,  -0.00069, -32.00000,   2.00000
-511516238.46612,-410753124.27799,-45867070.20919,  -0.00292,  -0.00133,  -0.00129,478021248.00000,   0.00127,276018784.00000,  -0.00139,  -0.00046,  -0.00069, -96.00000,   2.00000
-511396414.64261,-411230015.48618,-45612315.89325,  -0.00292,  -0.00134,  -0.00129,478052896.00000,   0.00127,276025600.00000,  -0.00140,  -0.00047,  -0.00070,   0.00000,   2.00000
-511276056.41425,-411703923.39868,-45358667.73740,  -0.00293,  -0.00135,  -0.00129,478060736.00000,   0.00128,276032448.00000,  -0.00141,  -0.00047,  -0.00070,  32.00000,   2.00000
-511159052.83440,-412166391.19237,-45107293.51703,  -0.00293,  -0.00135,  -0.00129,478057792.00000,   0.00129,276039264.00000,  -0.00141,  -0.00047,  -0.00070,   0.00000,   2.00000
-511037641.54607,-412634778.08829,-44855824.95374,  -0.00294,  -0.00136,  -0.00129,478075936.00000,   0.00129,276046080.00000,  -0.00142,  -0.00048,  -0.00071, -32.00000,   2.00000
-510917337.53309,-413101842.00437,-44600641.79304,  -0.00294,  -0.00136,  -0.00129,478081984.00000,   0.00130,276052928.00000,  -0.00143,  -0.00048,  -0.00071, -64.00000,   2.00000
-510792627.32237,-413575003.86566,-44345387.01737,  -0.00295,  -0.00137,  -0.00129,478100160.00000,   0.00131,276059776.00000,  -0.00143,  -0.00048,  -0.00071, -64.00000,   2.00000
-510675596.21658,-414034497.46889,-44086087.14748,  -0.00296,  -0.00138,  -0.00129,478109376.00000,   0.00131,276066656.00000,  -0.00144,  -0.00049,  -0.00072,-128.00000,   2.00000
-510553848.61638,-414494588.18219,-43834184.00471,  -0.00296,  -0.00138,  -0.00129,478104832.00000,   0.00132,276073472.00000,  -0.00145,  -0.00049,  -0.00072,  32.00000,   2.00000
-510431799.20474,-414958156.92621,-43575902.07237,  -0.00297,  -0.00139,  -0.00129,478135232.00000,   0.00132,276080384.00000,  -0.00145,  -0.00049,  -0.00072, -32.00000,   2.00000
-510306567.74071,-415423665.08394,-43320185.99960,  -0.00297,  -0.00139,  -0.00129,478129248.00000,   0.00133,276087232.00000,  -0.00146,  -0.00050,  -0.00072,   0.00000,   2.00000
-510188980.59864,-415875797.61717,-43060408.17308,  -0.00298,  -0.00140,  -0.00129,478138400.00000,   0.00134,276094112.00000,  -0.00147,  -0.00050,  -0.00073,  64.00000,   2.00000
-510066833.32042,-416334346.25033,-42800582.74786,  -0.00298,  -0.00140,  -0.00129,478156608.00000,   0.00134,276100992.00000,  -0.00147,  -0.00051,  -0.00073,   0.00000,   2.00000
-509944289.34013,-416790978.54341,-42541862.56730,  -0.00299,  -0.00141,  -0.00129,478164224.00000,   0.00135,276107904.00000,  -0.00148,  -0.00051,  -0.00073,  32.00000,   2.00000
-509821159.66477,-417245527.48242,-42284222.74239,  -0.00299,  -0.00142,  -0.00129,478172032.00000,   0.00136,276114784.00000,  -0.00149,  -0.00051,  -0.00074,   0.00000,   2.00000
-509697604.68767,-417698074.27287,-42027674.71330,  -0.00300,  -0.00142,  -0.00128,478179552.00000,   0.00136,276121664.00000,  -0.00149,  -0.00052,  -0.00074,  32.00000,   2.00000
-509570991.28642,-418158011.44049,-41766278.36882,  -0.00300,  -0.00143,  -0.00128,478196608.00000,   0.00137,276128608.00000,  -0.00150,  -0.00052,  -0.00074,  32.00000,   2.00000
-509447767.08833,-418607220.77683,-41507090.71261,  -0.00301,  -0.00143,  -0.00128,478193632.00000,   0.00138,276135488.00000,  -0.00151,  -0.00052,  -0.00074,   0.00000,   2.00000
-509325636.09409,-419055360.48239,-41244205.63648,  -0.00301,  -0.00144,  -0.00128,478199904.00000,   0.00138,276142368.00000,  -0.00151,  -0.00053,  -0.00075, -32.00000,   2.00000
-509201547.69450,-419499897.68858,-40987271.88612,  -0.00302,  -0.00145,  -0.00128,478208960.00000,   0.00139,276149248.00000,  -0.00152,  -0.00053,  -0.00075, -32.00000,   2.00000
-509074400.16832,-419951312.14119,-40725543.76025,  -0.00302,  -0.00145,  -0.00128,478226144.00000,   0.00140,276156160.00000,  -0.00153,  -0.00053,  -0.00075, -32.00000,   2.00000
-508951003.74640,-420391799.43643,-40466075.17700,  -0.00303,  -0.00146,  -0.00128,478223136.00000,   0.00140,276163040.00000,  -0.00153,  -0.00054,  -0.00075,  32.00000,   2.00000
-508825915.35090,-420833620.00122,-40205318.25766,  -0.00303,  -0.00146,  -0.00128,478255424.00000,   0.00141,276170016.00000,  -0.00154,  -0.00054,  -0.00076,  32.00000,   2.00000
-508703014.49830,-421269320.53340,-39943361.53672,  -0.00304,  -0.00147,  -0.00128,478237472.00000,   0.00141,276176864.00000,  -0.00155,  -0.00055,  -0.00076,  32.00000,   2.00000
-508578485.78764,-421706034.45837,-39680196.98033,  -0.00304,  -0.00148,  -0.00128,478269600.00000,   0.00142,276183840.00000,  -0.00155,  -0.00055,  -0.00076, -64.00000,   2.00000
-508454979.45348,-422135470.25807,-39420699.64464,  -0.00305,  -0.00148,  -0.00128,478253024.00000,   0.00143,276190688.00000,  -0.00156,  -0.00055,  -0.00077,  64.00000,   2.00000
-508329766.67172,-422565499.65576,-39160041.11953,  -0.00306,  -0.00149,  -0.00128,478285312.00000,   0.00143,276197664.00000,  -0.00157,  -0.00056,  -0.00077, -32.00000,   2.00000
-508206818.18095,-422989047.83529,-38898204.81945,  -0.00306,  -0.00149,  -0.00128,478267328.00000,   0.00144,276204512.00000,  -0.00157,  -0.00056,  -0.00077,   0.00000,   2.00000
-508082501.50517,-423413145.09588,-38635320.81495,  -0.00307,  -0.00150,  -0.00128,478299456.00000,   0.00145,276211456.00000,  -0.00158,  -0.00056,  -0.00077,  96.00000,   2.00000
-507958867.13632,-423829363.63665,-38376094.10883,  -0.00307,  -0.00151,  -0.00128,478282944.00000,   0.00145,276218336.00000,  -0.00159,  -0.00057,  -0.00078, -32.00000,   2.00000
-507838060.67713,-424237871.72553,-38116917.58298,  -0.00308,  -0.00151,  -0.00127,478304096.00000,   0.00146,276225216.00000,  -0.00159,  -0.00057,  -0.00078,   0.00000,   2.00000
-507711092.99219,-424655727.89776,-37854499.18517,  -0.00308,  -0.00152,  -0.00127,478307904.00000,   0.00147,276232128.00000,  -0.00160,  -0.00058,  -0.00078, -32.00000,   2.00000
-507591164.43668,-425057669.70585,-37593237.85753,  -0.00309,  -0.00152,  -0.00127,478318176.00000,   0.00147,276239040.00000,  -0.00161,  -0.00058,  -0.00078,  64.00000,   2.00000
-507466720.88880,-425463660.75276,-37332357.16466,  -0.00309,  -0.00153,  -0.00127,478336832.00000,   0.00148,276245952.00000,  -0.00161,  -0.00058,  -0.00079,  32.00000,   2.00000
-507343219.25727,-425861939.38663,-37075164.75321,  -0.00310,  -0.00153,  -0.00127,478320032.00000,   0.00149,276252832.00000,  -0.00162,  -0.00059,  -0.00079, -32.00000,   2.00000
-507223785.98408,-426253228.71201,-36813296.82943,  -0.00310,  -0.00154,  -0.00127,478339872.00000,   0.00149,276259712.00000,  -0.00163,  -0.00059,  -0.00079,  32.00000,   2.00000
-507099958.77079,-426648603.68876,-36551891.82405,  -0.00311,  -0.00155,  -0.00127,478358368.00000,   0.00150,276266656.00000,  -0.00163,  -0.00059,  -0.00079,  32.00000,   2.00000
-506977085.20023,-427036443.75969,-36294171.83127,  -0.00311,  -0.00155,  -0.00127,478341408.00000,   0.00150,276273504.00000,  -0.00164,  -0.00060,  -0.00080,   0.00000,   2.00000
-506857060.32006,-427416326.42105,-36036688.91440,  -0.00312,  -0.00156,  -0.00127,478362400.00000,   0.00151,276280384.00000,  -0.00165,  -0.00060,  -0.00080,   0.00000,   2.00000
-506735115.68463,-427797861.43287,-35777026.00737,  -0.00312,  -0.00156,  -0.00127,478355136.00000,   0.00152,276287232.00000,  -0.00165,  -0.00061,  -0.00080,  96.00000,   2.00000
-506615869.27765,-428171396.45994,-35517625.49121,  -0.00313,  -0.00157,  -0.00127,478376032.00000,   0.00152,276294112.00000,  -0.00166,  -0.00061,  -0.00080, -32.00000,   2.00000
-506496504.24785,-428541485.85435,-35259705.99158,  -0.00313,  -0.00158,  -0.00126,478383296.00000,   0.00153,276300992.00000,  -0.00167,  -0.00061,  -0.00081,  64.00000,   2.00000
-506378128.76301,-428904717.66064,-35005377.75895,  -0.00314,  -0.00158,  -0.00126,478366112.00000,   0.00154,276307808.00000,  -0.00167,  -0.00062,  -0.00081,  32.00000,   2.00000
-506259637.05081,-429269154.08927,-34745502.00672,  -0.00314,  -0.00159,  -0.00126,478396672.00000,   0.00154,276314688.00000,  -0.00168,  -0.00062,  -0.00081,  96.00000,   2.00000
-506137769.99619,-429634636.78105,-34488221.98325,  -0.00315,  -0.00159,  -0.00126,478390528.00000,   0.00155,276321536.00000,  -0.00169,  -0.00063,  -0.00081,  64.00000,   2.00000
-506023205.92144,-429985143.51340,-34232156.91847,  -0.00316,  -0.00160,  -0.00126,478400128.00000,   0.00156,276328384.00000,  -0.00169,  -0.00063,  -0.00082,  32.00000,   2.00000
-505905272.67323,-430337083.66835,-33978603.46119,  -0.00316,  -0.00161,  -0.00126,478393984.00000,   0.00156,276335168.00000,  -0.00170,  -0.00063,  -0.00082,   0.00000,   2.00000
-505786090.20461,-430689675.64502,-33724347.19302,  -0.00317,  -0.00161,  -0.00126,478425504.00000,   0.00157,276342048.00000,  -0.00170,  -0.00064,  -0.00082,  96.00000,   2.00000
-505668906.82754,-431037220.39106,-33468571.49753,  -0.00317,  -0.00162,  -0.00126,478407264.00000,   0.00157,276348864.00000,  -0.00171,  -0.00064,  -0.00082,   0.00000,   2.00000
-505554813.10517,-431378085.67811,-33212987.28030,  -0.00318,  -0.00162,  -0.00126,478427808.00000,   0.00158,276355680.00000,  -0.00172,  -0.00065,  -0.00082,  32.00000,   2.00000
-505441761.25451,-431713537.65463,-32960663.25985,  -0.00318,  -0.00163,  -0.00126,478410496.00000,   0.00159,276362432.00000,  -0.00172,  -0.00065,  -0.00083,  64.00000,   2.00000
-505325248.74478,-432055364.36038,-32703746.08458,  -0.00319,  -0.00163,  -0.00125,478427808.00000,   0.00159,276369216.00000,  -0.00173,  -0.00065,  -0.00083,  32.00000,   2.00000
-505210687.80707,-432389962.50460,-32451800.56242,  -0.00319,  -0.00164,  -0.00125,478449600.00000,   0.00160,276376064.00000,  -0.00174,  -0.00066,  -0.00083,   0.00000,   2.00000
-505098231.10356,-432720542.32041,-32198049.42174,  -0.00320,  -0.00165,  -0.00125,478431264.00000,   0.00161,276382816.00000,  -0.00174,  -0.00066,  -0.00083,   0.00000,   2.00000
-504986658.42619,-433050373.06118,-31940484.09282,  -0.00320,  -0.00165,  -0.00125,478437696.00000,   0.00161,276389568.00000,  -0.00175,  -0.00067,  -0.00084, -64.00000,   2.00000
-504873808.86074,-433377762.13904,-31688835.52933,  -0.00321,  -0.00166,  -0.00125,478446016.00000,   0.00162,276396320.00000,  -0.00176,  -0.00067,  -0.00084,   0.00000,   2.00000
-504760928.50324,-433703853.05489,-31438169.91754,  -0.00321,  -0.00166,  -0.00125,478453440.00000,   0.00163,276403072.00000,  -0.00176,  -0.00067,  -0.00084,  32.00000,   2.00000
-504648809.12134,-434029406.69920,-31183546.62623,  -0.00322,  -0.00167,  -0.00125,478460064.00000,   0.00163,276409792.00000,  -0.00177,  -0.00068,  -0.00084,   0.00000,   2.00000
-504540903.65728,-434346248.43987,-30930711.16930,  -0.00322,  -0.00168,  -0.00125,478456256.00000,   0.00164,276416512.00000,  -0.00178,  -0.00068,  -0.00084, -64.00000,   2.00000
-504433863.32815,-434662813.15048,-30673883.59561,  -0.00323,  -0.00168,  -0.00124,478462816.00000,   0.00164,276423232.00000,  -0.00178,  -0.00069,  -0.00085,  32.00000,   2.00000
-504325524.05281,-434977301.14640,-30422829.74161,  -0.00323,  -0.00169,  -0.00124,478471296.00000,   0.00165,276429920.00000,  -0.00179,  -0.00069,  -0.00085,  32.00000,   2.00000
-504214755.84840,-435295904.69515,-30168753.41177,  -0.00324,  -0.00169,  -0.00124,478464608.00000,   0.00166,276436576.00000,  -0.00179,  -0.00069,  -0.00085,   0.00000,   2.00000
-504107105.65976,-435608962.56305,-29914552.59212,  -0.00324,  -0.00170,  -0.00124,478485472.00000,   0.00166,276443296.00000,  -0.00180,  -0.00070,  -0.00085,  96.00000,   2.00000
-504003513.83452,-435913261.98098,-29662075.59298,  -0.00325,  -0.00170,  -0.00124,478481952.00000,   0.00167,276449952.00000,  -0.00181,  -0.00070,  -0.00085,  64.00000,   2.00000
-503896363.17588,-436220652.17358,-29411487.94029,  -0.00326,  -0.00171,  -0.00124,478476128.00000,   0.00168,276456576.00000,  -0.00181,  -0.00071,  -0.00086,   0.00000,   2.00000
-503790067.35466,-436527584.78416,-29156941.15640,  -0.00326,  -0.00171,  -0.00124,478482528.00000,   0.00168,276463200.00000,  -0.00182,  -0.00071,  -0.00086,  64.00000,   2.00000
-503686734.20585,-436828557.45356,-28902403.56978,  -0.00327,  -0.00172,  -0.00124,478503392.00000,   0.00169,276469856.00000,  -0.00183,  -0.00072,  -0.00086,  96.00000,   2.00000
-503579574.44116,-437132103.20339,-28649858.40761,  -0.00327,  -0.00173,  -0.00123,478497472.00000,   0.00169,276476480.00000,  -0.00183,  -0.00072,  -0.00086, -64.00000,   2.00000
-503476844.67031,-437426749.19946,-28399230.32146,  -0.00328,  -0.00173,  -0.00123,478493408.00000,   0.00170,276483040.00000,  -0.00184,  -0.00072,  -0.00086,   0.00000,   2.00000
-503374696.53162,-437720269.20542,-28144839.59330,  -0.00328,  -0.00174,  -0.00123,478499744.00000,   0.00171,276489632.00000,  -0.00184,  -0.00073,  -0.00087,  32.00000,   2.00000
-503276666.17618,-438004428.15962,-27892467.37531,  -0.00329,  -0.00174,  -0.00123,478495552.00000,   0.00171,276496160.00000,  -0.00185,  -0.00073,  -0.00087,   0.00000,   2.00000
-503169699.07079,-438297500.25473,-27646407.75520,  -0.00329,  -0.00175,  -0.00123,478501312.00000,   0.00172,276502688.00000,  -0.00186,  -0.00074,  -0.00087, -32.00000,   2.00000
-503072103.63205,-438578149.15720,-27391719.55476,  -0.00330,  -0.00175,  -0.00123,478508480.00000,   0.00172,276509248.00000,  -0.00186,  -0.00074,  -0.00087,  32.00000,   2.00000
-502973211.99196,-438855627.48408,-27143330.74437,  -0.00330,  -0.00176,  -0.00123,478516256.00000,   0.00173,276515776.00000,  -0.00187,  -0.00074,  -0.00087,  32.00000,   2.00000
-502871830.90880,-439136066.91724,-26892407.10028,  -0.00331,  -0.00176,  -0.00122,478508736.00000,   0.00174,276522272.00000,  -0.00188,  -0.00075,  -0.00087,  32.00000,   2.00000
-502773666.96760,-439405895.85696,-26648627.98436,  -0.00331,  -0.00177,  -0.00122,478505056.00000,   0.00174,276528736.00000,  -0.00188,  -0.00075,  -0.00088, -96.00000,   2.00000
-502676275.78299,-439674075.93935,-26401444.18407,  -0.00332,  -0.00178,  -0.00122,478510720.00000,   0.00175,276535168.00000,  -0.00189,  -0.00076,  -0.00088,  64.00000,   2.00000
-502579637.88956,-439940527.03293,-26150907.41391,  -0.00332,  -0.00178,  -0.00122,478516352.00000,   0.00175,276541632.00000,  -0.00189,  -0.00076,  -0.00088, 128.00000,   2.00000
-502486347.20740,-440196411.57728,-25907587.85760,  -0.00333,  -0.00179,  -0.00122,478512384.00000,   0.00176,276548064.00000,  -0.00190,  -0.00076,  -0.00088,   0.00000,   2.00000
-502393884.11406,-440450647.57279,-25660925.55865,  -0.00333,  -0.00179,  -0.00122,478517920.00000,   0.00177,276554464.00000,  -0.00191,  -0.00077,  -0.00088,  64.00000,   2.00000
-502301182.99307,-440702318.14703,-25415834.41630,  -0.00334,  -0.00180,  -0.00121,478524320.00000,   0.00177,276560896.00000,  -0.00191,  -0.00077,  -0.00088, -96.00000,   2.00000
-502209679.09472,-440949048.90810,-25173876.31024,  -0.00334,  -0.00180,  -0.00121,478506048.00000,   0.00178,276567232.00000,  -0.00192,  -0.00078,  -0.00089,  32.00000,   2.00000
-502113497.66276,-441200474.53101,-24932731.01472,  -0.00335,  -0.00181,  -0.00121,478523680.00000,   0.00178,276573600.00000,  -0.00192,  -0.00078,  -0.00089, -64.00000,   2.00000
-502030592.26825,-441431571.16405,-24688771.84494,  -0.00335,  -0.00181,  -0.00121,478519808.00000,   0.00179,276579936.00000,  -0.00193,  -0.00078,  -0.00089,   0.00000,   2.00000
-501938850.70679,-441671384.15662,-24451333.13469,  -0.00336,  -0.00182,  -0.00121,478525152.00000,   0.00180,276586272.00000,  -0.00194,  -0.00079,  -0.00089, -64.00000,   2.00000
-501849162.71793,-441907286.02181,-24211907.48961,  -0.00336,  -0.00182,  -0.00121,478506176.00000,   0.00180,276592512.00000,  -0.00194,  -0.00079,  -0.00089,  32.00000,   2.00000
-501762727.08498,-442136436.45544,-23973085.78249,  -0.00337,  -0.00183,  -0.00121,478525728.00000,   0.00181,276598816.00000,  -0.00195,  -0.00080,  -0.00089, -64.00000,   2.00000
-501681732.74424,-442357335.68423,-23731394.80177,  -0.00337,  -0.00183,  -0.00120,478520000.00000,   0.00181,276605056.00000,  -0.00195,  -0.00080,  -0.00090,  64.00000,   2.00000
-501596562.57339,-442580291.04885,-23496727.90270,  -0.00338,  -0.00184,  -0.00120,478513952.00000,   0.00182,276611264.00000,  -0.00196,  -0.00080,  -0.00090,  96.00000,   2.00000
-501512023.07838,-442801957.65979,-23258403.49636,  -0.00338,  -0.00184,  -0.00120,478519776.00000,   0.00183,276617472.00000,  -0.00196,  -0.00081,  -0.00090,  64.00000,   2.00000
-501432117.64943,-443014930.03366,-23021971.52558,  -0.00339,  -0.00185,  -0.00120,478514752.00000,   0.00183,276623648.00000,  -0.00197,  -0.00081,  -0.00090, 128.00000,   2.00000
-501352138.13701,-443226192.00796,-22786732.85352,  -0.00339,  -0.00185,  -0.00120,478521152.00000,   0.00184,276629824.00000,  -0.00198,  -0.00082,  -0.00090, -64.00000,   2.00000
-501272979.02708,-443436568.64559,-22547738.56931,  -0.00340,  -0.00186,  -0.00120,478526848.00000,   0.00184,276636000.00000,  -0.00198,  -0.00082,  -0.00090, -32.00000,   2.00000
-501197722.05199,-443637878.70073,-22315432.71676,  -0.00340,  -0.00186,  -0.00119,478522720.00000,   0.00185,276642112.00000,  -0.00199,  -0.00082,  -0.00090, 128.00000,   2.00000
-501119632.38274,-443842911.14706,-22079987.31709,  -0.00341,  -0.00187,  -0.00119,478515424.00000,   0.00185,276648192.00000,  -0.00199,  -0.00083,  -0.00090, 128.00000,   2.00000
-501046130.26996,-444039618.35841,-21846206.06952,  -0.00341,  -0.00187,  -0.00119,478510528.00000,   0.00186,276654240.00000,  -0.00200,  -0.00083,  -0.00091,  96.00000,   2.00000
-500972630.54416,-444235023.54630,-21613447.10594,  -0.00342,  -0.00188,  -0.00119,478516992.00000,   0.00187,276660320.00000,  -0.00200,  -0.00084,  -0.00091,  32.00000,   2.00000
-500899673.81107,-444429635.82586,-21376751.05836,  -0.00342,  -0.00188,  -0.00119,478522848.00000,   0.00187,276666336.00000,  -0.00201,  -0.00084,  -0.00091,   0.00000,   2.00000
-500827274.36594,-444620274.30354,-21147244.08273,  -0.00343,  -0.00189,  -0.00118,478505344.00000,   0.00188,276672320.00000,  -0.00202,  -0.00084,  -0.00091,  32.00000,   2.00000
-500758987.23498,-444805659.15693,-20913073.96209,  -0.00343,  -0.00189,  -0.00118,478524320.00000,   0.00188,276678336.00000,  -0.00202,  -0.00085,  -0.00091,  96.00000,   2.00000
-500691852.46464,-444987741.74708,-20681089.20788,  -0.00344,  -0.00190,  -0.00118,478506304.00000,   0.00189,276684256.00000,  -0.00203,  -0.00085,  -0.00091,  96.00000,   2.00000
-500625085.23693,-445169094.05775,-20445075.94591,  -0.00344,  -0.00190,  -0.00118,478512224.00000,   0.00189,276690176.00000,  -0.00203,  -0.00086,  -0.00091, 128.00000,   2.00000
-500562265.97653,-445341990.41630,-20215479.81277,  -0.00345,  -0.00191,  -0.00118,478507712.00000,   0.00190,276696064.00000,  -0.00204,  -0.00086,  -0.00091,   0.00000,   2.00000
-500496592.27197,-445519150.58785,-19982475.74952,  -0.00345,  -0.00191,  -0.00118,478500288.00000,   0.00191,276701920.00000,  -0.00204,  -0.00086,  -0.00092,  64.00000,   2.00000
-500433588.55819,-445689959.39448,-19754649.84267,  -0.00346,  -0.00192,  -0.00117,478520480.00000,   0.00191,276707808.00000,  -0.00205,  -0.00087,  -0.00092,-128.00000,   2.00000
-500373040.54854,-445858862.75066,-19519000.32419,  -0.00346,  -0.00192,  -0.00117,478500928.00000,   0.00192,276713632.00000,  -0.00205,  -0.00087,  -0.00092, -96.00000,   2.00000
-500311717.32595,-446026208.39483,-19289164.84747,  -0.00347,  -0.00193,  -0.00117,478507904.00000,   0.00192,276719424.00000,  -0.00206,  -0.00087,  -0.00092, -32.00000,   2.00000
-500254984.25743,-446185845.86200,-19060725.25732,  -0.00347,  -0.00193,  -0.00117,478502816.00000,   0.00193,276725184.00000,  -0.00206,  -0.00088,  -0.00092,   0.00000,   2.00000
-500195139.56067,-446349706.87346,-18828798.11021,  -0.00348,  -0.00194,  -0.00117,478495456.00000,   0.00193,276730912.00000,  -0.00207,  -0.00088,  -0.00092,  32.00000,   2.00000
-500139839.09030,-446505874.87951,-18598250.62818,  -0.00348,  -0.00194,  -0.00116,478490144.00000,   0.00194,276736608.00000,  -0.00208,  -0.00089,  -0.00092,   0.00000,   2.00000
-500088042.68018,-446656585.35967,-18367962.50252,  -0.00349,  -0.00195,  -0.00116,478509472.00000,   0.00194,276742336.00000,  -0.00208,  -0.00089,  -0.00092,  32.00000,   2.00000
-500028931.26349,-446815698.38660,-18139694.40497,  -0.00349,  -0.00195,  -0.00116,478489504.00000,   0.00195,276748000.00000,  -0.00209,  -0.00089,  -0.00092,  96.00000,   2.00000
-499977837.45888,-446962439.77362,-17912188.47613,  -0.00349,  -0.00196,  -0.00116,478497280.00000,   0.00195,276753632.00000,  -0.00209,  -0.00090,  -0.00093,  64.00000,   2.00000
-499928447.89768,-447106926.95794,-17681663.26126,  -0.00350,  -0.00196,  -0.00116,478478176.00000,   0.00196,276759200.00000,  -0.00210,  -0.00090,  -0.00093,  64.00000,   2.00000
-499878767.10162,-447250489.04479,-17451973.21430,  -0.00350,  -0.00196,  -0.00115,478484288.00000,   0.00196,276764800.00000,  -0.00210,  -0.00090,  -0.00093, -32.00000,   2.00000
-499828929.69865,-447393246.86486,-17223123.86999,  -0.00351,  -0.00197,  -0.00115,478490304.00000,   0.00197,276770368.00000,  -0.00211,  -0.00091,  -0.00093,  32.00000,   2.00000
-499783759.00351,-447528605.25321,-16995608.52687,  -0.00351,  -0.00197,  -0.00115,478484832.00000,   0.00197,276775872.00000,  -0.00211,  -0.00091,  -0.00093,  96.00000,   2.00000
-499740028.26450,-447661595.12691,-16765011.76052,  -0.00352,  -0.00198,  -0.00115,478465696.00000,   0.00198,276781344.00000,  -0.00212,  -0.00092,  -0.00093,  64.00000,   2.00000
-499695560.25741,-447793344.51255,-16540194.60690,  -0.00352,  -0.00198,  -0.00115,478472128.00000,   0.00198,276786784.00000,  -0.00212,  -0.00092,  -0.00093,  32.00000,   2.00000
-499651374.87194,-447924752.60496,-16311251.41163,  -0.00353,  -0.00199,  -0.00114,478477664.00000,   0.00199,276792256.00000,  -0.00213,  -0.00092,  -0.00093, -32.00000,   2.00000
-499611880.91858,-448048871.64198,-16083617.79248,  -0.00353,  -0.00199,  -0.00114,478471904.00000,   0.00199,276797664.00000,  -0.00213,  -0.00093,  -0.00093,  96.00000,   2.00000
-499573160.74145,-448170138.21673,-15857789.00131,  -0.00354,  -0.00200,  -0.00114,478453280.00000,   0.00200,276802976.00000,  -0.00214,  -0.00093,  -0.00093,  96.00000,   2.00000
-499534831.34991,-448291227.02961,-15627833.99544,  -0.00354,  -0.00200,  -0.00114,478458464.00000,   0.00200,276808320.00000,  -0.00214,  -0.00093,  -0.00093,  32.00000,   2.00000
-499495802.85664,-448411177.17112,-15403658.02160,  -0.00355,  -0.00200,  -0.00114,478464736.00000,   0.00201,276813664.00000,  -0.00215,  -0.00094,  -0.00094,  64.00000,   2.00000
-499461771.33147,-448524187.07552,-15175792.69061,  -0.00355,  -0.00201,  -0.00113,478458496.00000,   0.00201,276818944.00000,  -0.00215,  -0.00094,  -0.00094,  32.00000,   2.00000
-499428641.33109,-448634549.91242,-14949682.03134,  -0.00355,  -0.00201,  -0.00113,478439584.00000,   0.00202,276824160.00000,  -0.00216,  -0.00094,  -0.00094,  64.00000,   2.00000
-499395368.24651,-448744326.36575,-14724383.30449,  -0.00356,  -0.00202,  -0.00113,478445184.00000,   0.00202,276829376.00000,  -0.00216,  -0.00095,  -0.00094,  32.00000,   2.00000
-499366998.80126,-448847151.59992,-14495367.34477,  -0.00356,  -0.00202,  -0.00113,478438912.00000,   0.00203,276834560.00000,  -0.00217,  -0.00095,  -0.00094,  32.00000,   2.00000
-499337930.85920,-448948943.38270,-14272117.90037,  -0.00357,  -0.00202,  -0.00112,478444960.00000,   0.00203,276839744.00000,  -0.00217,  -0.00096,  -0.00094, -64.00000,   2.00000
-499305542.56490,-449055261.09357,-14045186.92434,  -0.00357,  -0.00203,  -0.00112,478436960.00000,   0.00204,276844896.00000,  -0.00218,  -0.00096,  -0.00094, -64.00000,   2.00000
-499282440.70844,-449147708.28198,-13819879.22132,  -0.00358,  -0.00203,  -0.00112,478419360.00000,   0.00204,276849952.00000,  -0.00218,  -0.00096,  -0.00094, -64.00000,   2.00000
-499250791.30029,-449250942.45665,-13595416.42884,  -0.00358,  -0.00204,  -0.00112,478423456.00000,   0.00205,276855008.00000,  -0.00219,  -0.00097,  -0.00094,  32.00000,   2.00000
-499232379.15772,-449335935.63428,-13367135.70602,  -0.00359,  -0.00204,  -0.00112,478418464.00000,   0.00205,276860032.00000,  -0.00219,  -0.00097,  -0.00094,  64.00000,   2.00000
-499209690.83300,-449424723.27480,-13145046.84882,  -0.00359,  -0.00204,  -0.00111,478411200.00000,   0.00206,276864992.00000,  -0.00219,  -0.00097,  -0.00094,  32.00000,   2.00000
-499187242.72058,-449513379.50749,-12918782.48126,  -0.00359,  -0.00205,  -0.00111,478416224.00000,   0.00206,276869984.00000,  -0.00220,  -0.00098,  -0.00094,  96.00000,   2.00000
-499165623.34192,-449599517.21696,-12694110.55754,  -0.00360,  -0.00205,  -0.00111,478397024.00000,   0.00207,276874880.00000,  -0.00220,  -0.00098,  -0.00094, 128.00000,   2.00000
-499148451.91259,-449678454.60385,-12470583.81230,  -0.00360,  -0.00205,  -0.00111,478390784.00000,   0.00207,276879744.00000,  -0.00221,  -0.00098,  -0.00094,   0.00000,   2.00000
-499131506.92094,-449757306.28764,-12242874.25618,  -0.00361,  -0.00206,  -0.00110,478395680.00000,   0.00208,276884608.00000,  -0.00221,  -0.00099,  -0.00095,  32.00000,   2.00000
-499113940.26156,-449835322.71429,-12020903.33691,  -0.00361,  -0.00206,  -0.00110,478401408.00000,   0.00208,276889472.00000,  -0.00222,  -0.00099,  -0.00095,  96.00000,   2.00000
-499102287.93558,-449904594.70822,-11795851.69097,  -0.00362,  -0.00207,  -0.00110,478370048.00000,   0.00209,276894240.00000,  -0.00222,  -0.00099,  -0.00095, -64.00000,   2.00000
-499085623.52265,-449980004.21047,-11571215.42492,  -0.00362,  -0.00207,  -0.00110,478386880.00000,   0.00209,276899008.00000,  -0.00223,  -0.00100,  -0.00095,   0.00000,   2.00000
-499078289.27749,-450041804.90130,-11348038.67721,  -0.00362,  -0.00207,  -0.00110,478368800.00000,   0.00209,276903744.00000,  -0.00223,  -0.00100,  -0.00095,  32.00000,   2.00000
-499066990.81444,-450107830.95475,-11125999.32829,  -0.00363,  -0.00208,  -0.00109,478360800.00000,   0.00210,276908384.00000,  -0.00223,  -0.00100,  -0.00095,  32.00000,   2.00000
-499059329.33539,-450168946.90990,-10899384.79476,  -0.00363,  -0.00208,  -0.00109,478378752.00000,   0.00210,276913120.00000,  -0.00224,  -0.00100,  -0.00095,   0.00000,   2.00000
-499053683.36773,-450225922.43082,-10674933.31124,  -0.00364,  -0.00208,  -0.00109,478334400.00000,   0.00211,276917664.00000,  -0.00224,  -0.00101,  -0.00095,  64.00000,   2.00000
-499046474.77264,-450284235.36113,-10450557.37900,  -0.00364,  -0.00209,  -0.00109,478364192.00000,   0.00211,276922304.00000,  -0.00225,  -0.00101,  -0.00095, -64.00000,   2.00000
-499044931.78278,-450333744.43132,-10227935.03571,  -0.00364,  -0.00209,  -0.00108,478332672.00000,   0.00212,276926816.00000,  -0.00225,  -0.00101,  -0.00095, -96.00000,   2.00000
-499043112.85276,-450382906.45578,-10006072.34869,  -0.00365,  -0.00209,  -0.00108,478337632.00000,   0.00212,276931328.00000,  -0.00226,  -0.00102,  -0.00095,   0.00000,   2.00000
-499037622.13282,-450436651.90347,-9780352.59557,  -0.00365,  -0.00210,  -0.00108,478329152.00000,   0.00212,276935808.00000,  -0.00226,  -0.00102,  -0.00095,  64.00000,   2.00000
-499039820.51869,-450478365.38234,-9560332.15605,  -0.00366,  -0.00210,  -0.00108,478335904.00000,   0.00213,276940288.00000,  -0.00226,  -0.00102,  -0.00095,   0.00000,   2.00000
-499039431.54125,-450522815.49317,-9337058.15760,  -0.00366,  -0.00210,  -0.00107,478302592.00000,   0.00213,276944640.00000,  -0.00227,  -0.00103,  -0.00095, -32.00000,   2.00000
-499042366.98891,-450562223.80884,-9114241.59510,  -0.00366,  -0.00211,  -0.00107,478320384.00000,   0.00214,276949024.00000,  -0.00227,  -0.00103,  -0.00095,  32.00000,   2.00000
-499046262.58694,-450599608.19893,-8887838.29855,  -0.00367,  -0.00211,  -0.00107,478300160.00000,   0.00214,276953344.00000,  -0.00228,  -0.00103,  -0.00095,   0.00000,   2.00000
-499049531.22633,-450636438.08406,-8667194.73067,  -0.00367,  -0.00211,  -0.00107,478305152.00000,   0.00215,276957696.00000,  -0.00228,  -0.00104,  -0.00095,  64.00000,   2.00000
-499062024.68051,-450659867.20280,-8442907.51078,  -0.00368,  -0.00212,  -0.00106,478286208.00000,   0.00215,276961920.00000,  -0.00228,  -0.00104,  -0.00095,   0.00000,   2.00000
-499065906.03578,-450694490.24212,-8219462.92140,  -0.00368,  -0.00212,  -0.00106,478289312.00000,   0.00215,276966176.00000,  -0.00229,  -0.00104,  -0.00095, 128.00000,   2.00000
-499078720.41290,-450715483.12943,-7997329.67387,  -0.00368,  -0.00212,  -0.00106,478270624.00000,   0.00216,276970336.00000,  -0.00229,  -0.00104,  -0.00095,  64.00000,   2.00000
-499087516.40772,-450740975.25292,-7776282.12051,  -0.00369,  -0.00212,  -0.00106,478261952.00000,   0.00216,276974464.00000,  -0.00230,  -0.00105,  -0.00096,  64.00000,   2.00000
-499099581.86549,-450761543.05030,-7550826.28523,  -0.00369,  -0.00213,  -0.00105,478279232.00000,   0.00217,276978656.00000,  -0.00230,  -0.00105,  -0.00096,  64.00000,   2.00000
-499112054.95416,-450779756.63977,-7331667.19084,  -0.00370,  -0.00213,  -0.00105,478259136.00000,   0.00217,276982752.00000,  -0.00230,  -0.00105,  -0.00096, -32.00000,   2.00000
-499125477.34245,-450796114.93568,-7108848.25079,  -0.00370,  -0.00213,  -0.00105,478238400.00000,   0.00217,276986752.00000,  -0.00231,  -0.00105,  -0.00096,  64.00000,   2.00000
-499138268.00097,-450812102.57288,-6886870.44785,  -0.00370,  -0.00214,  -0.00105,478242720.00000,   0.00218,276990752.00000,  -0.00231,  -0.00106,  -0.00096,   0.00000,   2.00000
-499155514.91454,-450821442.02999,-6660993.62863,  -0.00371,  -0.00214,  -0.00104,478235008.00000,   0.00218,276994752.00000,  -0.00231,  -0.00106,  -0.00096,  32.00000,   2.00000
-499176710.14898,-450823721.80981,-6441150.91010,  -0.00371,  -0.00214,  -0.00104,478227808.00000,   0.00218,276998688.00000,  -0.00232,  -0.00106,  -0.00096, -64.00000,   2.00000
-499194040.42286,-450830792.89825,-6217419.99362,  -0.00371,  -0.00214,  -0.00104,478218496.00000,   0.00219,277002592.00000,  -0.00232,  -0.00107,  -0.00096,  64.00000,   2.00000
-499215404.90974,-450830904.48060,-5994744.26422,  -0.00372,  -0.00215,  -0.00104,478211168.00000,   0.00219,277006464.00000,  -0.00233,  -0.00107,  -0.00096, -64.00000,   2.00000
-499237418.81825,-450829011.92219,-5773311.05042,  -0.00372,  -0.00215,  -0.00103,478190336.00000,   0.00219,277010240.00000,  -0.00233,  -0.00107,  -0.00096, -32.00000,   2.00000
-499258733.07561,-450826823.53763,-5552735.87306,  -0.00373,  -0.00215,  -0.00103,478194336.00000,   0.00220,277014016.00000,  -0.00233,  -0.00107,  -0.00096,  32.00000,   2.00000
-499284423.76013,-450818028.82121,-5328220.76560,  -0.00373,  -0.00215,  -0.00103,478186464.00000,   0.00220,277017760.00000,  -0.00234,  -0.00108,  -0.00096,  96.00000,   2.00000
-499309173.24041,-450808763.92351,-5109539.71785,  -0.00373,  -0.00216,  -0.00102,478190656.00000,   0.00221,277021536.00000,  -0.00234,  -0.00108,  -0.00096, -32.00000,   2.00000
-499334805.21150,-450797725.03597,-4887047.99857,  -0.00374,  -0.00216,  -0.00102,478169472.00000,   0.00221,277025216.00000,  -0.00234,  -0.00108,  -0.00096, -32.00000,   2.00000
-499364494.24004,-450779819.02280,-4665536.95524,  -0.00374,  -0.00216,  -0.00102,478161760.00000,   0.00221,277028832.00000,  -0.00235,  -0.00108,  -0.00096,  64.00000,   2.00000
-499390030.84532,-450766519.02065,-4444995.86382,  -0.00374,  -0.00216,  -0.00102,478152416.00000,   0.00222,277032448.00000,  -0.00235,  -0.00109,  -0.00096, -32.00000,   2.00000
-499419746.24381,-450746442.98624,-4220418.69025,  -0.00375,  -0.00217,  -0.00101,478144448.00000,   0.00222,277036000.00000,  -0.00235,  -0.00109,  -0.00096,  32.00000,   2.00000
-499448897.68631,-450726243.90541,-3996653.13400,  -0.00375,  -0.00217,  -0.00101,478148160.00000,   0.00222,277039552.00000,  -0.00236,  -0.00109,  -0.00096, -32.00000,   2.00000
-499483398.50255,-450697330.58307,-3773983.08957,  -0.00375,  -0.00217,  -0.00101,478115584.00000,   0.00223,277043008.00000,  -0.00236,  -0.00109,  -0.00096,   0.00000,   2.00000
-499512515.82588,-450674871.25317,-3551976.71708,  -0.00376,  -0.00217,  -0.00101,478130752.00000,   0.00223,277046496.00000,  -0.00236,  -0.00110,  -0.00096, -96.00000,   2.00000
-499547177.28567,-450643799.82988,-3330956.02925,  -0.00376,  -0.00217,  -0.00100,478098112.00000,   0.00223,277049856.00000,  -0.00237,  -0.00110,  -0.00096,-128.00000,   2.00000
-499581324.15762,-450612595.63449,-3110627.58405,  -0.00376,  -0.00218,  -0.00100,478101696.00000,   0.00224,277053216.00000,  -0.00237,  -0.00110,  -0.00096,  64.00000,   2.00000
-499619734.98665,-450574599.49531,-2886062.21127,  -0.00377,  -0.00218,  -0.00100,478093728.00000,   0.00224,277056576.00000,  -0.00237,  -0.00110,  -0.00096,   0.00000,   2.00000
-499657639.90934,-450536446.44354,-2662145.49760,  -0.00377,  -0.00218,  -0.00099,478097312.00000,   0.00224,277059904.00000,  -0.00238,  -0.00110,  -0.00096,   0.00000,   2.00000
-499696377.74543,-450496264.53257,-2438947.53238,  -0.00377,  -0.00218,  -0.00099,478076224.00000,   0.00224,277063168.00000,  -0.00238,  -0.00111,  -0.00096,   0.00000,   2.00000
-499739502.88800,-450449308.20378,-2211394.46596,  -0.00378,  -0.00218,  -0.00099,478068224.00000,   0.00225,277066368.00000,  -0.00238,  -0.00111,  -0.00096, 128.00000,   2.00000
-499778651.07059,-450406880.52361,-1989398.71584,  -0.00378,  -0.00219,  -0.00099,478058656.00000,   0.00225,277069568.00000,  -0.00238,  -0.00111,  -0.00096,  64.00000,   2.00000
-499822170.87627,-450357578.89718,-1762959.82430,  -0.00378,  -0.00219,  -0.00098,478050656.00000,   0.00225,277072704.00000,  -0.00239,  -0.00111,  -0.00096, -32.00000,   2.00000
-499865424.73206,-450308163.95954,-1536999.34551,  -0.00379,  -0.00219,  -0.00098,478054048.00000,   0.00226,277075840.00000,  -0.00239,  -0.00112,  -0.00096,   0.00000,   2.00000
-499914422.72761,-450249973.25196,-1311528.90762,  -0.00379,  -0.00219,  -0.00098,478021248.00000,   0.00226,277078880.00000,  -0.00239,  -0.00112,  -0.00096,   0.00000,   2.00000
-499958462.43991,-450198353.04791,-1086458.50792,  -0.00379,  -0.00219,  -0.00097,478036288.00000,   0.00226,277081920.00000,  -0.00240,  -0.00112,  -0.00096, 128.00000,   2.00000
-500008108.58781,-450137747.07671,-856809.04690,  -0.00380,  -0.00219,  -0.00097,478003616.00000,   0.00227,277084896.00000,  -0.00240,  -0.00112,  -0.00096, -32.00000,   2.00000
-500057685.11107,-450077070.37917,-627518.70539,  -0.00380,  -0.00220,  -0.00097,478006848.00000,   0.00227,277087840.00000,  -0.00240,  -0.00112,  -0.00096,  32.00000,   2.00000
-500111747.04771,-450009426.26685,-398559.77075,  -0.00380,  -0.00220,  -0.00096,477998720.00000,   0.00227,277090752.00000,  -0.00240,  -0.00113,  -0.00096,   0.00000,   2.00000
-500162261.54786,-449946429.84602,-169910.85274,  -0.00381,  -0.00220,  -0.00096,477988736.00000,   0.00227,277093632.00000,  -0.00241,  -0.00113,  -0.00096,  32.00000,   2.00000
-500217170.80483,-449876338.80741,58448.75133,  -0.00381,  -0.00220,  -0.00096,477980640.00000,   0.00228,277096448.00000,  -0.00241,  -0.00113,  -0.00096, -32.00000,   2.00000
-500276963.99240,-449799577.62789,291512.06970,  -0.00381,  -0.00220,  -0.00096,477972224.00000,   0.00228,277099264.00000,  -0.00241,  -0.00113,  -0.00096,  32.00000,   2.00000
-500332899.94737,-449727158.71569,524305.80550,  -0.00381,  -0.00220,  -0.00095,477962368.00000,   0.00228,277102016.00000,  -0.00242,  -0.00113,  -0.00096, -32.00000,   2.00000
-500393506.78625,-449647870.56112,756836.70554,  -0.00382,  -0.00221,  -0.00095,477953952.00000,   0.00228,277104736.00000,  -0.00242,  -0.00113,  -0.00096,  64.00000,   2.00000
-500455221.54360,-449566427.09887,989140.78536,  -0.00382,  -0.00221,  -0.00095,477932320.00000,   0.00229,277107360.00000,  -0.00242,  -0.00114,  -0.00096,  64.00000,   2.00000
-500516696.52133,-449484696.76723,1221150.78085,  -0.00382,  -0.00221,  -0.00094,477935456.00000,   0.00229,277110016.00000,  -0.00242,  -0.00114,  -0.00096,  64.00000,   2.00000
-500582627.75861,-449395951.65655,1457868.62728,  -0.00383,  -0.00221,  -0.00094,477927008.00000,   0.00229,277112608.00000,  -0.00243,  -0.00114,  -0.00096, -64.00000,   2.00000
-500644937.51780,-449311823.08097,1694305.92283,  -0.00383,  -0.00221,  -0.00094,477916672.00000,   0.00229,277115200.00000,  -0.00243,  -0.00114,  -0.00096, 128.00000,   2.00000
-500711708.62665,-449220740.10511,1930448.18389,  -0.00383,  -0.00221,  -0.00093,477908096.00000,   0.00230,277117728.00000,  -0.00243,  -0.00114,  -0.00096, -64.00000,   2.00000
-500782848.02488,-449122672.76235,2166283.97409,  -0.00383,  -0.00221,  -0.00093,477899424.00000,   0.00230,277120224.00000,  -0.00243,  -0.00115,  -0.00096,  32.00000,   2.00000
-500850028.95824,-449029044.31008,2406777.49894,  -0.00384,  -0.00221,  -0.00093,477889120.00000,   0.00230,277122656.00000,  -0.00243,  -0.00115,  -0.00096, -64.00000,   2.00000
-500921625.94430,-448928554.68193,2646926.37355,  -0.00384,  -0.00221,  -0.00092,477880320.00000,   0.00230,277125088.00000,  -0.00244,  -0.00115,  -0.00096, -32.00000,   2.00000
-500993962.96006,-448825863.48675,2886791.46856,  -0.00384,  -0.00222,  -0.00092,477858240.00000,   0.00231,277127424.00000,  -0.00244,  -0.00115,  -0.00096,   0.00000,   2.00000
-501065758.35646,-448722927.25557,3126215.84721,  -0.00385,  -0.00222,  -0.00092,477860992.00000,   0.00231,277129760.00000,  -0.00244,  -0.00115,  -0.00096,  32.00000,   2.00000
-501141709.82577,-448613058.51015,3365255.15276,  -0.00385,  -0.00222,  -0.00092,477852064.00000,   0.00231,277132064.00000,  -0.00244,  -0.00115,  -0.00096, -64.00000,   2.00000
-501218118.34874,-448500881.95189,3608971.10104,  -0.00385,  -0.00222,  -0.00091,477830144.00000,   0.00231,277134272.00000,  -0.00245,  -0.00115,  -0.00096,  32.00000,   2.00000
-501293875.39119,-448388524.11653,3852188.77697,  -0.00385,  -0.00222,  -0.00091,477832544.00000,   0.00231,277136512.00000,  -0.00245,  -0.00116,  -0.00096, -32.00000,   2.00000
-501365377.84833,-448280659.71303,4095008.63108,  -0.00386,  -0.00222,  -0.00091,477822016.00000,   0.00232,277138688.00000,  -0.00245,  -0.00116,  -0.00096, -32.00000,   2.00000
-501445661.10145,-448159185.34181,4337530.51772,  -0.00386,  -0.00222,  -0.00090,477801376.00000,   0.00232,277140800.00000,  -0.00245,  -0.00116,  -0.00096,   0.00000,   2.00000
-501524867.26502,-448037278.76825,4584504.81080,  -0.00386,  -0.00222,  -0.00090,477804096.00000,   0.00232,277142944.00000,  -0.00245,  -0.00116,  -0.00096, -32.00000,   2.00000
-501604766.90018,-447913379.42350,4826254.42223,  -0.00386,  -0.00222,  -0.00090,477781568.00000,   0.00232,277144960.00000,  -0.00246,  -0.00116,  -0.00096,  96.00000,   2.00000
-501683565.42250,-447789053.01854,5072466.74268,  -0.00387,  -0.00222,  -0.00089,477784192.00000,   0.00232,277147008.00000,  -0.00246,  -0.00116,  -0.00096, -64.00000,   2.00000
-501766363.65023,-447657860.57210,5318313.15699,  -0.00387,  -0.00222,  -0.00089,477775168.00000,   0.00233,277149024.00000,  -0.00246,  -0.00116,  -0.00096,  32.00000,   2.00000
-501844515.66002,-447530878.11371,5568809.70864,  -0.00387,  -0.00222,  -0.00089,477764480.00000,   0.00233,277150976.00000,  -0.00246,  -0.00117,  -0.00096,  32.00000,   2.00000
-501926824.46290,-447397112.60020,5814014.08643,  -0.00387,  -0.00222,  -0.00088,477755104.00000,   0.00233,277152928.00000,  -0.00246,  -0.00117,  -0.00096,   0.00000,   2.00000
-502009452.50968,-447260888.06774,6064108.85465,  -0.00388,  -0.00222,  -0.00088,477732864.00000,   0.00233,277154784.00000,  -0.00246,  -0.00117,  -0.00096, -32.00000,   2.00000
-502091284.19206,-447124423.64294,6313769.97868,  -0.00388,  -0.00223,  -0.00088,477735296.00000,   0.00233,277156640.00000,  -0.00247,  -0.00117,  -0.00096,   0.00000,   2.00000
-502176887.73254,-446980723.87025,6568178.23238,  -0.00388,  -0.00223,  -0.00087,477726240.00000,   0.00233,277158464.00000,  -0.00247,  -0.00117,  -0.00096, -32.00000,   2.00000
-502263317.70831,-446834839.66928,6817648.35820,  -0.00388,  -0.00223,  -0.00087,477703616.00000,   0.00234,277160224.00000,  -0.00247,  -0.00117,  -0.00096,  96.00000,   2.00000
-502348910.77164,-446688567.25228,7071732.18590,  -0.00389,  -0.00223,  -0.00087,477705952.00000,   0.00234,277161952.00000,  -0.00247,  -0.00117,  -0.00096,  32.00000,   2.00000
-502435171.62735,-446539852.07940,7325930.93665,  -0.00389,  -0.00223,  -0.00086,477683520.00000,   0.00234,277163616.00000,  -0.00247,  -0.00117,  -0.00096,  64.00000,   2.00000
-502520819.83507,-446390862.64446,7579807.64486,  -0.00389,  -0.00223,  -0.00086,477685568.00000,   0.00234,277165312.00000,  -0.00247,  -0.00118,  -0.00096,  32.00000,   2.00000
-502610481.92552,-446234617.43824,7838578.24176,  -0.00389,  -0.00223,  -0.00086,477676448.00000,   0.00234,277166944.00000,  -0.00248,  -0.00118,  -0.00096,  64.00000,   2.00000
-502701106.28085,-446076059.29620,8092585.31257,  -0.00390,  -0.00223,  -0.00085,477653632.00000,   0.00234,277168512.00000,  -0.00248,  -0.00118,  -0.00096,   0.00000,   2.00000
-502791004.03440,-445917059.20849,8351289.40961,  -0.00390,  -0.00223,  -0.00085,477655904.00000,   0.00235,277170080.00000,  -0.00248,  -0.00118,  -0.00096,   0.00000,   2.00000
-502877078.76558,-445762522.93585,8610004.35981,  -0.00390,  -0.00223,  -0.00084,477644704.00000,   0.00235,277171584.00000,  -0.00248,  -0.00118,  -0.00096, -64.00000,   2.00000
-502971786.35374,-445593664.10508,8873934.15741,  -0.00390,  -0.00223,  -0.00084,477624000.00000,   0.00235,277173024.00000,  -0.00248,  -0.00118,  -0.00096,  32.00000,   2.00000
-503066312.65733,-445424822.80751,9132630.99588,  -0.00390,  -0.00223,  -0.00084,477625632.00000,   0.00235,277174496.00000,  -0.00248,  -0.00118,  -0.00096,  64.00000,   2.00000
-503159878.20857,-445255330.14621,9396035.34943,  -0.00391,  -0.00223,  -0.00083,477628096.00000,   0.00235,277175936.00000,  -0.00248,  -0.00118,  -0.00096,   0.00000,   2.00000
-503250976.89915,-445088051.89181,9660084.71401,  -0.00391,  -0.00223,  -0.00083,477592000.00000,   0.00235,277177280.00000,  -0.00249,  -0.00118,  -0.00096,   0.00000,   2.00000
-503349161.59650,-444908520.65840,9928806.76462,  -0.00391,  -0.00223,  -0.00083,477595904.00000,   0.00235,277178624.00000,  -0.00249,  -0.00118,  -0.00096,-128.00000,   2.00000
-503443967.92916,-444733837.95150,10192636.47857,  -0.00391,  -0.00223,  -0.00082,477584224.00000,   0.00235,277179904.00000,  -0.00249,  -0.00119,  -0.00096, -32.00000,   2.00000
-503542317.67441,-444551425.55285,10461472.62999,  -0.00391,  -0.00223,  -0.00082,477575040.00000,   0.00236,277181184.00000,  -0.00249,  -0.00119,  -0.00096, -64.00000,   2.00000
-503636832.37311,-444373468.77183,10730406.22749,  -0.00392,  -0.00223,  -0.00082,477563520.00000,   0.00236,277182400.00000,  -0.00249,  -0.00119,  -0.00096,  32.00000,   2.00000
-503735489.61870,-444188298.87117,10999399.97979,  -0.00392,  -0.00223,  -0.00081,477553856.00000,   0.00236,277183584.00000,  -0.00249,  -0.00119,  -0.00096,  64.00000,   2.00000
-503837634.18287,-443995357.73738,11273426.20380,  -0.00392,  -0.00223,  -0.00081,477544800.00000,   0.00236,277184768.00000,  -0.00249,  -0.00119,  -0.00096,   0.00000,   2.00000
-503935753.58354,-443806705.17280,11547578.67630,  -0.00392,  -0.00223,  -0.00081,477533216.00000,   0.00236,277185856.00000,  -0.00249,  -0.00119,  -0.00096,   0.00000,   2.00000
-504037930.72387,-443610759.33009,11821820.91598,  -0.00392,  -0.00223,  -0.00080,477523488.00000,   0.00236,277186944.00000,  -0.00250,  -0.00119,  -0.00096,  32.00000,   2.00000
-504139293.02815,-443414353.61386,12095822.18836,  -0.00393,  -0.00222,  -0.00080,477525248.00000,   0.00236,277188032.00000,  -0.00250,  -0.00119,  -0.00096, -96.00000,   2.00000
-504240397.74187,-443214420.67677,12370304.76725,  -0.00393,  -0.00222,  -0.00079,477502144.00000,   0.00236,277189056.00000,  -0.00250,  -0.00119,  -0.00096,-960.00000,   1.00000
-504341296.82063,-443014541.87570,12649554.42446,  -0.00393,  -0.00222,  -0.00079,477503328.00000,   0.00236,277190048.00000,  -0.00250,  -0.00119,  -0.00095,-992.00000,   1.00000
-504443033.28181,-442812027.57045,12929358.32293,  -0.00393,  -0.00222,  -0.00079,477480128.00000,   0.00237,277190976.00000,  -0.00250,  -0.00119,  -0.00095,-800.00000,   1.00000
-504543810.78309,-442608907.43780,13208938.99473,  -0.00393,  -0.00222,  -0.00078,477481920.00000,   0.00237,277191936.00000,  -0.00250,  -0.00119,  -0.00095,-960.00000,   1.00000
-504648161.44612,-442398011.68395,13493645.45597,  -0.00393,  -0.00222,  -0.00078,477472480.00000,   0.00237,277192832.00000,  -0.00250,  -0.00119,  -0.00095,-928.00000,   1.00000
-504753150.94633,-442184236.72721,13778967.14638,  -0.00394,  -0.00222,  -0.00078,477449376.00000,   0.00237,277193632.00000,  -0.00250,  -0.00119,  -0.00095,-768.00000,   1.00000
-504857313.29299,-441969947.76622,14064086.85214,  -0.00394,  -0.00222,  -0.00077,477450912.00000,   0.00237,277194464.00000,  -0.00250,  -0.00119,  -0.00095,-736.00000,   1.00000
-504957411.47810,-441759772.20498,14349469.87979,  -0.00394,  -0.00222,  -0.00077,477439168.00000,   0.00237,277195264.00000,  -0.00250,  -0.00120,  -0.00095,-768.00000,   1.00000
-505066142.79359,-441534993.67661,14635474.96730,  -0.00394,  -0.00222,  -0.00076,477417824.00000,   0.00237,277195968.00000,  -0.00250,  -0.00120,  -0.00095,-608.00000,   1.00000
-505168850.17235,-441316322.80306,14925845.98723,  -0.00394,  -0.00222,  -0.00076,477431136.00000,   0.00237,277196736.00000,  -0.00250,  -0.00120,  -0.00095,-704.00000,   1.00000
-505272284.79289,-441094716.68673,15216944.18243,  -0.00394,  -0.00222,  -0.00076,477407840.00000,   0.00237,277197408.00000,  -0.00251,  -0.00120,  -0.00095,-608.00000,   1.00000
-505379507.54279,-440865399.04341,15508292.60454,  -0.00395,  -0.00222,  -0.00075,477397920.00000,   0.00237,277198048.00000,  -0.00251,  -0.00120,  -0.00095,-608.00000,   1.00000
-505485488.04757,-440635174.17419,15804433.33180,  -0.00395,  -0.00222,  -0.00075,477399680.00000,   0.00237,277198720.00000,  -0.00251,  -0.00120,  -0.00095,-608.00000,   1.00000
-505592041.91511,-440401813.93203,16101364.61266,  -0.00395,  -0.00222,  -0.00074,477376448.00000,   0.00237,277199264.00000,  -0.00251,  -0.00120,  -0.00095,-576.00000,   1.00000
-505697696.46552,-440167828.45512,16398130.18662,  -0.00395,  -0.00221,  -0.00074,477377792.00000,   0.00237,277199840.00000,  -0.00251,  -0.00120,  -0.00095,-576.00000,   1.00000
-505807218.16173,-439926157.67351,16695194.40976,  -0.00395,  -0.00221,  -0.00074,477367712.00000,   0.00237,277200384.00000,  -0.00251,  -0.00120,  -0.00095,-512.00000,   1.00000
-505912565.00710,-439688378.17243,16992645.91813,  -0.00395,  -0.00221,  -0.00073,477355808.00000,   0.00237,277200896.00000,  -0.00251,  -0.00120,  -0.00095,-480.00000,   1.00000
-506021106.22263,-439442320.23013,17295379.06079,  -0.00395,  -0.00221,  -0.00073,477346304.00000,   0.00238,277201376.00000,  -0.00251,  -0.00120,  -0.00095,-448.00000,   1.00000
-506125588.59095,-439200223.30583,17598534.97479,  -0.00396,  -0.00221,  -0.00072,477334240.00000,   0.00238,277201792.00000,  -0.00251,  -0.00120,  -0.00095,-448.00000,   1.00000
-506233586.17918,-438950091.67405,17902033.59147,  -0.00396,  -0.00221,  -0.00072,477324352.00000,   0.00238,277202176.00000,  -0.00251,  -0.00120,  -0.00095,-384.00000,   1.00000
-506339976.63878,-438698735.33343,18210342.11061,  -0.00396,  -0.00221,  -0.00072,477326208.00000,   0.00238,277202592.00000,  -0.00251,  -0.00120,  -0.00095,-384.00000,   1.00000
-506446841.77742,-438443965.96870,18519630.11375,  -0.00396,  -0.00221,  -0.00071,477302880.00000,   0.00238,277202912.00000,  -0.00251,  -0.00120,  -0.00095,-288.00000,   1.00000
-506552552.16572,-438188338.86326,18828779.90300,  -0.00396,  -0.00221,  -0.00071,477304256.00000,   0.00238,277203232.00000,  -0.00251,  -0.00120,  -0.00095,-288.00000,   1.00000
-506661663.45864,-437924519.27245,19138323.92269,  -0.00396,  -0.00220,  -0.00070,477294400.00000,   0.00238,277203520.00000,  -0.00251,  -0.00120,  -0.00095,-288.00000,   1.00000
-506766000.69729,-437663946.67786,19453342.37163,  -0.00396,  -0.00220,  -0.00070,477282848.00000,   0.00238,277203776.00000,  -0.00251,  -0.00120,  -0.00095,-256.00000,   1.00000
-506869190.41876,-437402503.31684,19768237.24759,  -0.00396,  -0.00220,  -0.00070,477284160.00000,   0.00238,277204032.00000,  -0.00251,  -0.00120,  -0.00095,-256.00000,   1.00000
-506977463.17739,-437130131.03554,20084820.02138,  -0.00397,  -0.00220,  -0.00069,477249440.00000,   0.00238,277204192.00000,  -0.00251,  -0.00120,  -0.00095, -64.00000,   1.00000
-507082820.07478,-436859481.39616,20400033.77743,  -0.00397,  -0.00220,  -0.00069,477275552.00000,   0.00238,277204416.00000,  -0.00251,  -0.00120,  -0.00095,-192.00000,   1.00000
-507185097.15125,-436589277.91409,20722075.09620,  -0.00397,  -0.00220,  -0.00068,477239136.00000,   0.00238,277204544.00000,  -0.00251,  -0.00120,  -0.00095, -64.00000,   1.00000
-507289055.66157,-436313455.44078,21043307.99113,  -0.00397,  -0.00220,  -0.00068,477253952.00000,   0.00238,277204704.00000,  -0.00251,  -0.00120,  -0.00095,-128.00000,   1.00000
-507393662.77279,-436034042.81003,21365781.49724,  -0.00397,  -0.00220,  -0.00067,477230272.00000,   0.00238,277204768.00000,  -0.00251,  -0.00120,  -0.00095,   0.00000,   1.00000
-507501536.38191,-435746145.62614,21688780.87682,  -0.00397,  -0.00219,  -0.00067,477220320.00000,   0.00238,277204832.00000,  -0.00251,  -0.00120,  -0.00095, -96.00000,   1.00000
-507600198.18874,-435468852.06167,22016788.31594,  -0.00397,  -0.00219,  -0.00067,477219680.00000,   0.00238,277204864.00000,  -0.00251,  -0.00120,  -0.00095,   0.00000,   1.00000
-507699844.32042,-435169913.66665,22345620.55046,  -0.00397,  -0.00219,  -0.00066,477198432.00000,   0.00238,277204864.00000,  -0.00251,  -0.00120,  -0.00095,-6432.00000,   0.00000
-507806963.91197,-434888413.34467,22674452.78499,  -0.00397,  -0.00219,  -0.00066,477204064.00000,   0.00238,277204864.00000,  -0.00251,  -0.00120,  -0.00095,-800.00000,   0.00000
-507906610.04364,-434589474.94964,23008267.32610,  -0.00398,  -0.00219,  -0.00065,477200160.00000,   0.00238,277204864.00000,  -0.00251,  -0.00120,  -0.00095,-4704.00000,   0.00000
-507981344.64240,-434265625.02170,23342081.86721,  -0.00398,  -0.00219,  -0.00065,477172672.00000,   0.00238,277204864.00000,  -0.00251,  -0.00120,  -0.00095,-32192.00000,   0.00000
-508038641.16811,-433934301.63388,23675896.40832,  -0.00398,  -0.00218,  -0.00064,477132768.00000,   0.00238,277204864.00000,  -0.00251,  -0.00120,  -0.00095,-72096.00000,   0.00000
-508113375.76687,-433610451.70594,24009710.94943,  -0.00398,  -0.00218,  -0.00064,477107200.00000,   0.00238,277204864.00000,  -0.00251,  -0.00120,  -0.00095,-97664.00000,   0.00000
-508163198.83270,-433261690.24508,24348507.79713,  -0.00398,  -0.00218,  -0.00064,477058592.00000,   0.00238,277204864.00000,  -0.00251,  -0.00120,  -0.00095,-146272.00000,   0.00000
-508213021.89854,-432912928.78421,24687304.64482,  -0.00398,  -0.00218,  -0.00063,477011264.00000,   0.00238,277204864.00000,  -0.00251,  -0.00120,  -0.00095,-193600.00000,   0.00000
-508245406.89134,-432556693.86348,25026101.49252,  -0.00398,  -0.00218,  -0.00063,476951232.00000,   0.00238,277204864.00000,  -0.00251,  -0.00120,  -0.00095,-253632.00000,   0.00000
-508270318.42425,-432183020.86969,25369880.64680,  -0.00398,  -0.00218,  -0.00062,476881920.00000,   0.00238,277204864.00000,  -0.00251,  -0.00120,  -0.00095,-322944.00000,   0.00000
-508287756.49730,-431791909.80287,25713659.80107,  -0.00398,  -0.00217,  -0.00062,476802592.00000,   0.00238,277204864.00000,  -0.00251,  -0.00120,  -0.00095,-402272.00000,   0.00000
-508295229.95717,-431410763.34921,26057438.95535,  -0.00398,  -0.00217,  -0.00061,476721856.00000,   0.00238,277204864.00000,  -0.00251,  -0.00120,  -0.00095,-483008.00000,   0.00000
-508295229.95717,-431012178.82251,26401218.10963,  -0.00398,  -0.00217,  -0.00061,476631040.00000,   0.00238,277204864.00000,  -0.00251,  -0.00120,  -0.00095,-573824.00000,   0.00000
-508287756.49730,-430596156.22277,26749979.57049,  -0.00399,  -0.00217,  -0.00060,476531008.00000,   0.00238,277204864.00000,  -0.00251,  -0.00120,  -0.00095,-673856.00000,   0.00000
-508262844.96438,-430172660.16315,27093758.72477,  -0.00399,  -0.00217,  -0.00060,476417792.00000,   0.00238,277204864.00000,  -0.00251,  -0.00120,  -0.00095,-787072.00000,   0.00000
-508255371.50450,-429756637.56341,27447502.49222,  -0.00399,  -0.00217,  -0.00060,476320800.00000,   0.00238,277204864.00000,  -0.00251,  -0.00120,  -0.00095,-884064.00000,   0.00000
-508213021.89854,-429325668.04392,27796263.95308,  -0.00399,  -0.00216,  -0.00059,476196992.00000,   0.00238,277204864.00000,  -0.00251,  -0.00120,  -0.00095,-1007872.00000,   0.00000
-508180636.90575,-428884733.91126,28150007.72052,  -0.00399,  -0.00216,  -0.00059,476077536.00000,   0.00238,277204864.00000,  -0.00251,  -0.00120,  -0.00095,-1127328.00000,   0.00000
-508123340.38003,-428418888.24568,28503751.48797,  -0.00399,  -0.00216,  -0.00058,475934720.00000,   0.00238,277204864.00000,  -0.00251,  -0.00120,  -0.00095,-1270144.00000,   0.00000
-508073517.31420,-427970480.65314,28857495.25542,  -0.00399,  -0.00216,  -0.00058,475803968.00000,   0.00238,277204864.00000,  -0.00251,  -0.00120,  -0.00095,-1400896.00000,   0.00000
-507998782.71544,-427497161.52768,29216221.32945,  -0.00399,  -0.00216,  -0.00057,475650752.00000,   0.00238,277204864.00000,  -0.00251,  -0.00120,  -0.00095,-1554112.00000,   0.00000
-507941486.18973,-427031315.86210,29574947.40348,  -0.00399,  -0.00215,  -0.00057,475512128.00000,   0.00238,277204864.00000,  -0.00251,  -0.00120,  -0.00095,-1692736.00000,   0.00000
-507841840.05805,-426533085.20373,29933673.47751,  -0.00399,  -0.00215,  -0.00056,475336544.00000,   0.00238,277204864.00000,  -0.00251,  -0.00120,  -0.00095,-1868320.00000,   0.00000
-507759631.99942,-426042328.00523,30297381.85812,  -0.00399,  -0.00215,  -0.00056,475176608.00000,   0.00238,277204864.00000,  -0.00251,  -0.00120,  -0.00095,-2028256.00000,   0.00000
-507659985.86775,-425544097.34686,30656107.93215,  -0.00399,  -0.00215,  -0.00055,475003328.00000,   0.00238,277204864.00000,  -0.00251,  -0.00120,  -0.00095,-2201536.00000,   0.00000
-507552866.27619,-425028428.61544,31024798.61935,  -0.00399,  -0.00215,  -0.00055,474822176.00000,   0.00238,277204864.00000,  -0.00251,  -0.00120,  -0.00095,-2382688.00000,   0.00000
-507445746.68464,-424512759.88402,31388506.99996,  -0.00399,  -0.00214,  -0.00054,474641152.00000,   0.00238,277204864.00000,  -0.00251,  -0.00120,  -0.00095,-2563712.00000,   0.00000
-507321189.02005,-423989617.69273,31757197.68716,  -0.00399,  -0.00214,  -0.00054,474448800.00000,   0.00238,277204864.00000,  -0.00251,  -0.00120,  -0.00095,-2756064.00000,   0.00000
-507189157.89558,-423449037.42839,32125888.37435,  -0.00399,  -0.00214,  -0.00053,474246656.00000,   0.00238,277204864.00000,  -0.00251,  -0.00120,  -0.00095,-2958208.00000,   0.00000
-507064600.23099,-422925895.23710,32494579.06155,  -0.00399,  -0.00214,  -0.00053,474056640.00000,   0.00238,277204864.00000,  -0.00251,  -0.00120,  -0.00095,-3148224.00000,   0.00000
-506925095.64664,-422367876.89972,32863269.74875,  -0.00400,  -0.00213,  -0.00053,473845888.00000,   0.00238,277204864.00000,  -0.00251,  -0.00120,  -0.00095,-3358976.00000,   0.00000
-506775626.44913,-421819823.17551,33236942.74253,  -0.00400,  -0.00213,  -0.00052,473634848.00000,   0.00238,277204864.00000,  -0.00251,  -0.00120,  -0.00095,-3570016.00000,   0.00000
-506618683.79174,-421254331.37825,33610615.73631,  -0.00400,  -0.00213,  -0.00052,473414144.00000,   0.00238,277204864.00000,  -0.00251,  -0.00120,  -0.00095,-3790720.00000,   0.00000
-506444303.06131,-420681366.12112,33989271.03667,  -0.00400,  -0.00213,  -0.00051,473182176.00000,   0.00238,277204864.00000,  -0.00251,  -0.00120,  -0.00095,-4022688.00000,   0.00000
-506287360.40392,-420115874.32387,34367926.33704,  -0.00400,  -0.00213,  -0.00051,472964896.00000,   0.00238,277204864.00000,  -0.00251,  -0.00120,  -0.00095,-4239968.00000,   0.00000
-506112979.67349,-419542909.06674,34746581.63740,  -0.00400,  -0.00212,  -0.00050,472735552.00000,   0.00238,277204864.00000,  -0.00251,  -0.00120,  -0.00095,-4469312.00000,   0.00000
-505931125.48319,-418952505.73656,35125236.93777,  -0.00400,  -0.00212,  -0.00050,472496576.00000,   0.00238,277204864.00000,  -0.00251,  -0.00120,  -0.00095,-4708288.00000,   0.00000
-505731833.21984,-418354628.94651,35508874.54472,  -0.00400,  -0.00212,  -0.00049,472246368.00000,   0.00238,277204864.00000,  -0.00251,  -0.00120,  -0.00095,-4958496.00000,   0.00000
-505532540.95649,-417756752.15646,35892512.15166,  -0.00400,  -0.00212,  -0.00049,471997632.00000,   0.00238,277204864.00000,  -0.00251,  -0.00120,  -0.00095,-5207232.00000,   0.00000
-505325775.23326,-417141437.29337,36276149.75861,  -0.00400,  -0.00211,  -0.00048,471739392.00000,   0.00238,277204864.00000,  -0.00251,  -0.00120,  -0.00095,-5465472.00000,   0.00000
-505119009.51004,-416526122.43028,36664769.67214,  -0.00400,  -0.00211,  -0.00048,471483744.00000,   0.00238,277204864.00000,  -0.00251,  -0.00120,  -0.00095,-5721120.00000,   0.00000
-504894805.71377,-415903334.10731,37048407.27909,  -0.00400,  -0.00211,  -0.00047,471214816.00000,   0.00238,277204864.00000,  -0.00251,  -0.00120,  -0.00095,-5990048.00000,   0.00000
-504670601.91750,-415280545.78434,37442009.49921,  -0.00400,  -0.00211,  -0.00047,470949600.00000,   0.00238,277204864.00000,  -0.00251,  -0.00120,  -0.00095,-6255264.00000,   0.00000
-504446398.12123,-414657757.46137,37830629.41274,  -0.00400,  -0.00210,  -0.00046,470684640.00000,   0.00238,277204864.00000,  -0.00251,  -0.00120,  -0.00095,-6520224.00000,   0.00000
-504214720.86509,-414017531.06536,38224231.63286,  -0.00400,  -0.00210,  -0.00046,470411680.00000,   0.00238,277204864.00000,  -0.00251,  -0.00120,  -0.00095,-6793184.00000,   0.00000
-503965605.53590,-413369831.20948,38617833.85297,  -0.00400,  -0.00210,  -0.00045,470126592.00000,   0.00238,277204864.00000,  -0.00251,  -0.00120,  -0.00095,-7078272.00000,   0.00000
-503716490.20671,-412722131.35359,39011436.07309,  -0.00400,  -0.00210,  -0.00045,469843136.00000,   0.00238,277204864.00000,  -0.00251,  -0.00120,  -0.00095,-7361728.00000,   0.00000
-503467374.87752,-412074431.49770,39410020.59979,  -0.00400,  -0.00209,  -0.00044,469562432.00000,   0.00238,277204864.00000,  -0.00251,  -0.00120,  -0.00095,-7642432.00000,   0.00000
-503210786.08846,-411409293.56877,39808605.12649,  -0.00400,  -0.00209,  -0.00044,469272736.00000,   0.00238,277204864.00000,  -0.00251,  -0.00120,  -0.00095,-7932128.00000,   0.00000
-502944232.68623,-410754120.25301,40212171.95977,  -0.00400,  -0.00209,  -0.00043,468982848.00000,   0.00238,277204864.00000,  -0.00251,  -0.00120,  -0.00095,-8222016.00000,   0.00000
-502670205.82413,-410081508.86420,40610756.48647,  -0.00400,  -0.00209,  -0.00042,468682752.00000,   0.00238,277204864.00000,  -0.00251,  -0.00120,  -0.00095,-8522112.00000,   0.00000
-502396178.96202,-409408897.47540,41014323.31975,  -0.00400,  -0.00208,  -0.00042,468385664.00000,   0.00238,277204864.00000,  -0.00251,  -0.00120,  -0.00095,-8819200.00000,   0.00000
-502097240.56699,-408711374.55367,41417890.15304,  -0.00400,  -0.00208,  -0.00041,468065920.00000,   0.00238,277204864.00000,  -0.00251,  -0.00120,  -0.00095,-9138944.00000,   0.00000
-501823213.70489,-408038763.16487,41826439.29290,  -0.00400,  -0.00208,  -0.00041,467773472.00000,   0.00238,277204864.00000,  -0.00251,  -0.00120,  -0.00095,-9431392.00000,   0.00000
-501531748.76974,-407358678.31619,42234988.43277,  -0.00400,  -0.00208,  -0.00040,467469120.00000,   0.00238,277204864.00000,  -0.00251,  -0.00120,  -0.00095,-9735744.00000,   0.00000
-501232810.37471,-406661155.39446,42643537.57264,  -0.00400,  -0.00207,  -0.00040,467155872.00000,   0.00238,277204864.00000,  -0.00251,  -0.00120,  -0.00095,-10048992.00000,   0.00000
-500916433.90665,-405956159.01286,43057069.01909,  -0.00400,  -0.00207,  -0.00039,466832064.00000,   0.00238,277204864.00000,  -0.00251,  -0.00120,  -0.00095,-10372800.00000,   0.00000
-500617495.51162,-405258636.09114,43465618.15896,  -0.00400,  -0.00207,  -0.00039,466522240.00000,   0.00238,277204864.00000,  -0.00251,  -0.00120,  -0.00095,-10682624.00000,   0.00000
-500301119.04355,-404553639.70954,43884131.91199,  -0.00400,  -0.00207,  -0.00038,466203296.00000,   0.00238,277204864.00000,  -0.00251,  -0.00120,  -0.00095,-11001568.00000,   0.00000
-499977269.11561,-403831205.25490,44297663.35844,  -0.00400,  -0.00206,  -0.00038,465874080.00000,   0.00238,277204864.00000,  -0.00251,  -0.00120,  -0.00095,-11330784.00000,   0.00000
-499643454.57450,-403118735.41342,44716177.11148,  -0.00400,  -0.00206,  -0.00037,465544896.00000,   0.00238,277204864.00000,  -0.00251,  -0.00120,  -0.00095,-11659968.00000,   0.00000
-499319604.64656,-402396300.95878,45134690.86451,  -0.00400,  -0.00206,  -0.00037,465220448.00000,   0.00238,277204864.00000,  -0.00251,  -0.00120,  -0.00095,-11984416.00000,   0.00000
-498985790.10545,-401683831.11730,45553204.61754,  -0.00400,  -0.00206,  -0.00036,464894432.00000,   0.00238,277204864.00000,  -0.00251,  -0.00120,  -0.00095,-12310432.00000,   0.00000
-498644502.10446,-400953923.20278,45976700.67716,  -0.00400,  -0.00205,  -0.00035,464561056.00000,   0.00238,277204864.00000,  -0.00251,  -0.00120,  -0.00095,-12643808.00000,   0.00000
-498303214.10347,-400224015.28827,46400196.73678,  -0.00400,  -0.00205,  -0.00035,464229152.00000,   0.00238,277204864.00000,  -0.00251,  -0.00120,  -0.00095,-12975712.00000,   0.00000
-497944488.02944,-399486633.91387,46828675.10298,  -0.00400,  -0.00205,  -0.00034,463886688.00000,   0.00238,277204864.00000,  -0.00251,  -0.00120,  -0.00095,-13318176.00000,   0.00000
-497603200.02846,-398756725.99935,47252171.16260,  -0.00400,  -0.00205,  -0.00034,463557920.00000,   0.00238,277204864.00000,  -0.00251,  -0.00120,  -0.00095,-13646944.00000,   0.00000
-497244473.95443,-398019344.62496,47680649.52880,  -0.00400,  -0.00204,  -0.00033,463218336.00000,   0.00238,277204864.00000,  -0.00251,  -0.00120,  -0.00095,-13986528.00000,   0.00000
-496878274.42052,-397264525.17752,48114110.20159,  -0.00400,  -0.00204,  -0.00033,462871264.00000,   0.00238,277204864.00000,  -0.00251,  -0.00120,  -0.00095,-14333600.00000,   0.00000
-496502110.27345,-396519670.34325,48542588.56779,  -0.00400,  -0.00204,  -0.00032,462520864.00000,   0.00238,277204864.00000,  -0.00251,  -0.00120,  -0.00095,-14684000.00000,   0.00000
-496135910.73954,-395764850.89581,48976049.24058,  -0.00400,  -0.00203,  -0.00032,462176544.00000,   0.00238,277204864.00000,  -0.00251,  -0.00120,  -0.00095,-15028320.00000,   0.00000
-495759746.59247,-395019996.06154,49414492.21995,  -0.00400,  -0.00203,  -0.00031,461831904.00000,   0.00238,277204864.00000,  -0.00251,  -0.00120,  -0.00095,-15372960.00000,   0.00000
-495376108.98552,-394257703.15423,49847952.89273,  -0.00400,  -0.00203,  -0.00030,461476800.00000,   0.00238,277204864.00000,  -0.00251,  -0.00120,  -0.00095,-15728064.00000,   0.00000
-494992471.37857,-393495410.24692,50286395.87210,  -0.00400,  -0.00203,  -0.00030,461124640.00000,   0.00238,277204864.00000,  -0.00251,  -0.00120,  -0.00095,-16080224.00000,   0.00000
-494616307.23150,-392750555.41265,50729821.15805,  -0.00400,  -0.00202,  -0.00029,460786048.00000,   0.00238,277204864.00000,  -0.00251,  -0.00120,  -0.00095,-16418816.00000,   0.00000
-494215231.55151,-391980789.04546,51168264.13742,  -0.00400,  -0.00202,  -0.00029,460423264.00000,   0.00238,277204864.00000,  -0.00251,  -0.00120,  -0.00095,-16781600.00000,   0.00000
-493831593.94456,-391218496.13815,51611689.42338,  -0.00400,  -0.00202,  -0.00028,460077600.00000,   0.00238,277204864.00000,  -0.00251,  -0.00120,  -0.00095,-17127264.00000,   0.00000
-493430518.26457,-390448729.77096,52055114.70933,  -0.00400,  -0.00202,  -0.00028,459719968.00000,   0.00238,277204864.00000,  -0.00251,  -0.00120,  -0.00095,-17484896.00000,   0.00000
-493029442.58458,-389678963.40377,52503522.30187,  -0.00400,  -0.00201,  -0.00027,459365984.00000,   0.00238,277204864.00000,  -0.00251,  -0.00120,  -0.00095,-17838880.00000,   0.00000
-492628366.90459,-388909197.03658,52951929.89440,  -0.00400,  -0.00201,  -0.00026,459013920.00000,   0.00238,277204864.00000,  -0.00251,  -0.00120,  -0.00095,-18190944.00000,   0.00000
-492209853.15155,-388131957.20952,53400337.48694,  -0.00400,  -0.00201,  -0.00026,458650272.00000,   0.00238,277204864.00000,  -0.00251,  -0.00120,  -0.00095,-18554592.00000,   0.00000
-491808777.47156,-387362190.84233,53853727.38606,  -0.00399,  -0.00200,  -0.00025,458304064.00000,   0.00238,277204864.00000,  -0.00251,  -0.00120,  -0.00095,-18900800.00000,   0.00000
-491390263.71853,-386584951.01527,54302134.97860,  -0.00399,  -0.00200,  -0.00025,457944736.00000,   0.00238,277204864.00000,  -0.00251,  -0.00120,  -0.00095,-19260128.00000,   0.00000
-490971749.96549,-385807711.18820,54760507.18430,  -0.00399,  -0.00200,  -0.00024,457590976.00000,   0.00238,277204864.00000,  -0.00251,  -0.00120,  -0.00095,-19613888.00000,   0.00000
-490553236.21246,-385030471.36114,55213897.08342,  -0.00399,  -0.00200,  -0.00023,457237760.00000,   0.00238,277204864.00000,  -0.00251,  -0.00120,  -0.00095,-19967104.00000,   0.00000
-490134722.45942,-384253231.53407,55672269.28913,  -0.00399,  -0.00199,  -0.00023,456888576.00000,   0.00238,277204864.00000,  -0.00251,  -0.00120,  -0.00095,-20316288.00000,   0.00000
-489698770.63335,-383468518.24713,56130641.49483,  -0.00399,  -0.00199,  -0.00022,456528192.00000,   0.00238,277204864.00000,  -0.00251,  -0.00120,  -0.00095,-20676672.00000,   0.00000
-489280256.88031,-382691278.42007,56593996.00712,  -0.00399,  -0.00199,  -0.00022,456185568.00000,   0.00238,277204864.00000,  -0.00251,  -0.00120,  -0.00095,-21019296.00000,   0.00000
-488844305.05423,-381906565.13313,57052368.21283,  -0.00399,  -0.00199,  -0.00021,455830368.00000,   0.00238,277204864.00000,  -0.00251,  -0.00120,  -0.00095,-21374496.00000,   0.00000
-488408353.22816,-381121851.84619,57520705.03170,  -0.00399,  -0.00198,  -0.00020,455481792.00000,   0.00238,277204864.00000,  -0.00251,  -0.00120,  -0.00095,-21723072.00000,   0.00000
-487972401.40208,-380337138.55925,57984059.54399,  -0.00399,  -0.00198,  -0.00020,455134816.00000,   0.00238,277204864.00000,  -0.00251,  -0.00120,  -0.00095,-22070048.00000,   0.00000
-487543923.03588,-379569863.34535,58452396.36286,  -0.00399,  -0.00198,  -0.00019,454803744.00000,   0.00238,277204864.00000,  -0.00251,  -0.00120,  -0.00095,-22401120.00000,   0.00000
-487090533.13676,-378777676.59854,58920733.18173,  -0.00399,  -0.00197,  -0.00019,454453472.00000,   0.00238,277204864.00000,  -0.00251,  -0.00120,  -0.00095,-22751392.00000,   0.00000
-486654581.31068,-377992963.31160,59394052.30719,  -0.00399,  -0.00197,  -0.00018,454123968.00000,   0.00238,277204864.00000,  -0.00251,  -0.00120,  -0.00095,-23080896.00000,   0.00000
-486201191.41156,-377200776.56478,59862389.12606,  -0.00399,  -0.00197,  -0.00017,453784352.00000,   0.00238,277204864.00000,  -0.00251,  -0.00120,  -0.00095,-23420512.00000,   0.00000
-485765239.58548,-376416063.27784,60340690.55810,  -0.00399,  -0.00197,  -0.00017,453466880.00000,   0.00238,277204864.00000,  -0.00251,  -0.00120,  -0.00095,-23737984.00000,   0.00000
-485319323.14623,-375641314.60407,60814009.68355,  -0.00399,  -0.00196,  -0.00016,453145632.00000,   0.00238,277204864.00000,  -0.00251,  -0.00120,  -0.00095,-24059232.00000,   0.00000
-484865933.24711,-374849127.85726,61292311.11559,  -0.00399,  -0.00196,  -0.00016,452813120.00000,   0.00238,277204864.00000,  -0.00251,  -0.00120,  -0.00095,-24391744.00000,   0.00000
-484402578.73483,-374066905.72361,61770612.54763,  -0.00399,  -0.00196,  -0.00015,452470592.00000,   0.00238,277204864.00000,  -0.00251,  -0.00120,  -0.00095,-24734272.00000,   0.00000
-483949188.83571,-373274718.97679,62248913.97967,  -0.00399,  -0.00196,  -0.00014,452133632.00000,   0.00238,277204864.00000,  -0.00251,  -0.00120,  -0.00095,-25071232.00000,   0.00000
-483503272.39646,-372499970.30302,62732197.71830,  -0.00399,  -0.00195,  -0.00014,451825472.00000,   0.00238,277204864.00000,  -0.00251,  -0.00120,  -0.00095,-25379392.00000,   0.00000
-483039917.88417,-371717748.16937,63215481.45692,  -0.00399,  -0.00195,  -0.00013,451516928.00000,   0.00238,277204864.00000,  -0.00251,  -0.00120,  -0.00095,-25687936.00000,   0.00000
-482576563.37188,-370935526.03572,63703747.50213,  -0.00398,  -0.00195,  -0.00012,451205504.00000,   0.00238,277204864.00000,  -0.00251,  -0.00120,  -0.00095,-25999360.00000,   0.00000
-482123173.47276,-370143339.28891,64187031.24075,  -0.00398,  -0.00195,  -0.00012,450887744.00000,   0.00238,277204864.00000,  -0.00251,  -0.00120,  -0.00095,-26317120.00000,   0.00000
-481659818.96047,-369361117.15526,64680279.59254,  -0.00398,  -0.00194,  -0.00011,450569120.00000,   0.00238,277204864.00000,  -0.00251,  -0.00120,  -0.00095,-26635744.00000,   0.00000
-481203937.90806,-368596333.09466,65168545.63775,  -0.00398,  -0.00194,  -0.00011,450260288.00000,   0.00238,277204864.00000,  -0.00251,  -0.00120,  -0.00095,-26944576.00000,   0.00000
-480740583.39577,-367814110.96101,65661793.98954,  -0.00398,  -0.00194,  -0.00010,449945856.00000,   0.00238,277204864.00000,  -0.00251,  -0.00120,  -0.00095,-27259008.00000,   0.00000
-480259790.81044,-367024415.36748,66155042.34133,  -0.00398,  -0.00193,  -0.00009,449619808.00000,   0.00238,277204864.00000,  -0.00251,  -0.00120,  -0.00095,-27585056.00000,   0.00000
-479803909.75803,-366259631.30688,66648290.69312,  -0.00398,  -0.00193,  -0.00009,449318944.00000,   0.00238,277204864.00000,  -0.00251,  -0.00120,  -0.00095,-27885920.00000,   0.00000
-479323117.17270,-365469935.71336,67146521.35149,  -0.00398,  -0.00193,  -0.00008,448998976.00000,   0.00238,277204864.00000,  -0.00251,  -0.00120,  -0.00095,-28205888.00000,   0.00000
-478867236.12029,-364705151.65275,67644752.00987,  -0.00398,  -0.00193,  -0.00007,448704640.00000,   0.00238,277204864.00000,  -0.00251,  -0.00120,  -0.00095,-28500224.00000,   0.00000
-478393916.99483,-363932894.13227,68147964.97483,  -0.00398,  -0.00192,  -0.00007,448401856.00000,   0.00238,277204864.00000,  -0.00251,  -0.00120,  -0.00095,-28803008.00000,   0.00000
-477920597.86937,-363160636.61179,68646195.63320,  -0.00398,  -0.00192,  -0.00006,448099520.00000,   0.00238,277204864.00000,  -0.00251,  -0.00120,  -0.00095,-29105344.00000,   0.00000
-477464716.81696,-362395852.55119,69149408.59816,  -0.00398,  -0.00192,  -0.00005,447816160.00000,   0.00238,277204864.00000,  -0.00251,  -0.00120,  -0.00095,-29388704.00000,   0.00000
-476998871.15138,-361641033.10375,69657603.86970,  -0.00398,  -0.00192,  -0.00005,447534528.00000,   0.00238,277204864.00000,  -0.00251,  -0.00120,  -0.00095,-29670336.00000,   0.00000
-476525552.02593,-360868775.58327,70160816.83466,  -0.00398,  -0.00191,  -0.00004,447244032.00000,   0.00238,277204864.00000,  -0.00251,  -0.00120,  -0.00095,-29960832.00000,   0.00000
-476042268.28730,-360106482.67596,70673994.41278,  -0.00398,  -0.00191,  -0.00003,446957504.00000,   0.00238,277204864.00000,  -0.00251,  -0.00120,  -0.00095,-30247360.00000,   0.00000
-475568949.16185,-359334225.15548,71182189.68433,  -0.00398,  -0.00191,  -0.00003,446675808.00000,   0.00238,277204864.00000,  -0.00251,  -0.00120,  -0.00095,-30529056.00000,   0.00000
-475103103.49627,-358579405.70804,71695367.26245,  -0.00397,  -0.00191,  -0.00002,446409152.00000,   0.00238,277204864.00000,  -0.00251,  -0.00120,  -0.00095,-30795712.00000,   0.00000
-474644731.29056,-357842024.33364,72208544.84058,  -0.00397,  -0.00190,  -0.00001,446155232.00000,   0.00238,277204864.00000,  -0.00251,  -0.00120,  -0.00095,-31049632.00000,   0.00000
-474161447.55194,-357079731.42633,72721722.41870,  -0.00397,  -0.00190,  -0.00001,445880832.00000,   0.00238,277204864.00000,  -0.00251,  -0.00120,  -0.00095,-31324032.00000,   0.00000
-473703075.34623,-356342350.05194,73239882.30341,  -0.00397,  -0.00190,  -0.00000,445634976.00000,   0.00238,277204864.00000,  -0.00251,  -0.00120,  -0.00095,-31569888.00000,   0.00000
-473219791.60761,-355580057.14462,73758042.18812,  -0.00397,  -0.00190,   0.00001,445368544.00000,   0.00238,277204864.00000,  -0.00251,  -0.00120,  -0.00095,-31836320.00000,   0.00000
-472761419.40191,-354842675.77023,74276202.07283,  -0.00397,  -0.00189,   0.00001,445127680.00000,   0.00238,277204864.00000,  -0.00251,  -0.00120,  -0.00095,-32077184.00000,   0.00000
-472285609.12316,-354097820.93596,74799344.26412,  -0.00397,  -0.00189,   0.00002,444878240.00000,   0.00238,277204864.00000,  -0.00251,  -0.00120,  -0.00095,-32326624.00000,   0.00000
-471817272.30429,-353370404.17473,75322486.45542,  -0.00397,  -0.00189,   0.00003,444640576.00000,   0.00238,277204864.00000,  -0.00251,  -0.00120,  -0.00095,-32564288.00000,   0.00000
-471341462.02554,-352625549.34046,75845628.64671,  -0.00397,  -0.00189,   0.00003,444395552.00000,   0.00238,277204864.00000,  -0.00251,  -0.00120,  -0.00095,-32809312.00000,   0.00000
-470873125.20667,-351898132.57924,76373753.14459,  -0.00397,  -0.00188,   0.00004,444164672.00000,   0.00238,277204864.00000,  -0.00251,  -0.00120,  -0.00095,-33040192.00000,   0.00000
-470404788.38780,-351170715.81801,76901877.64246,  -0.00397,  -0.00188,   0.00005,443935712.00000,   0.00238,277204864.00000,  -0.00251,  -0.00120,  -0.00095,-33269152.00000,   0.00000
-469953889.64197,-350450772.51666,77430002.14034,  -0.00397,  -0.00188,   0.00005,443722272.00000,   0.00238,277204864.00000,  -0.00251,  -0.00120,  -0.00095,-33482592.00000,   0.00000
-469485552.82310,-349723355.75543,77963108.94480,  -0.00397,  -0.00188,   0.00006,443499776.00000,   0.00238,277204864.00000,  -0.00251,  -0.00120,  -0.00095,-33705088.00000,   0.00000
-469007251.39106,-349005903.60737,78496215.74926,  -0.00397,  -0.00187,   0.00007,443275232.00000,   0.00238,277204864.00000,  -0.00251,  -0.00120,  -0.00095,-33929632.00000,   0.00000
-468546388.03206,-348295924.91919,79029322.55372,  -0.00397,  -0.00187,   0.00007,443066144.00000,   0.00238,277204864.00000,  -0.00251,  -0.00120,  -0.00095,-34138720.00000,   0.00000
-468085524.67306,-347585946.23101,79567411.66477,  -0.00396,  -0.00187,   0.00008,442861632.00000,   0.00238,277204864.00000,  -0.00251,  -0.00120,  -0.00095,-34343232.00000,   0.00000
-467624661.31407,-346875967.54282,80105500.77581,  -0.00396,  -0.00187,   0.00009,442659328.00000,   0.00238,277204864.00000,  -0.00251,  -0.00120,  -0.00095,-34545536.00000,   0.00000
-467171271.41495,-346183426.92768,80643589.88686,  -0.00396,  -0.00187,   0.00010,442468544.00000,   0.00238,277204864.00000,  -0.00251,  -0.00120,  -0.00095,-34736320.00000,   0.00000
-466717881.51582,-345490886.31254,81181678.99790,  -0.00396,  -0.00186,   0.00010,442280224.00000,   0.00238,277204864.00000,  -0.00251,  -0.00120,  -0.00095,-34924640.00000,   0.00000
-466247053.54366,-344790872.23753,81724750.41553,  -0.00396,  -0.00186,   0.00011,442083296.00000,   0.00238,277204864.00000,  -0.00251,  -0.00120,  -0.00095,-35121568.00000,   0.00000
-465793663.64454,-344098331.62238,82272804.13974,  -0.00396,  -0.00186,   0.00012,441905344.00000,   0.00238,277204864.00000,  -0.00251,  -0.00120,  -0.00095,-35299520.00000,   0.00000
-465347747.20530,-343423229.08029,82815875.55737,  -0.00396,  -0.00186,   0.00012,441736640.00000,   0.00238,277204864.00000,  -0.00251,  -0.00120,  -0.00095,-35468224.00000,   0.00000
-464884392.69301,-342740653.07831,83363929.28158,  -0.00396,  -0.00185,   0.00013,441560096.00000,   0.00238,277204864.00000,  -0.00251,  -0.00120,  -0.00095,-35644768.00000,   0.00000
-464438476.25376,-342065550.53622,83911983.00579,  -0.00396,  -0.00185,   0.00014,441400064.00000,   0.00238,277204864.00000,  -0.00251,  -0.00120,  -0.00095,-35804800.00000,   0.00000
-464000033.27439,-341407886.06716,84465019.03659,  -0.00396,  -0.00185,   0.00015,441255104.00000,   0.00238,277204864.00000,  -0.00251,  -0.00120,  -0.00095,-35949760.00000,   0.00000
-463536678.76210,-340725310.06519,85018055.06738,  -0.00396,  -0.00185,   0.00015,441090720.00000,   0.00238,277204864.00000,  -0.00251,  -0.00120,  -0.00095,-36114144.00000,   0.00000
-463105709.24261,-340085083.66918,85571091.09818,  -0.00396,  -0.00185,   0.00016,440961504.00000,   0.00238,277204864.00000,  -0.00251,  -0.00120,  -0.00095,-36243360.00000,   0.00000
-462649828.19020,-339419945.74025,86124127.12898,  -0.00396,  -0.00184,   0.00017,440813056.00000,   0.00238,277204864.00000,  -0.00251,  -0.00120,  -0.00095,-36391808.00000,   0.00000
-462211385.21083,-338762281.27119,86682145.46635,  -0.00395,  -0.00184,   0.00017,440684224.00000,   0.00238,277204864.00000,  -0.00251,  -0.00120,  -0.00095,-36520640.00000,   0.00000
-461780415.69133,-338122054.87518,87240163.80373,  -0.00395,  -0.00184,   0.00018,440568064.00000,   0.00238,277204864.00000,  -0.00251,  -0.00120,  -0.00095,-36636800.00000,   0.00000
-461339481.55867,-337491793.09234,87798182.14111,  -0.00395,  -0.00184,   0.00019,440451136.00000,   0.00238,277204864.00000,  -0.00251,  -0.00120,  -0.00095,-36753728.00000,   0.00000
-460908512.03918,-336851566.69633,88361182.78508,  -0.00395,  -0.00184,   0.00020,440344864.00000,   0.00238,277204864.00000,  -0.00251,  -0.00120,  -0.00095,-36860000.00000,   0.00000
-460467577.90652,-336221304.91348,88924183.42904,  -0.00395,  -0.00183,   0.00020,440237696.00000,   0.00238,277204864.00000,  -0.00251,  -0.00120,  -0.00095,-36967168.00000,   0.00000
-460044081.84690,-335598516.59052,89492166.37959,  -0.00395,  -0.00183,   0.00021,440150400.00000,   0.00238,277204864.00000,  -0.00251,  -0.00120,  -0.00095,-37054464.00000,   0.00000
-459628059.24716,-334993166.34059,90055167.02355,  -0.00395,  -0.00183,   0.00022,440072512.00000,   0.00238,277204864.00000,  -0.00251,  -0.00120,  -0.00095,-37132352.00000,   0.00000
-459194598.57437,-334380342.63079,90623149.97410,  -0.00395,  -0.00183,   0.00023,439987488.00000,   0.00238,277204864.00000,  -0.00251,  -0.00120,  -0.00095,-37217376.00000,   0.00000
-458778575.97463,-333774992.38087,91196115.23123,  -0.00395,  -0.00183,   0.00023,439922304.00000,   0.00238,277204864.00000,  -0.00251,  -0.00120,  -0.00095,-37282560.00000,   0.00000
-458362553.37489,-333169642.13094,91764098.18177,  -0.00395,  -0.00182,   0.00024,439857216.00000,   0.00238,277204864.00000,  -0.00251,  -0.00120,  -0.00095,-37347648.00000,   0.00000
-457936566.16198,-332574256.49418,92337063.43890,  -0.00395,  -0.00182,   0.00025,439793984.00000,   0.00238,277204864.00000,  -0.00251,  -0.00120,  -0.00095,-37410880.00000,   0.00000
-457528017.02211,-331986344.31730,92910028.69604,  -0.00395,  -0.00182,   0.00026,439747328.00000,   0.00238,277204864.00000,  -0.00251,  -0.00120,  -0.00095,-37457536.00000,   0.00000
-457126941.34212,-331415870.21346,93487976.25975,  -0.00395,  -0.00182,   0.00026,439715744.00000,   0.00238,277204864.00000,  -0.00251,  -0.00120,  -0.00095,-37489120.00000,   0.00000
-456718392.20225,-330827958.03658,94065923.82346,  -0.00395,  -0.00182,   0.00027,439678112.00000,   0.00238,277204864.00000,  -0.00251,  -0.00120,  -0.00095,-37526752.00000,   0.00000
-456307351.90909,-330267448.54591,94643871.38718,  -0.00394,  -0.00181,   0.00028,439648160.00000,   0.00238,277204864.00000,  -0.00251,  -0.00120,  -0.00095,-37556704.00000,   0.00000
-455906276.22910,-329696974.44207,95221818.95089,  -0.00394,  -0.00181,   0.00029,439625280.00000,   0.00238,277204864.00000,  -0.00251,  -0.00120,  -0.00095,-37579584.00000,   0.00000
-455512674.00898,-329143938.41128,95804748.82119,  -0.00394,  -0.00181,   0.00029,439617600.00000,   0.00238,277204864.00000,  -0.00251,  -0.00120,  -0.00095,-37587264.00000,   0.00000
-455119071.78887,-328590902.38048,96387678.69149,  -0.00394,  -0.00181,   0.00030,439612608.00000,   0.00238,277204864.00000,  -0.00251,  -0.00120,  -0.00095,-37592256.00000,   0.00000
-454732943.02863,-328055304.42273,96975590.86837,  -0.00394,  -0.00181,   0.00031,439622656.00000,   0.00238,277204864.00000,  -0.00251,  -0.00120,  -0.00095,-37582208.00000,   0.00000
-454346814.26839,-327519706.46497,97558520.73867,  -0.00394,  -0.00181,   0.00032,439632096.00000,   0.00238,277204864.00000,  -0.00251,  -0.00120,  -0.00095,-37572768.00000,   0.00000
-453960685.50815,-326984108.50722,98146432.91555,  -0.00394,  -0.00180,   0.00032,439647744.00000,   0.00238,277204864.00000,  -0.00251,  -0.00120,  -0.00095,-37557120.00000,   0.00000
-453582030.20778,-326465948.62251,98739327.39902,  -0.00394,  -0.00180,   0.00033,439678272.00000,   0.00238,277204864.00000,  -0.00251,  -0.00120,  -0.00095,-37526592.00000,   0.00000
-453220812.98046,-325955262.19768,99327239.57590,  -0.00394,  -0.00180,   0.00034,439721312.00000,   0.00238,277204864.00000,  -0.00251,  -0.00120,  -0.00095,-37483552.00000,   0.00000
-452842157.68010,-325437102.31297,99920134.05936,  -0.00394,  -0.00180,   0.00035,439757408.00000,   0.00238,277204864.00000,  -0.00251,  -0.00120,  -0.00095,-37447456.00000,   0.00000
-452470975.83961,-324936380.50130,100513028.54283,  -0.00394,  -0.00180,   0.00035,439805056.00000,   0.00238,277204864.00000,  -0.00251,  -0.00120,  -0.00095,-37399808.00000,   0.00000
-452099793.99912,-324435658.68964,101110905.33288,  -0.00394,  -0.00180,   0.00036,439858816.00000,   0.00238,277204864.00000,  -0.00251,  -0.00120,  -0.00095,-37346048.00000,   0.00000
-451753523.69155,-323959848.41089,101708782.12293,  -0.00394,  -0.00179,   0.00037,439937472.00000,   0.00238,277204864.00000,  -0.00251,  -0.00120,  -0.00095,-37267392.00000,   0.00000
-451389815.31094,-323476564.67227,102306658.91298,  -0.00394,  -0.00179,   0.00038,440005632.00000,   0.00238,277204864.00000,  -0.00251,  -0.00120,  -0.00095,-37199232.00000,   0.00000
-451043545.00336,-323000754.39352,102904535.70303,  -0.00393,  -0.00179,   0.00039,440089760.00000,   0.00238,277204864.00000,  -0.00251,  -0.00120,  -0.00095,-37115104.00000,   0.00000
-450704748.15567,-322542382.18781,103507394.79966,  -0.00393,  -0.00179,   0.00039,440188896.00000,   0.00238,277204864.00000,  -0.00251,  -0.00120,  -0.00095,-37015968.00000,   0.00000
-450348513.23493,-322076536.52223,104110253.89629,  -0.00393,  -0.00179,   0.00040,440277824.00000,   0.00238,277204864.00000,  -0.00251,  -0.00120,  -0.00095,-36927040.00000,   0.00000
-450017189.84711,-321635602.38957,104713112.99293,  -0.00393,  -0.00179,   0.00041,440391360.00000,   0.00238,277204864.00000,  -0.00251,  -0.00120,  -0.00095,-36813504.00000,   0.00000
-449685866.45929,-321194668.25691,105320954.39614,  -0.00393,  -0.00179,   0.00042,440511232.00000,   0.00238,277204864.00000,  -0.00251,  -0.00120,  -0.00095,-36693632.00000,   0.00000
-449354543.07148,-320753734.12425,105923813.49278,  -0.00393,  -0.00178,   0.00042,440630400.00000,   0.00238,277204864.00000,  -0.00251,  -0.00120,  -0.00095,-36574464.00000,   0.00000
-449030693.14353,-320330238.06463,106536637.20258,  -0.00393,  -0.00178,   0.00043,440768352.00000,   0.00238,277204864.00000,  -0.00251,  -0.00120,  -0.00095,-36436512.00000,   0.00000
-448706843.21559,-319906742.00501,107144478.60579,  -0.00393,  -0.00178,   0.00044,440905440.00000,   0.00238,277204864.00000,  -0.00251,  -0.00120,  -0.00095,-36299424.00000,   0.00000
-448390466.74752,-319500684.01844,107757302.31559,  -0.00393,  -0.00178,   0.00045,441057728.00000,   0.00238,277204864.00000,  -0.00251,  -0.00120,  -0.00095,-36147136.00000,   0.00000
-448074090.27945,-319094626.03186,108370126.02539,  -0.00393,  -0.00178,   0.00046,441212800.00000,   0.00238,277204864.00000,  -0.00251,  -0.00120,  -0.00095,-35992064.00000,   0.00000
-447775151.88443,-318696041.50516,108982949.73520,  -0.00393,  -0.00178,   0.00046,441383840.00000,   0.00238,277204864.00000,  -0.00251,  -0.00120,  -0.00095,-35821024.00000,   0.00000
-447466248.87624,-318307421.59163,109595773.44500,  -0.00393,  -0.00178,   0.00047,441553280.00000,   0.00238,277204864.00000,  -0.00251,  -0.00120,  -0.00095,-35651584.00000,   0.00000
-447174783.94109,-317926275.13798,110213579.46138,  -0.00393,  -0.00178,   0.00048,441742304.00000,   0.00238,277204864.00000,  -0.00251,  -0.00120,  -0.00095,-35462560.00000,   0.00000
-446890792.46581,-317562566.75736,110831385.47776,  -0.00393,  -0.00177,   0.00049,441942720.00000,   0.00238,277204864.00000,  -0.00251,  -0.00120,  -0.00095,-35262144.00000,   0.00000
-446589362.91750,-317191384.91687,111454173.80073,  -0.00393,  -0.00177,   0.00050,442136672.00000,   0.00238,277204864.00000,  -0.00251,  -0.00120,  -0.00095,-35068192.00000,   0.00000
-446312844.90210,-316845114.60930,112071979.81712,  -0.00393,  -0.00177,   0.00050,442351232.00000,   0.00238,277204864.00000,  -0.00251,  -0.00120,  -0.00095,-34853632.00000,   0.00000
-446036326.88670,-316498844.30173,112694768.14008,  -0.00392,  -0.00177,   0.00051,442572224.00000,   0.00238,277204864.00000,  -0.00251,  -0.00120,  -0.00095,-34632640.00000,   0.00000
-445777246.94435,-316160047.45404,113322538.76964,  -0.00392,  -0.00177,   0.00052,442812864.00000,   0.00238,277204864.00000,  -0.00251,  -0.00120,  -0.00095,-34392000.00000,   0.00000
-445508202.38882,-315831215.21951,113945327.09260,  -0.00392,  -0.00177,   0.00053,443048064.00000,   0.00238,277204864.00000,  -0.00251,  -0.00120,  -0.00095,-34156800.00000,   0.00000
-445239157.83330,-315502382.98498,114573097.72216,  -0.00392,  -0.00177,   0.00054,443289696.00000,   0.00238,277204864.00000,  -0.00251,  -0.00120,  -0.00095,-33915168.00000,   0.00000
-444995024.81070,-315198462.28337,115200868.35171,  -0.00392,  -0.00177,   0.00055,443555520.00000,   0.00238,277204864.00000,  -0.00251,  -0.00120,  -0.00095,-33649344.00000,   0.00000
-444733453.71505,-314887068.12189,115828638.98126,  -0.00392,  -0.00177,   0.00055,443811072.00000,   0.00238,277204864.00000,  -0.00251,  -0.00120,  -0.00095,-33393792.00000,   0.00000
-444496794.15232,-314600585.49333,116461391.91740,  -0.00392,  -0.00177,   0.00056,444094656.00000,   0.00238,277204864.00000,  -0.00251,  -0.00120,  -0.00095,-33110208.00000,   0.00000
-444260134.58960,-314314102.86476,117094144.85353,  -0.00392,  -0.00177,   0.00057,444380864.00000,   0.00238,277204864.00000,  -0.00251,  -0.00120,  -0.00095,-32824000.00000,   0.00000
-444023475.02687,-314027620.23619,117726897.78967,  -0.00392,  -0.00176,   0.00058,444669664.00000,   0.00238,277204864.00000,  -0.00251,  -0.00120,  -0.00095,-32535200.00000,   0.00000
-443794288.92402,-313758575.68067,118359650.72580,  -0.00392,  -0.00176,   0.00059,444969472.00000,   0.00238,277204864.00000,  -0.00251,  -0.00120,  -0.00095,-32235392.00000,   0.00000
-443572576.28104,-313506969.19819,118997385.96852,  -0.00392,  -0.00176,   0.00059,445284384.00000,   0.00238,277204864.00000,  -0.00251,  -0.00120,  -0.00095,-31920480.00000,   0.00000
-443368301.71111,-313262836.17559,119635121.21124,  -0.00392,  -0.00176,   0.00060,445614624.00000,   0.00238,277204864.00000,  -0.00251,  -0.00120,  -0.00095,-31590240.00000,   0.00000
-443146589.06813,-313011229.69311,120272856.45396,  -0.00392,  -0.00176,   0.00061,445934752.00000,   0.00238,277204864.00000,  -0.00251,  -0.00120,  -0.00095,-31270112.00000,   0.00000
-442949787.95807,-312784534.74355,120910591.69668,  -0.00392,  -0.00176,   0.00062,446278496.00000,   0.00238,277204864.00000,  -0.00251,  -0.00120,  -0.00095,-30926368.00000,   0.00000
-442752986.84801,-312557839.79399,121553309.24598,  -0.00392,  -0.00176,   0.00063,446628928.00000,   0.00238,277204864.00000,  -0.00251,  -0.00120,  -0.00095,-30575936.00000,   0.00000
-442546221.12479,-312341109.45760,122196026.79529,  -0.00392,  -0.00176,   0.00064,446977408.00000,   0.00238,277204864.00000,  -0.00251,  -0.00120,  -0.00095,-30227456.00000,   0.00000
-442374331.54765,-312139326.04096,122838744.34459,  -0.00392,  -0.00176,   0.00064,447353984.00000,   0.00238,277204864.00000,  -0.00251,  -0.00120,  -0.00095,-29850880.00000,   0.00000
-442192477.35734,-311947507.23748,123481461.89389,  -0.00392,  -0.00176,   0.00065,447728736.00000,   0.00238,277204864.00000,  -0.00251,  -0.00120,  -0.00095,-29476128.00000,   0.00000
-442010623.16704,-311755688.43401,124129161.74978,  -0.00392,  -0.00176,   0.00066,448110240.00000,   0.00238,277204864.00000,  -0.00251,  -0.00120,  -0.00095,-29094624.00000,   0.00000
-441846207.04977,-311571343.09041,124776861.60567,  -0.00392,  -0.00176,   0.00067,448507040.00000,   0.00238,277204864.00000,  -0.00251,  -0.00120,  -0.00095,-28697824.00000,   0.00000
-441689264.39238,-311404435.81985,125424561.46155,  -0.00391,  -0.00176,   0.00068,448914560.00000,   0.00238,277204864.00000,  -0.00251,  -0.00120,  -0.00095,-28290304.00000,   0.00000
-441522357.12183,-311247493.16247,126077243.62402,  -0.00391,  -0.00176,   0.00069,449324800.00000,   0.00238,277204864.00000,  -0.00251,  -0.00120,  -0.00095,-27880064.00000,   0.00000
-441372887.92432,-311098023.96495,126724943.47991,  -0.00391,  -0.00176,   0.00069,449746080.00000,   0.00238,277204864.00000,  -0.00251,  -0.00120,  -0.00095,-27458784.00000,   0.00000
-441240856.79985,-310956028.22732,127377625.64238,  -0.00391,  -0.00176,   0.00070,450186752.00000,   0.00238,277204864.00000,  -0.00251,  -0.00120,  -0.00095,-27018112.00000,   0.00000
-441098861.06221,-310823997.10285,128030307.80485,  -0.00391,  -0.00176,   0.00071,450625984.00000,   0.00238,277204864.00000,  -0.00251,  -0.00120,  -0.00095,-26578880.00000,   0.00000
-440981776.85749,-310716877.51130,128687972.27390,  -0.00391,  -0.00176,   0.00072,451093056.00000,   0.00238,277204864.00000,  -0.00251,  -0.00120,  -0.00095,-26111808.00000,   0.00000
-440839781.11986,-310584846.38683,129340654.43638,  -0.00391,  -0.00175,   0.00073,451538048.00000,   0.00238,277204864.00000,  -0.00251,  -0.00120,  -0.00095,-25666816.00000,   0.00000
-440730170.37501,-310495164.86832,129998318.90543,  -0.00391,  -0.00175,   0.00074,452019264.00000,   0.00238,277204864.00000,  -0.00251,  -0.00120,  -0.00095,-25185600.00000,   0.00000
-440620559.63017,-310405483.34981,130655983.37448,  -0.00391,  -0.00175,   0.00075,452503616.00000,   0.00238,277204864.00000,  -0.00251,  -0.00120,  -0.00095,-24701248.00000,   0.00000
-440510948.88533,-310315801.83131,131318630.15012,  -0.00391,  -0.00175,   0.00075,452995552.00000,   0.00238,277204864.00000,  -0.00251,  -0.00120,  -0.00095,-24209312.00000,   0.00000
-440426249.67341,-310251031.84572,131976294.61918,  -0.00391,  -0.00175,   0.00076,453506912.00000,   0.00238,277204864.00000,  -0.00251,  -0.00120,  -0.00095,-23697952.00000,   0.00000
-440341550.46148,-310186261.86013,132638941.39481,  -0.00391,  -0.00175,   0.00077,454025952.00000,   0.00238,277204864.00000,  -0.00251,  -0.00120,  -0.00095,-23178912.00000,   0.00000
-440246886.63639,-310131456.48771,133301588.17045,  -0.00391,  -0.00175,   0.00078,454544032.00000,   0.00238,277204864.00000,  -0.00251,  -0.00120,  -0.00095,-22660832.00000,   0.00000
-440169660.88434,-310084124.57516,133964234.94609,  -0.00391,  -0.00175,   0.00079,455076992.00000,   0.00238,277204864.00000,  -0.00251,  -0.00120,  -0.00095,-22127872.00000,   0.00000
-440092435.13229,-310036792.66262,134631864.02831,  -0.00391,  -0.00175,   0.00080,455616192.00000,   0.00238,277204864.00000,  -0.00251,  -0.00120,  -0.00095,-21588672.00000,   0.00000
-440047594.37304,-310031810.35603,135299493.11053,  -0.00391,  -0.00175,   0.00081,456184416.00000,   0.00238,277204864.00000,  -0.00251,  -0.00120,  -0.00095,-21020448.00000,   0.00000
-439977842.08087,-310001916.51653,135967122.19276,  -0.00391,  -0.00175,   0.00082,456731424.00000,   0.00238,277204864.00000,  -0.00251,  -0.00120,  -0.00095,-20473440.00000,   0.00000
