# sigma_xx, sigma_yy, sigma_xy, epsilon_xx, epsilon_yy, epsilon_xy, vonMises, epsPlastic, hardening, epsilonP__xx, epsilonP__yy, epsilonP__xy, yieldValue, iteration
   0.00000,   0.00000,   0.00000,   0.00000,   0.00000,   0.00000,   0.00000,   0.00000,274640135.82653,   0.00000,   0.00000,   0.00000,-474640135.82653,   0.00000
   0.00000,   0.00000,   0.00000,   0.00000,   0.00000,   0.00000,   0.00000,   0.00000,274640135.82653,   0.00000,   0.00000,   0.00000,-474640135.82653,   0.00000
803898.90971,-803898.90971,-1172352.57666,   0.00001,  -0.00001,  -0.00002,2462111.30194,   0.00000,274640135.82653,   0.00000,   0.00000,   0.00000,-472178024.52459,   0.00000
1620358.73989,-1578489.00501,-2336331.20635,   0.00001,  -0.00001,  -0.00003,4904104.29714,   0.00000,274640135.82653,   0.00000,   0.00000,   0.00000,-469736031.52939,   0.00000
2424257.64960,-2382387.91472,-3500309.83604,   0.00002,  -0.00002,  -0.00005,7354238.66211,   0.00000,274640135.82653,   0.00000,   0.00000,   0.00000,-467285897.16442,   0.00000
3211408.66536,-3169538.93048,-4664288.46573,   0.00002,  -0.00002,  -0.00006,9787980.79835,   0.00000,274640135.82653,   0.00000,   0.00000,   0.00000,-464852155.02818,   0.00000
3985998.76066,-3985998.76066,-5828267.09541,   0.00003,  -0.00003,  -0.00008,12229908.02771,   0.00000,274640135.82653,   0.00000,   0.00000,   0.00000,-462410227.79882,   0.00000
4760588.85595,-4802458.59083,-6983871.77812,   0.00003,  -0.00003,  -0.00009,14659902.47787,   0.00000,274640135.82653,   0.00000,   0.00000,   0.00000,-459980233.34866,   0.00000
5505870.13683,-5631479.34147,-8139476.46084,   0.00004,  -0.00004,  -0.00011,17081791.20113,   0.00000,274640135.82653,   0.00000,   0.00000,   0.00000,-457558344.62540,   0.00000
6251151.41771,-6460500.09211,-9295081.14355,   0.00004,  -0.00004,  -0.00012,19503746.31174,   0.00000,274640135.82653,   0.00000,   0.00000,   0.00000,-455136389.51479,   0.00000
6996432.69859,-7289520.84275,-10450685.82626,   0.00005,  -0.00005,  -0.00014,21925745.80993,   0.00000,274640135.82653,   0.00000,   0.00000,   0.00000,-452714390.01660,   0.00000
7712405.16505,-8131102.51386,-11597916.56199,   0.00005,  -0.00005,  -0.00015,24327790.36993,   0.00000,274640135.82653,   0.00000,   0.00000,   0.00000,-450312345.45660,   0.00000
8428377.63151,-8972684.18496,-12745147.29773,   0.00006,  -0.00006,  -0.00017,26729910.59813,   0.00000,274640135.82653,   0.00000,   0.00000,   0.00000,-447910225.22840,   0.00000
9144350.09798,-9814265.85607,-13892378.03346,   0.00006,  -0.00006,  -0.00018,29132087.77661,   0.00000,274640135.82653,   0.00000,   0.00000,   0.00000,-445508048.04992,   0.00000
9860322.56444,-10655847.52717,-15031234.82222,   0.00007,  -0.00007,  -0.00020,31522328.62995,   0.00000,274640135.82653,   0.00000,   0.00000,   0.00000,-443117807.19658,   0.00000
10546986.21648,-11509990.11874,-16178465.55796,   0.00007,  -0.00007,  -0.00021,33916702.98464,   0.00000,274640135.82653,   0.00000,   0.00000,   0.00000,-440723432.84189,   0.00000
11191780.13365,-12406002.44519,-17317322.34671,   0.00008,  -0.00008,  -0.00023,36299849.18308,   0.00000,274640135.82653,   0.00000,   0.00000,   0.00000,-438340286.64345,   0.00000
11878443.78569,-13260145.03676,-18456179.13547,   0.00008,  -0.00008,  -0.00024,38682430.19017,   0.00000,274640135.82653,   0.00000,   0.00000,   0.00000,-435957705.63636,   0.00000
12523237.70286,-14156157.36321,-19586661.97726,   0.00008,  -0.00009,  -0.00025,41053881.42072,   0.00000,274640135.82653,   0.00000,   0.00000,   0.00000,-433586254.40581,   0.00000
13180592.54049,-15022860.87524,-20717144.81904,   0.00009,  -0.00009,  -0.00027,43416872.81396,   0.00000,274640135.82653,   0.00000,   0.00000,   0.00000,-431223263.01257,   0.00000
13796077.64324,-15931434.12216,-21847627.66082,   0.00009,  -0.00010,  -0.00028,45780892.92338,   0.00000,274640135.82653,   0.00000,   0.00000,   0.00000,-428859242.90315,   0.00000
14411562.74598,-16840007.36907,-22978110.50260,   0.00010,  -0.00010,  -0.00030,48145098.38627,   0.00000,274640135.82653,   0.00000,   0.00000,   0.00000,-426495037.44026,   0.00000
15039608.76920,-17719271.80157,-24100219.39741,   0.00010,  -0.00011,  -0.00031,50488761.77615,   0.00000,274640135.82653,   0.00000,   0.00000,   0.00000,-424151374.05038,   0.00000
15655093.87195,-18627845.04849,-25222328.29222,   0.00011,  -0.00012,  -0.00033,52841241.20038,   0.00000,274640135.82653,   0.00000,   0.00000,   0.00000,-421798894.62615,   0.00000
16241270.16028,-19548979.21586,-26344437.18702,   0.00011,  -0.00012,  -0.00034,55186319.04473,   0.00000,274640135.82653,   0.00000,   0.00000,   0.00000,-419453816.78180,   0.00000
16827446.44861,-20470113.38324,-27458172.13485,   0.00012,  -0.00013,  -0.00036,57519578.26357,   0.00000,274640135.82653,   0.00000,   0.00000,   0.00000,-417120557.56296,   0.00000
17401061.81648,-21420556.36504,-28571907.08268,   0.00012,  -0.00013,  -0.00037,59861834.55094,   0.00000,274640135.82653,   0.00000,   0.00000,   0.00000,-414778301.27559,   0.00000
17987238.10481,-22341690.53242,-29685642.03051,   0.00013,  -0.00014,  -0.00039,62195411.45492,   0.00000,274640135.82653,   0.00000,   0.00000,   0.00000,-412444724.37160,   0.00000
18544105.57872,-23275385.62026,-30791003.03137,   0.00013,  -0.00014,  -0.00040,64509737.55060,   0.00000,274640135.82653,   0.00000,   0.00000,   0.00000,-410130398.27593,   0.00000
19100973.05264,-24209080.70810,-31896364.03222,   0.00013,  -0.00015,  -0.00041,66824231.18863,   0.00000,274640135.82653,   0.00000,   0.00000,   0.00000,-407815904.63790,   0.00000
19615970.79167,-25184645.53082,-33001725.03308,   0.00014,  -0.00015,  -0.00043,69140549.00867,   0.00000,274640135.82653,   0.00000,   0.00000,   0.00000,-405499586.81786,   0.00000
20160277.34512,-26147649.43308,-34107086.03393,   0.00014,  -0.00016,  -0.00044,71464397.92778,   0.00000,274640135.82653,   0.00000,   0.00000,   0.00000,-403175737.89875,   0.00000
20687836.00462,-27093905.44139,-35204073.08781,   0.00015,  -0.00016,  -0.00046,73760157.46345,   0.00000,274640135.82653,   0.00000,   0.00000,   0.00000,-400879978.36308,   0.00000
21202833.74366,-28069470.26411,-36301060.14169,   0.00015,  -0.00017,  -0.00047,76065159.78543,   0.00000,274640135.82653,   0.00000,   0.00000,   0.00000,-398574976.04110,   0.00000
21688522.66827,-29057596.00730,-37389673.24859,   0.00016,  -0.00017,  -0.00049,78351229.90646,   0.00000,274640135.82653,   0.00000,   0.00000,   0.00000,-396288905.92007,   0.00000
22174211.59289,-30045721.75049,-38478286.35549,   0.00016,  -0.00018,  -0.00050,80637564.50561,   0.00000,274640135.82653,   0.00000,   0.00000,   0.00000,-394002571.32092,   0.00000
22689209.33193,-31021286.57321,-39566899.46239,   0.00016,  -0.00019,  -0.00051,82931221.53189,   0.00000,274640135.82653,   0.00000,   0.00000,   0.00000,-391708914.29464,   0.00000
23145589.44213,-32021973.23687,-40647138.62232,   0.00017,  -0.00019,  -0.00053,85198956.33644,   0.00000,274640135.82653,   0.00000,   0.00000,   0.00000,-389441179.49009,   0.00000
23631278.36675,-33010098.98005,-41727377.78224,   0.00017,  -0.00020,  -0.00054,87473978.75698,   0.00000,274640135.82653,   0.00000,   0.00000,   0.00000,-387166157.06955,   0.00000
24087658.47695,-34010785.64371,-42807616.94217,   0.00018,  -0.00020,  -0.00056,89742215.40014,   0.00000,274640135.82653,   0.00000,   0.00000,   0.00000,-384897920.42639,   0.00000
24531477.66668,-35040781.12177,-43887856.10210,   0.00018,  -0.00021,  -0.00057,92020017.48186,   0.00000,274640135.82653,   0.00000,   0.00000,   0.00000,-382620118.34467,   0.00000
24987857.77688,-36041467.78543,-44959721.31504,   0.00018,  -0.00021,  -0.00058,94276768.76982,   0.00000,274640135.82653,   0.00000,   0.00000,   0.00000,-380363367.05671,   0.00000
25431676.96662,-37071463.26349,-46023212.58102,   0.00019,  -0.00022,  -0.00060,96531141.86138,   0.00000,274640135.82653,   0.00000,   0.00000,   0.00000,-378108993.96515,   0.00000
25846187.34194,-38114019.66203,-47095077.79397,   0.00019,  -0.00022,  -0.00061,98790915.80055,   0.00000,274640135.82653,   0.00000,   0.00000,   0.00000,-375849220.02598,   0.00000
26273258.63773,-39127267.24614,-48158569.05994,   0.00020,  -0.00023,  -0.00063,101029556.54384,   0.00000,274640135.82653,   0.00000,   0.00000,   0.00000,-373610579.28269,   0.00000
26687769.01305,-40169823.64468,-49213686.37894,   0.00020,  -0.00023,  -0.00064,103265945.51097,   0.00000,274640135.82653,   0.00000,   0.00000,   0.00000,-371374190.31556,   0.00000
27102279.38837,-41212380.04321,-50268803.69794,   0.00020,  -0.00024,  -0.00065,105502611.96163,   0.00000,274640135.82653,   0.00000,   0.00000,   0.00000,-369137523.86490,   0.00000
27487480.94927,-42267497.36221,-51323921.01693,   0.00021,  -0.00025,  -0.00067,107732838.89499,   0.00000,274640135.82653,   0.00000,   0.00000,   0.00000,-366907296.93154,   0.00000
27860121.58971,-43351923.49562,-52379038.33593,   0.00021,  -0.00025,  -0.00068,109972980.66566,   0.00000,274640135.82653,   0.00000,   0.00000,   0.00000,-364667155.16087,   0.00000
28245323.15061,-44407040.81462,-53425781.70795,   0.00022,  -0.00026,  -0.00069,112191876.82306,   0.00000,274640135.82653,   0.00000,   0.00000,   0.00000,-362448259.00346,   0.00000
28630524.71152,-45462158.13361,-54472525.07997,   0.00022,  -0.00026,  -0.00071,114411049.18263,   0.00000,274640135.82653,   0.00000,   0.00000,   0.00000,-360229086.64390,   0.00000
29003165.35196,-46546584.26703,-55510894.50502,   0.00022,  -0.00027,  -0.00072,116628232.48968,   0.00000,274640135.82653,   0.00000,   0.00000,   0.00000,-358011903.33685,   0.00000
29359058.09844,-47614262.50649,-56549263.93006,   0.00023,  -0.00027,  -0.00074,118829457.36981,   0.00000,274640135.82653,   0.00000,   0.00000,   0.00000,-355810678.45672,   0.00000
29702389.92447,-48711249.56037,-57579259.40813,   0.00023,  -0.00028,  -0.00075,121028805.12950,   0.00000,274640135.82653,   0.00000,   0.00000,   0.00000,-353611330.69703,   0.00000
30045721.75049,-49808236.61425,-58609254.88620,   0.00023,  -0.00029,  -0.00076,123228505.31946,   0.00000,274640135.82653,   0.00000,   0.00000,   0.00000,-351411630.50707,   0.00000
30389053.57651,-50905223.66812,-59639250.36427,   0.00024,  -0.00029,  -0.00078,125428539.39749,   0.00000,274640135.82653,   0.00000,   0.00000,   0.00000,-349211596.42904,   0.00000
30703076.58812,-52014771.64247,-60669245.84234,   0.00024,  -0.00030,  -0.00079,127622494.37963,   0.00000,274640135.82653,   0.00000,   0.00000,   0.00000,-347017641.44690,   0.00000
31046408.41414,-53111758.69634,-61690867.37343,   0.00024,  -0.00030,  -0.00080,129811236.38258,   0.00000,274640135.82653,   0.00000,   0.00000,   0.00000,-344828899.44395,   0.00000
31360431.42575,-54221306.67069,-62704114.95754,   0.00025,  -0.00031,  -0.00082,131982000.37798,   0.00000,274640135.82653,   0.00000,   0.00000,   0.00000,-342658135.44855,   0.00000
31674454.43735,-55330854.64503,-63717362.54166,   0.00025,  -0.00031,  -0.00083,134153106.71723,   0.00000,274640135.82653,   0.00000,   0.00000,   0.00000,-340487029.10930,   0.00000
31975916.52850,-56469711.43379,-64730610.12578,   0.00026,  -0.00032,  -0.00084,136334566.37337,   0.00000,274640135.82653,   0.00000,   0.00000,   0.00000,-338305569.45316,   0.00000
32260630.72569,-57591820.32859,-65735483.76292,   0.00026,  -0.00032,  -0.00085,138488179.96008,   0.00000,274640135.82653,   0.00000,   0.00000,   0.00000,-336151955.86645,   0.00000
32562092.81683,-58730677.11735,-66740357.40006,   0.00026,  -0.00033,  -0.00087,140658458.68780,   0.00000,274640135.82653,   0.00000,   0.00000,   0.00000,-333981677.13873,   0.00000
32834246.09355,-59882094.82658,-67745231.03720,   0.00027,  -0.00034,  -0.00088,142822916.29964,   0.00000,274640135.82653,   0.00000,   0.00000,   0.00000,-331817219.52689,   0.00000
33106399.37028,-61033512.53580,-68741730.72736,   0.00027,  -0.00034,  -0.00089,144975859.37970,   0.00000,274640135.82653,   0.00000,   0.00000,   0.00000,-329664276.44683,   0.00000
33378552.64700,-62184930.24502,-69729856.47055,   0.00027,  -0.00035,  -0.00091,147117282.95693,   0.00000,274640135.82653,   0.00000,   0.00000,   0.00000,-327522852.86959,   0.00000
33650705.92373,-63336347.95424,-70726356.16071,   0.00028,  -0.00035,  -0.00092,149270989.03656,   0.00000,274640135.82653,   0.00000,   0.00000,   0.00000,-325369146.78997,   0.00000
33893550.38604,-64500326.58393,-71706107.95692,   0.00028,  -0.00036,  -0.00093,151395203.72582,   0.00000,274640135.82653,   0.00000,   0.00000,   0.00000,-323244932.10071,   0.00000
34165703.66276,-65651744.29316,-72694233.70011,   0.00028,  -0.00037,  -0.00095,153537746.87584,   0.00000,274640135.82653,   0.00000,   0.00000,   0.00000,-321102388.95069,   0.00000
34395987.20461,-66845031.73726,-73673985.49632,   0.00029,  -0.00037,  -0.00096,155673091.69153,   0.00000,274640135.82653,   0.00000,   0.00000,   0.00000,-318967044.13500,   0.00000
34638831.66692,-68009010.36695,-74645363.34556,   0.00029,  -0.00038,  -0.00097,157786620.53307,   0.00000,274640135.82653,   0.00000,   0.00000,   0.00000,-316853515.29346,   0.00000
34869115.20876,-69202297.81105,-75616741.19479,   0.00029,  -0.00038,  -0.00098,159910946.34082,   0.00000,274640135.82653,   0.00000,   0.00000,   0.00000,-314729189.48571,   0.00000
35111959.67107,-70366276.44074,-76588119.04403,   0.00030,  -0.00039,  -0.00100,162025246.08460,   0.00000,274640135.82653,   0.00000,   0.00000,   0.00000,-312614889.74193,   0.00000
35342243.21292,-71559563.88484,-77551122.94629,   0.00030,  -0.00039,  -0.00101,164138511.20450,   0.00000,274640135.82653,   0.00000,   0.00000,   0.00000,-310501624.62203,   0.00000
35543217.94034,-72765412.24941,-78514126.84855,   0.00030,  -0.00040,  -0.00102,166246343.75484,   0.00000,274640135.82653,   0.00000,   0.00000,   0.00000,-308393792.07169,   0.00000
35773501.48219,-73958699.69351,-79468756.80383,   0.00031,  -0.00041,  -0.00103,168348579.57701,   0.00000,274640135.82653,   0.00000,   0.00000,   0.00000,-306291556.24952,   0.00000
35974476.20962,-75164548.05808,-80423386.75912,   0.00031,  -0.00041,  -0.00105,170445419.07213,   0.00000,274640135.82653,   0.00000,   0.00000,   0.00000,-304194716.75440,   0.00000
36162890.01658,-76399705.23707,-81369642.76742,   0.00031,  -0.00042,  -0.00106,172541473.28901,   0.00000,274640135.82653,   0.00000,   0.00000,   0.00000,-302098662.53752,   0.00000
36363864.74401,-77605553.60163,-82315898.77573,   0.00032,  -0.00042,  -0.00107,174627351.91618,   0.00000,274640135.82653,   0.00000,   0.00000,   0.00000,-300012783.91035,   0.00000
36564839.47144,-78811401.96620,-83262154.78404,   0.00032,  -0.00043,  -0.00108,176713638.64939,   0.00000,274640135.82653,   0.00000,   0.00000,   0.00000,-297926497.17714,   0.00000
36753253.27840,-80046559.14519,-84191662.89839,   0.00032,  -0.00044,  -0.00109,178787396.15713,   0.00000,274640135.82653,   0.00000,   0.00000,   0.00000,-295852739.66940,   0.00000
36912358.27095,-81294277.24464,-85129544.95972,   0.00033,  -0.00044,  -0.00111,180867806.61033,   0.00000,274640135.82653,   0.00000,   0.00000,   0.00000,-293772329.21620,   0.00000
37113332.99838,-82500125.60920,-86059053.07408,   0.00033,  -0.00045,  -0.00112,182931699.53276,   0.00000,274640135.82653,   0.00000,   0.00000,   0.00000,-291708436.29377,   0.00000
37272437.99092,-83747843.70865,-86988561.18843,   0.00033,  -0.00045,  -0.00113,185001220.54743,   0.00000,274640135.82653,   0.00000,   0.00000,   0.00000,-289638915.27909,   0.00000
37460851.79789,-84983000.88764,-87909695.35581,   0.00034,  -0.00046,  -0.00114,187064975.53400,   0.00000,274640135.82653,   0.00000,   0.00000,   0.00000,-287575160.29253,   0.00000
37619956.79043,-86230718.98709,-88822455.57621,   0.00034,  -0.00047,  -0.00115,189111818.27694,   0.00000,274640135.82653,   0.00000,   0.00000,   0.00000,-285528317.54959,   0.00000
37766500.86252,-87507745.90095,-89743589.74359,   0.00034,  -0.00047,  -0.00117,191181880.00254,   0.00000,274640135.82653,   0.00000,   0.00000,   0.00000,-283458255.82399,   0.00000
37925605.85506,-88755464.00040,-90647976.01702,   0.00035,  -0.00048,  -0.00118,193217896.12380,   0.00000,274640135.82653,   0.00000,   0.00000,   0.00000,-281422239.70273,   0.00000
38084710.84761,-90003182.09985,-91560736.23742,   0.00035,  -0.00048,  -0.00119,195266147.64238,   0.00000,274640135.82653,   0.00000,   0.00000,   0.00000,-279373988.18415,   0.00000
38231254.91969,-91280209.01372,-92456748.56387,   0.00035,  -0.00049,  -0.00120,197302340.11602,   0.00000,274640135.82653,   0.00000,   0.00000,   0.00000,-277337795.71051,   0.00000
38390359.91224,-92527927.11317,-93361134.83729,   0.00036,  -0.00050,  -0.00121,199339714.92952,   0.00000,274640135.82653,   0.00000,   0.00000,   0.00000,-275300420.89701,   0.00000
38507595.16991,-93817514.94750,-94248773.21677,   0.00036,  -0.00050,  -0.00123,201359731.92457,   0.00000,274640135.82653,   0.00000,   0.00000,   0.00000,-273280403.90196,   0.00000
38654139.24199,-95094541.86136,-95144785.54322,   0.00036,  -0.00051,  -0.00124,203397400.87528,   0.00000,274640135.82653,   0.00000,   0.00000,   0.00000,-271242734.95125,   0.00000
38800683.31407,-96371568.77523,-96024049.97572,   0.00036,  -0.00051,  -0.00125,205412048.17532,   0.00000,274640135.82653,   0.00000,   0.00000,   0.00000,-269228087.65121,   0.00000
38917918.57174,-97661156.60956,-96911688.35519,   0.00037,  -0.00052,  -0.00126,207433605.89930,   0.00000,274640135.82653,   0.00000,   0.00000,   0.00000,-267206529.92723,   0.00000
39035153.82941,-98950744.44389,-97790952.78769,   0.00037,  -0.00053,  -0.00127,209443935.05842,   0.00000,274640135.82653,   0.00000,   0.00000,   0.00000,-265196200.76811,   0.00000
39181697.90149,-100227771.35775,-98661843.27321,   0.00037,  -0.00053,  -0.00128,211448300.57171,   0.00000,274640135.82653,   0.00000,   0.00000,   0.00000,-263191835.25482,   0.00000
39298933.15916,-101517359.19208,-99532733.75873,   0.00038,  -0.00054,  -0.00129,213447884.84926,   0.00000,274640135.82653,   0.00000,   0.00000,   0.00000,-261192250.97727,   0.00000
39403607.49636,-102836255.84083,-100395250.29728,   0.00038,  -0.00054,  -0.00131,215447622.65431,   0.00000,274640135.82653,   0.00000,   0.00000,   0.00000,-259192513.17222,   0.00000
39520842.75402,-104125843.67516,-101257766.83582,   0.00038,  -0.00055,  -0.00132,217436509.03494,   0.00000,274640135.82653,   0.00000,   0.00000,   0.00000,-257203626.79159,   0.00000
39625517.09123,-105444740.32390,-102111909.42739,   0.00039,  -0.00056,  -0.00133,219425621.49241,   0.00000,274640135.82653,   0.00000,   0.00000,   0.00000,-255214514.33412,   0.00000
39742752.34889,-106734328.15823,-102966052.01896,   0.00039,  -0.00056,  -0.00134,221403800.21103,   0.00000,274640135.82653,   0.00000,   0.00000,   0.00000,-253236335.61550,   0.00000
39847426.68609,-108053224.80698,-103811820.66355,   0.00039,  -0.00057,  -0.00135,223382277.91575,   0.00000,274640135.82653,   0.00000,   0.00000,   0.00000,-251257857.91078,   0.00000
39952101.02330,-109372121.45573,-104657589.30814,   0.00040,  -0.00058,  -0.00136,225361288.54089,   0.00000,274640135.82653,   0.00000,   0.00000,   0.00000,-249278847.28564,   0.00000
40056775.36050,-110691018.10447,-105494984.00576,   0.00040,  -0.00058,  -0.00137,227329159.89606,   0.00000,274640135.82653,   0.00000,   0.00000,   0.00000,-247310975.93047,   0.00000
40161449.69770,-112009914.75322,-106332378.70338,   0.00040,  -0.00059,  -0.00138,229297553.15748,   0.00000,274640135.82653,   0.00000,   0.00000,   0.00000,-245342582.66905,   0.00000
40266124.03490,-113328811.40197,-107161399.45402,   0.00040,  -0.00059,  -0.00139,231254813.60190,   0.00000,274640135.82653,   0.00000,   0.00000,   0.00000,-243385322.22463,   0.00000
40341489.55769,-114660268.97118,-107990420.20466,   0.00041,  -0.00060,  -0.00140,233207572.07174,   0.00000,274640135.82653,   0.00000,   0.00000,   0.00000,-241432563.75479,   0.00000
40446163.89489,-115979165.61992,-108811067.00832,   0.00041,  -0.00061,  -0.00141,235154239.34778,   0.00000,274640135.82653,   0.00000,   0.00000,   0.00000,-239485896.47875,   0.00000
40538277.31163,-117327371.08309,-109623339.86501,   0.00041,  -0.00061,  -0.00143,237101546.53092,   0.00000,274640135.82653,   0.00000,   0.00000,   0.00000,-237538589.29561,   0.00000
40613642.83441,-118658828.65230,-110443986.66868,   0.00042,  -0.00062,  -0.00144,239044296.02327,   0.00000,274640135.82653,   0.00000,   0.00000,   0.00000,-235595839.80325,   0.00000
40705756.25115,-120007034.11546,-111247885.57839,   0.00042,  -0.00063,  -0.00145,240981119.68634,   0.00000,274640135.82653,   0.00000,   0.00000,   0.00000,-233659016.14019,   0.00000
40781121.77394,-121338491.68467,-112051784.48810,   0.00042,  -0.00063,  -0.00146,242901742.44664,   0.00000,274640135.82653,   0.00000,   0.00000,   0.00000,-231738393.37989,   0.00000
40873235.19067,-122686697.14783,-112855683.39781,   0.00043,  -0.00064,  -0.00147,244839672.16293,   0.00000,274640135.82653,   0.00000,   0.00000,   0.00000,-229800463.66360,   0.00000
40936039.79300,-124047463.53146,-113651208.36055,   0.00043,  -0.00064,  -0.00148,246761698.71215,   0.00000,274640135.82653,   0.00000,   0.00000,   0.00000,-227878437.11438,   0.00000
41028153.20973,-125395668.99462,-114438359.37631,   0.00043,  -0.00065,  -0.00149,248677602.86761,   0.00000,274640135.82653,   0.00000,   0.00000,   0.00000,-225962532.95892,   0.00000
41120266.62647,-126743874.45779,-115225510.39207,   0.00043,  -0.00066,  -0.00150,250594059.55912,   0.00000,274640135.82653,   0.00000,   0.00000,   0.00000,-224046076.26741,   0.00000
41183071.22879,-128104640.84141,-116004287.46085,   0.00044,  -0.00066,  -0.00151,252494695.06775,   0.00000,274640135.82653,   0.00000,   0.00000,   0.00000,-222145440.75878,   0.00000
41275184.64553,-129452846.30458,-116783064.52964,   0.00044,  -0.00067,  -0.00152,254400713.24741,   0.00000,274640135.82653,   0.00000,   0.00000,   0.00000,-220239422.57912,   0.00000
41337989.24785,-130813612.68820,-117553467.65144,   0.00044,  -0.00068,  -0.00153,256290958.88269,   0.00000,274640135.82653,   0.00000,   0.00000,   0.00000,-218349176.94384,   0.00000
41430102.66459,-132161818.15137,-118323870.77325,   0.00045,  -0.00068,  -0.00154,258186545.85884,   0.00000,274640135.82653,   0.00000,   0.00000,   0.00000,-216453589.96769,   0.00000
41492907.26691,-133522584.53499,-119085899.94808,   0.00045,  -0.00069,  -0.00155,260066408.54183,   0.00000,274640135.82653,   0.00000,   0.00000,   0.00000,-214573727.28470,   0.00000
41572459.76318,-134900098.81257,-119847929.12291,   0.00045,  -0.00069,  -0.00156,261963763.42061,   0.00000,274640135.82653,   0.00000,   0.00000,   0.00000,-212676372.40592,   0.00000
41635264.36551,-136260865.19620,-120601584.35077,   0.00046,  -0.00070,  -0.00157,263833284.88207,   0.00000,274640135.82653,   0.00000,   0.00000,   0.00000,-210806850.94446,   0.00000
41714816.86178,-137638379.47378,-121346865.63165,   0.00046,  -0.00071,  -0.00158,265708853.14335,   0.00000,274640135.82653,   0.00000,   0.00000,   0.00000,-208931282.68318,   0.00000
41777621.46410,-138999145.85741,-122092146.91253,   0.00046,  -0.00071,  -0.00159,267568052.87044,   0.00000,274640135.82653,   0.00000,   0.00000,   0.00000,-207072082.95609,   0.00000
41857173.96037,-140376660.13499,-122837428.19340,   0.00046,  -0.00072,  -0.00160,269444801.95647,   0.00000,274640135.82653,   0.00000,   0.00000,   0.00000,-205195333.87006,   0.00000
41919978.56270,-141737426.51862,-123574335.52731,   0.00047,  -0.00073,  -0.00161,271293681.76029,   0.00000,274640135.82653,   0.00000,   0.00000,   0.00000,-203346454.06624,   0.00000
41999531.05897,-143114940.79619,-124302868.91423,   0.00047,  -0.00073,  -0.00162,273148708.49076,   0.00000,274640135.82653,   0.00000,   0.00000,   0.00000,-201491427.33577,   0.00000
42049774.74083,-144505015.99424,-125031402.30116,   0.00047,  -0.00074,  -0.00163,274999711.37969,   0.00000,274640135.82653,   0.00000,   0.00000,   0.00000,-199640424.44684,   0.00000
42129327.23710,-145882530.27182,-125751561.74111,   0.00048,  -0.00075,  -0.00163,276844525.95083,   0.00000,274640135.82653,   0.00000,   0.00000,   0.00000,-197795609.87570,   0.00000
42208879.73337,-147260044.54940,-126463347.23409,   0.00048,  -0.00075,  -0.00164,278678535.84354,   0.00000,274640135.82653,   0.00000,   0.00000,   0.00000,-195961599.98299,   0.00000
42259123.41523,-148650119.74744,-127175132.72706,   0.00048,  -0.00076,  -0.00165,280508571.20823,   0.00000,274640135.82653,   0.00000,   0.00000,   0.00000,-194131564.61830,   0.00000
42338675.91150,-150027634.02502,-127886918.22003,   0.00049,  -0.00077,  -0.00166,282343792.88253,   0.00000,274640135.82653,   0.00000,   0.00000,   0.00000,-192296342.94400,   0.00000
42418228.40778,-151405148.30260,-128590329.76603,   0.00049,  -0.00077,  -0.00167,284168228.21106,   0.00000,274640135.82653,   0.00000,   0.00000,   0.00000,-190471907.61547,   0.00000
42497780.90405,-152782662.58018,-129285367.36505,   0.00049,  -0.00078,  -0.00168,285981898.25805,   0.00000,274640135.82653,   0.00000,   0.00000,   0.00000,-188658237.56848,   0.00000
42577333.40032,-154160176.85776,-129972031.01710,   0.00049,  -0.00078,  -0.00169,287784824.54006,   0.00000,274640135.82653,   0.00000,   0.00000,   0.00000,-186855311.28647,   0.00000
42627577.08218,-155550252.05580,-130667068.61612,   0.00050,  -0.00079,  -0.00170,289595183.08213,   0.00000,274640135.82653,   0.00000,   0.00000,   0.00000,-185044952.74440,   0.00000
42707129.57846,-156927766.33338,-131345358.32119,   0.00050,  -0.00080,  -0.00171,291388000.21971,   0.00000,274640135.82653,   0.00000,   0.00000,   0.00000,-183252135.60682,   0.00000
42786682.07473,-158305280.61096,-132023648.02626,   0.00050,  -0.00080,  -0.00172,293181429.59440,   0.00000,274640135.82653,   0.00000,   0.00000,   0.00000,-181458706.23213,   0.00000
42853673.65054,-159712103.70296,-132693563.78435,   0.00051,  -0.00081,  -0.00173,294976930.27435,   0.00000,274640135.82653,   0.00000,   0.00000,   0.00000,-179663205.55218,   0.00000
42933226.14681,-161089617.98054,-133363479.54245,   0.00051,  -0.00082,  -0.00173,296760302.18706,   0.00000,274640135.82653,   0.00000,   0.00000,   0.00000,-177879833.63946,   0.00000
43029526.53704,-162483880.15207,-134025021.35356,   0.00051,  -0.00082,  -0.00174,298550288.80004,   0.00000,274640135.82653,   0.00000,   0.00000,   0.00000,-176089847.02649,   0.00000
43109079.03331,-163861394.42965,-134686563.16468,   0.00052,  -0.00083,  -0.00175,300323615.41152,   0.00000,274640135.82653,   0.00000,   0.00000,   0.00000,-174316520.41501,   0.00000
43188631.52959,-165238908.70723,-135339731.02882,   0.00052,  -0.00084,  -0.00176,302086288.28784,   0.00000,274640135.82653,   0.00000,   0.00000,   0.00000,-172553847.53869,   0.00000
43255623.10539,-166645731.79923,-135984524.94599,   0.00052,  -0.00084,  -0.00177,303851257.85213,   0.00000,274640135.82653,   0.00000,   0.00000,   0.00000,-170788877.97440,   0.00000
43364484.41608,-168010685.15634,-136629318.86315,   0.00052,  -0.00085,  -0.00178,305608373.40067,   0.00000,274640135.82653,   0.00000,   0.00000,   0.00000,-169031762.42586,   0.00000
43431475.99189,-169417508.24834,-137265738.83334,   0.00053,  -0.00086,  -0.00178,307363444.18684,   0.00000,274640135.82653,   0.00000,   0.00000,   0.00000,-167276691.63969,   0.00000
43540337.30258,-170782461.60545,-137902158.80353,   0.00053,  -0.00086,  -0.00179,309110582.73073,   0.00000,274640135.82653,   0.00000,   0.00000,   0.00000,-165529553.09580,   0.00000
43607328.87839,-172189284.69745,-138530204.82674,   0.00053,  -0.00087,  -0.00180,310855781.04916,   0.00000,274640135.82653,   0.00000,   0.00000,   0.00000,-163784354.77737,   0.00000
43703629.26862,-173583546.86898,-139149876.90298,   0.00054,  -0.00088,  -0.00181,312594866.65763,   0.00000,274640135.82653,   0.00000,   0.00000,   0.00000,-162045269.16890,   0.00000
43783181.76489,-174961061.14656,-139769548.97922,   0.00054,  -0.00088,  -0.00182,314317152.45991,   0.00000,274640135.82653,   0.00000,   0.00000,   0.00000,-160322983.36662,   0.00000
43879482.15512,-176355323.31809,-140380847.10848,   0.00054,  -0.00089,  -0.00182,316046414.28753,   0.00000,274640135.82653,   0.00000,   0.00000,   0.00000,-158593721.53900,   0.00000
43988343.46581,-177720276.67521,-140992145.23774,   0.00055,  -0.00089,  -0.00183,317763192.84937,   0.00000,274640135.82653,   0.00000,   0.00000,   0.00000,-156876942.97716,   0.00000
44084643.85604,-179114538.84674,-141595069.42002,   0.00055,  -0.00090,  -0.00184,319482652.98271,   0.00000,274640135.82653,   0.00000,   0.00000,   0.00000,-155157482.84382,   0.00000
44180944.24626,-180508801.01827,-142189619.65533,   0.00055,  -0.00091,  -0.00185,321191681.34694,   0.00000,274640135.82653,   0.00000,   0.00000,   0.00000,-153448454.47959,   0.00000
44289805.55695,-181873754.37539,-142784169.89064,   0.00056,  -0.00091,  -0.00186,322888154.22394,   0.00000,274640135.82653,   0.00000,   0.00000,   0.00000,-151751981.60259,   0.00000
44386105.94718,-183268016.54692,-143370346.17897,   0.00056,  -0.00092,  -0.00186,324587452.59145,   0.00000,274640135.82653,   0.00000,   0.00000,   0.00000,-150052683.23508,   0.00000
44511715.15182,-184649717.79799,-143956522.46730,   0.00056,  -0.00093,  -0.00187,326291783.21367,   0.00000,274640135.82653,   0.00000,   0.00000,   0.00000,-148348352.61286,   0.00000
44620576.46251,-186014671.15510,-144534324.80866,   0.00057,  -0.00093,  -0.00188,327968060.53318,   0.00000,274640135.82653,   0.00000,   0.00000,   0.00000,-146672075.29335,   0.00000
44716876.85274,-187408933.32663,-145103753.20303,   0.00057,  -0.00094,  -0.00189,329647307.19298,   0.00000,274640135.82653,   0.00000,   0.00000,   0.00000,-144992828.63355,   0.00000
44842486.05738,-188790634.57770,-145673181.59741,   0.00057,  -0.00095,  -0.00189,331331587.94327,   0.00000,274640135.82653,   0.00000,   0.00000,   0.00000,-143308547.88326,   0.00000
44980656.18249,-190143027.01435,-146234236.04482,   0.00058,  -0.00095,  -0.00190,332992107.49093,   0.00000,274640135.82653,   0.00000,   0.00000,   0.00000,-141648028.33560,   0.00000
45076956.57271,-191537289.18589,-146786916.54524,   0.00058,  -0.00096,  -0.00191,334651430.35075,   0.00000,274640135.82653,   0.00000,   0.00000,   0.00000,-139988705.47578,   0.00000
45202565.77735,-192918990.43695,-147339597.04567,   0.00058,  -0.00097,  -0.00192,336315793.19404,   0.00000,274640135.82653,   0.00000,   0.00000,   0.00000,-138324342.63249,   0.00000
45340735.90246,-194271382.87360,-147892277.54610,   0.00059,  -0.00097,  -0.00192,337967361.25459,   0.00000,274640135.82653,   0.00000,   0.00000,   0.00000,-136672774.57193,   0.00000
45466345.10710,-195653084.12467,-148428210.15257,   0.00059,  -0.00098,  -0.00193,339611173.57393,   0.00000,274640135.82653,   0.00000,   0.00000,   0.00000,-135028962.25260,   0.00000
45604515.23221,-197005476.56132,-148964142.75905,   0.00059,  -0.00099,  -0.00194,341242166.71625,   0.00000,274640135.82653,   0.00000,   0.00000,   0.00000,-133397969.11028,   0.00000
45730124.43685,-198387177.81239,-149500075.36552,   0.00059,  -0.00099,  -0.00194,342887451.69852,   0.00000,274640135.82653,   0.00000,   0.00000,   0.00000,-131752684.12801,   0.00000
45897603.37638,-199727009.32858,-150019260.07805,   0.00060,  -0.00100,  -0.00195,344502241.63543,   0.00000,274640135.82653,   0.00000,   0.00000,   0.00000,-130137894.19110,   0.00000
46023212.58102,-201108710.57964,-150538444.79057,   0.00060,  -0.00100,  -0.00196,346127127.78122,   0.00000,274640135.82653,   0.00000,   0.00000,   0.00000,-128513008.04531,   0.00000
46190691.52054,-202448542.09583,-151057629.50309,   0.00060,  -0.00101,  -0.00196,347743371.79864,   0.00000,274640135.82653,   0.00000,   0.00000,   0.00000,-126896764.02789,   0.00000
46316300.72518,-203830243.34690,-151568440.26864,   0.00061,  -0.00102,  -0.00197,349358851.21157,   0.00000,274640135.82653,   0.00000,   0.00000,   0.00000,-125281284.61496,   0.00000
46483779.66471,-205170074.86309,-152070877.08721,   0.00061,  -0.00102,  -0.00198,350954750.52945,   0.00000,274640135.82653,   0.00000,   0.00000,   0.00000,-123685385.29708,   0.00000
46638697.68377,-206539215.19369,-152564939.95880,   0.00061,  -0.00103,  -0.00198,352554277.04911,   0.00000,274640135.82653,   0.00000,   0.00000,   0.00000,-122085858.77742,   0.00000
46806176.62329,-207879046.70988,-153059002.83039,   0.00062,  -0.00104,  -0.00199,354140811.89547,   0.00000,274640135.82653,   0.00000,   0.00000,   0.00000,-120499323.93106,   0.00000
46973655.56281,-209218878.22606,-153553065.70199,   0.00062,  -0.00104,  -0.00200,355728085.48886,   0.00000,274640135.82653,   0.00000,   0.00000,   0.00000,-118912050.33767,   0.00000
47128573.58187,-210588018.55667,-154030380.67963,   0.00063,  -0.00105,  -0.00200,357308275.09649,   0.00000,274640135.82653,   0.00000,   0.00000,   0.00000,-117331860.73004,   0.00000
47296052.52140,-211927850.07285,-154507695.65727,   0.00063,  -0.00106,  -0.00201,358875417.10231,   0.00000,274640135.82653,   0.00000,   0.00000,   0.00000,-115764718.72421,   0.00000
47492840.27534,-213255120.66858,-154985010.63491,   0.00063,  -0.00106,  -0.00201,360447594.41160,   0.00000,274640135.82653,   0.00000,   0.00000,   0.00000,-114192541.41493,   0.00000
47660319.21486,-214594952.18476,-155453951.66558,   0.00064,  -0.00107,  -0.00202,362005465.04051,   0.00000,274640135.82653,   0.00000,   0.00000,   0.00000,-112634670.78602,   0.00000
47857106.96880,-215922222.78049,-155914518.74927,   0.00064,  -0.00108,  -0.00203,363557606.66074,   0.00000,274640135.82653,   0.00000,   0.00000,   0.00000,-111082529.16579,   0.00000
48053894.72274,-217249493.37621,-156366711.88598,   0.00064,  -0.00108,  -0.00203,365099779.80220,   0.00000,274640135.82653,   0.00000,   0.00000,   0.00000,-109540356.02433,   0.00000
48250682.47668,-218576763.97193,-156818905.02269,   0.00065,  -0.00109,  -0.00204,366642762.18227,   0.00000,274640135.82653,   0.00000,   0.00000,   0.00000,-107997373.64426,   0.00000
48447470.23062,-219904034.56765,-157262724.21243,   0.00065,  -0.00110,  -0.00204,368175812.94720,   0.00000,274640135.82653,   0.00000,   0.00000,   0.00000,-106464322.87933,   0.00000
48644257.98456,-221231305.16338,-157706543.40217,   0.00065,  -0.00110,  -0.00205,369709681.23295,   0.00000,274640135.82653,   0.00000,   0.00000,   0.00000,-104930454.59358,   0.00000
48841045.73850,-222558575.75910,-158141988.64493,   0.00066,  -0.00111,  -0.00206,371233655.11307,   0.00000,274640135.82653,   0.00000,   0.00000,   0.00000,-103406480.71346,   0.00000
49079703.22732,-223843976.61994,-158569059.94071,   0.00066,  -0.00111,  -0.00206,372737950.02801,   0.00000,274640135.82653,   0.00000,   0.00000,   0.00000,-101902185.79852,   0.00000
49276490.98126,-225171247.21566,-158987757.28952,   0.00066,  -0.00112,  -0.00207,374242211.63920,   0.00000,274640135.82653,   0.00000,   0.00000,   0.00000,-100397924.18733,   0.00000
49515148.47008,-226456648.07650,-159406454.63833,   0.00067,  -0.00113,  -0.00207,375737476.54272,   0.00000,274640135.82653,   0.00000,   0.00000,   0.00000,-98902659.28381,   0.00000
49741245.03844,-227771357.75176,-159825151.98714,   0.00067,  -0.00113,  -0.00208,377247732.14939,   0.00000,274640135.82653,   0.00000,   0.00000,   0.00000,-97392403.67714,   0.00000
49979902.52726,-229056758.61260,-160227101.44199,   0.00067,  -0.00114,  -0.00208,378723376.49124,   0.00000,274640135.82653,   0.00000,   0.00000,   0.00000,-95916759.33529,   0.00000
50205999.09561,-230371468.28786,-160629050.89685,   0.00068,  -0.00115,  -0.00209,380214099.48985,   0.00000,274640135.82653,   0.00000,   0.00000,   0.00000,-94426036.33668,   0.00000
50444656.58443,-231656869.14870,-161031000.35171,   0.00068,  -0.00115,  -0.00209,381691457.63843,   0.00000,274640135.82653,   0.00000,   0.00000,   0.00000,-92948678.18810,   0.00000
50683314.07326,-232942270.00955,-161416201.91261,   0.00068,  -0.00116,  -0.00210,383148478.31377,   0.00000,274640135.82653,   0.00000,   0.00000,   0.00000,-91491657.51276,   0.00000
50921971.56208,-234227670.87039,-161809777.42049,   0.00069,  -0.00117,  -0.00210,384616947.09263,   0.00000,274640135.82653,   0.00000,   0.00000,   0.00000,-90023188.73390,   0.00000
51189937.86531,-235500510.81077,-162186605.03442,   0.00069,  -0.00117,  -0.00211,386069477.43147,   0.00000,274640135.82653,   0.00000,   0.00000,   0.00000,-88570658.39506,   0.00000
51457904.16855,-236773350.75114,-162563432.64834,   0.00070,  -0.00118,  -0.00211,387522908.77212,   0.00000,274640135.82653,   0.00000,   0.00000,   0.00000,-87117227.05441,   0.00000
51696561.65737,-238058751.61199,-162931886.31530,   0.00070,  -0.00118,  -0.00212,388962364.98126,   0.00000,274640135.82653,   0.00000,   0.00000,   0.00000,-85677770.84526,   0.00000
51977088.88107,-239302282.73795,-163291966.03527,   0.00070,  -0.00119,  -0.00212,390382165.09780,   0.00000,274640135.82653,   0.00000,   0.00000,   0.00000,-84257970.72873,   0.00000
52245055.18431,-240575122.67832,-163652045.75525,   0.00071,  -0.00120,  -0.00213,391817268.94413,   0.00000,274640135.82653,   0.00000,   0.00000,   0.00000,-82822866.88240,   0.00000
52554891.22243,-241806092.88382,-164003751.52825,   0.00071,  -0.00120,  -0.00213,393232739.73766,   0.00000,274640135.82653,   0.00000,   0.00000,   0.00000,-81407396.08887,   0.00000
52822857.52567,-243078932.82420,-164355457.30124,   0.00071,  -0.00121,  -0.00214,394659213.41113,   0.00000,274640135.82653,   0.00000,   0.00000,   0.00000,-79980922.41540,   0.00000
53103384.74937,-244322463.95016,-164690415.18029,   0.00072,  -0.00122,  -0.00214,396051239.39377,   0.00000,274640135.82653,   0.00000,   0.00000,   0.00000,-78588896.43275,   0.00000
53413220.78749,-245553434.15566,-165033747.00631,   0.00072,  -0.00122,  -0.00215,397459021.69537,   0.00000,274640135.82653,   0.00000,   0.00000,   0.00000,-77181114.13116,   0.00000
53723056.82560,-246784404.36115,-165360330.93838,   0.00073,  -0.00123,  -0.00215,398846886.40367,   0.00000,274640135.82653,   0.00000,   0.00000,   0.00000,-75793249.42286,   0.00000
54032892.86372,-248015374.56665,-165686914.87046,   0.00073,  -0.00123,  -0.00215,400235716.76331,   0.00000,274640135.82653,   0.00000,   0.00000,   0.00000,-74404419.06322,   0.00000
54342728.90184,-249246344.77215,-166005124.85555,   0.00073,  -0.00124,  -0.00216,401615118.67137,   0.00000,274640135.82653,   0.00000,   0.00000,   0.00000,-73025017.15516,   0.00000
54665125.86042,-250448006.16323,-166323334.84064,   0.00074,  -0.00125,  -0.00216,402980901.15093,   0.00000,274640135.82653,   0.00000,   0.00000,   0.00000,-71659234.67560,   0.00000
54974961.89854,-251678976.36872,-166633170.87876,   0.00074,  -0.00125,  -0.00217,404351872.29642,   0.00000,274640135.82653,   0.00000,   0.00000,   0.00000,-70288263.53011,   0.00000
55297358.85712,-252880637.75980,-166934632.96990,   0.00074,  -0.00126,  -0.00217,405698855.40754,   0.00000,274640135.82653,   0.00000,   0.00000,   0.00000,-68941280.41899,   0.00000
55649064.63012,-254069738.23042,-167227721.11407,   0.00075,  -0.00126,  -0.00217,407040938.59100,   0.00000,274640135.82653,   0.00000,   0.00000,   0.00000,-67599197.23553,   0.00000
56000770.40312,-255258838.70103,-167520809.25824,   0.00075,  -0.00127,  -0.00218,408384031.57299,   0.00000,274640135.82653,   0.00000,   0.00000,   0.00000,-66256104.25354,   0.00000
56323167.36170,-256460500.09211,-167813897.40240,   0.00076,  -0.00128,  -0.00218,409723647.64760,   0.00000,274640135.82653,   0.00000,   0.00000,   0.00000,-64916488.17893,   0.00000
56674873.13470,-257649600.56273,-168090237.65262,   0.00076,  -0.00128,  -0.00219,411048172.75157,   0.00000,274640135.82653,   0.00000,   0.00000,   0.00000,-63591963.07496,   0.00000
57026578.90770,-258838701.03335,-168366577.90283,   0.00076,  -0.00129,  -0.00219,412373742.04418,   0.00000,274640135.82653,   0.00000,   0.00000,   0.00000,-62266393.78235,   0.00000
57390845.60117,-259998492.68954,-168634544.20607,   0.00077,  -0.00129,  -0.00219,413675340.34421,   0.00000,274640135.82653,   0.00000,   0.00000,   0.00000,-60964795.48232,   0.00000
57771860.18858,-261175032.23970,-168902510.50930,   0.00077,  -0.00130,  -0.00220,414997261.32999,   0.00000,274640135.82653,   0.00000,   0.00000,   0.00000,-59642874.49654,   0.00000
58136126.88204,-262334823.89590,-169162102.86556,   0.00078,  -0.00131,  -0.00220,416290704.70361,   0.00000,274640135.82653,   0.00000,   0.00000,   0.00000,-58349431.12292,   0.00000
58529702.38992,-263482054.63163,-169413321.27485,   0.00078,  -0.00131,  -0.00220,417579532.17748,   0.00000,274640135.82653,   0.00000,   0.00000,   0.00000,-57060603.64905,   0.00000
58893969.08339,-264641846.28783,-169664539.68413,   0.00078,  -0.00132,  -0.00221,418864874.62326,   0.00000,274640135.82653,   0.00000,   0.00000,   0.00000,-55775261.20327,   0.00000
59287544.59127,-265789077.02356,-169907384.14644,   0.00079,  -0.00132,  -0.00221,420145672.03182,   0.00000,274640135.82653,   0.00000,   0.00000,   0.00000,-54494463.79471,   0.00000
59693681.01961,-266906998.94488,-170141854.66178,   0.00079,  -0.00133,  -0.00221,421402533.23823,   0.00000,274640135.82653,   0.00000,   0.00000,   0.00000,-53237602.58830,   0.00000
60087256.52749,-268054229.68062,-170376325.17711,   0.00080,  -0.00134,  -0.00221,422675369.81865,   0.00000,274640135.82653,   0.00000,   0.00000,   0.00000,-51964766.00787,   0.00000
60522701.77025,-269159590.68147,-170602421.74547,   0.00080,  -0.00134,  -0.00222,423928894.08138,   0.00000,274640135.82653,   0.00000,   0.00000,   0.00000,-50711241.74515,   0.00000
60928838.19860,-270277512.60279,-170820144.36685,   0.00080,  -0.00135,  -0.00222,425168810.17027,   0.00000,274640135.82653,   0.00000,   0.00000,   0.00000,-49471325.65625,   0.00000
61334974.62694,-271395434.52411,-171037866.98823,   0.00081,  -0.00135,  -0.00222,426409836.79445,   0.00000,274640135.82653,   0.00000,   0.00000,   0.00000,-48230299.03208,   0.00000
61770419.86970,-272500795.52496,-171247215.66263,   0.00081,  -0.00136,  -0.00223,427646563.76923,   0.00000,274640135.82653,   0.00000,   0.00000,   0.00000,-46993572.05730,   0.00000
62218426.03293,-273576847.71140,-171448190.39006,   0.00082,  -0.00137,  -0.00223,428859406.99657,   0.00000,274640135.82653,   0.00000,   0.00000,   0.00000,-45780728.82996,   0.00000
62666432.19615,-274652899.89784,-171649165.11749,   0.00082,  -0.00137,  -0.00223,430073391.56474,   0.00000,274640135.82653,   0.00000,   0.00000,   0.00000,-44566744.26179,   0.00000
63072568.62450,-275770821.81916,-171841765.89794,   0.00082,  -0.00138,  -0.00223,431288820.49538,   0.00000,274640135.82653,   0.00000,   0.00000,   0.00000,-43351315.33115,   0.00000
63549883.60214,-276834313.08513,-172034366.67839,   0.00083,  -0.00138,  -0.00224,432499806.86250,   0.00000,274640135.82653,   0.00000,   0.00000,   0.00000,-42140328.96403,   0.00000
64010450.68583,-277881056.45715,-172210219.56489,   0.00083,  -0.00139,  -0.00224,433672215.11573,   0.00000,274640135.82653,   0.00000,   0.00000,   0.00000,-40967920.71080,   0.00000
64458456.84905,-278957108.64359,-172386072.45139,   0.00084,  -0.00139,  -0.00224,434860874.07128,   0.00000,274640135.82653,   0.00000,   0.00000,   0.00000,-39779261.75525,   0.00000
64948332.74716,-279991291.09514,-172561925.33789,   0.00084,  -0.00140,  -0.00224,436040400.40468,   0.00000,274640135.82653,   0.00000,   0.00000,   0.00000,-38599735.42185,   0.00000
65396338.91038,-281067343.28158,-172729404.27741,   0.00085,  -0.00141,  -0.00225,437221510.38829,   0.00000,274640135.82653,   0.00000,   0.00000,   0.00000,-37418625.43824,   0.00000
65886214.80849,-282101525.73314,-172888509.26996,   0.00085,  -0.00141,  -0.00225,438383594.30729,   0.00000,274640135.82653,   0.00000,   0.00000,   0.00000,-36256541.51924,   0.00000
66388651.62706,-283106399.37028,-173039240.31553,   0.00085,  -0.00142,  -0.00225,439521870.46537,   0.00000,274640135.82653,   0.00000,   0.00000,   0.00000,-35118265.36116,   0.00000
66878527.52516,-284140581.82184,-173189971.36110,   0.00086,  -0.00142,  -0.00225,440676536.63946,   0.00000,274640135.82653,   0.00000,   0.00000,   0.00000,-33963599.18707,   0.00000
67380964.34373,-285145455.45898,-173332328.45970,   0.00086,  -0.00143,  -0.00225,441807411.84326,   0.00000,274640135.82653,   0.00000,   0.00000,   0.00000,-32832723.98327,   0.00000
67883401.16230,-286150329.09612,-173474685.55829,   0.00087,  -0.00143,  -0.00226,442939526.53447,   0.00000,274640135.82653,   0.00000,   0.00000,   0.00000,-31700609.29206,   0.00000
68385837.98087,-287155202.73326,-173600294.76293,   0.00087,  -0.00144,  -0.00226,444053228.21475,   0.00000,274640135.82653,   0.00000,   0.00000,   0.00000,-30586907.61178,   0.00000
68888274.79944,-288160076.37040,-173734277.91455,   0.00088,  -0.00145,  -0.00226,445178023.39440,   0.00000,274640135.82653,   0.00000,   0.00000,   0.00000,-29462112.43213,   0.00000
69420020.43243,-289152389.08707,-173851513.17222,   0.00088,  -0.00145,  -0.00226,446289428.51800,   0.00000,274640135.82653,   0.00000,   0.00000,   0.00000,-28350707.30853,   0.00000
69935018.17146,-290127953.90980,-173968748.42989,   0.00088,  -0.00146,  -0.00226,447381958.09179,   0.00000,274640135.82653,   0.00000,   0.00000,   0.00000,-27258177.73474,   0.00000
70479324.72492,-291090957.81206,-174077609.74058,   0.00089,  -0.00146,  -0.00226,448470977.55899,   0.00000,274640135.82653,   0.00000,   0.00000,   0.00000,-26169158.26754,   0.00000
71023631.27837,-292053961.71431,-174186471.05127,   0.00089,  -0.00147,  -0.00226,449561325.88898,   0.00000,274640135.82653,   0.00000,   0.00000,   0.00000,-25078809.93755,   0.00000
71580498.75228,-292987656.80216,-174286958.41498,   0.00090,  -0.00147,  -0.00227,450627971.90458,   0.00000,274640135.82653,   0.00000,   0.00000,   0.00000,-24012163.92194,   0.00000
72124805.30573,-293950660.70442,-174379071.83172,   0.00090,  -0.00148,  -0.00227,451701554.92363,   0.00000,274640135.82653,   0.00000,   0.00000,   0.00000,-22938580.90290,   0.00000
72681672.77965,-294884355.79226,-174471185.24846,   0.00091,  -0.00148,  -0.00227,452761173.85504,   0.00000,274640135.82653,   0.00000,   0.00000,   0.00000,-21878961.97149,   0.00000
73238540.25356,-295818050.88010,-174554924.71822,   0.00091,  -0.00149,  -0.00227,453812461.77494,   0.00000,274640135.82653,   0.00000,   0.00000,   0.00000,-20827674.05158,   0.00000
73807968.64794,-296722437.15353,-174630290.24100,   0.00091,  -0.00149,  -0.00227,454840099.47871,   0.00000,274640135.82653,   0.00000,   0.00000,   0.00000,-19800036.34782,   0.00000
74406705.85674,-297614262.50649,-174705655.76379,   0.00092,  -0.00150,  -0.00227,455874217.82811,   0.00000,274640135.82653,   0.00000,   0.00000,   0.00000,-18765917.99842,   0.00000
74963573.33065,-298547957.59433,-174772647.33960,   0.00092,  -0.00150,  -0.00227,456910359.69472,   0.00000,274640135.82653,   0.00000,   0.00000,   0.00000,-17729776.13181,   0.00000
75562310.53945,-299439782.94729,-174839638.91541,   0.00093,  -0.00151,  -0.00227,457937666.34851,   0.00000,274640135.82653,   0.00000,   0.00000,   0.00000,-16702469.47802,   0.00000
76144299.85429,-300314860.40630,-174889882.59726,   0.00093,  -0.00151,  -0.00227,458926625.58114,   0.00000,274640135.82653,   0.00000,   0.00000,   0.00000,-15713510.24539,   0.00000
76755597.98355,-301177376.94485,-174948500.22610,   0.00094,  -0.00152,  -0.00227,459931752.61749,   0.00000,274640135.82653,   0.00000,   0.00000,   0.00000,-14708383.20904,   0.00000
77354335.19235,-302069202.29781,-174990369.96098,   0.00094,  -0.00153,  -0.00227,460934645.27301,   0.00000,274640135.82653,   0.00000,   0.00000,   0.00000,-13705490.55352,   0.00000
77978194.24207,-302902410.02194,-175032239.69586,   0.00095,  -0.00153,  -0.00228,461908114.82186,   0.00000,274640135.82653,   0.00000,   0.00000,   0.00000,-12732021.00467,   0.00000
78589492.37133,-303764926.56049,-175065735.48376,   0.00095,  -0.00154,  -0.00228,462888977.53079,   0.00000,274640135.82653,   0.00000,   0.00000,   0.00000,-11751158.29574,   0.00000
79213351.42106,-304598134.28461,-175099231.27167,   0.00095,  -0.00154,  -0.00228,463855839.54726,   0.00000,274640135.82653,   0.00000,   0.00000,   0.00000,-10784296.27927,   0.00000
79837210.47078,-305431342.00874,-175124353.11260,   0.00096,  -0.00155,  -0.00228,464814681.73097,   0.00000,274640135.82653,   0.00000,   0.00000,   0.00000,-9825454.09556,   0.00000
80461069.52051,-306264549.73287,-175141101.00655,   0.00096,  -0.00155,  -0.00228,465765549.54671,   0.00000,274640135.82653,   0.00000,   0.00000,   0.00000,-8874586.27982,   0.00000
81114237.38465,-307085196.53654,-175157848.90050,   0.00097,  -0.00156,  -0.00228,466723296.03514,   0.00000,274640135.82653,   0.00000,   0.00000,   0.00000,-7916839.79139,   0.00000
81750657.35484,-307889095.44625,-175166222.84748,   0.00097,  -0.00156,  -0.00228,467652240.34290,   0.00000,274640135.82653,   0.00000,   0.00000,   0.00000,-6987895.48363,   0.00000
82387077.32503,-308692994.35596,-175174596.79445,   0.00098,  -0.00157,  -0.00228,468582678.89093,   0.00000,274640135.82653,   0.00000,   0.00000,   0.00000,-6057456.93559,   0.00000
83065367.03010,-309455023.53079,-175166222.84748,   0.00098,  -0.00157,  -0.00228,469485759.93009,   0.00000,274640135.82653,   0.00000,   0.00000,   0.00000,-5154375.89644,   0.00000
83701787.00028,-310258922.44050,-175166222.84748,   0.00099,  -0.00157,  -0.00228,470409854.51199,   0.00000,274640135.82653,   0.00000,   0.00000,   0.00000,-4230281.31454,   0.00000
84380076.70535,-311020951.61533,-175149474.95352,   0.00099,  -0.00158,  -0.00228,471306712.42013,   0.00000,274640135.82653,   0.00000,   0.00000,   0.00000,-3333423.40640,   0.00000
85058366.41042,-311782980.79017,-175132727.05957,   0.00099,  -0.00158,  -0.00228,472205167.36834,   0.00000,274640135.82653,   0.00000,   0.00000,   0.00000,-2434968.45819,   0.00000
85749217.03596,-312515701.15058,-175115979.16562,   0.00100,  -0.00159,  -0.00228,473089618.20191,   0.00000,274640135.82653,   0.00000,   0.00000,   0.00000,-1550517.62462,   0.00000
86398197.92661,-313290291.24588,-175082483.37772,   0.00100,  -0.00159,  -0.00228,473967087.19336,   0.00000,274640135.82653,   0.00000,   0.00000,   0.00000,-673048.63316,   0.00000
86947080.78791,-313839174.10717,-175062880.41838,   0.00101,  -0.00160,  -0.00228,474640135.66960,   0.00000,274640135.82653,   0.00000,   0.00000,   0.00000,  -0.15692,   0.00000
87059061.00516,-313875265.44555,-174987099.55430,   0.00101,  -0.00160,  -0.00228,474640135.66960,   0.00000,274641025.63469,   0.00000,  -0.00000,  -0.00000,   0.06297,   1.00000
87555765.77135,-314069711.22504,-174626773.38284,   0.00101,  -0.00160,  -0.00228,475502423.74416,   0.00000,274645067.02060,   0.00000,  -0.00000,  -0.00001,   0.00000,   2.00000
88067327.83025,-314243253.91111,-174272270.81916,   0.00102,  -0.00161,  -0.00227,475492464.50649,   0.00001,274649042.60921,   0.00000,  -0.00001,  -0.00001,  -0.00000,   2.00000
88579756.16612,-314421200.48313,-173912847.86120,   0.00102,  -0.00161,  -0.00227,475488841.95969,   0.00001,274652982.44247,   0.00001,  -0.00001,  -0.00001,   0.00000,   2.00000
89090957.88482,-314597776.66440,-173553472.96113,   0.00103,  -0.00162,  -0.00227,475494420.70891,   0.00002,274656929.85681,   0.00001,  -0.00001,  -0.00002,   0.00000,   2.00000
89603032.68588,-314778719.91562,-173189145.97616,   0.00103,  -0.00162,  -0.00227,475490834.74325,   0.00002,274660841.82234,   0.00001,  -0.00001,  -0.00002,   0.00000,   2.00000
90130029.77723,-314938820.63597,-172830589.22397,   0.00104,  -0.00163,  -0.00227,475480736.37032,   0.00002,274664687.97210,   0.00001,  -0.00002,  -0.00003,   0.00000,   2.00000
90685831.36347,-315087130.45425,-172464925.40981,   0.00104,  -0.00163,  -0.00227,475482885.14001,   0.00003,274668526.08424,   0.00001,  -0.00002,  -0.00003,   0.00000,   2.00000
91230730.12517,-315236530.23089,-172102052.73492,   0.00105,  -0.00163,  -0.00227,475457830.43500,   0.00003,274672228.58831,   0.00002,  -0.00002,  -0.00003,   0.00000,   2.00000
91774388.78263,-315384587.92757,-171739184.50339,   0.00105,  -0.00164,  -0.00227,475463220.82432,   0.00003,274675938.94029,   0.00002,  -0.00003,  -0.00004,   0.00000,   2.00000
92318933.18074,-315536997.58113,-171371249.26621,   0.00105,  -0.00164,  -0.00227,475459543.53680,   0.00004,274679614.56868,   0.00002,  -0.00003,  -0.00004,   0.00000,   2.00000
92864364.73741,-315693724.49929,-170998224.31927,   0.00106,  -0.00165,  -0.00227,475455884.51033,   0.00004,274683255.72382,   0.00002,  -0.00003,  -0.00004,   0.00000,   2.00000
93452682.74088,-315813411.92936,-170628728.95813,   0.00106,  -0.00165,  -0.00227,475451468.84270,   0.00004,274686859.04176,   0.00002,  -0.00003,  -0.00005,   0.99745,   1.00000
94013984.02395,-315953691.52182,-170256226.05459,   0.00107,  -0.00166,  -0.00226,475441890.28113,   0.00005,274690400.47667,   0.00002,  -0.00004,  -0.00005,   0.96032,   1.00000
94590342.42962,-316073240.76572,-169889350.79544,   0.00107,  -0.00166,  -0.00226,475431441.52694,   0.00005,274693876.25285,   0.00003,  -0.00004,  -0.00005,   0.92174,   1.00000
95179098.38151,-316200141.58033,-169509495.25353,   0.00108,  -0.00166,  -0.00226,475449454.99511,   0.00005,274697420.17914,   0.00003,  -0.00004,  -0.00006,   0.95476,   1.00000
95771426.79520,-316303295.55489,-169143024.42425,   0.00108,  -0.00167,  -0.00226,475417270.79395,   0.00006,274700796.50149,   0.00003,  -0.00004,  -0.00006,   0.86327,   1.00000
96348294.50762,-316430109.06553,-168765697.19760,   0.00109,  -0.00167,  -0.00226,475429241.10398,   0.00006,274704213.09754,   0.00003,  -0.00005,  -0.00006,   0.88085,   1.00000
96970246.64669,-316525454.39190,-168386575.37699,   0.00109,  -0.00168,  -0.00226,475415865.38599,   0.00006,274707550.92137,   0.00003,  -0.00005,  -0.00007,   0.83721,   1.00000
97563107.83977,-316635837.01092,-168009543.50495,   0.00110,  -0.00168,  -0.00226,475414953.24110,   0.00006,274710868.78966,   0.00003,  -0.00005,  -0.00007,   0.82407,   1.00000
98156886.05489,-316750464.31371,-167627223.50443,   0.00110,  -0.00168,  -0.00225,475411214.87839,   0.00007,274714153.54072,   0.00004,  -0.00005,  -0.00007,   0.80464,   1.00000
98793590.82911,-316827965.94101,-167248225.06717,   0.00111,  -0.00169,  -0.00225,475406734.62087,   0.00007,274717401.87421,   0.00004,  -0.00005,  -0.00008,   0.78339,   1.00000
99403436.85404,-316926158.94746,-166866068.97543,   0.00111,  -0.00169,  -0.00225,475396823.52936,   0.00007,274720588.47809,   0.00004,  -0.00006,  -0.00008,   0.75083,   1.00000
100028506.60013,-317003708.09690,-166489379.63332,   0.00111,  -0.00170,  -0.00225,475386057.51314,   0.00008,274723709.64450,   0.00004,  -0.00006,  -0.00008,   0.71716,   1.00000
100665692.61363,-317088253.19351,-166099549.99239,   0.00112,  -0.00170,  -0.00225,475404342.98351,   0.00008,274726901.93832,   0.00004,  -0.00006,  -0.00009,   0.74688,   1.00000
101292609.08523,-317174202.10680,-165712064.00307,   0.00112,  -0.00170,  -0.00224,475378579.01795,   0.00008,274729958.42322,   0.00004,  -0.00006,  -0.00009,   0.68172,   1.00000
101934806.27862,-317239516.34034,-165329983.15403,   0.00113,  -0.00171,  -0.00224,475367716.34316,   0.00008,274732949.63915,   0.00005,  -0.00007,  -0.00009,   0.64988,   1.00000
102577948.80261,-317309015.09118,-164942443.71061,   0.00113,  -0.00171,  -0.00224,475363881.00248,   0.00009,274735908.85237,   0.00005,  -0.00007,  -0.00010,   0.63310,   1.00000
103247447.06446,-317360552.61403,-164552532.76824,   0.00114,  -0.00172,  -0.00224,475375186.29980,   0.00009,274738907.23688,   0.00005,  -0.00007,  -0.00010,   0.64671,   1.00000
103890219.91976,-317432827.63044,-164159348.35184,   0.00114,  -0.00172,  -0.00224,475365054.35332,   0.00009,274741844.05028,   0.00005,  -0.00007,  -0.00010,   0.61755,   1.00000
104548351.21725,-317484482.63245,-163771499.37377,   0.00115,  -0.00172,  -0.00223,475354099.30159,   0.00010,274744715.73094,   0.00005,  -0.00007,  -0.00010,   0.58755,   1.00000
105224110.35071,-317521031.52935,-163383582.32340,   0.00115,  -0.00173,  -0.00223,475334413.50284,   0.00010,274747481.64316,   0.00005,  -0.00008,  -0.00011,   0.54222,   1.00000
105881896.61270,-317575461.20745,-162990015.93400,   0.00116,  -0.00173,  -0.00223,475355030.67653,   0.00010,274750331.31156,   0.00005,  -0.00008,  -0.00011,   0.57271,   1.00000
106557358.42311,-317614750.02264,-162596324.65818,   0.00116,  -0.00173,  -0.00223,475335385.83225,   0.00010,274753075.50355,   0.00006,  -0.00008,  -0.00011,   0.52832,   1.00000
107233790.81919,-317658108.07754,-162197016.98826,   0.00116,  -0.00174,  -0.00222,475331559.98482,   0.00011,274755788.91281,   0.00006,  -0.00008,  -0.00011,   0.51384,   1.00000
107925683.40603,-317680860.05663,-161802934.15305,   0.00117,  -0.00174,  -0.00222,475320438.71206,   0.00011,274758437.47207,   0.00006,  -0.00008,  -0.00012,   0.48687,   1.00000
108618557.02688,-317707661.43353,-161403184.11618,   0.00117,  -0.00174,  -0.00222,475316583.85577,   0.00011,274761055.56875,   0.00006,  -0.00009,  -0.00012,   0.47311,   1.00000
109326934.74619,-317713868.86122,-161008612.83885,   0.00118,  -0.00175,  -0.00222,475305384.30560,   0.00011,274763608.90110,   0.00006,  -0.00009,  -0.00012,   0.44737,   1.00000
109989728.07653,-317754733.89051,-160610700.44097,   0.00118,  -0.00175,  -0.00221,475319159.23651,   0.00011,274766214.90586,   0.00006,  -0.00009,  -0.00012,   0.46360,   1.00000
110716995.36469,-317749765.44352,-160210059.83833,   0.00119,  -0.00175,  -0.00221,475281778.28287,   0.00012,274768633.39223,   0.00006,  -0.00009,  -0.00013,   0.39684,   1.00000
111423801.58011,-317757229.53340,-159809293.84637,   0.00119,  -0.00176,  -0.00221,475310689.81098,   0.00012,274771176.20850,   0.00007,  -0.00009,  -0.00013,   0.43611,   1.00000
112121082.50284,-317766365.97048,-159410419.66211,   0.00120,  -0.00176,  -0.00220,475284142.30698,   0.00012,274773582.60663,   0.00007,  -0.00010,  -0.00013,   0.38832,   1.00000
112846818.39875,-317762571.48057,-159003449.65059,   0.00120,  -0.00176,  -0.00220,475287065.18292,   0.00012,274775991.48399,   0.00007,  -0.00010,  -0.00013,   0.38672,   1.00000
113560806.16392,-317755116.42066,-158603846.01813,   0.00121,  -0.00177,  -0.00220,475268814.61216,   0.00013,274778303.49602,   0.00007,  -0.00010,  -0.00014,   0.35407,   1.00000
114275863.31152,-317751615.85781,-158198401.48368,   0.00121,  -0.00177,  -0.00219,475264839.71155,   0.00013,274780586.06781,   0.00007,  -0.00010,  -0.00014,   0.34301,   1.00000
114989665.01218,-317746728.32635,-157792676.12526,   0.00121,  -0.00177,  -0.00219,475269244.77253,   0.00013,274782878.65131,   0.00007,  -0.00010,  -0.00014,   0.34390,   1.00000
115721542.96323,-317726571.11076,-157386363.28167,   0.00122,  -0.00177,  -0.00219,475249407.25138,   0.00013,274785067.46767,   0.00007,  -0.00010,  -0.00014,   0.31147,   1.00000
116452164.80425,-317705023.03083,-156979746.70620,   0.00122,  -0.00178,  -0.00218,475253749.23930,   0.00013,274787266.44571,   0.00007,  -0.00011,  -0.00014,   0.31234,   1.00000
117200919.66912,-317668177.43129,-156572464.00554,   0.00123,  -0.00178,  -0.00218,475233888.49867,   0.00014,274789361.98607,   0.00008,  -0.00011,  -0.00015,   0.28173,   1.00000
117948417.91493,-317629934.82887,-156164854.26633,   0.00123,  -0.00178,  -0.00218,475238169.70622,   0.00014,274791467.84589,   0.00008,  -0.00011,  -0.00015,   0.28258,   1.00000
118697007.89959,-317595532.50412,-155751264.91792,   0.00124,  -0.00179,  -0.00217,475234215.93429,   0.00014,274793545.33589,   0.00008,  -0.00011,  -0.00015,   0.27315,   1.00000
119434230.02144,-317557660.26548,-155344920.61287,   0.00124,  -0.00179,  -0.00217,475215392.42562,   0.00014,274795524.81260,   0.00008,  -0.00011,  -0.00015,   0.24632,   1.00000
120199808.36663,-317506482.24603,-154930196.21008,   0.00125,  -0.00179,  -0.00217,475218547.23086,   0.00014,274797509.87162,   0.00008,  -0.00011,  -0.00015,   0.24595,   1.00000
120936937.53494,-317471040.89436,-154517483.61917,   0.00125,  -0.00179,  -0.00216,475215521.42297,   0.00015,274799471.47628,   0.00008,  -0.00011,  -0.00016,   0.23855,   1.00000
121690037.66066,-317415039.11341,-154109614.08250,   0.00125,  -0.00180,  -0.00216,475203730.67279,   0.00015,274801368.60858,   0.00008,  -0.00012,  -0.00016,   0.22154,   1.00000
122446682.61695,-317367992.61350,-153689934.54146,   0.00126,  -0.00180,  -0.00216,475191537.97372,   0.00015,274803199.68090,   0.00008,  -0.00012,  -0.00016,   0.20492,   1.00000
123216956.81367,-317295191.91937,-153280774.46617,   0.00126,  -0.00180,  -0.00215,475187805.21552,   0.00015,274805004.70893,   0.00008,  -0.00012,  -0.00016,   0.19765,   1.00000
123988407.09244,-317226141.44833,-152865481.98277,   0.00127,  -0.00180,  -0.00215,475183733.19585,   0.00015,274806782.22051,   0.00008,  -0.00012,  -0.00016,   0.19024,   1.00000
124761030.94132,-317160798.08429,-152444031.13866,   0.00127,  -0.00181,  -0.00215,475179696.27042,   0.00015,274808532.50729,   0.00009,  -0.00012,  -0.00016,   0.18308,   1.00000
125520278.13324,-317087039.01441,-152035481.26886,   0.00128,  -0.00181,  -0.00214,475168364.09100,   0.00016,274810221.45315,   0.00009,  -0.00012,  -0.00016,   0.16921,   1.00000
126310202.08800,-317004775.41994,-151612543.60989,   0.00128,  -0.00181,  -0.00214,475163704.41695,   0.00016,274811880.66689,   0.00009,  -0.00012,  -0.00017,   0.16202,   1.00000
127089240.06265,-316919233.19064,-151196675.13144,   0.00128,  -0.00181,  -0.00213,475144202.99462,   0.00016,274813440.61720,   0.00009,  -0.00012,  -0.00017,   0.14210,   1.00000
127849727.32536,-316851458.39399,-150775322.92901,   0.00129,  -0.00182,  -0.00213,475163948.22981,   0.00016,274815085.99234,   0.00009,  -0.00013,  -0.00017,   0.15691,   1.00000
128646250.29746,-316748962.95542,-150357830.40245,   0.00129,  -0.00182,  -0.00212,475128029.35042,   0.00016,274816555.09358,   0.00009,  -0.00013,  -0.00017,   0.12407,   1.00000
129441601.03877,-316645041.11260,-149939893.84141,   0.00130,  -0.00182,  -0.00212,475131795.11109,   0.00016,274818035.04102,   0.00009,  -0.00013,  -0.00017,   0.12488,   1.00000
130208852.28493,-316557144.63658,-149523949.37250,   0.00130,  -0.00182,  -0.00212,475127856.83690,   0.00016,274819489.61024,   0.00009,  -0.00013,  -0.00017,   0.11969,   1.00000
130979841.92899,-316477877.55430,-149095808.54146,   0.00131,  -0.00183,  -0.00211,475115749.53450,   0.00016,274820880.56431,   0.00009,  -0.00013,  -0.00017,   0.10860,   1.00000
131791618.56632,-316355492.49514,-148675673.85823,   0.00131,  -0.00183,  -0.00211,475119170.47246,   0.00017,274822281.11409,   0.00009,  -0.00013,  -0.00018,   0.10916,   1.00000
132577804.23448,-316254162.06666,-148251607.94238,   0.00131,  -0.00183,  -0.00210,475107236.22176,   0.00017,274823619.11094,   0.00009,  -0.00013,  -0.00018,   0.09881,   1.00000
133380390.33279,-316132205.63416,-147832046.98755,   0.00132,  -0.00183,  -0.00210,475094953.75126,   0.00017,274824893.21214,   0.00009,  -0.00013,  -0.00018,   0.08883,   1.00000
134157489.69246,-316031338.18431,-147408525.07608,   0.00132,  -0.00183,  -0.00209,475082829.75759,   0.00017,274826104.45279,   0.00010,  -0.00013,  -0.00018,   0.07962,   1.00000
134977868.32775,-315892265.82205,-146987007.57784,   0.00133,  -0.00184,  -0.00209,475078331.91311,   0.00017,274827288.94281,   0.00010,  -0.00013,  -0.00018,   0.07546,   1.00000
135772816.73270,-315774275.64989,-146561484.05313,   0.00133,  -0.00184,  -0.00209,475066132.15212,   0.00017,274828410.63095,   0.00010,  -0.00014,  -0.00018,   0.06709,   1.00000
136564200.85255,-315649949.75369,-146141455.23185,   0.00133,  -0.00184,  -0.00208,475077298.97624,   0.00017,274829579.54883,   0.00010,  -0.00014,  -0.00018,   0.07223,   1.00000
137377093.95560,-315514777.28431,-145713836.38828,   0.00134,  -0.00184,  -0.00208,475049407.43213,   0.00017,274830612.03312,   0.00010,  -0.00014,  -0.00018,   0.05585,   1.00000
138162201.93153,-315395827.40109,-145288174.77196,   0.00134,  -0.00184,  -0.00207,475044708.17645,   0.00017,274831617.64373,   0.00010,  -0.00014,  -0.00018,   0.05252,   1.00000
138972919.88501,-315257754.95189,-144859531.28284,   0.00135,  -0.00184,  -0.00207,475056125.15482,   0.00018,274832672.20867,   0.00010,  -0.00014,  -0.00018,   0.05724,   1.00000
139773619.39629,-315116726.64909,-144437702.61601,   0.00135,  -0.00185,  -0.00206,475035468.51654,   0.00018,274833624.83742,   0.00010,  -0.00014,  -0.00019,   0.04629,   1.00000
140575758.14911,-314979110.51586,-144009306.57427,   0.00135,  -0.00185,  -0.00206,475031086.12317,   0.00018,274834552.45081,   0.00010,  -0.00014,  -0.00019,   0.04349,   1.00000
141394611.19282,-314820813.23033,-143585196.18803,   0.00136,  -0.00185,  -0.00205,475018449.56021,   0.00018,274835416.38873,   0.00010,  -0.00014,  -0.00019,   0.03737,   1.00000
142188344.69151,-314683667.24583,-143156961.99008,   0.00136,  -0.00185,  -0.00205,475005789.13316,   0.00018,274836216.82958,   0.00010,  -0.00014,  -0.00019,   0.03179,   1.00000
143025425.91633,-314508020.36779,-142730467.03814,   0.00137,  -0.00185,  -0.00204,475001328.21078,   0.00018,274836992.59442,   0.00010,  -0.00014,  -0.00019,   0.02957,   1.00000
143834939.13725,-314348748.97149,-142305915.52496,   0.00137,  -0.00185,  -0.00204,474996126.72632,   0.00018,274837740.31462,   0.00010,  -0.00014,  -0.00019,   0.02721,   1.00000
144645951.00994,-314192797.78078,-141874692.61589,   0.00137,  -0.00185,  -0.00203,474991673.44695,   0.00018,274838463.63471,   0.00010,  -0.00014,  -0.00019,   0.02522,   1.00000
145429474.33362,-314053282.79421,-141445426.55654,   0.00138,  -0.00186,  -0.00203,474986307.59176,   0.00018,274839158.37647,   0.00010,  -0.00014,  -0.00019,   0.02305,   1.00000
146250358.32966,-313878517.12308,-141018893.46684,   0.00138,  -0.00186,  -0.00202,474950078.26357,   0.00018,274839679.63493,   0.00010,  -0.00014,  -0.00019,   0.01285,   1.00000
147052344.64109,-313721587.95573,-140587073.55548,   0.00138,  -0.00186,  -0.00202,474968795.72346,   0.00018,274840286.43705,   0.00010,  -0.00014,  -0.00019,   0.01725,   1.00000
147871304.93488,-313543927.84471,-140159369.10881,   0.00139,  -0.00186,  -0.00201,474955867.28870,   0.00018,274840829.65788,   0.00010,  -0.00015,  -0.00019,   0.01368,   1.00000
148689291.02902,-313364823.98257,-139731084.77637,   0.00139,  -0.00186,  -0.00201,474958742.01095,   0.00018,274841383.86696,   0.00010,  -0.00015,  -0.00019,   0.01410,   1.00000
149500495.23154,-313187626.11430,-139303196.89238,   0.00140,  -0.00186,  -0.00200,474929777.66300,   0.00018,274841799.35630,   0.00010,  -0.00015,  -0.00019,   0.00785,   1.00000
150310768.96797,-313008993.56343,-138874715.11934,   0.00140,  -0.00186,  -0.00200,474932501.54114,   0.00018,274842225.71967,   0.00010,  -0.00015,  -0.00019,   0.00818,   1.00000
151122644.56034,-312833545.51197,-138439407.04287,   0.00140,  -0.00186,  -0.00199,474927910.96297,   0.00018,274842628.52206,   0.00011,  -0.00015,  -0.00019,   0.00723,   1.00000
151925383.02227,-312655379.03903,-138010638.38726,   0.00141,  -0.00187,  -0.00199,474906087.06526,   0.00018,274842926.85417,   0.00011,  -0.00015,  -0.00019,   0.00393,   1.00000
152745321.01751,-312456452.20807,-137585851.19670,   0.00141,  -0.00187,  -0.00198,474892844.37715,   0.00019,274843161.54072,   0.00011,  -0.00015,  -0.00019,   0.00240,   1.00000
153546260.38968,-312275436.78357,-137155877.05136,   0.00141,  -0.00187,  -0.00198,474911196.92948,   0.00019,274843481.42591,   0.00011,  -0.00015,  -0.00019,   0.00442,   1.00000
154340799.89815,-312096339.85144,-136726121.33726,   0.00142,  -0.00187,  -0.00197,474881890.59852,   0.00019,274843662.02603,   0.00011,  -0.00015,  -0.00019,   0.00139,   1.00000
155178794.82672,-311878307.86543,-136297734.04788,   0.00142,  -0.00187,  -0.00197,474877426.11605,   0.00019,274843820.79457,   0.00011,  -0.00015,  -0.00019,   0.00107,   1.00000
155992329.77741,-311681508.39104,-135864944.16695,   0.00142,  -0.00187,  -0.00196,474863811.56065,   0.00019,274843914.80240,   0.00011,  -0.00015,  -0.00019,   0.00037,   1.00000
156776344.43948,-311496954.13144,-135440400.92172,   0.00143,  -0.00187,  -0.00195,474864415.82786,   0.00019,274844011.21513,   0.00011,  -0.00015,  -0.00019,   0.00039,   1.00000
157580243.34919,-311295979.40401,-135013329.62594,   0.00143,  -0.00187,  -0.00195,474843778.10523,   0.00019,274844011.21513,   0.00011,  -0.00015,  -0.00019,-233.10990,   0.00000
158384142.25890,-311095004.67658,-134577884.38318,   0.00143,  -0.00187,  -0.00194,474838682.95000,   0.00019,274844011.21513,   0.00011,  -0.00015,  -0.00019,-5328.26512,   0.00000
159188041.16861,-310894029.94916,-134150813.08739,   0.00144,  -0.00187,  -0.00194,474842988.68550,   0.00019,274844011.21513,   0.00011,  -0.00015,  -0.00019,-1022.52963,   0.00000
159975192.18437,-310676307.32778,-133715367.84463,   0.00144,  -0.00187,  -0.00193,474817576.35393,   0.00019,274844011.21513,   0.00011,  -0.00015,  -0.00019,-26434.86120,   0.00000
160762343.20013,-310458584.70639,-133279922.60187,   0.00144,  -0.00187,  -0.00193,474794404.62096,   0.00019,274844011.21513,   0.00011,  -0.00015,  -0.00019,-49606.59417,   0.00000
161562055.13636,-310211553.27060,-132836103.41213,   0.00145,  -0.00187,  -0.00192,474750684.70202,   0.00019,274844011.21513,   0.00011,  -0.00015,  -0.00019,-93326.51311,   0.00000
162332458.25816,-309977082.75527,-132400658.16937,   0.00145,  -0.00187,  -0.00191,474707029.16221,   0.00019,274844011.21513,   0.00011,  -0.00015,  -0.00019,-136982.05292,   0.00000
163102861.37997,-309742612.23993,-131956838.97964,   0.00145,  -0.00187,  -0.00191,474658569.53781,   0.00019,274844011.21513,   0.00011,  -0.00015,  -0.00019,-185441.67731,   0.00000
163885825.42224,-309478832.91018,-131504645.84292,   0.00146,  -0.00188,  -0.00190,474589634.74858,   0.00019,274844011.21513,   0.00011,  -0.00015,  -0.00019,-254376.46654,   0.00000
164639480.65010,-309227614.50090,-131060826.65319,   0.00146,  -0.00188,  -0.00190,474520569.48229,   0.00019,274844011.21513,   0.00011,  -0.00015,  -0.00019,-323441.73284,   0.00000
165405696.79842,-308947087.27720,-130608633.51647,   0.00146,  -0.00188,  -0.00189,474431028.66748,   0.00019,274844011.21513,   0.00011,  -0.00015,  -0.00019,-412982.54765,   0.00000
166171912.94674,-308666560.05349,-130156440.37976,   0.00146,  -0.00188,  -0.00189,474343714.63255,   0.00019,274844011.21513,   0.00011,  -0.00015,  -0.00019,-500296.58258,   0.00000
166908820.28064,-308398593.75026,-129704247.24305,   0.00147,  -0.00188,  -0.00188,474249161.97325,   0.00019,274844011.21513,   0.00011,  -0.00015,  -0.00019,-594849.24188,   0.00000
167658288.53501,-308101318.63260,-129252054.10633,   0.00147,  -0.00188,  -0.00187,474141059.71438,   0.00019,274844011.21513,   0.00011,  -0.00015,  -0.00019,-702951.50075,   0.00000
168378447.97496,-307816604.43541,-128791487.02265,   0.00147,  -0.00188,  -0.00187,474018762.51143,   0.00019,274844011.21513,   0.00011,  -0.00015,  -0.00019,-825248.70369,   0.00000
169098607.41491,-307531890.23822,-128330919.93896,   0.00148,  -0.00188,  -0.00186,473898609.36201,   0.00019,274844011.21513,   0.00011,  -0.00015,  -0.00019,-945401.85312,   0.00000
169831327.77532,-307217867.22662,-127870352.85527,   0.00148,  -0.00188,  -0.00186,473764918.03698,   0.00019,274844011.21513,   0.00011,  -0.00015,  -0.00019,-1079093.17814,   0.00000
170534739.32132,-306916405.13548,-127409785.77158,   0.00148,  -0.00188,  -0.00185,473623739.61930,   0.00019,274844011.21513,   0.00011,  -0.00015,  -0.00019,-1220271.59583,   0.00000
171250711.78778,-306585634.22992,-126940844.74091,   0.00148,  -0.00188,  -0.00184,473462247.36548,   0.00019,274844011.21513,   0.00011,  -0.00015,  -0.00019,-1381763.84965,   0.00000
171966684.25424,-306254863.32436,-126471903.71025,   0.00149,  -0.00188,  -0.00184,473302907.73471,   0.00019,274844011.21513,   0.00011,  -0.00015,  -0.00019,-1541103.48042,   0.00000
172653347.90629,-305936653.33926,-126002962.67958,   0.00149,  -0.00188,  -0.00183,473135965.29755,   0.00019,274844011.21513,   0.00011,  -0.00015,  -0.00019,-1708045.91758,   0.00000
173352572.47880,-305589134.53975,-125534021.64892,   0.00149,  -0.00188,  -0.00183,472955460.80140,   0.00019,274844011.21513,   0.00011,  -0.00015,  -0.00019,-1888550.41373,   0.00000
174022488.23689,-305254176.66071,-125065080.61825,   0.00149,  -0.00188,  -0.00182,472767229.53089,   0.00019,274844011.21513,   0.00011,  -0.00015,  -0.00019,-2076781.68424,   0.00000
174704964.91545,-304889909.96724,-124587765.64061,   0.00150,  -0.00188,  -0.00181,472558776.27212,   0.00019,274844011.21513,   0.00011,  -0.00015,  -0.00019,-2285234.94301,   0.00000
175358132.77959,-304538204.19424,-124110450.66297,   0.00150,  -0.00188,  -0.00181,472342519.03110,   0.00019,274844011.21513,   0.00011,  -0.00015,  -0.00019,-2501492.18403,   0.00000
176011300.64373,-304186498.42125,-123633135.68533,   0.00150,  -0.00187,  -0.00180,472128289.47186,   0.00019,274844011.21513,   0.00011,  -0.00015,  -0.00019,-2715721.74327,   0.00000
176664468.50787,-303834792.64825,-123155820.70768,   0.00150,  -0.00187,  -0.00179,471916090.35582,   0.00019,274844011.21513,   0.00011,  -0.00015,  -0.00019,-2927920.85931,   0.00000
177300888.47806,-303466338.98129,-122678505.73004,   0.00150,  -0.00187,  -0.00179,471680318.41371,   0.00019,274844011.21513,   0.00011,  -0.00015,  -0.00019,-3163692.80142,   0.00000
177949869.36872,-303068576.49993,-122192816.80543,   0.00151,  -0.00187,  -0.00178,471424421.41290,   0.00019,274844011.21513,   0.00011,  -0.00015,  -0.00019,-3419589.80222,   0.00000
178556980.52449,-302712683.75344,-121715501.82778,   0.00151,  -0.00187,  -0.00178,471182573.03542,   0.00019,274844011.21513,   0.00011,  -0.00015,  -0.00019,-3661438.17971,   0.00000
179189213.52119,-302298173.37812,-121229812.90317,   0.00151,  -0.00187,  -0.00177,470905016.34217,   0.00019,274844011.21513,   0.00011,  -0.00015,  -0.00019,-3938994.87296,   0.00000
179808885.59742,-301912971.81722,-120744123.97855,   0.00151,  -0.00187,  -0.00176,470645029.00508,   0.00019,274844011.21513,   0.00011,  -0.00015,  -0.00019,-4198982.21005,   0.00000
180411809.77971,-301511022.36236,-120258435.05393,   0.00151,  -0.00187,  -0.00176,470361287.23756,   0.00019,274844011.21513,   0.00011,  -0.00015,  -0.00019,-4482723.97757,   0.00000
180985425.14758,-301121633.82797,-119772746.12931,   0.00152,  -0.00187,  -0.00175,470069273.12964,   0.00019,274844011.21513,   0.00011,  -0.00015,  -0.00019,-4774738.08548,   0.00000
181559040.51544,-300732245.29358,-119278683.25772,   0.00152,  -0.00187,  -0.00174,469772752.82720,   0.00019,274844011.21513,   0.00011,  -0.00015,  -0.00019,-5071258.38793,   0.00000
182145216.80378,-300313547.94477,-118792994.33310,   0.00152,  -0.00187,  -0.00174,469468965.84444,   0.00019,274844011.21513,   0.00011,  -0.00015,  -0.00019,-5375045.37068,   0.00000
182702084.27769,-299907411.51642,-118298931.46151,   0.00152,  -0.00187,  -0.00173,469150431.96301,   0.00019,274844011.21513,   0.00011,  -0.00015,  -0.00019,-5693579.25212,   0.00000
183271512.67207,-299471966.27366,-117804868.58991,   0.00152,  -0.00187,  -0.00173,468818245.58483,   0.00019,274844011.21513,   0.00011,  -0.00015,  -0.00019,-6025765.63030,   0.00000
183811632.25203,-299049081.95137,-117310805.71832,   0.00153,  -0.00187,  -0.00172,468477582.02384,   0.00019,274844011.21513,   0.00011,  -0.00015,  -0.00019,-6366429.19128,   0.00000
184351751.83200,-298626197.62907,-116816742.84673,   0.00153,  -0.00187,  -0.00171,468138752.09998,   0.00019,274844011.21513,   0.00011,  -0.00015,  -0.00019,-6705259.11515,   0.00000
184875123.51801,-298186565.41282,-116322679.97513,   0.00153,  -0.00186,  -0.00171,467775816.85075,   0.00019,274844011.21513,   0.00011,  -0.00015,  -0.00019,-7068194.36438,   0.00000
185398495.20402,-297746933.19657,-115828617.10354,   0.00153,  -0.00186,  -0.00170,467414673.75178,   0.00019,274844011.21513,   0.00011,  -0.00015,  -0.00019,-7429337.46334,   0.00000
185892558.07561,-297319861.90079,-115326180.28497,   0.00153,  -0.00186,  -0.00169,467038624.42135,   0.00019,274844011.21513,   0.00011,  -0.00015,  -0.00019,-7805386.79378,   0.00000
186386620.94720,-296892790.60500,-114832117.41337,   0.00153,  -0.00186,  -0.00169,466670538.14732,   0.00019,274844011.21513,   0.00011,  -0.00015,  -0.00019,-8173473.06780,   0.00000
186863935.92485,-296448971.41527,-114329680.59480,   0.00153,  -0.00186,  -0.00168,466271994.00860,   0.00019,274844011.21513,   0.00011,  -0.00015,  -0.00019,-8572017.20653,   0.00000
187353811.82295,-295975843.41111,-113827243.77623,   0.00154,  -0.00186,  -0.00167,465859718.62265,   0.00019,274844011.21513,   0.00011,  -0.00015,  -0.00019,-8984292.59248,   0.00000
187801817.98618,-295544585.14184,-113333180.90464,   0.00154,  -0.00186,  -0.00167,465460164.47498,   0.00019,274844011.21513,   0.00011,  -0.00015,  -0.00019,-9383846.74015,   0.00000
188262385.06987,-295084018.05815,-112830744.08607,   0.00154,  -0.00186,  -0.00166,465040702.31993,   0.00019,274844011.21513,   0.00011,  -0.00015,  -0.00019,-9803308.89520,   0.00000
188693643.33914,-294636011.89493,-112328307.26750,   0.00154,  -0.00186,  -0.00165,464612267.30044,   0.00019,274844011.21513,   0.00011,  -0.00015,  -0.00019,-10231743.91469,   0.00000
189137462.52888,-294158696.91728,-111825870.44893,   0.00154,  -0.00185,  -0.00165,464170037.94370,   0.00019,274844011.21513,   0.00011,  -0.00015,  -0.00019,-10673973.27143,   0.00000
189551972.90420,-293693942.86011,-111323433.63036,   0.00154,  -0.00185,  -0.00164,463718739.57119,   0.00019,274844011.21513,   0.00011,  -0.00015,  -0.00019,-11125271.64394,   0.00000
189966483.27952,-293229188.80293,-110820996.81179,   0.00154,  -0.00185,  -0.00163,463269057.60096,   0.00019,274844011.21513,   0.00011,  -0.00015,  -0.00019,-11574953.61416,   0.00000
190364245.76088,-292747686.85180,-110310186.04624,   0.00154,  -0.00185,  -0.00163,462788783.64071,   0.00019,274844011.21513,   0.00011,  -0.00015,  -0.00019,-12055227.57442,   0.00000
190762008.24225,-292266184.90067,-109807749.22767,   0.00154,  -0.00185,  -0.00162,462316100.05418,   0.00019,274844011.21513,   0.00011,  -0.00015,  -0.00019,-12527911.16095,   0.00000
191130461.90920,-291797243.87000,-109305312.40910,   0.00154,  -0.00185,  -0.00161,461834148.76665,   0.00019,274844011.21513,   0.00011,  -0.00015,  -0.00019,-13009862.44848,   0.00000
191498915.57615,-291328302.83934,-108794501.64356,   0.00155,  -0.00185,  -0.00161,461347807.55530,   0.00019,274844011.21513,   0.00011,  -0.00015,  -0.00019,-13496203.65983,   0.00000
191850621.34915,-290842613.91472,-108292064.82499,   0.00155,  -0.00184,  -0.00160,460842638.09606,   0.00019,274844011.21513,   0.00011,  -0.00015,  -0.00019,-14001373.11907,   0.00000
192202327.12215,-290356924.99010,-107781254.05944,   0.00155,  -0.00184,  -0.00159,460333087.33990,   0.00019,274844011.21513,   0.00011,  -0.00015,  -0.00019,-14510923.87522,   0.00000
192537285.00120,-289854488.17153,-107278817.24087,   0.00155,  -0.00184,  -0.00159,459804589.48620,   0.00019,274844011.21513,   0.00011,  -0.00015,  -0.00019,-15039421.72893,   0.00000
192830373.14537,-289393921.08784,-106768006.47532,   0.00155,  -0.00184,  -0.00158,459276119.32202,   0.00019,274844011.21513,   0.00011,  -0.00015,  -0.00019,-15567891.89311,   0.00000
193136022.21000,-288904045.18974,-106265569.65675,   0.00155,  -0.00184,  -0.00158,458739536.52791,   0.00019,274844011.21513,   0.00011,  -0.00015,  -0.00019,-16104474.68722,   0.00000
193424923.38067,-288397421.39768,-105754758.89121,   0.00155,  -0.00184,  -0.00157,458172161.82904,   0.00019,274844011.21513,   0.00011,  -0.00015,  -0.00019,-16671849.38609,   0.00000
193701263.63089,-287920106.42004,-105252322.07264,   0.00155,  -0.00184,  -0.00156,457627369.76330,   0.00019,274844011.21513,   0.00011,  -0.00015,  -0.00019,-17216641.45183,   0.00000
193960855.98715,-287426043.54845,-104741511.30709,   0.00155,  -0.00183,  -0.00156,457051745.62353,   0.00019,274844011.21513,   0.00011,  -0.00015,  -0.00019,-17792265.59160,   0.00000
194220448.34341,-286931980.67685,-104230700.54155,   0.00155,  -0.00183,  -0.00155,456477511.85258,   0.00019,274844011.21513,   0.00011,  -0.00015,  -0.00019,-18366499.36255,   0.00000
194463292.80572,-286421169.91131,-103728263.72298,   0.00155,  -0.00183,  -0.00154,455883889.53479,   0.00019,274844011.21513,   0.00011,  -0.00015,  -0.00019,-18960121.68034,   0.00000
194693576.34756,-285939667.96018,-103217452.95743,   0.00155,  -0.00183,  -0.00154,455301248.34448,   0.00019,274844011.21513,   0.00011,  -0.00015,  -0.00019,-19542762.87065,   0.00000
194907111.99545,-285441418.11509,-102706642.19188,   0.00155,  -0.00183,  -0.00153,454693425.26768,   0.00019,274844011.21513,   0.00011,  -0.00015,  -0.00019,-20150585.94744,   0.00000
195103899.74939,-284926420.37606,-102204205.37331,   0.00155,  -0.00182,  -0.00152,454066020.82815,   0.00019,274844011.21513,   0.00011,  -0.00015,  -0.00019,-20777990.38698,   0.00000
195288126.58287,-284440731.45144,-101693394.60777,   0.00155,  -0.00182,  -0.00152,453449577.33186,   0.00019,274844011.21513,   0.00011,  -0.00015,  -0.00019,-21394433.88327,   0.00000
195455605.52239,-283938294.63287,-101182583.84222,   0.00155,  -0.00182,  -0.00151,452807824.59734,   0.00019,274844011.21513,   0.00011,  -0.00015,  -0.00019,-22036186.61779,   0.00000
195623084.46192,-283435857.81430,-100680147.02365,   0.00155,  -0.00182,  -0.00150,452172919.83950,   0.00019,274844011.21513,   0.00011,  -0.00015,  -0.00019,-22671091.37563,   0.00000
195773815.50749,-282916673.10178,-100169336.25810,   0.00155,  -0.00182,  -0.00150,451507026.63450,   0.00019,274844011.21513,   0.00011,  -0.00015,  -0.00019,-23336984.58063,   0.00000
195882676.81818,-282439358.12414,-99658525.49256,   0.00155,  -0.00181,  -0.00149,450846378.17470,   0.00019,274844011.21513,   0.00011,  -0.00015,  -0.00019,-23997633.04043,   0.00000
196004099.04933,-281932734.33208,-99156088.67399,   0.00155,  -0.00181,  -0.00148,450177115.01225,   0.00019,274844011.21513,   0.00011,  -0.00015,  -0.00019,-24666896.20288,   0.00000
196096212.46607,-281438671.46049,-98645277.90844,   0.00155,  -0.00181,  -0.00148,449492136.09669,   0.00019,274844011.21513,   0.00011,  -0.00015,  -0.00019,-25351875.11844,   0.00000
196200886.80327,-280915299.77447,-98142841.08987,   0.00155,  -0.00181,  -0.00147,448798480.76136,   0.00019,274844011.21513,   0.00011,  -0.00015,  -0.00019,-26045530.45376,   0.00000
196263691.40559,-280433797.82335,-97632030.32433,   0.00155,  -0.00181,  -0.00146,448104411.84753,   0.00019,274844011.21513,   0.00011,  -0.00015,  -0.00019,-26739599.36759,   0.00000
196309748.11396,-279935547.97826,-97129593.50576,   0.00155,  -0.00180,  -0.00146,447390186.46143,   0.00019,274844011.21513,   0.00011,  -0.00015,  -0.00019,-27453824.75370,   0.00000
196355804.82233,-279437298.13318,-96627156.68719,   0.00154,  -0.00180,  -0.00145,446677023.67154,   0.00019,274844011.21513,   0.00011,  -0.00015,  -0.00019,-28166987.54359,   0.00000
196414422.45117,-278909739.47368,-96116345.92164,   0.00154,  -0.00180,  -0.00144,445944188.63218,   0.00019,274844011.21513,   0.00011,  -0.00015,  -0.00019,-28899822.58295,   0.00000
196401861.53070,-278436611.46953,-95613909.10307,   0.00154,  -0.00180,  -0.00144,445210248.61540,   0.00019,274844011.21513,   0.00011,  -0.00015,  -0.00019,-29633762.59973,   0.00000
196401861.53070,-277934174.65096,-95111472.28450,   0.00154,  -0.00180,  -0.00143,444461992.09433,   0.00019,274844011.21513,   0.00011,  -0.00015,  -0.00019,-30382019.12080,   0.00000
196401861.53070,-277431737.83239,-94609035.46593,   0.00154,  -0.00179,  -0.00142,443714749.47626,   0.00019,274844011.21513,   0.00011,  -0.00015,  -0.00019,-31129261.73886,   0.00000
196355804.82233,-276925114.04033,-94106598.64736,   0.00154,  -0.00179,  -0.00142,442930164.07048,   0.00019,274844011.21513,   0.00011,  -0.00015,  -0.00019,-31913847.14464,   0.00000
196297187.19350,-276447799.06269,-93604161.82879,   0.00154,  -0.00179,  -0.00141,442161864.03119,   0.00019,274844011.21513,   0.00011,  -0.00015,  -0.00019,-32682147.18394,   0.00000
196251130.48513,-275941175.27063,-93101725.01022,   0.00154,  -0.00179,  -0.00140,441379201.61729,   0.00019,274844011.21513,   0.00011,  -0.00015,  -0.00019,-33464809.59783,   0.00000
196175764.96234,-275447112.39904,-92599288.19165,   0.00154,  -0.00178,  -0.00140,440585945.06620,   0.00019,274844011.21513,   0.00011,  -0.00015,  -0.00019,-34258066.14893,   0.00000
196071090.62514,-274965610.44791,-92096851.37308,   0.00153,  -0.00178,  -0.00139,439782055.94517,   0.00019,274844011.21513,   0.00011,  -0.00015,  -0.00019,-35061955.26996,   0.00000
195978977.20840,-274454799.68236,-91602788.50148,   0.00153,  -0.00178,  -0.00138,438968996.73185,   0.00019,274844011.21513,   0.00011,  -0.00015,  -0.00019,-35875014.48328,   0.00000
195844994.05679,-273985858.65170,-91100351.68291,   0.00153,  -0.00178,  -0.00138,438155330.36555,   0.00019,274844011.21513,   0.00011,  -0.00015,  -0.00019,-36688680.84958,   0.00000
195694263.01121,-273500169.72708,-90597914.86434,   0.00153,  -0.00177,  -0.00137,437315616.11464,   0.00019,274844011.21513,   0.00011,  -0.00015,  -0.00019,-37528395.10049,   0.00000
195543531.96564,-273014480.80246,-90103851.99275,   0.00153,  -0.00177,  -0.00136,436481967.44781,   0.00019,274844011.21513,   0.00011,  -0.00015,  -0.00019,-38362043.76732,   0.00000
195363492.10566,-272541352.79831,-89609789.12116,   0.00153,  -0.00177,  -0.00136,435637528.66086,   0.00019,274844011.21513,   0.00011,  -0.00015,  -0.00019,-39206482.55427,   0.00000
195166704.35172,-272051476.90020,-89107352.30259,   0.00152,  -0.00177,  -0.00135,434761773.19867,   0.00019,274844011.21513,   0.00011,  -0.00015,  -0.00019,-40082238.01646,   0.00000
194969916.59778,-271561601.00210,-88613289.43099,   0.00152,  -0.00176,  -0.00135,433891990.48478,   0.00019,274844011.21513,   0.00011,  -0.00015,  -0.00019,-40952020.73035,   0.00000
194731259.10896,-271113594.83887,-88119226.55940,   0.00152,  -0.00176,  -0.00134,433026708.79915,   0.00019,274844011.21513,   0.00011,  -0.00015,  -0.00019,-41817302.41598,   0.00000
194505162.54060,-270636279.86123,-87625163.68780,   0.00152,  -0.00176,  -0.00133,432146868.28647,   0.00019,274844011.21513,   0.00011,  -0.00015,  -0.00019,-42697142.92866,   0.00000
194262318.07829,-270142216.98964,-87139474.76319,   0.00152,  -0.00176,  -0.00133,431245849.94461,   0.00019,274844011.21513,   0.00011,  -0.00015,  -0.00019,-43598161.27051,   0.00000
193977603.88110,-269690023.85292,-86645411.89159,   0.00151,  -0.00175,  -0.00132,430344195.49526,   0.00019,274844011.21513,   0.00011,  -0.00015,  -0.00019,-44499815.71987,   0.00000
193692889.68391,-269237830.71621,-86151349.02000,   0.00151,  -0.00175,  -0.00131,429443317.86677,   0.00019,274844011.21513,   0.00011,  -0.00015,  -0.00019,-45400693.34836,   0.00000
193362118.77835,-268781450.60601,-85665660.09538,   0.00151,  -0.00175,  -0.00131,428509444.35864,   0.00019,274844011.21513,   0.00011,  -0.00015,  -0.00019,-46334566.85649,   0.00000
193060656.68721,-268312509.57534,-85179971.17076,   0.00151,  -0.00174,  -0.00130,427587992.95242,   0.00019,274844011.21513,   0.00011,  -0.00015,  -0.00019,-47256018.26271,   0.00000
192700576.96723,-267868690.38561,-84694282.24615,   0.00151,  -0.00174,  -0.00129,426643836.44527,   0.00019,274844011.21513,   0.00011,  -0.00015,  -0.00019,-48200174.76986,   0.00000
192340497.24726,-267424871.19587,-84200219.37455,   0.00150,  -0.00174,  -0.00129,425695421.80498,   0.00019,274844011.21513,   0.00011,  -0.00015,  -0.00019,-49148589.41015,   0.00000
191963669.63333,-266964304.11218,-83722904.39691,   0.00150,  -0.00174,  -0.00128,424730516.64513,   0.00019,274844011.21513,   0.00011,  -0.00015,  -0.00019,-50113494.57000,   0.00000
191574281.09894,-266533045.84291,-83237215.47229,   0.00150,  -0.00173,  -0.00128,423776767.26088,   0.00019,274844011.21513,   0.00011,  -0.00015,  -0.00019,-51067243.95425,   0.00000
191168144.67060,-266085039.67968,-82751526.54768,   0.00149,  -0.00173,  -0.00127,422796566.53787,   0.00019,274844011.21513,   0.00011,  -0.00015,  -0.00019,-52047444.67725,   0.00000
190732699.42784,-265649594.43692,-82274211.57003,   0.00149,  -0.00173,  -0.00126,421810231.70711,   0.00019,274844011.21513,   0.00011,  -0.00015,  -0.00019,-53033779.50802,   0.00000
190297254.18507,-265214149.19416,-81788522.64542,   0.00149,  -0.00173,  -0.00126,420819678.19412,   0.00019,274844011.21513,   0.00011,  -0.00015,  -0.00019,-54024333.02101,   0.00000
189832500.12790,-264791264.87186,-81311207.66777,   0.00149,  -0.00172,  -0.00125,419822959.54018,   0.00019,274844011.21513,   0.00011,  -0.00015,  -0.00019,-55021051.67494,   0.00000
189338437.25630,-264380941.47003,-80833892.69013,   0.00148,  -0.00172,  -0.00124,418815179.94916,   0.00019,274844011.21513,   0.00011,  -0.00015,  -0.00019,-56028831.26597,   0.00000
188844374.38471,-263970618.06820,-80356577.71249,   0.00148,  -0.00172,  -0.00124,417808077.84207,   0.00019,274844011.21513,   0.00011,  -0.00015,  -0.00019,-57035933.37306,   0.00000
188333563.61916,-263543546.77241,-79887636.68183,   0.00148,  -0.00171,  -0.00123,416779235.38389,   0.00019,274844011.21513,   0.00011,  -0.00015,  -0.00019,-58064775.83124,   0.00000
187780883.11874,-263158345.21151,-79410321.70418,   0.00147,  -0.00171,  -0.00123,415750019.55825,   0.00019,274844011.21513,   0.00011,  -0.00015,  -0.00019,-59093991.65688,   0.00000
187211454.72436,-262756395.75666,-78941380.67352,   0.00147,  -0.00171,  -0.00122,414699028.36478,   0.00019,274844011.21513,   0.00011,  -0.00015,  -0.00019,-60144982.85035,   0.00000
186642026.32998,-262354446.30180,-78464065.69588,   0.00147,  -0.00171,  -0.00121,413643923.89821,   0.00019,274844011.21513,   0.00011,  -0.00015,  -0.00019,-61200087.31691,   0.00000
186072597.93560,-261952496.84694,-77995124.66521,   0.00146,  -0.00170,  -0.00121,412594258.74036,   0.00019,274844011.21513,   0.00011,  -0.00015,  -0.00019,-62249752.47477,   0.00000
185444551.91239,-261575669.23302,-77526183.63455,   0.00146,  -0.00170,  -0.00120,411521837.55859,   0.00019,274844011.21513,   0.00011,  -0.00015,  -0.00019,-63322173.65654,   0.00000
184816505.88917,-261198841.61909,-77065616.55086,   0.00146,  -0.00170,  -0.00120,410454821.78392,   0.00019,274844011.21513,   0.00011,  -0.00015,  -0.00019,-64389189.43121,   0.00000
184159151.05154,-260834574.92562,-76596675.52019,   0.00145,  -0.00169,  -0.00119,409372073.27575,   0.00019,274844011.21513,   0.00011,  -0.00015,  -0.00019,-65471937.93938,   0.00000
183514357.13438,-260440999.41774,-76136108.43650,   0.00145,  -0.00169,  -0.00118,408279092.11140,   0.00019,274844011.21513,   0.00011,  -0.00015,  -0.00019,-66564919.10373,   0.00000
182827693.48233,-260089293.64475,-75667167.40584,   0.00145,  -0.00169,  -0.00118,407186066.18950,   0.00019,274844011.21513,   0.00011,  -0.00015,  -0.00019,-67657945.02563,   0.00000
182124281.93633,-259720839.97779,-75206600.32215,   0.00144,  -0.00168,  -0.00117,406071100.26509,   0.00019,274844011.21513,   0.00011,  -0.00015,  -0.00019,-68772910.95004,   0.00000
181379000.65546,-259394256.04572,-74746033.23846,   0.00144,  -0.00168,  -0.00117,404960863.96130,   0.00019,274844011.21513,   0.00011,  -0.00015,  -0.00019,-69883147.25383,   0.00000
180646280.29504,-259038363.29924,-74293840.10175,   0.00143,  -0.00168,  -0.00116,403840306.38372,   0.00019,274844011.21513,   0.00011,  -0.00015,  -0.00019,-71003704.83141,   0.00000
179884251.12021,-258695031.47321,-73833273.01806,   0.00143,  -0.00168,  -0.00115,402704211.21309,   0.00019,274844011.21513,   0.00011,  -0.00015,  -0.00019,-72139800.00203,   0.00000
179122221.94538,-258351699.64719,-73381079.88134,   0.00142,  -0.00167,  -0.00115,401573468.05170,   0.00019,274844011.21513,   0.00011,  -0.00015,  -0.00019,-73270543.16343,   0.00000
178301575.14171,-258033489.66210,-72928886.74463,   0.00142,  -0.00167,  -0.00114,400420252.60558,   0.00019,274844011.21513,   0.00011,  -0.00015,  -0.00019,-74423758.60955,   0.00000
177480928.33805,-257715279.67700,-72476693.60792,   0.00142,  -0.00167,  -0.00114,399267837.09149,   0.00019,274844011.21513,   0.00011,  -0.00015,  -0.00019,-75576174.12364,   0.00000
176660281.53439,-257397069.69191,-72024500.47120,   0.00141,  -0.00166,  -0.00113,398116228.45605,   0.00019,274844011.21513,   0.00011,  -0.00015,  -0.00019,-76727782.75908,   0.00000
175781017.10189,-257103981.54774,-71580681.28147,   0.00141,  -0.00166,  -0.00112,396946853.46610,   0.00019,274844011.21513,   0.00011,  -0.00015,  -0.00019,-77897157.74902,   0.00000
174931061.48381,-256798332.48311,-71128488.14475,   0.00140,  -0.00166,  -0.00112,395785358.75368,   0.00019,274844011.21513,   0.00011,  -0.00015,  -0.00019,-79058652.46145,   0.00000
174022488.23689,-256517805.25941,-70684668.95502,   0.00140,  -0.00165,  -0.00111,394606189.57565,   0.00019,274844011.21513,   0.00011,  -0.00015,  -0.00019,-80237821.63948,   0.00000
173126475.91044,-256207969.22129,-70240849.76528,   0.00139,  -0.00165,  -0.00111,393412015.43975,   0.00019,274844011.21513,   0.00011,  -0.00015,  -0.00019,-81431995.77538,   0.00000
172159285.03470,-255952563.83852,-69805404.52252,   0.00139,  -0.00165,  -0.00110,392216175.41104,   0.00019,274844011.21513,   0.00011,  -0.00015,  -0.00019,-82627835.80409,   0.00000
171221402.97336,-255684597.53528,-69361585.33278,   0.00138,  -0.00164,  -0.00110,391028319.07836,   0.00019,274844011.21513,   0.00011,  -0.00015,  -0.00019,-83815692.13677,   0.00000
170237464.20366,-255412444.25856,-68926140.09002,   0.00138,  -0.00164,  -0.00109,389807024.18041,   0.00019,274844011.21513,   0.00011,  -0.00015,  -0.00019,-85036987.03472,   0.00000
169240964.51350,-255169599.79625,-68490694.84726,   0.00137,  -0.00164,  -0.00108,388602758.29652,   0.00019,274844011.21513,   0.00011,  -0.00015,  -0.00019,-86241252.91861,   0.00000
168244464.82334,-254926755.33394,-68055249.60450,   0.00137,  -0.00164,  -0.00108,387399557.36330,   0.00019,274844011.21513,   0.00011,  -0.00015,  -0.00019,-87444453.85183,   0.00000
167201908.42480,-254679723.89814,-67619804.36174,   0.00136,  -0.00163,  -0.00107,386158632.74613,   0.00019,274844011.21513,   0.00011,  -0.00015,  -0.00019,-88685378.46900,   0.00000
166146791.10581,-254462001.27676,-67192733.06596,   0.00136,  -0.00163,  -0.00107,384939347.67655,   0.00019,274844011.21513,   0.00011,  -0.00015,  -0.00019,-89904663.53858,   0.00000
165074925.89286,-254227530.76143,-66757287.82319,   0.00135,  -0.00163,  -0.00106,383689413.18269,   0.00019,274844011.21513,   0.00011,  -0.00015,  -0.00019,-91154598.03244,   0.00000
163990499.75944,-254022369.06051,-66330216.52741,   0.00135,  -0.00162,  -0.00106,382461234.79445,   0.00019,274844011.21513,   0.00011,  -0.00015,  -0.00019,-92382776.42067,   0.00000
162889325.73208,-253800459.46564,-65903145.23163,   0.00134,  -0.00162,  -0.00105,381206853.33495,   0.00019,274844011.21513,   0.00011,  -0.00015,  -0.00019,-93637157.88018,   0.00000
161746281.96983,-253620419.60566,-65484447.88282,   0.00134,  -0.00162,  -0.00104,379963124.02444,   0.00019,274844011.21513,   0.00011,  -0.00015,  -0.00019,-94880887.19069,   0.00000
160586490.31363,-253423631.85172,-65057376.58703,   0.00133,  -0.00161,  -0.00104,378688996.93406,   0.00019,274844011.21513,   0.00011,  -0.00015,  -0.00019,-96155014.28107,   0.00000
159426698.65743,-253226844.09778,-64638679.23822,   0.00133,  -0.00161,  -0.00103,377420591.83815,   0.00019,274844011.21513,   0.00011,  -0.00015,  -0.00019,-97423419.37697,   0.00000
158225037.26635,-253071926.07872,-64219981.88942,   0.00132,  -0.00161,  -0.00103,376158869.81917,   0.00019,274844011.21513,   0.00011,  -0.00015,  -0.00019,-98685141.39596,   0.00000
157035936.79574,-252887699.24524,-63801284.54061,   0.00131,  -0.00160,  -0.00102,374882304.67315,   0.00019,274844011.21513,   0.00011,  -0.00015,  -0.00019,-99961706.54197,   0.00000
155804966.59024,-252745342.14665,-63390961.13878,   0.00131,  -0.00160,  -0.00102,373616938.91244,   0.00019,274844011.21513,   0.00011,  -0.00015,  -0.00019,-101227072.30269,   0.00000
154544687.57033,-252615545.96852,-62972263.78997,   0.00130,  -0.00160,  -0.00101,372337995.87041,   0.00019,274844011.21513,   0.00011,  -0.00015,  -0.00019,-102506015.34472,   0.00000
153267660.65646,-252469001.89643,-62561940.38813,   0.00130,  -0.00160,  -0.00101,371037592.68571,   0.00019,274844011.21513,   0.00011,  -0.00015,  -0.00019,-103806418.52942,   0.00000
151978072.82213,-252351766.63877,-62151616.98630,   0.00129,  -0.00159,  -0.00100,369755533.28313,   0.00019,274844011.21513,   0.00011,  -0.00015,  -0.00019,-105088477.93200,   0.00000
150671737.09385,-252217783.48715,-61749667.53145,   0.00128,  -0.00159,  -0.00100,368452084.47063,   0.00019,274844011.21513,   0.00011,  -0.00015,  -0.00019,-106391926.74450,   0.00000
149352840.44510,-252113109.14995,-61339344.12961,   0.00128,  -0.00159,  -0.00099,367162968.08640,   0.00019,274844011.21513,   0.00011,  -0.00015,  -0.00019,-107681043.12872,   0.00000
147975326.16752,-252033556.65367,-60937394.67476,   0.00127,  -0.00158,  -0.00099,365858520.18795,   0.00019,274844011.21513,   0.00011,  -0.00015,  -0.00019,-108985491.02718,   0.00000
146597811.88994,-251954004.15740,-60535445.21990,   0.00126,  -0.00158,  -0.00098,364556257.32137,   0.00019,274844011.21513,   0.00011,  -0.00015,  -0.00019,-110287753.89376,   0.00000
145232858.53283,-251845142.84671,-60133495.76505,   0.00126,  -0.00158,  -0.00098,363239399.17788,   0.00019,274844011.21513,   0.00011,  -0.00015,  -0.00019,-111604612.03725,   0.00000
143826035.44083,-251778151.27090,-59739920.25717,   0.00125,  -0.00157,  -0.00097,361935068.00659,   0.00019,274844011.21513,   0.00011,  -0.00015,  -0.00019,-112908943.20854,   0.00000
142389903.53442,-251723720.61555,-59337970.80231,   0.00124,  -0.00157,  -0.00096,360618381.09234,   0.00019,274844011.21513,   0.00011,  -0.00015,  -0.00019,-114225630.12279,   0.00000
140924462.81359,-251681850.88067,-58944395.29443,   0.00124,  -0.00157,  -0.00096,359297805.62534,   0.00019,274844011.21513,   0.00011,  -0.00015,  -0.00019,-115546205.58978,   0.00000
139459022.09276,-251639981.14579,-58550819.78655,   0.00123,  -0.00156,  -0.00095,357979832.02576,   0.00019,274844011.21513,   0.00011,  -0.00015,  -0.00019,-116864179.18937,   0.00000
137964272.55751,-251610672.33138,-58165618.22565,   0.00122,  -0.00156,  -0.00095,356658200.15807,   0.00019,274844011.21513,   0.00011,  -0.00015,  -0.00019,-118185811.05706,   0.00000
136469523.02227,-251581363.51696,-57772042.71777,   0.00122,  -0.00156,  -0.00094,355335234.14204,   0.00019,274844011.21513,   0.00011,  -0.00015,  -0.00019,-119508777.07309,   0.00000
134932903.75214,-251593924.43742,-57386841.15686,   0.00121,  -0.00156,  -0.00094,354026042.45089,   0.00019,274844011.21513,   0.00011,  -0.00015,  -0.00019,-120817968.76424,   0.00000
133379536.58806,-251589737.46394,-57001639.59596,   0.00120,  -0.00155,  -0.00093,352692472.44697,   0.00019,274844011.21513,   0.00011,  -0.00015,  -0.00019,-122151538.76816,   0.00000
131784299.68910,-251627420.22533,-56616438.03506,   0.00120,  -0.00155,  -0.00093,351369131.79462,   0.00019,274844011.21513,   0.00011,  -0.00015,  -0.00019,-123474879.42051,   0.00000
130201623.71061,-251635794.17230,-56239610.42113,   0.00119,  -0.00155,  -0.00092,350035863.95041,   0.00019,274844011.21513,   0.00011,  -0.00015,  -0.00019,-124808147.26472,   0.00000
128606386.81165,-251673476.93370,-55854408.86022,   0.00118,  -0.00154,  -0.00092,348719232.63965,   0.00019,274844011.21513,   0.00011,  -0.00015,  -0.00019,-126124778.57548,   0.00000
126965093.20432,-251706972.72160,-55477581.24630,   0.00117,  -0.00154,  -0.00091,347372739.75320,   0.00019,274844011.21513,   0.00011,  -0.00015,  -0.00019,-127471271.46192,   0.00000
125311238.67652,-251769777.32392,-55100753.63237,   0.00117,  -0.00154,  -0.00091,346047379.88131,   0.00019,274844011.21513,   0.00011,  -0.00015,  -0.00019,-128796631.33381,   0.00000
123628075.33432,-251845142.84671,-54732299.96542,   0.00116,  -0.00153,  -0.00091,344720004.14437,   0.00019,274844011.21513,   0.00011,  -0.00015,  -0.00019,-130124007.07076,   0.00000
121944911.99211,-251920508.36949,-54355472.35149,   0.00115,  -0.00153,  -0.00090,343392603.94437,   0.00019,274844011.21513,   0.00011,  -0.00015,  -0.00019,-131451407.27076,   0.00000
120232439.83548,-252008434.81274,-53987018.68454,   0.00114,  -0.00153,  -0.00090,342063553.07392,   0.00019,274844011.21513,   0.00011,  -0.00015,  -0.00019,-132780458.14121,   0.00000
118507406.75839,-252125670.07041,-53618565.01759,   0.00114,  -0.00153,  -0.00089,340756467.06402,   0.00019,274844011.21513,   0.00011,  -0.00015,  -0.00019,-134087544.15111,   0.00000
116736316.97293,-252238718.35459,-53250111.35064,   0.00113,  -0.00152,  -0.00089,339416971.86915,   0.00019,274844011.21513,   0.00011,  -0.00015,  -0.00019,-135427039.34598,   0.00000
114981975.08142,-252368514.53272,-52890031.63066,   0.00112,  -0.00152,  -0.00088,338113321.69568,   0.00019,274844011.21513,   0.00011,  -0.00015,  -0.00019,-136730689.51944,   0.00000
113181576.48155,-252494123.73736,-52521577.96371,   0.00111,  -0.00152,  -0.00088,336773786.40426,   0.00019,274844011.21513,   0.00011,  -0.00015,  -0.00019,-138070224.81087,   0.00000
111368616.96121,-252649041.75642,-52161498.24373,   0.00111,  -0.00151,  -0.00087,335461096.40071,   0.00019,274844011.21513,   0.00011,  -0.00015,  -0.00019,-139382914.81441,   0.00000
109526348.62645,-252816520.69594,-51801418.52376,   0.00110,  -0.00151,  -0.00087,334144348.22055,   0.00019,274844011.21513,   0.00011,  -0.00015,  -0.00019,-140699662.99458,   0.00000
107684080.29169,-252983999.63547,-51449712.75076,   0.00109,  -0.00151,  -0.00086,332836796.90727,   0.00019,274844011.21513,   0.00011,  -0.00015,  -0.00019,-142007214.30786,   0.00000
105812503.14252,-253164039.49545,-51089633.03078,   0.00108,  -0.00151,  -0.00086,331521777.94119,   0.00019,274844011.21513,   0.00011,  -0.00015,  -0.00019,-143322233.27394,   0.00000
103928365.07288,-253373388.16986,-50737927.25779,   0.00107,  -0.00150,  -0.00085,330234572.19394,   0.00019,274844011.21513,   0.00011,  -0.00015,  -0.00019,-144609439.02119,   0.00000
101998170.29487,-253578549.87078,-50386221.48479,   0.00106,  -0.00150,  -0.00085,328917268.86476,   0.00019,274844011.21513,   0.00011,  -0.00015,  -0.00019,-145926742.35036,   0.00000
100084723.41082,-253800459.46564,-50034515.71179,   0.00106,  -0.00150,  -0.00084,327633228.10712,   0.00019,274844011.21513,   0.00011,  -0.00015,  -0.00019,-147210783.10801,   0.00000
98112658.89793,-254047490.90144,-49682809.93879,   0.00105,  -0.00149,  -0.00084,326338231.13186,   0.00019,274844011.21513,   0.00011,  -0.00015,  -0.00019,-148505780.08327,   0.00000
96140594.38504,-254294522.33724,-49339478.11277,   0.00104,  -0.00149,  -0.00083,325053682.96193,   0.00019,274844011.21513,   0.00011,  -0.00015,  -0.00019,-149790328.25319,   0.00000
94168529.87216,-254541553.77303,-48996146.28674,   0.00103,  -0.00149,  -0.00083,323775826.11818,   0.00019,274844011.21513,   0.00011,  -0.00015,  -0.00019,-151068185.09695,   0.00000
92167156.54485,-254801146.12930,-48652814.46072,   0.00102,  -0.00149,  -0.00083,322496503.86062,   0.00019,274844011.21513,   0.00011,  -0.00015,  -0.00019,-152347507.35451,   0.00000
90123913.48267,-255102608.22044,-48309482.63470,   0.00101,  -0.00148,  -0.00082,321234998.45450,   0.00019,274844011.21513,   0.00011,  -0.00015,  -0.00019,-153609012.76063,   0.00000
88093231.34095,-255374761.49716,-47966150.80867,   0.00100,  -0.00148,  -0.00082,319962074.36387,   0.00019,274844011.21513,   0.00011,  -0.00015,  -0.00019,-154881936.85125,   0.00000
86020679.46435,-255688784.50877,-47631192.92963,   0.00100,  -0.00148,  -0.00081,318711509.69746,   0.00019,274844011.21513,   0.00011,  -0.00015,  -0.00019,-156132501.51767,   0.00000
83918818.77333,-256015368.44084,-47287861.10360,   0.00099,  -0.00148,  -0.00081,317457351.07703,   0.00019,274844011.21513,   0.00011,  -0.00015,  -0.00019,-157386660.13810,   0.00000
81816958.08231,-256341952.37291,-46952903.22456,   0.00098,  -0.00147,  -0.00080,316215204.11244,   0.00019,274844011.21513,   0.00011,  -0.00015,  -0.00019,-158628807.10268,   0.00000
79702536.47083,-256697845.11940,-46626319.29249,   0.00097,  -0.00147,  -0.00080,315004425.87959,   0.00019,274844011.21513,   0.00011,  -0.00015,  -0.00019,-159839585.33553,   0.00000
77529497.23051,-257078859.70681,-46291361.41344,   0.00096,  -0.00147,  -0.00080,313783728.41045,   0.00019,274844011.21513,   0.00011,  -0.00015,  -0.00019,-161060282.80468,   0.00000
75398327.72508,-257418004.55935,-45964777.48137,   0.00095,  -0.00147,  -0.00079,312563763.52977,   0.00019,274844011.21513,   0.00011,  -0.00015,  -0.00019,-162280247.68536,   0.00000
73195979.67034,-257811580.06723,-45629819.60232,   0.00094,  -0.00146,  -0.00079,311354259.23032,   0.00019,274844011.21513,   0.00011,  -0.00015,  -0.00019,-163489751.98480,   0.00000
70981070.69515,-258234464.38952,-45303235.67025,   0.00093,  -0.00146,  -0.00078,310177786.52720,   0.00019,274844011.21513,   0.00011,  -0.00015,  -0.00019,-164666224.68793,   0.00000
68778722.64042,-258628039.89740,-44976651.73818,   0.00092,  -0.00146,  -0.00078,308991552.53355,   0.00019,274844011.21513,   0.00011,  -0.00015,  -0.00019,-165852458.68158,   0.00000
66534504.85080,-259063485.14017,-44658441.75309,   0.00091,  -0.00146,  -0.00077,307831966.56110,   0.00019,274844011.21513,   0.00011,  -0.00015,  -0.00019,-167012044.65402,   0.00000
64260978.24677,-259511491.30339,-44331857.82102,   0.00090,  -0.00145,  -0.00077,306672611.41935,   0.00019,274844011.21513,   0.00011,  -0.00015,  -0.00019,-168171399.79577,   0.00000
61987451.64274,-259959497.46662,-44013647.83592,   0.00089,  -0.00145,  -0.00077,305527764.45033,   0.00019,274844011.21513,   0.00011,  -0.00015,  -0.00019,-169316246.76480,   0.00000
59713925.03871,-260407503.62984,-43695437.85083,   0.00089,  -0.00145,  -0.00076,304393904.02643,   0.00019,274844011.21513,   0.00011,  -0.00015,  -0.00019,-170450107.18870,   0.00000
57398528.69980,-260897379.52795,-43377227.86573,   0.00088,  -0.00145,  -0.00076,303285197.72639,   0.00019,274844011.21513,   0.00011,  -0.00015,  -0.00019,-171558813.48873,   0.00000
55053823.54648,-261399816.34652,-43059017.88064,   0.00087,  -0.00144,  -0.00075,302182203.14876,   0.00019,274844011.21513,   0.00011,  -0.00015,  -0.00019,-172661808.06637,   0.00000
52709118.39315,-261902253.16509,-42740807.89555,   0.00086,  -0.00144,  -0.00075,301091361.92016,   0.00019,274844011.21513,   0.00011,  -0.00015,  -0.00019,-173752649.29497,   0.00000
50335104.42541,-262417250.90412,-42430971.85743,   0.00085,  -0.00144,  -0.00075,300010663.40245,   0.00019,274844011.21513,   0.00011,  -0.00015,  -0.00019,-174833347.81268,   0.00000
47948529.53720,-262961557.45757,-42112761.87233,   0.00084,  -0.00144,  -0.00074,298959723.58788,   0.00019,274844011.21513,   0.00011,  -0.00015,  -0.00019,-175884287.62725,   0.00000
45545206.75504,-263489116.11707,-41802925.83421,   0.00083,  -0.00144,  -0.00074,297899312.29640,   0.00019,274844011.21513,   0.00011,  -0.00015,  -0.00019,-176944698.91872,   0.00000
43129323.05241,-264045983.59098,-41493089.79610,   0.00082,  -0.00143,  -0.00073,296872993.02388,   0.00019,274844011.21513,   0.00011,  -0.00015,  -0.00019,-177971018.19124,   0.00000
40671569.61491,-264644720.79978,-41191627.70495,   0.00081,  -0.00143,  -0.00073,295879657.27017,   0.00019,274844011.21513,   0.00011,  -0.00015,  -0.00019,-178964353.94496,   0.00000
38226377.09787,-265214149.19416,-40881791.66684,   0.00080,  -0.00143,  -0.00073,294876142.79095,   0.00019,274844011.21513,   0.00011,  -0.00015,  -0.00019,-179967868.42418,   0.00000
35739314.84595,-265825447.32342,-40571955.62872,   0.00079,  -0.00143,  -0.00072,293903278.60867,   0.00019,274844011.21513,   0.00011,  -0.00015,  -0.00019,-180940732.60646,   0.00000
33252252.59402,-266436745.45268,-40270493.53758,   0.00078,  -0.00142,  -0.00072,292948820.68272,   0.00019,274844011.21513,   0.00011,  -0.00015,  -0.00019,-181895190.53241,   0.00000
30723320.60722,-267089913.31682,-39969031.44643,   0.00077,  -0.00142,  -0.00071,292026374.98488,   0.00019,274844011.21513,   0.00011,  -0.00015,  -0.00019,-182817636.23025,   0.00000
28206949.54088,-267713772.36655,-39667569.35529,   0.00076,  -0.00142,  -0.00071,291098321.81128,   0.00019,274844011.21513,   0.00011,  -0.00015,  -0.00019,-183745689.40385,   0.00000
25648708.73966,-268379501.15115,-39366107.26415,   0.00075,  -0.00142,  -0.00071,290203500.59617,   0.00019,274844011.21513,   0.00011,  -0.00015,  -0.00019,-184640510.61895,   0.00000
23090467.93845,-269045229.93576,-39064645.17301,   0.00074,  -0.00142,  -0.00070,289325120.27839,   0.00019,274844011.21513,   0.00011,  -0.00015,  -0.00019,-185518890.93674,   0.00000
20490357.40235,-269752828.45524,-38763183.08187,   0.00073,  -0.00141,  -0.00070,288481417.35532,   0.00019,274844011.21513,   0.00011,  -0.00015,  -0.00019,-186362593.85980,   0.00000
17890246.86625,-270460426.97473,-38470094.93770,   0.00071,  -0.00141,  -0.00069,287658394.47505,   0.00019,274844011.21513,   0.00011,  -0.00015,  -0.00019,-187185616.74008,   0.00000
15290136.33014,-271168025.49422,-38168632.84656,   0.00070,  -0.00141,  -0.00069,286849465.74420,   0.00019,274844011.21513,   0.00011,  -0.00015,  -0.00019,-187994545.47092,   0.00000
12660716.97963,-271888184.93417,-37875544.70239,   0.00069,  -0.00141,  -0.00069,286058471.08642,   0.00019,274844011.21513,   0.00011,  -0.00015,  -0.00019,-188785540.12871,   0.00000
9989427.89423,-272650214.10900,-37582456.55823,   0.00068,  -0.00141,  -0.00068,285304873.25031,   0.00019,274844011.21513,   0.00011,  -0.00015,  -0.00019,-189539137.96481,   0.00000
7318138.80883,-273412243.28383,-37289368.41406,   0.00067,  -0.00141,  -0.00068,284570148.94691,   0.00019,274844011.21513,   0.00011,  -0.00015,  -0.00019,-190273862.26822,   0.00000
4646849.72344,-274174272.45866,-36996280.26989,   0.00066,  -0.00140,  -0.00067,283854444.73209,   0.00019,274844011.21513,   0.00011,  -0.00015,  -0.00019,-190989566.48304,   0.00000
1946251.82362,-274948862.55396,-36703192.12573,   0.00065,  -0.00140,  -0.00067,283155712.59941,   0.00019,274844011.21513,   0.00011,  -0.00015,  -0.00019,-191688298.61572,   0.00000
-766906.99666,-275752761.46367,-36410103.98156,   0.00064,  -0.00140,  -0.00067,282499175.03404,   0.00019,274844011.21513,   0.00011,  -0.00015,  -0.00019,-192344836.18109,   0.00000
-3480065.81694,-276556660.37338,-36125389.78437,   0.00063,  -0.00140,  -0.00066,281865913.57590,   0.00019,274844011.21513,   0.00011,  -0.00015,  -0.00019,-192978097.63923,   0.00000
-6235094.37209,-277402429.01797,-35832301.64021,   0.00062,  -0.00140,  -0.00066,281270715.19344,   0.00019,274844011.21513,   0.00011,  -0.00015,  -0.00019,-193573296.02169,   0.00000
-9019431.74167,-278260758.58303,-35547587.44302,   0.00061,  -0.00140,  -0.00066,280698305.86731,   0.00019,274844011.21513,   0.00011,  -0.00015,  -0.00019,-194145705.34782,   0.00000
-11803769.11125,-279119088.14809,-35254499.29885,   0.00060,  -0.00139,  -0.00065,280144206.12472,   0.00019,274844011.21513,   0.00011,  -0.00015,  -0.00019,-194699805.09041,   0.00000
-14588106.48082,-279977417.71314,-34969785.10166,   0.00059,  -0.00139,  -0.00065,279614886.06360,   0.00019,274844011.21513,   0.00011,  -0.00015,  -0.00019,-195229125.15153,   0.00000
-17414313.58528,-280877617.01308,-34685070.90447,   0.00057,  -0.00139,  -0.00064,279129657.30246,   0.00019,274844011.21513,   0.00011,  -0.00015,  -0.00019,-195714353.91267,   0.00000
-20240520.68973,-281777816.31302,-34400356.70728,   0.00056,  -0.00139,  -0.00064,278666898.55040,   0.00019,274844011.21513,   0.00011,  -0.00015,  -0.00019,-196177112.66473,   0.00000
-23079288.71466,-282707324.42737,-34115642.51009,   0.00055,  -0.00139,  -0.00064,278249945.34030,   0.00019,274844011.21513,   0.00011,  -0.00015,  -0.00019,-196594065.87482,   0.00000
-25934804.63353,-283620084.64778,-33830928.31290,   0.00054,  -0.00139,  -0.00063,277832557.76285,   0.00019,274844011.21513,   0.00011,  -0.00015,  -0.00019,-197011453.45228,   0.00000
-28802881.47287,-284562153.68260,-33546214.11571,   0.00053,  -0.00139,  -0.00063,277461818.54433,   0.00019,274844011.21513,   0.00011,  -0.00015,  -0.00019,-197382192.67080,   0.00000
-31683519.23267,-285533531.53183,-33269873.86550,   0.00052,  -0.00138,  -0.00063,277141100.16962,   0.00019,274844011.21513,   0.00011,  -0.00015,  -0.00019,-197702911.04551,   0.00000
-34593465.80689,-286517470.30153,-32985159.66831,   0.00051,  -0.00138,  -0.00062,276841829.62046,   0.00019,274844011.21513,   0.00011,  -0.00015,  -0.00019,-198002181.59467,   0.00000
-37503412.38110,-287501409.07123,-32700445.47112,   0.00050,  -0.00138,  -0.00062,276566880.98117,   0.00019,274844011.21513,   0.00011,  -0.00015,  -0.00019,-198277130.23396,   0.00000
-40442667.76974,-288497908.76139,-32424105.22091,   0.00048,  -0.00138,  -0.00062,276320457.90686,   0.00019,274844011.21513,   0.00011,  -0.00015,  -0.00019,-198523553.30826,   0.00000
-43394484.07884,-289523717.26598,-32139391.02372,   0.00047,  -0.00138,  -0.00061,276119816.62814,   0.00019,274844011.21513,   0.00011,  -0.00015,  -0.00019,-198724194.58699,   0.00000
-46346300.38794,-290549525.77056,-31863050.77350,   0.00046,  -0.00138,  -0.00061,275947228.46949,   0.00019,274844011.21513,   0.00011,  -0.00015,  -0.00019,-198896782.74564,   0.00000
-49339986.43192,-291617204.01002,-31578336.57631,   0.00045,  -0.00138,  -0.00060,275822792.87494,   0.00019,274844011.21513,   0.00011,  -0.00015,  -0.00019,-199021218.34018,   0.00000
-52333672.47590,-292684882.24948,-31301996.32610,   0.00044,  -0.00138,  -0.00060,275727081.96315,   0.00019,274844011.21513,   0.00011,  -0.00015,  -0.00019,-199116929.25198,   0.00000
-55327358.51988,-293752560.48894,-31017282.12891,   0.00043,  -0.00138,  -0.00060,275654395.09699,   0.00019,274844011.21513,   0.00011,  -0.00015,  -0.00019,-199189616.11814,   0.00000
-58333605.48432,-294849547.54282,-30740941.87870,   0.00042,  -0.00138,  -0.00059,275634621.47230,   0.00019,274844011.21513,   0.00011,  -0.00015,  -0.00019,-199209389.74282,   0.00000
-61369161.26318,-295959095.51716,-30464601.62848,   0.00040,  -0.00137,  -0.00059,275643745.74898,   0.00019,274844011.21513,   0.00011,  -0.00015,  -0.00019,-199200265.46614,   0.00000
-64404717.04204,-297068643.49150,-30179887.43129,   0.00039,  -0.00137,  -0.00059,275676624.71292,   0.00019,274844011.21513,   0.00011,  -0.00015,  -0.00019,-199167386.50220,   0.00000
-67482142.55579,-298220061.20073,-29903547.18108,   0.00038,  -0.00137,  -0.00058,275766535.65213,   0.00019,274844011.21513,   0.00011,  -0.00015,  -0.00019,-199077475.56300,   0.00000
-70559568.06953,-299371478.90995,-29627206.93087,   0.00037,  -0.00137,  -0.00058,275883538.75909,   0.00019,274844011.21513,   0.00011,  -0.00015,  -0.00019,-198960472.45604,   0.00000
-73636993.58327,-300522896.61917,-29342492.73368,   0.00036,  -0.00137,  -0.00058,276024928.66744,   0.00019,274844011.21513,   0.00011,  -0.00015,  -0.00019,-198819082.54769,   0.00000
-76726980.01747,-301703623.14281,-29066152.48346,   0.00035,  -0.00137,  -0.00057,276220602.91839,   0.00019,274844011.21513,   0.00011,  -0.00015,  -0.00019,-198623408.29674,   0.00000
-79816966.45168,-302884349.66645,-28789812.23325,   0.00033,  -0.00137,  -0.00057,276443352.77888,   0.00019,274844011.21513,   0.00011,  -0.00015,  -0.00019,-198400658.43625,   0.00000
-82948822.62077,-304106945.92497,-28505098.03606,   0.00032,  -0.00137,  -0.00056,276719804.96677,   0.00019,274844011.21513,   0.00011,  -0.00015,  -0.00019,-198124206.24836,   0.00000
-86080678.78985,-305329542.18349,-28228757.78585,   0.00031,  -0.00137,  -0.00056,277026400.62555,   0.00019,274844011.21513,   0.00011,  -0.00015,  -0.00019,-197817610.58958,   0.00000
-89241843.77336,-306564699.36248,-27952417.53563,   0.00030,  -0.00137,  -0.00056,277365526.88934,   0.00019,274844011.21513,   0.00011,  -0.00015,  -0.00019,-197478484.32579,   0.00000
-92386260.86291,-307816604.43541,-27676077.28542,   0.00029,  -0.00137,  -0.00055,277751964.54534,   0.00019,274844011.21513,   0.00011,  -0.00015,  -0.00019,-197092046.66978,   0.00000
-95572547.68734,-309110379.24323,-27391363.08823,   0.00027,  -0.00137,  -0.00055,278193695.61865,   0.00019,274844011.21513,   0.00011,  -0.00015,  -0.00019,-196650315.59648,   0.00000
-98746273.59131,-310374845.23663,-27115022.83802,   0.00026,  -0.00137,  -0.00055,278640781.49251,   0.00019,274844011.21513,   0.00011,  -0.00015,  -0.00019,-196203229.72262,   0.00000
-101932560.41574,-311668620.04445,-26830308.64083,   0.00025,  -0.00137,  -0.00054,279137943.56238,   0.00019,274844011.21513,   0.00011,  -0.00015,  -0.00019,-195706067.65275,   0.00000
-105148156.05459,-312974955.77273,-26553968.39061,   0.00024,  -0.00137,  -0.00054,279671339.04590,   0.00019,274844011.21513,   0.00011,  -0.00015,  -0.00019,-195172672.16923,   0.00000
-108347003.79948,-314298039.39497,-26269254.19342,   0.00023,  -0.00137,  -0.00054,280248641.52924,   0.00019,274844011.21513,   0.00011,  -0.00015,  -0.00019,-194595369.68589,   0.00000
-111587721.27926,-315662992.75208,-25992913.94321,   0.00021,  -0.00137,  -0.00053,280887388.83382,   0.00019,274844011.21513,   0.00011,  -0.00015,  -0.00019,-193956622.38131,   0.00000
-114815877.83857,-316998637.29478,-25708199.74602,   0.00020,  -0.00137,  -0.00053,281526339.15586,   0.00019,274844011.21513,   0.00011,  -0.00015,  -0.00019,-193317672.05926,   0.00000
-118085904.13277,-318376151.57236,-25423485.54883,   0.00019,  -0.00137,  -0.00052,282225051.66002,   0.00019,274844011.21513,   0.00011,  -0.00015,  -0.00019,-192618959.55511,   0.00000
-121339182.53301,-319770413.74389,-25147145.29862,   0.00018,  -0.00137,  -0.00052,282971325.17590,   0.00019,274844011.21513,   0.00011,  -0.00015,  -0.00019,-191872686.03923,   0.00000
-124609208.82720,-321147928.02147,-24862431.10143,   0.00017,  -0.00137,  -0.00052,283725005.61388,   0.00019,274844011.21513,   0.00011,  -0.00015,  -0.00019,-191119005.60125,   0.00000
-127875048.14791,-322571499.00742,-24577716.90424,   0.00015,  -0.00137,  -0.00051,284548320.05950,   0.00019,274844011.21513,   0.00011,  -0.00015,  -0.00019,-190295691.15563,   0.00000
-131157635.36256,-323978322.09942,-24293002.70705,   0.00014,  -0.00137,  -0.00051,285381320.00980,   0.00019,274844011.21513,   0.00011,  -0.00015,  -0.00019,-189462691.20533,   0.00000
-134452783.49769,-325414454.00583,-24008288.50986,   0.00013,  -0.00137,  -0.00051,286266366.32032,   0.00019,274844011.21513,   0.00011,  -0.00015,  -0.00019,-188577644.89480,   0.00000
-137789801.36769,-326892455.64712,-23723574.31267,   0.00012,  -0.00137,  -0.00050,287211915.35563,   0.00019,274844011.21513,   0.00011,  -0.00015,  -0.00019,-187632095.85950,   0.00000
-141097510.42328,-328357896.36795,-23430486.16850,   0.00010,  -0.00137,  -0.00050,288173379.92217,   0.00019,274844011.21513,   0.00011,  -0.00015,  -0.00019,-186670631.29295,   0.00000
-144434528.29328,-329835898.00925,-23145771.97131,   0.00009,  -0.00137,  -0.00049,289172164.14475,   0.00019,274844011.21513,   0.00011,  -0.00015,  -0.00019,-185671847.07038,   0.00000
-147754798.26933,-331330647.54449,-22861057.77412,   0.00008,  -0.00137,  -0.00049,290213144.62501,   0.00019,274844011.21513,   0.00011,  -0.00015,  -0.00019,-184630866.59012,   0.00000
-151104377.05980,-332837958.00020,-22567969.62996,   0.00007,  -0.00137,  -0.00049,291287326.37476,   0.00019,274844011.21513,   0.00011,  -0.00015,  -0.00019,-183556684.84037,   0.00000
-154466516.77073,-334374577.27033,-22274881.48579,   0.00006,  -0.00137,  -0.00048,292412546.78276,   0.00019,274844011.21513,   0.00011,  -0.00015,  -0.00019,-182431464.43237,   0.00000
-157828656.48166,-335911196.54046,-21990167.28860,   0.00004,  -0.00137,  -0.00048,293565165.32631,   0.00019,274844011.21513,   0.00011,  -0.00015,  -0.00019,-181278845.88882,   0.00000
-161203357.11305,-337477124.62500,-21697079.14444,   0.00003,  -0.00137,  -0.00048,294766307.91436,   0.00019,274844011.21513,   0.00011,  -0.00015,  -0.00019,-180077703.30076,   0.00000
-164565496.82399,-339013743.89513,-21403991.00027,   0.00002,  -0.00137,  -0.00047,295967141.06920,   0.00019,274844011.21513,   0.00011,  -0.00015,  -0.00019,-178876870.14593,   0.00000
-167952758.37585,-340608980.79409,-21102528.90913,   0.00001,  -0.00137,  -0.00047,297241213.78229,   0.00019,274844011.21513,   0.00011,  -0.00015,  -0.00019,-177602797.43283,   0.00000
-171369328.74212,-342216778.61351,-20809440.76496,  -0.00001,  -0.00137,  -0.00046,298552188.46576,   0.00019,274844011.21513,   0.00011,  -0.00015,  -0.00019,-176291822.74936,   0.00000
-174756590.29398,-343812015.51247,-20507978.67382,  -0.00002,  -0.00137,  -0.00046,299874780.36127,   0.00019,274844011.21513,   0.00011,  -0.00015,  -0.00019,-174969230.85385,   0.00000
-178185721.58072,-345449122.14631,-20214890.52965,  -0.00003,  -0.00137,  -0.00046,301259143.70391,   0.00019,274844011.21513,   0.00011,  -0.00015,  -0.00019,-173584867.51122,   0.00000
-181585544.05305,-347073667.85969,-19913428.43851,  -0.00004,  -0.00137,  -0.00045,302654115.81929,   0.00019,274844011.21513,   0.00011,  -0.00015,  -0.00019,-172189895.39584,   0.00000
-185014675.33979,-348710774.49353,-19611966.34737,  -0.00006,  -0.00137,  -0.00045,304083724.12970,   0.00019,274844011.21513,   0.00011,  -0.00015,  -0.00019,-170760287.08543,   0.00000
-188427058.73258,-350364629.02132,-19310504.25623,  -0.00007,  -0.00137,  -0.00044,305549733.96377,   0.00019,274844011.21513,   0.00011,  -0.00015,  -0.00019,-169294277.25136,   0.00000
-191881311.86025,-352060353.28400,-19000668.21811,  -0.00008,  -0.00138,  -0.00044,307073613.21310,   0.00019,274844011.21513,   0.00011,  -0.00015,  -0.00019,-167770398.00202,   0.00000
-195335564.98791,-353756077.54667,-18699206.12697,  -0.00009,  -0.00138,  -0.00044,308621423.43687,   0.00019,274844011.21513,   0.00011,  -0.00015,  -0.00019,-166222587.77825,   0.00000
-198760509.30117,-355439240.88888,-18389370.08885,  -0.00011,  -0.00138,  -0.00043,310177394.84595,   0.00019,274844011.21513,   0.00011,  -0.00015,  -0.00019,-164666616.36917,   0.00000
-202227323.34930,-357164273.96597,-18079534.05073,  -0.00012,  -0.00138,  -0.00043,311792306.57763,   0.00019,274844011.21513,   0.00011,  -0.00015,  -0.00019,-163051704.63749,   0.00000
-205694137.39743,-358889307.04306,-17769698.01261,  -0.00013,  -0.00138,  -0.00042,313428577.09296,   0.00019,274844011.21513,   0.00011,  -0.00015,  -0.00019,-161415434.12217,   0.00000
-209173512.36603,-360643648.93457,-17459861.97450,  -0.00014,  -0.00138,  -0.00042,315110839.82107,   0.00019,274844011.21513,   0.00011,  -0.00015,  -0.00019,-159733171.39405,   0.00000
-212623578.52021,-362385429.90561,-17141651.98940,  -0.00015,  -0.00138,  -0.00042,316799317.76959,   0.00019,274844011.21513,   0.00011,  -0.00015,  -0.00019,-158044693.44554,   0.00000
-216115514.40927,-364169080.61153,-16831815.95128,  -0.00017,  -0.00138,  -0.00041,318547291.21149,   0.00019,274844011.21513,   0.00011,  -0.00015,  -0.00019,-156296720.00364,   0.00000
-219607450.29834,-365952731.31746,-16513605.96619,  -0.00018,  -0.00138,  -0.00041,320313885.23903,   0.00019,274844011.21513,   0.00011,  -0.00015,  -0.00019,-154530125.97609,   0.00000
-223070077.37298,-367723821.10292,-16195395.98109,  -0.00019,  -0.00139,  -0.00040,322086571.20929,   0.00019,274844011.21513,   0.00011,  -0.00015,  -0.00019,-152757440.00584,   0.00000
-226574574.18251,-369536780.62326,-15868812.04902,  -0.00020,  -0.00139,  -0.00040,323915558.08951,   0.00019,274844011.21513,   0.00011,  -0.00015,  -0.00019,-150928453.12562,   0.00000
-230062323.09808,-371366488.03755,-15550602.06393,  -0.00022,  -0.00139,  -0.00040,325775640.06780,   0.00019,274844011.21513,   0.00011,  -0.00015,  -0.00019,-149068371.14732,   0.00000
-233579380.82807,-373208756.37231,-15224018.13186,  -0.00023,  -0.00139,  -0.00039,327666820.00497,   0.00019,274844011.21513,   0.00011,  -0.00015,  -0.00019,-147177191.21016,   0.00000
-237067129.74365,-375038463.78660,-14897434.19979,  -0.00024,  -0.00139,  -0.00039,329562106.14717,   0.00019,274844011.21513,   0.00011,  -0.00015,  -0.00019,-145281905.06796,   0.00000
-240596748.39410,-376910040.93577,-14562476.32074,  -0.00025,  -0.00139,  -0.00038,331512957.75514,   0.00019,274844011.21513,   0.00011,  -0.00015,  -0.00019,-143331053.45999,   0.00000
-244097058.23014,-378769057.16448,-14235892.38867,  -0.00027,  -0.00139,  -0.00038,333468052.13653,   0.00019,274844011.21513,   0.00011,  -0.00015,  -0.00019,-141375959.07860,   0.00000
-247609928.98664,-380657382.20761,-13900934.50962,  -0.00028,  -0.00140,  -0.00037,335463679.29476,   0.00019,274844011.21513,   0.00011,  -0.00015,  -0.00019,-139380331.92037,   0.00000
-251122799.74314,-382545707.25073,-13565976.63058,  -0.00029,  -0.00140,  -0.00037,337475979.61647,   0.00019,274844011.21513,   0.00011,  -0.00015,  -0.00019,-137368031.59865,   0.00000
-254648231.42011,-384463341.10828,-13222644.80455,  -0.00030,  -0.00140,  -0.00037,339528183.76288,   0.00019,274844011.21513,   0.00011,  -0.00015,  -0.00019,-135315827.45224,   0.00000
-258173663.09708,-386380974.96582,-12879312.97853,  -0.00032,  -0.00140,  -0.00036,341596452.82548,   0.00019,274844011.21513,   0.00011,  -0.00015,  -0.00019,-133247558.38965,   0.00000
-261711655.69451,-388327917.63778,-12535981.15251,  -0.00033,  -0.00140,  -0.00036,343704920.73323,   0.00019,274844011.21513,   0.00011,  -0.00015,  -0.00019,-131139090.48189,   0.00000
-265220339.47752,-390262299.38927,-12192649.32649,  -0.00034,  -0.00141,  -0.00035,345813495.05285,   0.00019,274844011.21513,   0.00011,  -0.00015,  -0.00019,-129030516.16228,   0.00000
-268770892.99542,-392238550.87565,-11840943.55349,  -0.00035,  -0.00141,  -0.00035,347975849.68100,   0.00019,274844011.21513,   0.00011,  -0.00015,  -0.00019,-126868161.53412,   0.00000
-272292137.69890,-394202241.44156,-11489237.78049,  -0.00036,  -0.00141,  -0.00034,350137476.08146,   0.00019,274844011.21513,   0.00011,  -0.00015,  -0.00019,-124706535.13367,   0.00000
-275813382.40237,-396165932.00747,-11137532.00749,  -0.00038,  -0.00141,  -0.00034,352313405.58325,   0.00019,274844011.21513,   0.00011,  -0.00015,  -0.00019,-122530605.63187,   0.00000
-279347188.02632,-398158931.38780,-10785826.23449,  -0.00039,  -0.00141,  -0.00033,354527587.60641,   0.00019,274844011.21513,   0.00011,  -0.00015,  -0.00019,-120316423.60872,   0.00000
-282880993.65026,-400151930.76813,-10425746.51451,  -0.00040,  -0.00142,  -0.00033,356754729.54176,   0.00019,274844011.21513,   0.00011,  -0.00015,  -0.00019,-118089281.67337,   0.00000
-286427360.19467,-402174238.96287,-10065666.79454,  -0.00041,  -0.00142,  -0.00032,359019495.97908,   0.00019,274844011.21513,   0.00011,  -0.00015,  -0.00019,-115824515.23605,   0.00000
-289986287.65954,-404225855.97203,-9697213.12759,  -0.00043,  -0.00142,  -0.00032,361320829.93495,   0.00019,274844011.21513,   0.00011,  -0.00015,  -0.00019,-113523181.28018,   0.00000
-293515906.30999,-406264912.06073,-9328759.46064,  -0.00044,  -0.00142,  -0.00031,363618796.84975,   0.00019,274844011.21513,   0.00011,  -0.00015,  -0.00019,-111225214.36538,   0.00000
-297045524.96045,-408303968.14943,-8960305.79368,  -0.00045,  -0.00143,  -0.00031,365929185.74905,   0.00019,274844011.21513,   0.00011,  -0.00015,  -0.00019,-108914825.46608,   0.00000
-300587704.53137,-410372333.05254,-8583478.17976,  -0.00046,  -0.00143,  -0.00031,368275128.87509,   0.00019,274844011.21513,   0.00011,  -0.00015,  -0.00019,-106568882.34004,   0.00000
-304129884.10229,-412440697.95565,-8215024.51281,  -0.00047,  -0.00143,  -0.00030,370633557.50544,   0.00019,274844011.21513,   0.00011,  -0.00015,  -0.00019,-104210453.70969,   0.00000
-307655315.77925,-414525810.75272,-7829822.95190,  -0.00049,  -0.00143,  -0.00030,373009772.37068,   0.00019,274844011.21513,   0.00011,  -0.00015,  -0.00019,-101834238.84445,   0.00000
-311210056.27064,-416623484.47025,-7452995.33797,  -0.00050,  -0.00144,  -0.00029,375414504.65981,   0.00019,274844011.21513,   0.00011,  -0.00015,  -0.00019,-99429506.55531,   0.00000
-314748048.86807,-418737906.08173,-7067793.77707,  -0.00051,  -0.00144,  -0.00029,377836856.93202,   0.00019,274844011.21513,   0.00011,  -0.00015,  -0.00019,-97007154.28311,   0.00000
-318286041.46550,-420852327.69321,-6674218.26919,  -0.00052,  -0.00144,  -0.00028,380269509.77179,   0.00019,274844011.21513,   0.00011,  -0.00015,  -0.00019,-94574501.44334,   0.00000
-321807286.16898,-422983497.19865,-6289016.70829,  -0.00053,  -0.00144,  -0.00028,382719808.99811,   0.00019,274844011.21513,   0.00011,  -0.00015,  -0.00019,-92124202.21701,   0.00000
-325357839.68687,-425127227.62455,-5887067.25343,  -0.00055,  -0.00145,  -0.00027,385196547.00424,   0.00019,274844011.21513,   0.00011,  -0.00015,  -0.00019,-89647464.21089,   0.00000
-328879084.39035,-427258397.12998,-5493491.74555,  -0.00056,  -0.00145,  -0.00026,387666577.06848,   0.00019,274844011.21513,   0.00011,  -0.00015,  -0.00019,-87177434.14664,   0.00000
-332412890.01429,-429418875.44983,-5091542.29070,  -0.00057,  -0.00145,  -0.00026,390169581.12336,   0.00019,274844011.21513,   0.00011,  -0.00015,  -0.00019,-84674430.09176,   0.00000
-335929947.74428,-431596101.66364,-4689592.83584,  -0.00058,  -0.00146,  -0.00025,392688229.67734,   0.00019,274844011.21513,   0.00011,  -0.00015,  -0.00019,-82155781.53779,   0.00000
-339447005.47427,-433773327.87744,-4279269.43401,  -0.00059,  -0.00146,  -0.00025,395215699.00673,   0.00019,274844011.21513,   0.00011,  -0.00015,  -0.00019,-79628312.20840,   0.00000
-342964063.20426,-435950554.09124,-3868946.03217,  -0.00060,  -0.00146,  -0.00024,397752142.80373,   0.00019,274844011.21513,   0.00011,  -0.00015,  -0.00019,-77091868.41140,   0.00000
-346493681.85472,-438157089.11946,-3450248.68337,  -0.00062,  -0.00147,  -0.00024,400320566.44527,   0.00019,274844011.21513,   0.00011,  -0.00015,  -0.00019,-74523444.76986,   0.00000
-350006552.61122,-440380372.04164,-3031551.33456,  -0.00063,  -0.00147,  -0.00023,402903231.56419,   0.00019,274844011.21513,   0.00011,  -0.00015,  -0.00019,-71940779.65094,   0.00000
-353519423.36772,-442603654.96381,-2612853.98575,  -0.00064,  -0.00147,  -0.00023,405494106.27057,   0.00019,274844011.21513,   0.00011,  -0.00015,  -0.00019,-69349904.94456,   0.00000
-357032294.12423,-444826937.88598,-2185782.68997,  -0.00065,  -0.00148,  -0.00022,408092899.39038,   0.00019,274844011.21513,   0.00011,  -0.00015,  -0.00019,-66751111.82475,   0.00000
-360528416.98678,-447066968.70211,-1750337.44720,  -0.00066,  -0.00148,  -0.00022,410704831.34457,   0.00019,274844011.21513,   0.00011,  -0.00015,  -0.00019,-64139179.87056,   0.00000
-364024539.84933,-449306999.51823,-1323266.15142,  -0.00067,  -0.00148,  -0.00021,413324478.80304,   0.00019,274844011.21513,   0.00011,  -0.00015,  -0.00019,-61519532.41209,   0.00000
-367533223.63234,-451576339.14877,-879446.96168,  -0.00069,  -0.00149,  -0.00020,415974606.42451,   0.00019,274844011.21513,   0.00011,  -0.00015,  -0.00019,-58869404.79062,   0.00000
-371041907.41535,-453845678.77932,-444001.71892,  -0.00070,  -0.00149,  -0.00020,418632084.64136,   0.00019,274844011.21513,   0.00011,  -0.00015,  -0.00019,-56211926.57377,   0.00000
-374504534.49000,-456119205.38334,-182.52919,  -0.00071,  -0.00149,  -0.00019,421283354.98708,   0.00019,274844011.21513,   0.00011,  -0.00015,  -0.00019,-53560656.22805,   0.00000
-377996470.37906,-458405292.90784,452010.60753,  -0.00072,  -0.00150,  -0.00019,423959637.70561,   0.00019,274844011.21513,   0.00011,  -0.00015,  -0.00019,-50884373.50951,   0.00000
-381471658.37417,-460708128.32628,904203.74424,  -0.00073,  -0.00150,  -0.00018,426647353.98546,   0.00019,274844011.21513,   0.00011,  -0.00015,  -0.00019,-48196657.22967,   0.00000
-384946846.36928,-463010963.74473,1364770.82793,  -0.00074,  -0.00150,  -0.00018,429341594.24377,   0.00019,274844011.21513,   0.00011,  -0.00015,  -0.00019,-45502416.97136,   0.00000
-388434595.28485,-465343107.97759,1825337.91162,  -0.00075,  -0.00151,  -0.00017,432065130.17826,   0.00019,274844011.21513,   0.00011,  -0.00015,  -0.00019,-42778881.03687,   0.00000
-391893035.38601,-467662691.28999,2285904.99531,  -0.00077,  -0.00151,  -0.00016,434776343.03993,   0.00019,274844011.21513,   0.00011,  -0.00015,  -0.00019,-40067668.17520,   0.00000
-395322166.67275,-469969713.68193,2754846.02597,  -0.00078,  -0.00151,  -0.00016,437475107.04917,   0.00019,274844011.21513,   0.00011,  -0.00015,  -0.00019,-37368904.16596,   0.00000
-398793167.69437,-472318605.80874,3232161.00362,  -0.00079,  -0.00152,  -0.00015,440221266.65534,   0.00019,274844011.21513,   0.00011,  -0.00015,  -0.00019,-34622744.55979,   0.00000
-402218112.00763,-474671684.90904,3709475.98126,  -0.00080,  -0.00152,  -0.00015,442958632.14294,   0.00019,274844011.21513,   0.00011,  -0.00015,  -0.00019,-31885379.07219,   0.00000
-405672365.13530,-477037324.92981,4186790.95890,  -0.00081,  -0.00153,  -0.00014,445720097.15085,   0.00019,274844011.21513,   0.00011,  -0.00015,  -0.00019,-29123914.06428,   0.00000
-409097309.44855,-479390404.03011,4672479.88352,  -0.00082,  -0.00153,  -0.00013,448468437.92491,   0.00019,274844011.21513,   0.00011,  -0.00015,  -0.00019,-26375573.29022,   0.00000
-412505505.86785,-481760231.02437,5166542.75511,  -0.00083,  -0.00154,  -0.00013,451226156.43859,   0.00019,274844011.21513,   0.00011,  -0.00015,  -0.00019,-23617854.77653,   0.00000
-415926263.20761,-484159366.83304,5660605.62670,  -0.00084,  -0.00154,  -0.00012,454011541.75018,   0.00019,274844011.21513,   0.00011,  -0.00015,  -0.00019,-20832469.46495,   0.00000
-419334459.62691,-486529193.82730,6154668.49830,  -0.00085,  -0.00154,  -0.00011,456779190.33546,   0.00019,274844011.21513,   0.00011,  -0.00015,  -0.00019,-18064820.87967,   0.00000
-422738469.07273,-488945077.52992,6665479.26384,  -0.00086,  -0.00155,  -0.00011,459578605.22494,   0.00019,274844011.21513,   0.00011,  -0.00015,  -0.00019,-15265405.99019,   0.00000
-426129917.59807,-491331652.41813,7167916.08241,  -0.00087,  -0.00155,  -0.00010,462359729.91244,   0.00019,274844011.21513,   0.00011,  -0.00015,  -0.00019,-12484281.30269,   0.00000
-429517179.14993,-493764284.01471,7678726.84796,  -0.00089,  -0.00156,  -0.00009,465171819.28456,   0.00019,274844011.21513,   0.00011,  -0.00015,  -0.00019,-9672191.93057,   0.00000
-432891879.78133,-496167606.79687,8197911.56048,  -0.00090,  -0.00156,  -0.00009,467966198.44184,   0.00019,274844011.21513,   0.00011,  -0.00015,  -0.00019,-6877812.77329,   0.00000
-436262393.43924,-498616986.28740,8717096.27301,  -0.00091,  -0.00157,  -0.00008,470790716.13484,   0.00019,274844011.21513,   0.00011,  -0.00015,  -0.00019,-4053295.08029,   0.00000
-439620346.17668,-501037056.96351,9244654.93250,  -0.00092,  -0.00157,  -0.00007,473597389.90833,   0.00019,274844011.21513,   0.00011,  -0.00015,  -0.00019,-1246621.30680,   0.00000
-441100845.11373,-502116819.34617,9482128.44622,  -0.00092,  -0.00157,  -0.00007,474844010.96630,   0.00019,274844011.21513,   0.00011,  -0.00015,  -0.00019,  -0.24883,   0.00000
-441532252.92080,-501807027.12693,9742192.35926,  -0.00093,  -0.00157,  -0.00007,474844010.96630,   0.00019,274849204.02201,   0.00010,  -0.00015,  -0.00019,   0.00000,   2.00000
-442290911.72930,-501256723.26365,10205206.41751,  -0.00094,  -0.00158,  -0.00006,477690095.66906,   0.00020,274858609.25827,   0.00010,  -0.00016,  -0.00019,   0.00000,   2.00000
-443028975.34871,-500713925.56997,10665339.73594,  -0.00095,  -0.00158,  -0.00005,477684187.00914,   0.00021,274867959.84270,   0.00009,  -0.00017,  -0.00019,   0.00000,   2.00000
-443746262.77136,-500178101.01307,11130951.19590,  -0.00096,  -0.00159,  -0.00005,477678650.15243,   0.00022,274877257.44190,   0.00008,  -0.00018,  -0.00019,   0.00000,   2.00000
-444446659.23909,-499647117.12815,11600832.35535,  -0.00097,  -0.00159,  -0.00004,477714595.15695,   0.00022,274886639.62173,   0.00008,  -0.00019,  -0.00019,   0.00000,   2.00000
-445138692.95697,-499115980.92753,12067268.19201,  -0.00098,  -0.00160,  -0.00003,477727683.52752,   0.00023,274896030.60620,   0.00007,  -0.00020,  -0.00019,   0.00000,   2.00000
-445802666.30082,-498597769.74815,12538482.34784,  -0.00099,  -0.00160,  -0.00002,477744191.02703,   0.00024,274905441.88516,   0.00007,  -0.00020,  -0.00019,   0.00000,   2.00000
-446446783.79676,-498086697.07956,13015151.38358,  -0.00100,  -0.00161,  -0.00002,477738377.24637,   0.00025,274914799.83633,   0.00006,  -0.00021,  -0.00019,   0.00000,   2.00000
-447075268.41593,-497581548.84775,13487580.15641,  -0.00101,  -0.00161,  -0.00001,477773368.36377,   0.00026,274924239.56712,   0.00005,  -0.00022,  -0.00018,   0.00000,   2.00000
-447696169.26723,-497076486.73034,13956515.54497,  -0.00102,  -0.00162,  -0.00000,477786184.58504,   0.00027,274933687.65883,   0.00005,  -0.00023,  -0.00018,   0.00000,   2.00000
-448278104.89100,-496591853.86650,14439163.19235,  -0.00103,  -0.00162,   0.00001,477783504.53887,   0.00028,274943093.21932,   0.00004,  -0.00024,  -0.00018,  -0.00000,   2.00000
-448852951.06343,-496107340.31034,14918253.64122,  -0.00104,  -0.00163,   0.00001,477796128.12731,   0.00028,274952507.01595,   0.00004,  -0.00025,  -0.00018,   0.00000,   2.00000
-449412875.35601,-495629165.20890,15392957.63521,  -0.00105,  -0.00163,   0.00002,477830768.14618,   0.00029,274962001.77370,   0.00003,  -0.00025,  -0.00018,   0.00000,   2.00000
-449954256.41069,-495158312.94518,15873185.65798,  -0.00106,  -0.00164,   0.00003,477824554.65630,   0.00030,274971442.61818,   0.00002,  -0.00026,  -0.00018,   0.00000,   2.00000
-450477316.09685,-494694748.41563,16358938.53654,  -0.00107,  -0.00164,   0.00004,477818241.51850,   0.00031,274980829.59681,   0.00002,  -0.00027,  -0.00018,   0.00000,   2.00000
-450985984.14323,-494237737.81009,16840185.80894,  -0.00108,  -0.00165,   0.00004,477852600.77732,   0.00032,274990297.11827,   0.00001,  -0.00028,  -0.00017,  -0.00000,   2.00000
-451476722.96126,-493788036.79208,17326984.20194,  -0.00109,  -0.00165,   0.00005,477846184.83287,   0.00033,274999710.64313,   0.00000,  -0.00029,  -0.00017,  -0.00000,   2.00000
-451941796.20940,-493352018.33612,17818358.10909,  -0.00110,  -0.00166,   0.00006,477861606.99239,   0.00034,275009142.52681,  -0.00000,  -0.00030,  -0.00017,   0.00000,   2.00000
-452401000.91043,-492916295.03842,18306093.60895,  -0.00111,  -0.00167,   0.00007,477873833.15324,   0.00035,275018582.25587,  -0.00001,  -0.00030,  -0.00017,   0.00000,   2.00000
-452842842.53139,-492487835.77993,18799409.51609,  -0.00112,  -0.00167,   0.00008,477867244.30411,   0.00035,275027967.96700,  -0.00001,  -0.00031,  -0.00017,   0.00000,   2.00000
-453263168.07849,-492072810.05299,19286978.46081,  -0.00112,  -0.00168,   0.00009,477923073.83204,   0.00036,275037505.60828,  -0.00002,  -0.00032,  -0.00017,   0.00000,   2.00000
-453674502.34262,-491658451.13903,19781219.33093,  -0.00113,  -0.00168,   0.00009,477894603.79103,   0.00037,275046917.07648,  -0.00003,  -0.00033,  -0.00016,   0.00000,   2.00000
-454061048.47525,-491257934.93610,20279964.76732,  -0.00114,  -0.00169,   0.00010,477909682.73610,   0.00038,275056346.43076,  -0.00003,  -0.00034,  -0.00016,   0.00000,   2.00000
-454441484.21839,-490856611.93874,20783273.27029,  -0.00115,  -0.00169,   0.00011,477922774.36047,   0.00039,275065787.16871,  -0.00004,  -0.00035,  -0.00016,   0.00000,   2.00000
-454788014.55020,-490478249.95730,21283805.06624,  -0.00116,  -0.00170,   0.00012,477916802.36776,   0.00040,275075176.63613,  -0.00005,  -0.00035,  -0.00016,   0.00000,   2.00000
-455140302.12087,-490092236.48680,21779563.00138,  -0.00117,  -0.00170,   0.00013,477948528.39690,   0.00041,275084639.18676,  -0.00005,  -0.00036,  -0.00016,   0.00000,   2.00000
-455456937.39104,-489726903.60718,22289140.58761,  -0.00118,  -0.00171,   0.00014,477944683.48005,   0.00041,275094057.65994,  -0.00006,  -0.00037,  -0.00015,  -0.00000,   2.00000
-455769148.50696,-489361826.95273,22794949.50871,  -0.00119,  -0.00172,   0.00014,477956511.38296,   0.00042,275103483.88170,  -0.00007,  -0.00038,  -0.00015,  -0.00000,   2.00000
-456065507.95982,-489003725.85701,23306417.93388,  -0.00120,  -0.00172,   0.00015,477949599.71317,   0.00043,275112856.25227,  -0.00007,  -0.00039,  -0.00015,   0.00000,   2.00000
-456339399.73705,-488660749.21666,23814018.02390,  -0.00120,  -0.00173,   0.00016,477963054.06584,   0.00044,275122242.13153,  -0.00008,  -0.00039,  -0.00015,  -0.00000,   2.00000
-456608098.82619,-488316700.81823,24326113.64946,  -0.00121,  -0.00173,   0.00017,477976004.11514,   0.00045,275131639.90818,  -0.00009,  -0.00040,  -0.00015,   0.00000,   2.00000
-456853412.66183,-487986494.63597,24842559.27196,  -0.00122,  -0.00174,   0.00018,477990665.64757,   0.00046,275141055.32366,  -0.00009,  -0.00041,  -0.00014,  -0.00000,   2.00000
-457084729.46635,-487664397.56673,25356454.63291,  -0.00123,  -0.00175,   0.00019,477982344.71644,   0.00047,275150412.71995,  -0.00010,  -0.00042,  -0.00014,   0.00000,   2.00000
-457301939.67850,-487346769.18782,25881628.94221,  -0.00124,  -0.00175,   0.00020,478018260.53669,   0.00047,275159858.12776,  -0.00011,  -0.00043,  -0.00014,  -0.00000,   2.00000
-457496526.13581,-487046510.42898,26397328.12258,  -0.00125,  -0.00176,   0.00021,477988521.73506,   0.00048,275169175.08987,  -0.00011,  -0.00044,  -0.00014,   0.00000,   2.00000
-457695333.52518,-486735536.40636,26924346.29701,  -0.00125,  -0.00177,   0.00022,478022862.84040,   0.00049,275178575.19885,  -0.00012,  -0.00044,  -0.00013,   0.00000,   2.00000
-457862531.56965,-486447649.25864,27448743.48440,  -0.00126,  -0.00177,   0.00023,478015972.07117,   0.00050,275187922.48496,  -0.00013,  -0.00045,  -0.00013,   0.00000,   2.00000
-458015115.47345,-486166171.45047,27978906.21776,  -0.00127,  -0.00178,   0.00024,478008894.72497,   0.00051,275197216.62508,  -0.00013,  -0.00046,  -0.00013,   0.00000,   2.00000
-458155412.24052,-485890362.85705,28511873.63244,  -0.00128,  -0.00178,   0.00025,478043387.75032,   0.00052,275206594.85982,  -0.00014,  -0.00047,  -0.00013,   0.00000,   2.00000
-458282699.82287,-485622368.92256,29042372.82730,  -0.00128,  -0.00179,   0.00026,478034860.71254,   0.00053,275215915.23118,  -0.00015,  -0.00047,  -0.00012,  -0.00000,   2.00000
-458395645.75684,-485360573.40110,29578672.65961,  -0.00129,  -0.00180,   0.00026,478027794.71641,   0.00053,275225182.85638,  -0.00015,  -0.00048,  -0.00012,   0.00000,   2.00000
-458496556.37874,-485104343.19895,30117647.50754,  -0.00130,  -0.00180,   0.00027,478062284.96211,   0.00054,275234534.97691,  -0.00016,  -0.00049,  -0.00012,   0.00000,   2.00000
-458574701.51531,-484863648.04141,30655739.42306,  -0.00131,  -0.00181,   0.00028,478033614.05981,   0.00055,275243763.20409,  -0.00017,  -0.00050,  -0.00011,   0.00000,   2.00000
-458641064.27457,-484628409.31101,31196446.59282,  -0.00131,  -0.00182,   0.00029,478068058.03364,   0.00056,275253076.12491,  -0.00017,  -0.00051,  -0.00011,   0.00000,   2.00000
-458693459.78694,-484399022.70580,31742974.64164,  -0.00132,  -0.00182,   0.00030,478061068.66556,   0.00057,275262336.95151,  -0.00018,  -0.00051,  -0.00011,   0.00000,   2.00000
-458733556.82722,-484177100.90174,32287146.22047,  -0.00133,  -0.00183,   0.00031,478052372.22796,   0.00058,275271540.27903,  -0.00019,  -0.00052,  -0.00011,   0.00000,   2.00000
-458760447.97098,-483958747.60413,32841972.99678,  -0.00134,  -0.00184,   0.00032,478088584.90512,   0.00059,275280834.58699,  -0.00019,  -0.00053,  -0.00010,  -0.00000,   2.00000
-458765116.87685,-483755546.17564,33396097.62842,  -0.00134,  -0.00184,   0.00033,478059861.53975,   0.00059,275290005.41570,  -0.00020,  -0.00054,  -0.00010,   0.00000,   2.00000
-458760104.09523,-483559296.56146,33944413.26074,  -0.00135,  -0.00185,   0.00034,478092587.44972,   0.00060,275299255.99413,  -0.00021,  -0.00054,  -0.00010,   0.00000,   2.00000
-458739787.47800,-483366611.94211,34506792.32442,  -0.00136,  -0.00186,   0.00036,478087492.53923,   0.00061,275308461.39011,  -0.00021,  -0.00055,  -0.00009,   0.00000,   2.00000
-458707634.95627,-483181034.26576,35066857.75549,  -0.00136,  -0.00186,   0.00037,478078798.91151,   0.00062,275317609.91579,  -0.00022,  -0.00056,  -0.00009,   0.00000,   2.00000
-458654203.91532,-483008197.81997,35630926.79751,  -0.00137,  -0.00187,   0.00038,478093292.56340,   0.00063,275326778.44631,  -0.00023,  -0.00057,  -0.00009,   0.00000,   2.00000
-458599259.05362,-482834561.68081,36190926.64509,  -0.00138,  -0.00188,   0.00039,478104654.19717,   0.00064,275335956.60335,  -0.00023,  -0.00058,  -0.00008,   0.00000,   2.00000
-458520789.33516,-482673680.30266,36758705.15292,  -0.00138,  -0.00189,   0.00040,478077769.07311,   0.00064,275345018.10719,  -0.00024,  -0.00058,  -0.00008,   0.00000,   2.00000
-458431369.34912,-482517531.78247,37328575.80704,  -0.00139,  -0.00189,   0.00041,478112378.34346,   0.00065,275354166.66535,  -0.00025,  -0.00059,  -0.00008,   0.00000,   2.00000
-458328633.69412,-482366131.72995,37904365.85613,  -0.00140,  -0.00190,   0.00042,478105688.36152,   0.00066,275363265.57780,  -0.00025,  -0.00060,  -0.00007,   0.00000,   2.00000
-458204897.79593,-482227019.27502,38484026.05972,  -0.00140,  -0.00191,   0.00043,478120372.88580,   0.00067,275372385.80611,  -0.00026,  -0.00061,  -0.00007,  -0.00000,   2.00000
-458069880.73419,-482094450.53813,39061471.95063,  -0.00141,  -0.00191,   0.00044,478111739.47171,   0.00068,275381450.19314,  -0.00026,  -0.00061,  -0.00007,   0.00000,   2.00000
-457921674.53598,-481966271.91281,39644881.77956,  -0.00141,  -0.00192,   0.00045,478105140.59462,   0.00069,275390465.74488,  -0.00027,  -0.00062,  -0.00006,   0.00000,   2.00000
-457772467.91733,-481836839.60721,40224138.28609,  -0.00142,  -0.00193,   0.00046,478116505.15988,   0.00070,275399492.09889,  -0.00028,  -0.00063,  -0.00006,  -0.00000,   2.00000
-457590188.58676,-481724857.24920,40817372.88960,  -0.00143,  -0.00194,   0.00047,478113401.60056,   0.00070,275408481.51444,  -0.00028,  -0.00064,  -0.00006,   0.00000,   2.00000
-457399441.72115,-481619158.02019,41404190.42275,  -0.00143,  -0.00194,   0.00049,478146148.99978,   0.00071,275417552.90685,  -0.00029,  -0.00064,  -0.00005,   0.00000,   2.00000
-457195616.39904,-481517393.43203,41996981.82457,  -0.00144,  -0.00195,   0.00050,478139820.48772,   0.00072,275426576.64689,  -0.00030,  -0.00065,  -0.00005,   0.00000,   2.00000
-456970541.81558,-481429272.04468,42589788.25456,  -0.00144,  -0.00196,   0.00051,478111276.58085,   0.00073,275435479.28952,  -0.00030,  -0.00066,  -0.00004,   0.00000,   2.00000
-456740571.63194,-481334935.18154,43194559.02853,  -0.00145,  -0.00196,   0.00052,478127224.22936,   0.00074,275444408.89410,  -0.00031,  -0.00067,  -0.00004,  -0.00000,   2.00000
-456492084.96352,-481254232.60096,43794903.94219,  -0.00145,  -0.00197,   0.00053,478140038.81144,   0.00074,275453355.04870,  -0.00032,  -0.00067,  -0.00004,   0.00000,   2.00000
-456230539.94145,-481176946.13504,44401256.63155,  -0.00146,  -0.00198,   0.00054,478133918.42251,   0.00075,275462254.96450,  -0.00032,  -0.00068,  -0.00003,  -0.00000,   2.00000
-455958135.50906,-481105322.04029,45005560.34379,  -0.00146,  -0.00199,   0.00056,478125479.01673,   0.00076,275471101.11656,  -0.00033,  -0.00069,  -0.00003,   0.00000,   2.00000
-455673301.78080,-481034790.87905,45619287.86140,  -0.00147,  -0.00200,   0.00057,478163063.48374,   0.00077,275480046.72701,  -0.00033,  -0.00069,  -0.00003,   0.00000,   2.00000
-455367204.97265,-480977232.40900,46233237.58746,  -0.00147,  -0.00200,   0.00058,478134854.24710,   0.00078,275488872.90484,  -0.00034,  -0.00070,  -0.00002,  -0.00000,   2.00000
-455042882.66097,-480932848.37741,46842711.06873,  -0.00148,  -0.00201,   0.00059,478147795.83037,   0.00079,275497716.87949,  -0.00035,  -0.00071,  -0.00002,   0.00000,   2.00000
-454713693.72086,-480881274.15879,47463934.94447,  -0.00148,  -0.00202,   0.00060,478164403.02402,   0.00079,275506590.95448,  -0.00035,  -0.00072,  -0.00001,   0.00000,   2.00000
-454363207.88675,-480842302.29407,48085518.68624,  -0.00149,  -0.00203,   0.00062,478136349.14798,   0.00080,275515346.46170,  -0.00036,  -0.00072,  -0.00001,  -0.00000,   2.00000
-454010169.89353,-480798412.39857,48710759.31896,  -0.00149,  -0.00203,   0.00063,478150563.99378,   0.00081,275524124.57667,  -0.00037,  -0.00073,  -0.00000,   0.00000,   2.00000
-453625962.74555,-480772149.14298,49341870.67816,  -0.00150,  -0.00204,   0.00064,478146452.57358,   0.00082,275532864.33033,  -0.00037,  -0.00074,  -0.00000,   0.00000,   2.00000
-453241697.84564,-480743325.05679,49968559.49687,  -0.00150,  -0.00205,   0.00065,478158218.89620,   0.00083,275541618.77856,  -0.00038,  -0.00075,   0.00000,   0.00000,   2.00000
-452823742.63828,-480729139.83295,50609125.94113,  -0.00151,  -0.00206,   0.00067,478156979.95855,   0.00083,275550344.72977,  -0.00038,  -0.00075,   0.00001,   0.00000,   2.00000
-452413110.16124,-480704327.26177,51247907.60612,  -0.00151,  -0.00207,   0.00068,478147597.15944,   0.00084,275559015.08804,  -0.00039,  -0.00076,   0.00001,   0.00000,   2.00000
-451984428.06064,-480691963.45344,51882039.70912,  -0.00151,  -0.00207,   0.00069,478160926.68882,   0.00085,275567705.90139,  -0.00040,  -0.00077,   0.00002,  -0.00000,   2.00000
-451532655.33424,-480686398.55124,52527452.70263,  -0.00152,  -0.00208,   0.00070,478179861.63508,   0.00086,275576436.05075,  -0.00040,  -0.00077,   0.00002,  -0.00000,   2.00000
-451066520.28216,-480684485.48175,53176343.42347,  -0.00152,  -0.00209,   0.00072,478131152.11545,   0.00087,275584979.34871,  -0.00041,  -0.00078,   0.00003,  -0.00000,   2.00000
-450590686.23833,-480684560.36437,53825842.88381,  -0.00153,  -0.00210,   0.00073,478167189.16475,   0.00087,275593619.87428,  -0.00041,  -0.00079,   0.00003,   0.00000,   2.00000
-450094262.84050,-480693724.25949,54478515.17258,  -0.00153,  -0.00211,   0.00074,478183716.36878,   0.00088,275602292.21271,  -0.00042,  -0.00080,   0.00003,  -0.00000,   2.00000
-449594237.97465,-480698978.01690,55132204.23950,  -0.00153,  -0.00211,   0.00076,478154915.44459,   0.00089,275610844.49654,  -0.00042,  -0.00080,   0.00004,  -0.00000,   2.00000
-449073560.92215,-480713075.80429,55789037.46884,  -0.00154,  -0.00212,   0.00077,478171574.21333,   0.00090,275619429.52359,  -0.00043,  -0.00081,   0.00004,   0.00000,   2.00000
-448528217.61828,-480735053.20588,56454680.13253,  -0.00154,  -0.00213,   0.00078,478147517.64310,   0.00091,275627910.81498,  -0.00044,  -0.00082,   0.00005,   0.00000,   2.00000
-447976112.04879,-480761371.60459,57112694.23129,  -0.00154,  -0.00214,   0.00080,478181019.08876,   0.00091,275636481.82817,  -0.00044,  -0.00082,   0.00005,   0.00000,   2.00000
-447407605.55686,-480785132.21038,57784677.13365,  -0.00155,  -0.00215,   0.00081,478179832.89004,   0.00092,275645026.05348,  -0.00045,  -0.00083,   0.00006,   0.00000,   2.00000
-446828182.47629,-480812261.87191,58454791.07374,  -0.00155,  -0.00215,   0.00082,478172700.90599,   0.00093,275653523.62337,  -0.00045,  -0.00084,   0.00006,   0.00000,   2.00000
-446234970.43473,-480839576.78392,59130959.56692,  -0.00155,  -0.00216,   0.00084,478168694.47465,   0.00094,275661985.28842,  -0.00046,  -0.00085,   0.00007,  -0.00000,   2.00000
-445612412.24741,-480884861.98305,59805036.80022,  -0.00155,  -0.00217,   0.00085,478163511.39745,   0.00094,275670407.26947,  -0.00046,  -0.00085,   0.00007,   0.00000,   2.00000
-444987433.93749,-480923006.63914,60482277.75393,  -0.00156,  -0.00218,   0.00086,478179166.72006,   0.00095,275678859.94457,  -0.00047,  -0.00086,   0.00008,   0.00000,   2.00000
-444348492.45625,-480960873.33243,61165571.28086,  -0.00156,  -0.00219,   0.00088,478175524.15215,   0.00096,275687278.32419,  -0.00047,  -0.00087,   0.00008,   0.00000,   2.00000
-443695487.41224,-480998305.95728,61854899.48230,  -0.00156,  -0.00220,   0.00089,478172010.68805,   0.00097,275695663.05304,  -0.00048,  -0.00087,   0.00009,   0.00000,   2.00000
-443012841.94768,-481053085.32724,62542121.57552,  -0.00156,  -0.00220,   0.00091,478167332.89548,   0.00098,275704010.37662,  -0.00049,  -0.00088,   0.00009,   0.00000,   2.00000
-442327736.14012,-481100226.14160,63232371.99034,  -0.00157,  -0.00221,   0.00092,478183377.26627,   0.00098,275712390.49367,  -0.00049,  -0.00089,   0.00010,   0.00000,   2.00000
-441616580.96193,-481153199.12703,63931693.68630,  -0.00157,  -0.00222,   0.00093,478161000.77318,   0.00099,275720673.57442,  -0.00050,  -0.00089,   0.00010,   0.00000,   2.00000
-440896183.98741,-481206101.16343,64630535.11044,  -0.00157,  -0.00223,   0.00095,478198607.90944,   0.00100,275729062.95825,  -0.00050,  -0.00090,   0.00011,   0.00000,   2.00000
-440164477.95130,-481261164.06086,65327576.28404,  -0.00157,  -0.00224,   0.00096,478192398.33106,   0.00101,275737410.04436,  -0.00051,  -0.00091,   0.00011,  -0.00000,   2.00000
-439406299.74971,-481321466.61805,66033751.80129,  -0.00157,  -0.00225,   0.00098,478170549.40252,   0.00101,275745662.07292,  -0.00051,  -0.00091,   0.00012,   0.00000,   2.00000
-438645572.60455,-481373503.85657,66742760.75021,  -0.00157,  -0.00226,   0.00099,478187124.04144,   0.00102,275753949.72883,  -0.00052,  -0.00092,   0.00012,   0.00000,   2.00000
-437854621.68884,-481441729.86901,67449617.12268,  -0.00158,  -0.00226,   0.00101,478183460.38811,   0.00103,275762204.30643,  -0.00052,  -0.00093,   0.00013,  -0.00000,   2.00000
-437048932.44183,-481507952.03110,68162458.03526,  -0.00158,  -0.00227,   0.00102,478181221.64570,   0.00104,275770430.85559,  -0.00053,  -0.00093,   0.00013,  -0.00000,   2.00000
-436240685.64745,-481565530.01032,68878027.00853,  -0.00158,  -0.00228,   0.00103,478198133.04886,   0.00105,275778694.69550,  -0.00053,  -0.00094,   0.00014,  -0.00000,   2.00000
-435408377.31185,-481630995.95070,69595091.00072,  -0.00158,  -0.00229,   0.00105,478173558.79383,   0.00105,275786854.54520,  -0.00054,  -0.00095,   0.00014,   0.00000,   2.00000
-434557735.42369,-481690303.60911,70325804.78973,  -0.00158,  -0.00230,   0.00106,478175424.75236,   0.00106,275795000.97589,  -0.00054,  -0.00096,   0.00015,   0.00000,   2.00000
-433692128.68311,-481762192.11844,71043307.47226,  -0.00158,  -0.00231,   0.00108,478187729.94950,   0.00107,275803169.62727,  -0.00055,  -0.00096,   0.00016,   0.00000,   2.00000
-432808009.23345,-481827505.69461,71774423.82730,  -0.00158,  -0.00232,   0.00109,478189995.54035,   0.00108,275811326.38277,  -0.00055,  -0.00097,   0.00016,   0.00000,   2.00000
-431905632.00687,-481901377.10724,72499934.90932,  -0.00158,  -0.00233,   0.00111,478206321.36401,   0.00108,275819519.41697,  -0.00056,  -0.00098,   0.00017,   0.00000,   2.00000
-430994106.48201,-481964310.97558,73235193.32349,  -0.00158,  -0.00234,   0.00112,478183791.13486,   0.00109,275827615.77555,  -0.00056,  -0.00098,   0.00017,   0.00000,   2.00000
-430060850.21251,-482031678.06380,73972411.76257,  -0.00158,  -0.00234,   0.00114,478204218.55850,   0.00110,275835763.00121,  -0.00057,  -0.00099,   0.00018,   0.00000,   2.00000
-429102442.78594,-482105568.19752,74711275.67268,  -0.00158,  -0.00235,   0.00115,478180881.17479,   0.00111,275843810.96698,  -0.00057,  -0.00100,   0.00018,   0.00000,   2.00000
-428141323.51854,-482169591.58619,75452527.25765,  -0.00158,  -0.00236,   0.00117,478198853.56518,   0.00111,275851901.81525,  -0.00058,  -0.00100,   0.00019,   0.00000,   2.00000
-427164370.62845,-482229781.13670,76199590.41270,  -0.00158,  -0.00237,   0.00119,478198378.13894,   0.00112,275859972.18634,  -0.00058,  -0.00101,   0.00019,  -0.00000,   2.00000
-426155747.60514,-482303707.59181,76944311.25029,  -0.00158,  -0.00238,   0.00120,478196989.54927,   0.00113,275868019.09093,  -0.00059,  -0.00102,   0.00020,   0.00000,   2.00000
-425131087.35524,-482373307.70698,77694812.66718,  -0.00158,  -0.00239,   0.00122,478196920.25439,   0.00114,275876047.25766,  -0.00059,  -0.00102,   0.00021,   0.00000,   2.00000
-424107212.31767,-482436659.80245,78439980.29408,  -0.00158,  -0.00240,   0.00123,478211297.08073,   0.00114,275884106.56184,  -0.00060,  -0.00103,   0.00021,  -0.00000,   2.00000
-423050063.02993,-482497169.87403,79202006.53267,  -0.00158,  -0.00241,   0.00125,478197314.28104,   0.00115,275892099.27830,  -0.00060,  -0.00104,   0.00022,   0.00000,   2.00000
-421980061.41907,-482557021.49595,79962196.29208,  -0.00158,  -0.00242,   0.00126,478193610.01019,   0.00116,275900061.11450,  -0.00060,  -0.00104,   0.00022,  -0.00000,   2.00000
-420891422.04670,-482623812.75427,80716328.73339,  -0.00158,  -0.00243,   0.00128,478211471.73875,   0.00116,275908066.85620,  -0.00061,  -0.00105,   0.00023,   0.00000,   2.00000
-419786232.42071,-482685423.33481,81476152.44254,  -0.00158,  -0.00243,   0.00130,478212287.83877,   0.00117,275916057.48733,  -0.00061,  -0.00106,   0.00024,  -0.00000,   2.00000
-418664357.56385,-482741668.16895,82241623.54015,  -0.00158,  -0.00244,   0.00131,478213310.76878,   0.00118,275924033.89112,  -0.00062,  -0.00106,   0.00024,   0.00000,   2.00000
-417525662.22469,-482792360.73166,83012697.15152,  -0.00158,  -0.00245,   0.00133,478214543.63662,   0.00119,275931996.96030,  -0.00062,  -0.00107,   0.00025,   0.00000,   2.00000
-416359600.77626,-482847212.98592,83785607.22477,  -0.00158,  -0.00246,   0.00134,478193544.75199,   0.00119,275939869.46479,  -0.00063,  -0.00108,   0.00025,   0.00000,   2.00000
-415188901.58832,-482902724.61505,84548496.11677,  -0.00158,  -0.00247,   0.00136,478230198.27469,   0.00120,275947852.41941,  -0.00063,  -0.00108,   0.00026,   0.00000,   2.00000
-413983089.21022,-482953055.32628,85328088.61736,  -0.00158,  -0.00248,   0.00138,478218567.54981,   0.00121,275955777.49914,  -0.00063,  -0.00109,   0.00027,   0.00000,   2.00000
-412778125.81705,-482996154.90159,86101997.61238,  -0.00157,  -0.00249,   0.00139,478234010.27219,   0.00122,275963739.35854,  -0.00064,  -0.00110,   0.00027,  -0.00000,   2.00000
-411545071.20503,-483042633.53819,86877807.72491,  -0.00157,  -0.00250,   0.00141,478213846.12078,   0.00122,275971613.50167,  -0.00064,  -0.00110,   0.00028,   0.00000,   2.00000
-410294489.87065,-483082379.11799,87659092.54959,  -0.00157,  -0.00251,   0.00143,478216246.71148,   0.00123,275979479.22852,  -0.00065,  -0.00111,   0.00029,   0.00000,   2.00000
-409026245.14956,-483115196.68688,88445798.54928,  -0.00157,  -0.00252,   0.00144,478218878.03424,   0.00124,275987337.49805,  -0.00065,  -0.00112,   0.00029,   0.00000,   2.00000
-407735156.18064,-483148528.00081,89233168.76110,  -0.00157,  -0.00253,   0.00146,478243323.59562,   0.00125,275995265.09576,  -0.00065,  -0.00112,   0.00030,  -0.00000,   2.00000
-406430071.23104,-483179227.61758,90018548.81685,  -0.00157,  -0.00254,   0.00147,478241753.50579,   0.00125,276003170.46979,  -0.00066,  -0.00113,   0.00030,   0.00000,   2.00000
-405095833.67105,-483212110.91806,90805835.63426,  -0.00156,  -0.00255,   0.00149,478222810.11251,   0.00126,276010992.56104,  -0.00066,  -0.00114,   0.00031,  -0.00000,   2.00000
-403758639.28462,-483232328.73430,91594526.60685,  -0.00156,  -0.00255,   0.00151,478243751.64289,   0.00127,276018872.24756,  -0.00067,  -0.00114,   0.00032,   0.00000,   2.00000
-402387963.13330,-483249473.79926,92392373.19410,  -0.00156,  -0.00256,   0.00153,478230119.90441,   0.00127,276026687.51638,  -0.00067,  -0.00115,   0.00032,   0.00000,   2.00000
-401018201.73551,-483258588.69153,93184255.12783,  -0.00156,  -0.00257,   0.00154,478246501.91968,   0.00128,276034544.61644,  -0.00067,  -0.00116,   0.00033,  -0.00000,   2.00000
-399609862.05874,-483271768.10063,93980321.64658,  -0.00155,  -0.00258,   0.00156,478255018.93872,   0.00129,276042415.84183,  -0.00068,  -0.00116,   0.00034,  -0.00000,   2.00000
-398182972.91332,-483276334.44380,94781482.19981,  -0.00155,  -0.00259,   0.00158,478259537.74108,   0.00130,276050287.12103,  -0.00068,  -0.00117,   0.00034,   0.00000,   2.00000
-396741361.42793,-483277103.05380,95580513.47875,  -0.00155,  -0.00260,   0.00159,478259266.30432,   0.00130,276058141.47206,  -0.00068,  -0.00118,   0.00035,   0.00000,   2.00000
-395289342.41058,-483266336.36668,96382501.14431,  -0.00154,  -0.00261,   0.00161,478237470.69833,   0.00131,276065902.32614,  -0.00069,  -0.00118,   0.00036,   0.00000,   2.00000
-393809676.77077,-483261748.19381,97179311.90562,  -0.00154,  -0.00262,   0.00163,478285766.27594,   0.00132,276073819.82325,  -0.00069,  -0.00119,   0.00036,   0.00000,   2.00000
-392299223.67144,-483244424.39498,97990222.48494,  -0.00154,  -0.00263,   0.00164,478252706.48265,   0.00133,276081603.48442,  -0.00070,  -0.00120,   0.00037,   0.00000,   2.00000
-390789783.20242,-483218391.17099,98794889.77170,  -0.00153,  -0.00264,   0.00166,478269982.09866,   0.00133,276089433.43783,  -0.00070,  -0.00120,   0.00038,  -0.00000,   2.00000
-389240638.34805,-483194406.19748,99603240.53560,  -0.00153,  -0.00265,   0.00168,478280731.97052,   0.00134,276097286.46905,  -0.00070,  -0.00121,   0.00038,   0.00000,   2.00000
-387680171.27551,-483157930.16816,100414585.16809,  -0.00153,  -0.00266,   0.00170,478260008.70173,   0.00135,276105049.65534,  -0.00071,  -0.00122,   0.00039,  -0.00000,   2.00000
-386100251.26632,-483124164.08373,101218365.89904,  -0.00152,  -0.00267,   0.00171,478282668.41701,   0.00136,276112879.04212,  -0.00071,  -0.00122,   0.00040,   0.00000,   2.00000
-384496701.78768,-483074628.20322,102033894.23404,  -0.00152,  -0.00268,   0.00173,478294645.39788,   0.00136,276120736.32171,  -0.00071,  -0.00123,   0.00041,   0.00000,   2.00000
-382881578.86933,-483025164.98864,102840060.34374,  -0.00152,  -0.00269,   0.00175,478290764.91884,   0.00137,276128564.23430,  -0.00072,  -0.00124,   0.00041,   0.00000,   2.00000
-381246665.25854,-482964902.92773,103650880.60593,  -0.00151,  -0.00270,   0.00177,478297817.45674,   0.00138,276136402.41405,  -0.00072,  -0.00124,   0.00042,   0.00000,   2.00000
-379591842.90917,-482893629.00926,104466273.90420,  -0.00151,  -0.00271,   0.00178,478305158.84115,   0.00138,276144252.01452,  -0.00072,  -0.00125,   0.00043,   0.00000,   2.00000
-377903845.45821,-482820135.78310,105283343.05980,  -0.00150,  -0.00272,   0.00180,478291084.22649,   0.00139,276152035.52034,  -0.00072,  -0.00126,   0.00043,  -0.00000,   2.00000
-376209593.37624,-482739327.60771,106095187.78640,  -0.00150,  -0.00273,   0.00182,478336778.37106,   0.00140,276159970.00561,  -0.00073,  -0.00126,   0.00044,   0.00000,   2.00000
-374485142.84408,-482648105.30658,106914242.91163,  -0.00149,  -0.00274,   0.00184,478301649.23763,   0.00141,276167761.52941,  -0.00073,  -0.00127,   0.00045,  -0.00000,   2.00000
-372737037.88733,-482552619.60112,107732000.42269,  -0.00149,  -0.00275,   0.00186,478331775.74841,   0.00141,276175648.04099,  -0.00073,  -0.00128,   0.00046,   0.00000,   2.00000
-370972632.37110,-482450589.13364,108547155.81584,  -0.00148,  -0.00275,   0.00187,478334854.72393,   0.00142,276183530.78511,  -0.00074,  -0.00128,   0.00046,   0.00000,   2.00000
-369194876.67355,-482334166.24858,109365414.80432,  -0.00148,  -0.00276,   0.00189,478316388.10324,   0.00143,276191331.01631,  -0.00074,  -0.00129,   0.00047,   0.00000,   2.00000
-367393460.68159,-482212962.36059,110182120.68352,  -0.00147,  -0.00277,   0.00191,478347226.60544,   0.00144,276199229.47013,  -0.00074,  -0.00130,   0.00048,  -0.00000,   2.00000
-365557313.76054,-482087633.29344,111000296.34530,  -0.00147,  -0.00278,   0.00193,478335335.24721,   0.00144,276207069.41476,  -0.00074,  -0.00130,   0.00049,  -0.00000,   2.00000
-363718565.90203,-481946423.89791,111818343.67104,  -0.00146,  -0.00279,   0.00195,478360658.27689,   0.00145,276214987.68104,  -0.00075,  -0.00131,   0.00049,  -0.00000,   2.00000
-361844644.31530,-481800584.30843,112637787.98874,  -0.00146,  -0.00280,   0.00196,478349383.79571,   0.00146,276222849.56584,  -0.00075,  -0.00132,   0.00050,   0.00000,   2.00000
-359949644.18723,-481641228.31427,113461127.96061,  -0.00145,  -0.00281,   0.00198,478359776.32172,   0.00146,276230735.12663,  -0.00075,  -0.00132,   0.00051,   0.00000,   2.00000
-358053885.57743,-481479421.11606,114271483.31958,  -0.00145,  -0.00282,   0.00200,478401359.51849,   0.00147,276238759.53070,  -0.00076,  -0.00133,   0.00052,   0.00000,   2.00000
-356124763.98841,-481304400.89530,115089116.58283,  -0.00144,  -0.00283,   0.00202,478369345.51339,   0.00148,276246650.31789,  -0.00076,  -0.00134,   0.00052,   0.00000,   2.00000
-354155343.27174,-481117547.21892,115914636.82730,  -0.00143,  -0.00284,   0.00204,478365497.72922,   0.00149,276254512.22316,  -0.00076,  -0.00134,   0.00053,   0.00000,   2.00000
-352185538.69123,-480927942.54182,116726904.86059,  -0.00143,  -0.00285,   0.00206,478407585.22610,   0.00149,276262515.86702,  -0.00076,  -0.00135,   0.00054,   0.00000,   2.00000
-350196403.41320,-480715980.17135,117548842.48393,  -0.00142,  -0.00286,   0.00208,478397665.85799,   0.00150,276270467.63821,  -0.00077,  -0.00136,   0.00055,   0.00000,   2.00000
-348168561.37509,-480505270.80979,118365719.49357,  -0.00142,  -0.00287,   0.00209,478410457.12652,   0.00151,276278452.36656,  -0.00077,  -0.00136,   0.00055,   0.00000,   2.00000
-346144588.53943,-480275888.80304,119181440.39231,  -0.00141,  -0.00288,   0.00211,478409589.91765,   0.00152,276286418.89886,  -0.00077,  -0.00137,   0.00056,   0.00000,   2.00000
-344081714.12039,-480047312.18871,119991984.73506,  -0.00140,  -0.00289,   0.00213,478422950.57360,   0.00152,276294420.60224,  -0.00077,  -0.00138,   0.00057,   0.00000,   2.00000
-341998692.90533,-479795332.64420,120812060.12597,  -0.00140,  -0.00290,   0.00215,478414232.21976,   0.00153,276302374.72152,  -0.00077,  -0.00138,   0.00058,   0.00000,   2.00000
-339892275.54817,-479535694.06477,121629050.60990,  -0.00139,  -0.00291,   0.00217,478449182.27594,   0.00154,276310445.45973,  -0.00078,  -0.00139,   0.00059,  -0.00000,   2.00000
-337772263.09525,-479272778.06908,122436201.80222,  -0.00138,  -0.00292,   0.00219,478449935.96418,   0.00155,276318503.90412,  -0.00078,  -0.00140,   0.00059,  -0.00000,   2.00000
-335630345.78209,-478993860.73356,123246442.48897,  -0.00137,  -0.00293,   0.00221,478463746.59900,   0.00155,276326599.38670,  -0.00078,  -0.00140,   0.00060,  -0.00000,   2.00000
-333470587.30959,-478705092.06740,124053247.88144,  -0.00137,  -0.00294,   0.00222,478471367.72054,   0.00156,276334708.47908,  -0.00078,  -0.00141,   0.00061,  -0.00000,   2.00000
-331289836.13338,-478391832.39030,124869385.30055,  -0.00136,  -0.00295,   0.00224,478464114.69366,   0.00157,276342774.92044,  -0.00079,  -0.00142,   0.00062,   0.00000,   2.00000
-329069478.70902,-478077431.66486,125679627.27529,  -0.00135,  -0.00296,   0.00226,478480066.05088,   0.00158,276350886.84788,  -0.00079,  -0.00143,   0.00063,   0.00000,   2.00000
-326851782.06150,-477751700.92384,126482121.64646,  -0.00134,  -0.00297,   0.00228,478502291.82357,   0.00158,276359067.96354,  -0.00079,  -0.00143,   0.00064,  -0.00000,   2.00000
-324595129.01688,-477416184.89942,127285086.65948,  -0.00134,  -0.00298,   0.00230,478497277.70362,   0.00159,276367214.56347,  -0.00079,  -0.00144,   0.00064,   0.00000,   2.00000
-322316203.77007,-477063306.99142,128090628.44695,  -0.00133,  -0.00299,   0.00232,478513003.05281,   0.00160,276375405.86251,  -0.00079,  -0.00145,   0.00065,   0.00000,   2.00000
-320019037.51443,-476699422.00704,128892355.18017,  -0.00132,  -0.00300,   0.00234,478522301.56002,   0.00161,276383617.23594,  -0.00079,  -0.00145,   0.00066,   0.00000,   2.00000
-317703589.05434,-476324388.87382,129690231.23663,  -0.00131,  -0.00301,   0.00236,478531823.67145,   0.00162,276391849.49927,  -0.00080,  -0.00146,   0.00067,   0.00000,   2.00000
-315369819.34613,-475938066.13715,130484219.70669,  -0.00131,  -0.00302,   0.00238,478541571.85781,   0.00162,276400103.47664,  -0.00080,  -0.00147,   0.00068,   0.00000,   2.00000
-313013673.57540,-475533650.51686,131280478.65417,  -0.00130,  -0.00303,   0.00239,478558475.08512,   0.00163,276408406.71535,  -0.00080,  -0.00147,   0.00069,   0.00000,   2.00000
-310621410.41097,-475124241.31836,132070546.67905,  -0.00129,  -0.00304,   0.00241,478548904.91879,   0.00164,276416657.17689,  -0.00080,  -0.00148,   0.00070,   0.00000,   2.00000
-308228511.47141,-474696356.28804,132858690.39532,  -0.00128,  -0.00305,   0.00243,478579352.46790,   0.00165,276425009.31220,  -0.00080,  -0.00149,   0.00070,   0.00000,   2.00000
-305791186.18935,-474249494.81888,133652826.75871,  -0.00127,  -0.00306,   0.00245,478584500.96313,   0.00165,276433365.34973,  -0.00080,  -0.00150,   0.00071,   0.00000,   2.00000
-303361415.92006,-473797570.65541,134432604.81710,  -0.00126,  -0.00307,   0.00247,478601313.19367,   0.00166,276441770.25972,  -0.00081,  -0.00150,   0.00072,   0.00000,   2.00000
-300886325.65133,-473317498.13956,135225027.28945,  -0.00125,  -0.00308,   0.00249,478585703.70120,   0.00167,276450098.27227,  -0.00081,  -0.00151,   0.00073,   0.00000,   2.00000
-298397158.13821,-472840267.70768,136000150.46555,  -0.00124,  -0.00309,   0.00251,478611842.99905,   0.00168,276458511.72322,  -0.00081,  -0.00152,   0.00074,   0.00000,   2.00000
-295908033.40741,-472344326.82824,136773029.86812,  -0.00124,  -0.00310,   0.00253,478643233.74243,   0.00169,276467030.94431,  -0.00081,  -0.00152,   0.00075,   0.00000,   2.00000
-293377689.71402,-471834774.45747,137545394.63409,  -0.00123,  -0.00311,   0.00255,478643246.21922,   0.00169,276475533.37747,  -0.00081,  -0.00153,   0.00076,   0.00000,   2.00000
-290824864.41268,-471305289.08131,138319212.88702,  -0.00122,  -0.00312,   0.00257,478663110.92333,   0.00170,276484096.73742,  -0.00081,  -0.00154,   0.00077,   0.00000,   2.00000
-288234294.90563,-470768314.39644,139086273.09255,  -0.00121,  -0.00313,   0.00259,478656851.51753,   0.00171,276492618.54069,  -0.00081,  -0.00155,   0.00078,  -0.00000,   2.00000
-285644293.00976,-470212219.70382,139850736.12093,  -0.00120,  -0.00314,   0.00260,478689252.19205,   0.00172,276501250.58251,  -0.00082,  -0.00155,   0.00079,   0.00000,   2.00000
-283037922.80971,-469640767.00329,140611551.35676,  -0.00119,  -0.00315,   0.00262,478673832.63351,   0.00173,276509804.45881,  -0.00082,  -0.00156,   0.00080,   0.00000,   2.00000
-280410697.70326,-469057650.00244,141366466.27767,  -0.00118,  -0.00315,   0.00264,478716286.17229,   0.00173,276518508.42912,  -0.00082,  -0.00157,   0.00081,   0.00000,   2.00000
-277741375.33210,-468458999.33221,142120275.68071,  -0.00117,  -0.00316,   0.00266,478718901.84924,   0.00174,276527205.04097,  -0.00082,  -0.00157,   0.00081,   0.00000,   2.00000
-275075055.06700,-467839112.98456,142872452.36083,  -0.00116,  -0.00317,   0.00268,478723193.84901,   0.00175,276535900.76968,  -0.00082,  -0.00158,   0.00082,   0.00000,   2.00000
-272368355.85994,-467212229.47659,143616232.94554,  -0.00115,  -0.00318,   0.00270,478747943.20451,   0.00176,276544676.77494,  -0.00082,  -0.00159,   0.00083,  -0.00000,   2.00000
-269640783.07219,-466561778.70697,144362033.41542,  -0.00114,  -0.00319,   0.00272,478741587.45114,   0.00177,276553409.34611,  -0.00082,  -0.00160,   0.00084,  -0.00000,   2.00000
-266920862.09485,-465908378.64252,145091855.72172,  -0.00113,  -0.00320,   0.00274,478789014.93104,   0.00177,276562312.41738,  -0.00082,  -0.00160,   0.00085,   0.00000,   2.00000
-264155762.58408,-465228774.98994,145827322.43626,  -0.00112,  -0.00321,   0.00276,478772308.35200,   0.00178,276571130.11416,  -0.00082,  -0.00161,   0.00086,   0.00000,   2.00000
-261374636.45641,-464543704.57432,146550284.94352,  -0.00111,  -0.00322,   0.00278,478809408.87427,   0.00179,276580077.41848,  -0.00082,  -0.00162,   0.00087,   0.00000,   2.00000
-258572186.62779,-463834299.99306,147275112.44222,  -0.00110,  -0.00323,   0.00280,478804249.47951,   0.00180,276588984.97549,  -0.00082,  -0.00163,   0.00088,   0.00000,   2.00000
-255747610.47804,-463102584.29498,148000181.25066,  -0.00108,  -0.00324,   0.00282,478828426.56609,   0.00181,276597970.47087,  -0.00082,  -0.00163,   0.00089,   0.00000,   2.00000
-252907963.39349,-462362879.15576,148714032.36800,  -0.00107,  -0.00325,   0.00284,478837348.77596,   0.00182,276606972.38130,  -0.00082,  -0.00164,   0.00090,  -0.00000,   2.00000
-250049786.88637,-461607829.60049,149422319.22034,  -0.00106,  -0.00326,   0.00285,478854296.27079,   0.00182,276616022.91286,  -0.00082,  -0.00165,   0.00091,   0.00000,   2.00000
-247173132.24687,-460837309.46976,150124976.94352,  -0.00105,  -0.00327,   0.00287,478871534.46401,   0.00183,276625123.10313,  -0.00083,  -0.00166,   0.00092,   0.00000,   2.00000
-244278054.77804,-460051194.00527,150821940.01031,  -0.00104,  -0.00328,   0.00289,478889065.35549,   0.00184,276634273.99560,  -0.00083,  -0.00166,   0.00093,   0.00000,   2.00000
-241361279.30740,-459242049.24634,151518707.63364,  -0.00103,  -0.00329,   0.00291,478914880.43091,   0.00185,276643509.04626,  -0.00083,  -0.00167,   0.00094,   0.00000,   2.00000
-238404278.14207,-458420562.39373,152207350.77001,  -0.00102,  -0.00330,   0.00293,478915584.40150,   0.00186,276652726.29467,  -0.00083,  -0.00168,   0.00095,   0.00000,   2.00000
-235450389.39391,-457576857.90497,152894078.95466,  -0.00101,  -0.00331,   0.00295,478922546.57037,   0.00187,276661950.99120,  -0.00083,  -0.00169,   0.00096,   0.00000,   2.00000
-232482324.25152,-456727053.05537,153567443.03001,  -0.00099,  -0.00332,   0.00297,478962294.98919,   0.00188,276671316.43880,  -0.00083,  -0.00170,   0.00097,   0.00000,   2.00000
-229496176.30132,-455861054.40539,154234776.58013,  -0.00098,  -0.00333,   0.00299,478981318.77184,   0.00189,276680737.88435,  -0.00083,  -0.00170,   0.00098,   0.00000,   2.00000
-226465016.72492,-454971531.67775,154901098.87944,  -0.00097,  -0.00334,   0.00301,478962565.05719,   0.00189,276690060.95033,  -0.00083,  -0.00171,   0.00100,   0.00000,   2.00000
-223438443.21560,-454062432.74965,155563489.56317,  -0.00096,  -0.00335,   0.00303,478999343.13799,   0.00190,276699512.79615,  -0.00083,  -0.00172,   0.00101,   0.00000,   2.00000
-220367947.02904,-453132024.96778,156222672.22899,  -0.00095,  -0.00336,   0.00305,479010630.92770,   0.00191,276708988.80662,  -0.00083,  -0.00173,   0.00102,   0.00000,   2.00000
-217308613.48742,-452196931.21825,156866976.01846,  -0.00093,  -0.00337,   0.00307,479031374.86116,   0.00192,276718527.48583,  -0.00083,  -0.00173,   0.00103,   0.00000,   2.00000
-214231455.89666,-451245025.00897,157504917.28321,  -0.00092,  -0.00338,   0.00309,479051833.19988,   0.00193,276728127.47133,  -0.00083,  -0.00174,   0.00104,  -0.00000,   2.00000
-211107369.47668,-450263597.98545,158144718.08962,  -0.00091,  -0.00339,   0.00311,479072731.67177,   0.00194,276737790.56762,  -0.00083,  -0.00175,   0.00105,   0.00000,   2.00000
-207994954.75847,-449277650.23859,158769614.77503,  -0.00090,  -0.00340,   0.00312,479093887.28999,   0.00195,276747517.45652,  -0.00082,  -0.00176,   0.00106,  -0.00000,   2.00000
-204838554.86362,-448269111.29915,159390785.82661,  -0.00088,  -0.00341,   0.00314,479107378.17075,   0.00196,276757276.37269,  -0.00082,  -0.00177,   0.00107,   0.00000,   2.00000
-201688498.15977,-447245339.26896,160004564.91422,  -0.00087,  -0.00342,   0.00316,479108003.49301,   0.00197,276767013.73082,  -0.00082,  -0.00177,   0.00108,   0.00000,   2.00000
-198491547.15015,-446190929.42896,160619660.20289,  -0.00086,  -0.00343,   0.00318,479130805.84044,   0.00198,276776821.60430,  -0.00082,  -0.00178,   0.00109,   0.00000,   2.00000
-195312725.15392,-445143163.36563,161212346.31182,  -0.00084,  -0.00343,   0.00320,479173072.24437,   0.00198,276786780.42467,  -0.00082,  -0.00179,   0.00111,   0.00000,   2.00000
-192083875.72585,-444060724.15767,161808372.66002,  -0.00083,  -0.00344,   0.00322,479167753.72081,   0.00199,276796691.98529,  -0.00082,  -0.00180,   0.00112,   0.00000,   2.00000
-188864930.80831,-442966567.89596,162394726.61630,  -0.00082,  -0.00345,   0.00324,479198139.57705,   0.00200,276806704.92878,  -0.00082,  -0.00181,   0.00113,   0.00000,   2.00000
-185595598.89922,-441837002.11856,162984131.41151,  -0.00080,  -0.00346,   0.00326,479193867.94714,   0.00201,276816674.43970,  -0.00082,  -0.00181,   0.00114,  -0.00000,   2.00000
-182345563.75346,-440714617.49479,163551083.10922,  -0.00079,  -0.00347,   0.00328,479236482.79912,   0.00202,276826796.30162,  -0.00082,  -0.00182,   0.00115,   0.00000,   2.00000
-179051592.68590,-439567601.57721,164113395.47326,  -0.00078,  -0.00348,   0.00330,479253606.72389,   0.00203,276836963.50583,  -0.00082,  -0.00183,   0.00116,   0.00000,   2.00000
-175761594.42498,-438397589.71547,164673492.72185,  -0.00076,  -0.00349,   0.00331,479264223.17712,   0.00204,276847148.46409,  -0.00082,  -0.00184,   0.00117,   0.00000,   2.00000
-172455091.96451,-437209387.80808,165226275.71575,  -0.00075,  -0.00350,   0.00333,479288740.10008,   0.00205,276857409.41135,  -0.00082,  -0.00185,   0.00119,   0.00000,   2.00000
-169107038.16615,-436003278.85450,165768877.40937,  -0.00073,  -0.00351,   0.00335,479298615.35661,   0.00206,276867684.54580,  -0.00082,  -0.00186,   0.00120,   0.00000,   2.00000
-165770370.34454,-434785843.48899,166301687.16959,  -0.00072,  -0.00352,   0.00337,479330102.78204,   0.00207,276878064.65933,  -0.00081,  -0.00186,   0.00121,   0.00000,   2.00000
-162417650.89109,-433549981.02117,166827010.54543,  -0.00071,  -0.00353,   0.00339,479355545.57739,   0.00208,276888523.91904,  -0.00081,  -0.00187,   0.00122,   0.00000,   2.00000
-159051201.13571,-432303112.92295,167339718.83151,  -0.00069,  -0.00354,   0.00341,479372511.47152,   0.00209,276899026.16415,  -0.00081,  -0.00188,   0.00123,   0.00000,   2.00000
-155633414.14492,-431017809.17623,167854434.66940,  -0.00068,  -0.00355,   0.00343,479372810.95898,   0.00210,276909500.78676,  -0.00081,  -0.00189,   0.00125,   0.00000,   2.00000
-152227877.11974,-429721414.59633,168359261.91570,  -0.00066,  -0.00356,   0.00345,479404980.66651,   0.00211,276920082.67272,  -0.00081,  -0.00190,   0.00126,   0.00000,   2.00000
-148808823.36952,-428413710.78356,168851285.15942,  -0.00065,  -0.00357,   0.00347,479422839.03341,   0.00212,276930710.67280,  -0.00081,  -0.00191,   0.00127,  -0.00000,   2.00000
-145374416.06006,-427087138.13915,169335485.88664,  -0.00063,  -0.00358,   0.00348,479449855.55703,   0.00213,276941423.48546,  -0.00081,  -0.00192,   0.00128,   0.00000,   2.00000
-141924858.60844,-425741644.23456,169811789.81008,  -0.00062,  -0.00358,   0.00350,479477221.17789,   0.00214,276952222.28266,  -0.00080,  -0.00192,   0.00129,   0.00000,   2.00000
-138462165.14124,-424384638.86559,170275162.75841,  -0.00060,  -0.00359,   0.00352,479495965.11779,   0.00215,276963069.94135,  -0.00080,  -0.00193,   0.00131,   0.00000,   2.00000
-135006033.04882,-423011953.08907,170731297.48681,  -0.00059,  -0.00360,   0.00354,479499777.60815,   0.00216,276973902.34855,  -0.00080,  -0.00194,   0.00132,   0.00000,   2.00000
-131505089.42248,-421604070.57722,171186097.37255,  -0.00057,  -0.00361,   0.00356,479532277.95441,   0.00217,276984842.18065,  -0.00080,  -0.00195,   0.00133,   0.00000,   2.00000
-127991307.28262,-420184402.33884,171627765.85883,  -0.00056,  -0.00362,   0.00358,479551960.77606,   0.00218,276995834.14819,  -0.00080,  -0.00196,   0.00134,  -0.00000,   2.00000
-124493232.16656,-418761951.40687,172054711.81327,  -0.00054,  -0.00363,   0.00359,479576055.83019,   0.00219,277006896.73609,  -0.00079,  -0.00197,   0.00136,  -0.00000,   2.00000
-120952472.00246,-417311153.93493,172475041.86964,  -0.00053,  -0.00364,   0.00361,479601009.25198,   0.00220,277018033.43604,  -0.00079,  -0.00198,   0.00137,  -0.00000,   2.00000
-117416975.89631,-415837091.70064,172892987.05957,  -0.00051,  -0.00365,   0.00363,479614918.75459,   0.00221,277029196.39453,  -0.00079,  -0.00199,   0.00138,   0.00000,   2.00000
-113840438.50956,-414341628.39955,173299109.34063,  -0.00050,  -0.00366,   0.00365,479631830.07848,   0.00222,277040398.38345,  -0.00079,  -0.00199,   0.00140,  -0.00000,   2.00000
-110280302.97322,-412843642.47518,173690531.08543,  -0.00048,  -0.00367,   0.00367,479656496.92916,   0.00223,277051672.41036,  -0.00078,  -0.00200,   0.00141,   0.00000,   2.00000
-106705437.97740,-411318902.40363,174078390.17849,  -0.00047,  -0.00368,   0.00369,479695936.17020,   0.00224,277063081.90900,  -0.00078,  -0.00201,   0.00142,   0.00000,   2.00000
-103109866.75423,-409775799.85259,174455424.23581,  -0.00045,  -0.00368,   0.00370,479688942.80708,   0.00226,277074425.82986,  -0.00078,  -0.00202,   0.00144,   0.00000,   2.00000
-99511292.21901,-408226940.06970,174816535.84552,  -0.00043,  -0.00369,   0.00372,479739171.81256,   0.00227,277085951.55161,  -0.00078,  -0.00203,   0.00145,   0.00000,   2.00000
-95889709.78481,-406644690.18523,175176405.35645,  -0.00042,  -0.00370,   0.00374,479751247.13526,   0.00228,277097493.34060,  -0.00077,  -0.00204,   0.00146,   0.00000,   2.00000
-92256560.86844,-405050164.95436,175522757.73646,  -0.00040,  -0.00371,   0.00376,479773696.39714,   0.00229,277109095.91537,  -0.00077,  -0.00205,   0.00148,   0.00000,   2.00000
-88630349.70747,-403439685.98807,175861908.27212,  -0.00038,  -0.00372,   0.00377,479779838.44393,   0.00230,277120688.09450,  -0.00077,  -0.00206,   0.00149,   0.00000,   2.00000
-84973532.51031,-401813252.11604,176185962.24753,  -0.00037,  -0.00373,   0.00379,479828522.36014,   0.00231,277132454.60864,  -0.00077,  -0.00207,   0.00150,   0.00000,   2.00000
-81323807.08098,-400170839.53182,176502835.04155,  -0.00035,  -0.00374,   0.00381,479835077.30027,   0.00232,277144211.52241,  -0.00076,  -0.00208,   0.00152,   0.00000,   2.00000
-77662228.18266,-398508846.80981,176810896.81056,  -0.00034,  -0.00375,   0.00383,479867735.96494,   0.00233,277156072.34016,  -0.00076,  -0.00209,   0.00153,   0.00000,   2.00000
-73989782.60221,-396834491.28256,177105330.43177,  -0.00032,  -0.00376,   0.00385,479891434.03521,   0.00234,277167997.52707,  -0.00076,  -0.00209,   0.00154,   0.00000,   2.00000
-70295398.32177,-395133000.18545,177393314.05836,  -0.00030,  -0.00376,   0.00386,479896660.24375,   0.00236,277179906.15750,  -0.00075,  -0.00210,   0.00156,  -0.00000,   2.00000
-66601202.27578,-393426604.25751,177665116.10475,  -0.00029,  -0.00377,   0.00388,479949036.66752,   0.00237,277192003.99094,  -0.00075,  -0.00211,   0.00157,   0.00000,   2.00000
-62885202.83380,-391692784.54607,177930356.42032,  -0.00027,  -0.00378,   0.00390,479955036.32542,   0.00238,277204087.58074,  -0.00075,  -0.00212,   0.00158,  -0.00000,   2.00000
-59176025.58890,-389935789.32177,178193185.81497,  -0.00025,  -0.00379,   0.00391,479971980.78981,   0.00239,277216204.63288,  -0.00074,  -0.00213,   0.00160,  -0.00000,   2.00000
-55468463.00661,-388181476.31757,178435081.32763,  -0.00023,  -0.00380,   0.00393,480015521.14609,   0.00240,277228471.31183,  -0.00074,  -0.00214,   0.00161,   0.00000,   2.00000
-51739090.84414,-386399406.11575,178670301.72783,  -0.00022,  -0.00381,   0.00395,480022387.28530,   0.00241,277240726.20783,  -0.00074,  -0.00215,   0.00163,   0.00000,   2.00000
-47999932.05883,-384604738.75694,178891659.97336,  -0.00020,  -0.00382,   0.00397,480048034.50956,   0.00242,277253051.58394,  -0.00073,  -0.00216,   0.00164,   0.00000,   2.00000
-44251009.95973,-382790411.29564,179103842.49051,  -0.00018,  -0.00382,   0.00398,480083408.96410,   0.00244,277265489.78970,  -0.00073,  -0.00217,   0.00165,   0.00000,   2.00000
-40480455.88036,-380947802.87558,179309098.32234,  -0.00016,  -0.00383,   0.00400,480091516.07336,   0.00245,277277920.42007,  -0.00072,  -0.00218,   0.00167,   0.00000,   2.00000
