# sigma_xx, sigma_yy, sigma_xy, epsilon_xx, epsilon_yy, epsilon_xy, vonMises, epsPlastic, hardening, epsilonP__xx, epsilonP__yy, epsilonP__xy, yieldValue, iteration
   0.00000,   0.00000,   0.00000,   0.00000,   0.00000,   0.00000,1181185.37500,   0.00000,274640576.00000,   0.00000,   0.00000,   0.00000,-473459392.00000,   0.00000
   0.00000,   0.00000,   0.00000,   0.00000,   0.00000,   0.00000,1181185.37500,   0.00000,274640576.00000,   0.00000,   0.00000,   0.00000,-473459392.00000,   0.00000
-6544331.17084,-4329935.12512,-721655.85419,  -0.00002,  -0.00001,  -0.00001,5468575.50000,   0.00000,274640576.00000,   0.00000,   0.00000,   0.00000,-469172000.00000,   0.00000
-13039233.85851,-8610441.76707,-1433426.01174,  -0.00004,  -0.00001,  -0.00002,11348319.00000,   0.00000,274640576.00000,   0.00000,   0.00000,   0.00000,-463292256.00000,   0.00000
-19548965.09113,-12925548.34724,-2145196.16929,  -0.00006,  -0.00002,  -0.00003,17121154.00000,   0.00000,274640576.00000,   0.00000,   0.00000,   0.00000,-457519424.00000,   0.00000
-26058696.32376,-17240654.92740,-2856966.32685,  -0.00008,  -0.00003,  -0.00004,23026012.00000,   0.00000,274640576.00000,   0.00000,   0.00000,   0.00000,-451614560.00000,   0.00000
-32548656.16311,-21575532.90083,-3568736.48440,  -0.00011,  -0.00003,  -0.00005,28937736.00000,   0.00000,274640576.00000,   0.00000,   0.00000,   0.00000,-445702848.00000,   0.00000
-39023787.45752,-25875810.93605,-4280506.64195,  -0.00013,  -0.00004,  -0.00006,34814736.00000,   0.00000,274640576.00000,   0.00000,   0.00000,   0.00000,-439825840.00000,   0.00000
-45513747.29688,-30210688.90948,-4982391.10287,  -0.00015,  -0.00005,  -0.00006,40697496.00000,   0.00000,274640576.00000,   0.00000,   0.00000,   0.00000,-433943072.00000,   0.00000
-51969107.19802,-34530738.33797,-5684275.56379,  -0.00017,  -0.00006,  -0.00007,46539844.00000,   0.00000,274640576.00000,   0.00000,   0.00000,   0.00000,-428100736.00000,   0.00000
-58439295.64411,-38885387.70466,-6386160.02471,  -0.00019,  -0.00006,  -0.00008,52378896.00000,   0.00000,274640576.00000,   0.00000,   0.00000,   0.00000,-422261680.00000,   0.00000
-64860055.60704,-43190608.58820,-7078158.78900,  -0.00021,  -0.00007,  -0.00009,58153472.00000,   0.00000,274640576.00000,   0.00000,   0.00000,   0.00000,-416487104.00000,   0.00000
-71295644.11492,-47530429.40995,-7770157.55329,  -0.00023,  -0.00008,  -0.00010,63948296.00000,   0.00000,274640576.00000,   0.00000,   0.00000,   0.00000,-410692288.00000,   0.00000
-77731232.62280,-51870250.23170,-8472042.01421,  -0.00025,  -0.00008,  -0.00011,69766528.00000,   0.00000,274640576.00000,   0.00000,   0.00000,   0.00000,-404874048.00000,   0.00000
-84132221.19246,-56195242.50850,-9154155.08187,  -0.00027,  -0.00009,  -0.00012,75572040.00000,   0.00000,274640576.00000,   0.00000,   0.00000,   0.00000,-399068544.00000,   0.00000
-90533209.76213,-60520234.78530,-9846153.84615,  -0.00029,  -0.00010,  -0.00013,81394320.00000,   0.00000,274640576.00000,   0.00000,   0.00000,   0.00000,-393246256.00000,   0.00000
-96899598.39357,-64830398.51715,-10528266.91381,  -0.00031,  -0.00011,  -0.00014,87182336.00000,   0.00000,274640576.00000,   0.00000,   0.00000,   0.00000,-387458240.00000,   0.00000
-103280815.56997,-69175162.18721,-11210379.98146,  -0.00034,  -0.00011,  -0.00015,92973992.00000,   0.00000,274640576.00000,   0.00000,   0.00000,   0.00000,-381666592.00000,   0.00000
-109627432.80816,-73505097.31233,-11892493.04912,  -0.00036,  -0.00012,  -0.00015,98718440.00000,   0.00000,274640576.00000,   0.00000,   0.00000,   0.00000,-375922144.00000,   0.00000
-115974050.04634,-77835032.43744,-12574606.11677,  -0.00038,  -0.00013,  -0.00016,104446872.00000,   0.00000,274640576.00000,   0.00000,   0.00000,   0.00000,-370193696.00000,   0.00000
-122320667.28452,-82164967.56256,-13246833.48780,  -0.00040,  -0.00014,  -0.00017,110165904.00000,   0.00000,274640576.00000,   0.00000,   0.00000,   0.00000,-364474672.00000,   0.00000
-128647513.12944,-86514674.08094,-13919060.85882,  -0.00042,  -0.00014,  -0.00018,115880928.00000,   0.00000,274640576.00000,   0.00000,   0.00000,   0.00000,-358759648.00000,   0.00000
-134959530.42941,-90829780.66111,-14591288.22984,  -0.00044,  -0.00015,  -0.00019,121591584.00000,   0.00000,274640576.00000,   0.00000,   0.00000,   0.00000,-353048992.00000,   0.00000
-141251776.33611,-95164658.63454,-15263515.60086,  -0.00046,  -0.00016,  -0.00020,127299848.00000,   0.00000,274640576.00000,   0.00000,   0.00000,   0.00000,-347340736.00000,   0.00000
-147544022.24282,-99499536.60797,-15925857.27525,  -0.00048,  -0.00017,  -0.00021,133004216.00000,   0.00000,274640576.00000,   0.00000,   0.00000,   0.00000,-341636352.00000,   0.00000
-153801668.21131,-103819586.03645,-16598084.64628,  -0.00050,  -0.00017,  -0.00022,138676560.00000,   0.00000,274640576.00000,   0.00000,   0.00000,   0.00000,-335964016.00000,   0.00000
-160059314.17980,-108139635.46494,-17250540.62403,  -0.00052,  -0.00018,  -0.00022,144332576.00000,   0.00000,274640576.00000,   0.00000,   0.00000,   0.00000,-330308000.00000,   0.00000
-166331788.69323,-112494284.83163,-17912882.29842,  -0.00054,  -0.00019,  -0.00023,150002416.00000,   0.00000,274640576.00000,   0.00000,   0.00000,   0.00000,-324638160.00000,   0.00000
-172554834.72351,-116799505.71517,-18575223.97281,  -0.00056,  -0.00019,  -0.00024,155624496.00000,   0.00000,274640576.00000,   0.00000,   0.00000,   0.00000,-319016080.00000,   0.00000
-178758109.36052,-121124497.99197,-19227679.95057,  -0.00058,  -0.00020,  -0.00025,161236656.00000,   0.00000,274640576.00000,   0.00000,   0.00000,   0.00000,-313403920.00000,   0.00000
-184961383.99753,-125449490.26877,-19880135.92833,  -0.00060,  -0.00021,  -0.00026,166859280.00000,   0.00000,274640576.00000,   0.00000,   0.00000,   0.00000,-307781296.00000,   0.00000
-191130058.69632,-129759654.00062,-20532591.90609,  -0.00062,  -0.00022,  -0.00027,172466864.00000,   0.00000,274640576.00000,   0.00000,   0.00000,   0.00000,-302173712.00000,   0.00000
-197298733.39512,-134069817.73247,-21175162.18721,  -0.00064,  -0.00023,  -0.00028,178078704.00000,   0.00000,274640576.00000,   0.00000,   0.00000,   0.00000,-296561872.00000,   0.00000
-203467408.09391,-138379981.46432,-21817732.46833,  -0.00066,  -0.00023,  -0.00028,183682784.00000,   0.00000,274640576.00000,   0.00000,   0.00000,   0.00000,-290957792.00000,   0.00000
-209616311.39944,-142709916.58943,-22460302.74946,  -0.00068,  -0.00024,  -0.00029,189247232.00000,   0.00000,274640576.00000,   0.00000,   0.00000,   0.00000,-285393344.00000,   0.00000
-215715786.22181,-146990423.23139,-23102873.03058,  -0.00069,  -0.00025,  -0.00030,194737568.00000,   0.00000,274640576.00000,   0.00000,   0.00000,   0.00000,-279903008.00000,   0.00000
-221830089.58913,-151305529.81155,-23745443.31171,  -0.00071,  -0.00026,  -0.00031,200300272.00000,   0.00000,274640576.00000,   0.00000,   0.00000,   0.00000,-274340304.00000,   0.00000
-227909793.01823,-155605807.84677,-24378127.89620,  -0.00073,  -0.00026,  -0.00032,205957808.00000,   0.00000,274640576.00000,   0.00000,   0.00000,   0.00000,-268682768.00000,   0.00000
-233989496.44733,-159906085.88199,-25010812.48069,  -0.00075,  -0.00027,  -0.00033,211482224.00000,   0.00000,274640576.00000,   0.00000,   0.00000,   0.00000,-263158352.00000,   0.00000
-240069199.87643,-164206363.91721,-25643497.06518,  -0.00077,  -0.00028,  -0.00033,216902304.00000,   0.00000,274640576.00000,   0.00000,   0.00000,   0.00000,-257738272.00000,   0.00000
-246079703.42910,-168476984.86253,-26266295.95304,  -0.00079,  -0.00029,  -0.00034,222340832.00000,   0.00000,274640576.00000,   0.00000,   0.00000,   0.00000,-252299744.00000,   0.00000
-252124806.91999,-172762434.35280,-26898980.53753,  -0.00081,  -0.00029,  -0.00035,227860944.00000,   0.00000,274640576.00000,   0.00000,   0.00000,   0.00000,-246779632.00000,   0.00000
-258115539.07939,-177052826.69138,-27521779.42539,  -0.00083,  -0.00030,  -0.00036,233358560.00000,   0.00000,274640576.00000,   0.00000,   0.00000,   0.00000,-241282016.00000,   0.00000
-264126042.63207,-181323447.63670,-28144578.31325,  -0.00085,  -0.00031,  -0.00037,238863792.00000,   0.00000,274640576.00000,   0.00000,   0.00000,   0.00000,-235776784.00000,   0.00000
-270082174.85326,-185599011.43034,-28757491.50448,  -0.00087,  -0.00032,  -0.00037,244311536.00000,   0.00000,274640576.00000,   0.00000,   0.00000,   0.00000,-230329040.00000,   0.00000
-276038307.07445,-189874575.22397,-29380290.39234,  -0.00089,  -0.00033,  -0.00038,249744816.00000,   0.00000,274640576.00000,   0.00000,   0.00000,   0.00000,-224895760.00000,   0.00000
-281979610.75070,-194115539.07939,-29993203.58357,  -0.00090,  -0.00033,  -0.00039,255143072.00000,   0.00000,274640576.00000,   0.00000,   0.00000,   0.00000,-219497504.00000,   0.00000
-287901143.03367,-198376274.32808,-30606116.77479,  -0.00092,  -0.00034,  -0.00040,260526160.00000,   0.00000,274640576.00000,   0.00000,   0.00000,   0.00000,-214114416.00000,   0.00000
-293802903.92339,-202656780.97003,-31219029.96602,  -0.00094,  -0.00035,  -0.00041,265903216.00000,   0.00000,274640576.00000,   0.00000,   0.00000,   0.00000,-208737360.00000,   0.00000
-299689836.26815,-206902687.67377,-31822057.46061,  -0.00096,  -0.00036,  -0.00041,271267712.00000,   0.00000,274640576.00000,   0.00000,   0.00000,   0.00000,-203372864.00000,   0.00000
-305542168.67470,-211133765.83256,-32425084.95521,  -0.00098,  -0.00036,  -0.00042,276608512.00000,   0.00000,274640576.00000,   0.00000,   0.00000,   0.00000,-198032064.00000,   0.00000
-311394501.08125,-215364843.99135,-33028112.44980,  -0.00100,  -0.00037,  -0.00043,281961120.00000,   0.00000,274640576.00000,   0.00000,   0.00000,   0.00000,-192679456.00000,   0.00000
-317227062.09453,-219615693.54340,-33631139.94439,  -0.00102,  -0.00038,  -0.00044,287275520.00000,   0.00000,274640576.00000,   0.00000,   0.00000,   0.00000,-187365056.00000,   0.00000
-323010194.62465,-223817114.61230,-34224281.74235,  -0.00103,  -0.00039,  -0.00044,292519904.00000,   0.00000,274640576.00000,   0.00000,   0.00000,   0.00000,-182120672.00000,   0.00000
-328808155.69972,-228053135.61940,-34827309.23695,  -0.00105,  -0.00040,  -0.00045,297779040.00000,   0.00000,274640576.00000,   0.00000,   0.00000,   0.00000,-176861536.00000,   0.00000
-334571516.83658,-232274328.08156,-35420451.03491,  -0.00107,  -0.00040,  -0.00046,302968128.00000,   0.00000,274640576.00000,   0.00000,   0.00000,   0.00000,-171672448.00000,   0.00000
-340334877.97343,-236495520.54371,-36003707.13624,  -0.00109,  -0.00041,  -0.00047,308138144.00000,   0.00000,274640576.00000,   0.00000,   0.00000,   0.00000,-166502432.00000,   0.00000
-346048810.62712,-240667284.52271,-36596848.93420,  -0.00111,  -0.00042,  -0.00048,313280576.00000,   0.00000,274640576.00000,   0.00000,   0.00000,   0.00000,-161360000.00000,   0.00000
-351777571.82576,-244873648.43991,-37180105.03553,  -0.00112,  -0.00043,  -0.00048,318473504.00000,   0.00000,274640576.00000,   0.00000,   0.00000,   0.00000,-156167072.00000,   0.00000
-357471733.08619,-249065183.81217,-37763361.13686,  -0.00114,  -0.00044,  -0.00049,323681536.00000,   0.00000,274640576.00000,   0.00000,   0.00000,   0.00000,-150959040.00000,   0.00000
-363146122.95335,-253276490.57770,-38346617.23818,  -0.00116,  -0.00044,  -0.00050,328914784.00000,   0.00000,274640576.00000,   0.00000,   0.00000,   0.00000,-145725792.00000,   0.00000
-368771084.33735,-257438368.86006,-38929873.33951,  -0.00118,  -0.00045,  -0.00051,334117792.00000,   0.00000,274640576.00000,   0.00000,   0.00000,   0.00000,-140522784.00000,   0.00000
-374396045.72135,-261600247.14242,-39503243.74421,  -0.00119,  -0.00046,  -0.00051,339313568.00000,   0.00000,274640576.00000,   0.00000,   0.00000,   0.00000,-135327008.00000,   0.00000
-380021007.10534,-265762125.42478,-40076614.14890,  -0.00121,  -0.00047,  -0.00052,344492128.00000,   0.00000,274640576.00000,   0.00000,   0.00000,   0.00000,-130148448.00000,   0.00000
-385626197.09608,-269943775.10040,-40649984.55360,  -0.00123,  -0.00048,  -0.00053,349641312.00000,   0.00000,274640576.00000,   0.00000,   0.00000,   0.00000,-124999264.00000,   0.00000
-391181958.60365,-274075996.29286,-41223354.95829,  -0.00125,  -0.00048,  -0.00054,354732032.00000,   0.00000,274640576.00000,   0.00000,   0.00000,   0.00000,-119908544.00000,   0.00000
-396703120.17300,-278193388.94038,-41786839.66636,  -0.00126,  -0.00049,  -0.00054,359790176.00000,   0.00000,274640576.00000,   0.00000,   0.00000,   0.00000,-114850400.00000,   0.00000
-402239110.28730,-282345381.52610,-42360210.07105,  -0.00128,  -0.00050,  -0.00055,364876992.00000,   0.00000,274640576.00000,   0.00000,   0.00000,   0.00000,-109763584.00000,   0.00000
-407740500.46339,-286482545.56688,-42923694.77912,  -0.00130,  -0.00051,  -0.00056,369941152.00000,   0.00000,274640576.00000,   0.00000,   0.00000,   0.00000,-104699424.00000,   0.00000
-413227062.09453,-290585109.66945,-43477293.79055,  -0.00131,  -0.00052,  -0.00057,374986720.00000,   0.00000,274640576.00000,   0.00000,   0.00000,   0.00000,-99653856.00000,   0.00000
-418693852.33241,-294707445.16528,-44040778.49861,  -0.00133,  -0.00052,  -0.00057,380019104.00000,   0.00000,274640576.00000,   0.00000,   0.00000,   0.00000,-94621472.00000,   0.00000
-424126042.63207,-298814952.11616,-44594377.51004,  -0.00135,  -0.00053,  -0.00058,385004736.00000,   0.00000,274640576.00000,   0.00000,   0.00000,   0.00000,-89635840.00000,   0.00000
-429543404.38678,-302887859.12882,-45147976.52147,  -0.00136,  -0.00054,  -0.00059,389952896.00000,   0.00000,274640576.00000,   0.00000,   0.00000,   0.00000,-84687680.00000,   0.00000
-434940994.74822,-306980537.53475,-45701575.53290,  -0.00138,  -0.00055,  -0.00059,394876960.00000,   0.00000,274640576.00000,   0.00000,   0.00000,   0.00000,-79763616.00000,   0.00000
-440303985.17145,-311058387.39574,-46255174.54433,  -0.00140,  -0.00056,  -0.00060,399780128.00000,   0.00000,274640576.00000,   0.00000,   0.00000,   0.00000,-74860448.00000,   0.00000
-445666975.59469,-315136237.25672,-46798887.85913,  -0.00141,  -0.00056,  -0.00061,404720864.00000,   0.00000,274640576.00000,   0.00000,   0.00000,   0.00000,-69919712.00000,   0.00000
-450995366.07970,-319199258.57275,-47342601.17393,  -0.00143,  -0.00057,  -0.00062,409672800.00000,   0.00000,274640576.00000,   0.00000,   0.00000,   0.00000,-64967776.00000,   0.00000
-456289156.62651,-323247451.34384,-47886314.48872,  -0.00145,  -0.00058,  -0.00062,414605088.00000,   0.00000,274640576.00000,   0.00000,   0.00000,   0.00000,-60035488.00000,   0.00000
-461582947.17331,-327295644.11492,-48430027.80352,  -0.00146,  -0.00059,  -0.00063,419563360.00000,   0.00000,274640576.00000,   0.00000,   0.00000,   0.00000,-55077216.00000,   0.00000
-466842137.78190,-331329008.34106,-48963855.42169,  -0.00148,  -0.00060,  -0.00064,424502592.00000,   0.00000,274640576.00000,   0.00000,   0.00000,   0.00000,-50137984.00000,   0.00000
-472066728.45227,-335347544.02224,-49497683.03985,  -0.00149,  -0.00061,  -0.00064,429386592.00000,   0.00000,274640576.00000,   0.00000,   0.00000,   0.00000,-45253984.00000,   0.00000
-477291319.12264,-339366079.70343,-50031510.65802,  -0.00151,  -0.00061,  -0.00065,434234880.00000,   0.00000,274640576.00000,   0.00000,   0.00000,   0.00000,-40405696.00000,   0.00000
-482481309.85480,-343369786.83967,-50565338.27618,  -0.00153,  -0.00062,  -0.00066,439028256.00000,   0.00000,274640576.00000,   0.00000,   0.00000,   0.00000,-35612320.00000,   0.00000
-487651529.19370,-347393265.36917,-51099165.89435,  -0.00154,  -0.00063,  -0.00066,443797216.00000,   0.00000,274640576.00000,   0.00000,   0.00000,   0.00000,-30843360.00000,   0.00000
-492806919.98764,-351382143.96046,-51623107.81588,  -0.00156,  -0.00064,  -0.00067,448539936.00000,   0.00000,274640576.00000,   0.00000,   0.00000,   0.00000,-26100640.00000,   0.00000
-497927710.84337,-355356194.00680,-52147049.73741,  -0.00157,  -0.00065,  -0.00068,453257664.00000,   0.00000,274640576.00000,   0.00000,   0.00000,   0.00000,-21382912.00000,   0.00000
-503013901.76089,-359315415.50819,-52670991.65894,  -0.00159,  -0.00065,  -0.00068,457954240.00000,   0.00000,274640576.00000,   0.00000,   0.00000,   0.00000,-16686336.00000,   0.00000
-508100092.67841,-363274637.00958,-53194933.58048,  -0.00160,  -0.00066,  -0.00069,462657600.00000,   0.00000,274640576.00000,   0.00000,   0.00000,   0.00000,-11982976.00000,   0.00000
-513131912.26444,-367238801.35928,-53708989.80538,  -0.00162,  -0.00067,  -0.00070,467324064.00000,   0.00000,274640576.00000,   0.00000,   0.00000,   0.00000,-7316512.00000,   0.00000
-518183503.24374,-371183194.31572,-54223046.03027,  -0.00163,  -0.00068,  -0.00070,471999584.00000,   0.00000,274640576.00000,   0.00000,   0.00000,   0.00000,-2640992.00000,   0.00000
-521033537.99815,-373422507.33704,-54517097.23509,  -0.00164,  -0.00068,  -0.00071,474640512.00000,   0.00000,274640576.00000,   0.00000,   0.00000,   0.00000, -64.00000,   0.00000
-520991795.67781,-373641688.25655,-54471660.87966,  -0.00165,  -0.00069,  -0.00071,474640512.00000,   0.00001,274647616.00000,  -0.00001,  -0.00000,  -0.00000,  64.00000,   2.00000
-520895163.31876,-374147815.90561,-54365527.95472,  -0.00166,  -0.00069,  -0.00072,479259040.00000,   0.00002,274664032.00000,  -0.00002,  -0.00001,  -0.00001,  64.00000,   2.00000
-520789404.44185,-374674153.79088,-54261702.19900,  -0.00168,  -0.00070,  -0.00072,479266912.00000,   0.00004,274680416.00000,  -0.00004,  -0.00001,  -0.00002,  32.00000,   2.00000
-520689612.47468,-375181944.38065,-54155786.11581,  -0.00169,  -0.00071,  -0.00073,479233984.00000,   0.00005,274696608.00000,  -0.00006,  -0.00002,  -0.00003,   0.00000,   2.00000
-520590347.10987,-375683782.78894,-54050954.14890,  -0.00171,  -0.00072,  -0.00074,479250912.00000,   0.00007,274712800.00000,  -0.00007,  -0.00002,  -0.00004, -64.00000,   2.00000
-520487665.27976,-376185557.76776,-53950875.32872,  -0.00172,  -0.00073,  -0.00074,479239872.00000,   0.00008,274728864.00000,  -0.00009,  -0.00003,  -0.00004,  96.00000,   2.00000
-520375619.48120,-376707577.78800,-53852980.46879,  -0.00174,  -0.00074,  -0.00075,479247648.00000,   0.00009,274744896.00000,  -0.00010,  -0.00004,  -0.00005,  32.00000,   2.00000
-520269731.36287,-377211598.21812,-53752887.46597,  -0.00175,  -0.00074,  -0.00076,479214336.00000,   0.00011,274760736.00000,  -0.00012,  -0.00004,  -0.00006,  64.00000,   2.00000
-520164283.47713,-377709741.94101,-53653782.97813,  -0.00177,  -0.00075,  -0.00076,479230880.00000,   0.00012,274776576.00000,  -0.00014,  -0.00005,  -0.00007,  96.00000,   2.00000
-520049471.85955,-378228289.97815,-53556834.69247,  -0.00178,  -0.00076,  -0.00077,479238464.00000,   0.00014,274792352.00000,  -0.00015,  -0.00005,  -0.00007,  64.00000,   2.00000
-519937126.04000,-378726642.67032,-53466966.69793,  -0.00179,  -0.00077,  -0.00078,479208384.00000,   0.00015,274807936.00000,  -0.00017,  -0.00006,  -0.00008,  64.00000,   2.00000
-519825377.44481,-379219331.93286,-53377978.00641,  -0.00181,  -0.00078,  -0.00078,479224544.00000,   0.00017,274823552.00000,  -0.00018,  -0.00006,  -0.00009, 128.00000,   2.00000
-519713722.14004,-379714879.94056,-53284135.30484,  -0.00182,  -0.00078,  -0.00079,479209856.00000,   0.00018,274839008.00000,  -0.00020,  -0.00007,  -0.00010,  96.00000,   2.00000
-519592482.20723,-380230863.69578,-53192335.63961,  -0.00184,  -0.00079,  -0.00080,479217312.00000,   0.00019,274854432.00000,  -0.00021,  -0.00008,  -0.00010, -32.00000,   2.00000
-519473839.66580,-380727130.20436,-53107517.94045,  -0.00185,  -0.00080,  -0.00080,479186720.00000,   0.00021,274869696.00000,  -0.00023,  -0.00008,  -0.00011,  64.00000,   2.00000
-519355829.85781,-381217879.79213,-53023507.85262,  -0.00186,  -0.00081,  -0.00081,479202752.00000,   0.00022,274884960.00000,  -0.00024,  -0.00009,  -0.00012,  64.00000,   2.00000
-519237926.79814,-381711789.88509,-52934544.00269,  -0.00188,  -0.00082,  -0.00081,479187680.00000,   0.00024,274900064.00000,  -0.00026,  -0.00009,  -0.00013,  64.00000,   2.00000
-519106684.73274,-382223709.65381,-52856875.46738,  -0.00189,  -0.00082,  -0.00082,479198336.00000,   0.00025,274915200.00000,  -0.00027,  -0.00010,  -0.00013, -32.00000,   2.00000
-518981648.36436,-382718786.13602,-52776629.70362,  -0.00190,  -0.00083,  -0.00083,479164096.00000,   0.00026,274930112.00000,  -0.00029,  -0.00010,  -0.00014,   0.00000,   2.00000
-518857338.73598,-383208520.67591,-52697131.34617,  -0.00192,  -0.00084,  -0.00083,479179648.00000,   0.00028,274945024.00000,  -0.00030,  -0.00011,  -0.00015,  96.00000,   2.00000
-518732923.54947,-383701550.08618,-52612561.89950,  -0.00193,  -0.00085,  -0.00084,479164448.00000,   0.00029,274959808.00000,  -0.00032,  -0.00011,  -0.00016,  32.00000,   2.00000
-518601517.54248,-384193130.66780,-52541713.33147,  -0.00194,  -0.00086,  -0.00085,479155648.00000,   0.00030,274974528.00000,  -0.00033,  -0.00012,  -0.00016,  96.00000,   2.00000
-518474169.17941,-384681776.84798,-52462107.82588,  -0.00196,  -0.00087,  -0.00085,479167808.00000,   0.00032,274989216.00000,  -0.00035,  -0.00013,  -0.00017,  32.00000,   2.00000
-518343349.53937,-385171573.30988,-52386788.66579,  -0.00197,  -0.00087,  -0.00086,479155584.00000,   0.00033,275003808.00000,  -0.00036,  -0.00013,  -0.00018, 128.00000,   2.00000
-518202479.32375,-385681924.50294,-52313183.49180,  -0.00198,  -0.00088,  -0.00086,479162784.00000,   0.00034,275018368.00000,  -0.00038,  -0.00014,  -0.00018,  64.00000,   2.00000
-518064340.71978,-386173655.54936,-52246243.18214,  -0.00200,  -0.00089,  -0.00087,479131072.00000,   0.00036,275032736.00000,  -0.00039,  -0.00014,  -0.00019,  64.00000,   2.00000
-517926216.58674,-386669121.53387,-52174049.25988,  -0.00201,  -0.00090,  -0.00088,479115328.00000,   0.00037,275047008.00000,  -0.00041,  -0.00015,  -0.00020,  32.00000,   2.00000
-517788696.66800,-387159326.67896,-52102459.78317,  -0.00202,  -0.00091,  -0.00088,479130336.00000,   0.00038,275061280.00000,  -0.00042,  -0.00015,  -0.00020,  64.00000,   2.00000
-517647597.62987,-387650875.01817,-52035014.45325,  -0.00203,  -0.00091,  -0.00089,479117760.00000,   0.00040,275075424.00000,  -0.00043,  -0.00016,  -0.00021,  32.00000,   2.00000
-517502789.08539,-388143711.12056,-51971645.92766,  -0.00205,  -0.00092,  -0.00089,479105280.00000,   0.00041,275089472.00000,  -0.00045,  -0.00017,  -0.00022, 128.00000,   2.00000
-517365061.81613,-388612055.14100,-51911271.05780,  -0.00206,  -0.00093,  -0.00090,479100608.00000,   0.00042,275103456.00000,  -0.00046,  -0.00017,  -0.00022, 160.00000,   2.00000
-517216225.89432,-389110294.44491,-51846538.26285,  -0.00207,  -0.00094,  -0.00090,479076384.00000,   0.00044,275117280.00000,  -0.00048,  -0.00018,  -0.00023,  64.00000,   2.00000
-517068156.75731,-389603424.40231,-51782328.10970,  -0.00208,  -0.00095,  -0.00091,479091104.00000,   0.00045,275131136.00000,  -0.00049,  -0.00018,  -0.00024,  32.00000,   2.00000
-516920808.84279,-390091458.18337,-51718630.92587,  -0.00209,  -0.00095,  -0.00092,479105568.00000,   0.00046,275144928.00000,  -0.00050,  -0.00019,  -0.00024, -32.00000,   2.00000
-516765338.33434,-390587666.66798,-51662444.71404,  -0.00211,  -0.00096,  -0.00092,479065056.00000,   0.00047,275158560.00000,  -0.00052,  -0.00019,  -0.00025,  96.00000,   2.00000
-516617090.26427,-391059624.07400,-51609166.69363,  -0.00212,  -0.00097,  -0.00093,479059904.00000,   0.00049,275172096.00000,  -0.00053,  -0.00020,  -0.00026,   0.00000,   2.00000
-516462008.45770,-391554952.30368,-51547907.20660,  -0.00213,  -0.00098,  -0.00093,479063072.00000,   0.00050,275185600.00000,  -0.00054,  -0.00020,  -0.00026,  96.00000,   2.00000
-516303124.76578,-392051842.85701,-51490599.68161,  -0.00214,  -0.00099,  -0.00094,479049984.00000,   0.00051,275199008.00000,  -0.00056,  -0.00021,  -0.00027, 128.00000,   2.00000
-516146976.61488,-392531293.78233,-51439683.35273,  -0.00215,  -0.00099,  -0.00095,479016864.00000,   0.00052,275212224.00000,  -0.00057,  -0.00022,  -0.00028, 160.00000,   2.00000
-515984949.73139,-393024799.37536,-51386646.10504,  -0.00216,  -0.00100,  -0.00095,479050624.00000,   0.00053,275225536.00000,  -0.00058,  -0.00022,  -0.00028, -32.00000,   2.00000
-515819147.48774,-393519989.93402,-51337473.02628,  -0.00218,  -0.00101,  -0.00096,479037152.00000,   0.00055,275238720.00000,  -0.00060,  -0.00023,  -0.00029, -32.00000,   2.00000
-515659638.76522,-394000495.08036,-51285218.68609,  -0.00219,  -0.00102,  -0.00096,479000544.00000,   0.00056,275251712.00000,  -0.00061,  -0.00023,  -0.00030,   0.00000,   2.00000
-515489624.29503,-394501730.87463,-51234317.51308,  -0.00220,  -0.00103,  -0.00097,479006688.00000,   0.00057,275264672.00000,  -0.00062,  -0.00024,  -0.00030,  96.00000,   2.00000
-515322335.49328,-394985785.10004,-51189719.37075,  -0.00221,  -0.00103,  -0.00097,478973184.00000,   0.00058,275277472.00000,  -0.00063,  -0.00024,  -0.00031,  64.00000,   2.00000
-515155974.13202,-395465007.04870,-51145446.73506,  -0.00222,  -0.00104,  -0.00098,478986720.00000,   0.00059,275290272.00000,  -0.00065,  -0.00025,  -0.00031,   0.00000,   2.00000
-514978848.91500,-395964757.25049,-51102422.04754,  -0.00223,  -0.00105,  -0.00098,478992896.00000,   0.00061,275303040.00000,  -0.00066,  -0.00025,  -0.00032,  32.00000,   2.00000
-514808031.70675,-396450096.18279,-51056237.45264,  -0.00224,  -0.00106,  -0.00099,478955776.00000,   0.00062,275315648.00000,  -0.00067,  -0.00026,  -0.00033,   0.00000,   2.00000
-514634690.95756,-396928025.41800,-51019791.51520,  -0.00225,  -0.00107,  -0.00099,478972384.00000,   0.00063,275328224.00000,  -0.00068,  -0.00026,  -0.00033, -32.00000,   2.00000
-514455945.89746,-397417278.38483,-50981049.73859,  -0.00226,  -0.00107,  -0.00100,478927648.00000,   0.00064,275340608.00000,  -0.00070,  -0.00027,  -0.00034,  64.00000,   2.00000
-514271261.42008,-397920020.00319,-50940071.87495,  -0.00227,  -0.00108,  -0.00101,478960896.00000,   0.00065,275353056.00000,  -0.00071,  -0.00028,  -0.00034, 160.00000,   2.00000
-514092688.28195,-398408407.12006,-50895883.46821,  -0.00228,  -0.00109,  -0.00101,478923456.00000,   0.00066,275365344.00000,  -0.00072,  -0.00028,  -0.00035,  32.00000,   2.00000
-513911787.78128,-398889395.11277,-50861443.50150,  -0.00229,  -0.00110,  -0.00102,478939552.00000,   0.00067,275377600.00000,  -0.00073,  -0.00029,  -0.00036,  64.00000,   2.00000
-513725130.01160,-399381690.04976,-50824641.60393,  -0.00230,  -0.00111,  -0.00102,478894720.00000,   0.00069,275389696.00000,  -0.00074,  -0.00029,  -0.00036, -32.00000,   2.00000
-513539551.37488,-399869004.54299,-50788117.46845,  -0.00231,  -0.00111,  -0.00103,478907520.00000,   0.00070,275401760.00000,  -0.00076,  -0.00030,  -0.00037,  64.00000,   2.00000
-513349790.92778,-400358170.41458,-50755247.02605,  -0.00232,  -0.00112,  -0.00103,478893056.00000,   0.00071,275413728.00000,  -0.00077,  -0.00030,  -0.00037,  96.00000,   2.00000
-513163001.24337,-400831135.35419,-50728535.86164,  -0.00233,  -0.00113,  -0.00104,478858176.00000,   0.00072,275425536.00000,  -0.00078,  -0.00031,  -0.00038,  96.00000,   2.00000
-512970014.58940,-401317219.85166,-50699479.31611,  -0.00234,  -0.00114,  -0.00104,478891040.00000,   0.00073,275437408.00000,  -0.00079,  -0.00031,  -0.00038,  96.00000,   2.00000
-512771227.51942,-401814884.77615,-50668006.53054,  -0.00235,  -0.00115,  -0.00105,478845856.00000,   0.00074,275449088.00000,  -0.00080,  -0.00032,  -0.00039,  64.00000,   2.00000
-512573346.82140,-402307284.49540,-50636755.37851,  -0.00236,  -0.00115,  -0.00105,478858240.00000,   0.00075,275460736.00000,  -0.00081,  -0.00032,  -0.00039,  64.00000,   2.00000
-512378383.13569,-402783658.93007,-50611645.53952,  -0.00237,  -0.00116,  -0.00106,478822976.00000,   0.00076,275472224.00000,  -0.00083,  -0.00033,  -0.00040,  96.00000,   2.00000
-512171963.02223,-403280023.47879,-50587558.93480,  -0.00238,  -0.00117,  -0.00106,478828288.00000,   0.00077,275483712.00000,  -0.00084,  -0.00033,  -0.00041,   0.00000,   2.00000
-511966563.89045,-403771173.06162,-50563653.90410,  -0.00239,  -0.00118,  -0.00107,478840512.00000,   0.00078,275495168.00000,  -0.00085,  -0.00034,  -0.00041,  64.00000,   2.00000
-511767404.47214,-404249022.89497,-50536408.93112,  -0.00240,  -0.00119,  -0.00107,478801728.00000,   0.00079,275506464.00000,  -0.00086,  -0.00034,  -0.00042,  32.00000,   2.00000
-511555280.78893,-404733791.98005,-50525525.87826,  -0.00241,  -0.00119,  -0.00108,478762336.00000,   0.00080,275517568.00000,  -0.00087,  -0.00035,  -0.00042,  32.00000,   2.00000
-511345526.74087,-405226475.80797,-50499392.96318,  -0.00242,  -0.00120,  -0.00108,478818688.00000,   0.00081,275528832.00000,  -0.00088,  -0.00036,  -0.00043,  32.00000,   2.00000
-511133317.07269,-405710900.02483,-50482718.22501,  -0.00243,  -0.00121,  -0.00109,478755552.00000,   0.00082,275539840.00000,  -0.00089,  -0.00036,  -0.00043, -32.00000,   2.00000
-510916720.42279,-406197674.57229,-50469526.36946,  -0.00243,  -0.00122,  -0.00109,478739936.00000,   0.00083,275550752.00000,  -0.00090,  -0.00037,  -0.00044,   0.00000,   2.00000
-510696970.29330,-406699472.74497,-50444443.49306,  -0.00244,  -0.00123,  -0.00110,478769024.00000,   0.00084,275561696.00000,  -0.00091,  -0.00037,  -0.00044,  32.00000,   2.00000
-510476748.00108,-407183525.29988,-50434869.20968,  -0.00245,  -0.00123,  -0.00110,478735808.00000,   0.00085,275572512.00000,  -0.00092,  -0.00038,  -0.00045,   0.00000,   2.00000
-510255335.54326,-407672695.30559,-50419276.41136,  -0.00246,  -0.00124,  -0.00111,478716896.00000,   0.00086,275583200.00000,  -0.00093,  -0.00038,  -0.00045,  64.00000,   2.00000
-510034717.04428,-408157024.35764,-50403774.78309,  -0.00247,  -0.00125,  -0.00111,478727968.00000,   0.00087,275593888.00000,  -0.00094,  -0.00039,  -0.00046,   0.00000,   2.00000
-509804119.50091,-408651690.25381,-50395064.41264,  -0.00248,  -0.00126,  -0.00112,478684992.00000,   0.00088,275604416.00000,  -0.00095,  -0.00039,  -0.00046, 128.00000,   2.00000
-509574086.93519,-409141519.60019,-50386354.15858,  -0.00248,  -0.00126,  -0.00112,478696064.00000,   0.00089,275614912.00000,  -0.00096,  -0.00040,  -0.00047,  32.00000,   2.00000
-509342805.07555,-409637037.27456,-50371588.29772,  -0.00249,  -0.00127,  -0.00113,478676608.00000,   0.00090,275625312.00000,  -0.00097,  -0.00040,  -0.00047,  64.00000,   2.00000
-509103354.23938,-410133074.99992,-50369631.85305,  -0.00250,  -0.00128,  -0.00113,478663488.00000,   0.00091,275635616.00000,  -0.00098,  -0.00041,  -0.00048,  64.00000,   2.00000
-508875511.02202,-410610274.52866,-50360761.41783,  -0.00251,  -0.00129,  -0.00114,478650112.00000,   0.00092,275645856.00000,  -0.00099,  -0.00041,  -0.00048,   0.00000,   2.00000
-508635355.54886,-411108280.25413,-50352640.50147,  -0.00252,  -0.00130,  -0.00114,478654528.00000,   0.00093,275656064.00000,  -0.00100,  -0.00042,  -0.00049,  64.00000,   2.00000
-508384407.24068,-411617306.65204,-50351101.09896,  -0.00252,  -0.00130,  -0.00115,478611200.00000,   0.00094,275666080.00000,  -0.00101,  -0.00042,  -0.00049,  32.00000,   2.00000
-508147609.89341,-412097938.63170,-50348729.53535,  -0.00253,  -0.00131,  -0.00115,478627296.00000,   0.00095,275676128.00000,  -0.00102,  -0.00043,  -0.00050,   0.00000,   2.00000
-507892313.64008,-412607107.96320,-50350274.71279,  -0.00254,  -0.00132,  -0.00116,478604768.00000,   0.00096,275686048.00000,  -0.00103,  -0.00043,  -0.00050,   0.00000,   2.00000
-507643081.00566,-413106094.07212,-50348142.16714,  -0.00255,  -0.00133,  -0.00116,478563872.00000,   0.00097,275695808.00000,  -0.00104,  -0.00044,  -0.00051, 128.00000,   2.00000
-507386615.44347,-413618367.57879,-50343213.98145,  -0.00255,  -0.00133,  -0.00117,478595072.00000,   0.00098,275705632.00000,  -0.00105,  -0.00044,  -0.00051,   0.00000,   2.00000
-507132759.03003,-414118120.95575,-50344036.77819,  -0.00256,  -0.00134,  -0.00117,478557056.00000,   0.00099,275715296.00000,  -0.00106,  -0.00045,  -0.00052, -32.00000,   2.00000
-506873733.13064,-414622355.16131,-50347946.69183,  -0.00257,  -0.00135,  -0.00118,478540096.00000,   0.00099,275724864.00000,  -0.00107,  -0.00045,  -0.00052, -32.00000,   2.00000
-506601780.70966,-415147861.02413,-50352283.56277,  -0.00257,  -0.00136,  -0.00118,478544224.00000,   0.00100,275734400.00000,  -0.00108,  -0.00046,  -0.00053,  32.00000,   2.00000
-506338244.86397,-415653369.58181,-50358937.30595,  -0.00258,  -0.00137,  -0.00118,478532992.00000,   0.00101,275743872.00000,  -0.00109,  -0.00046,  -0.00053,  32.00000,   2.00000
-506072621.38649,-416165981.95462,-50359130.77486,  -0.00259,  -0.00137,  -0.00119,478512896.00000,   0.00102,275753248.00000,  -0.00110,  -0.00047,  -0.00053,   0.00000,   2.00000
-505798523.81729,-416680644.57148,-50371797.80621,  -0.00259,  -0.00138,  -0.00119,478498912.00000,   0.00103,275762528.00000,  -0.00110,  -0.00047,  -0.00054,  96.00000,   2.00000
-505522427.38177,-417202456.14776,-50377958.80017,  -0.00260,  -0.00139,  -0.00120,478478720.00000,   0.00104,275771712.00000,  -0.00111,  -0.00048,  -0.00054, 224.00000,   2.00000
-505240687.47051,-417728481.84136,-50387051.39020,  -0.00261,  -0.00140,  -0.00120,478461632.00000,   0.00105,275780832.00000,  -0.00112,  -0.00048,  -0.00055, -64.00000,   2.00000
-504959960.63413,-418251337.45495,-50395812.11460,  -0.00261,  -0.00140,  -0.00121,478471040.00000,   0.00106,275789920.00000,  -0.00113,  -0.00049,  -0.00055, 128.00000,   2.00000
-504677114.80097,-418781087.25735,-50398085.98405,  -0.00262,  -0.00141,  -0.00121,478450944.00000,   0.00106,275798912.00000,  -0.00114,  -0.00049,  -0.00056, 128.00000,   2.00000
-504393186.41675,-419295813.21375,-50415434.66781,  -0.00262,  -0.00142,  -0.00122,478415680.00000,   0.00107,275807744.00000,  -0.00115,  -0.00050,  -0.00056,  64.00000,   2.00000
-504099413.98601,-419833835.52915,-50423633.19420,  -0.00263,  -0.00143,  -0.00122,478416576.00000,   0.00108,275816576.00000,  -0.00116,  -0.00050,  -0.00056,   0.00000,   2.00000
-503796778.28860,-420373032.14643,-50444250.26631,  -0.00264,  -0.00144,  -0.00122,478402656.00000,   0.00109,275825280.00000,  -0.00116,  -0.00050,  -0.00057,   0.00000,   2.00000
-503506205.61650,-420894653.55413,-50457731.45979,  -0.00264,  -0.00144,  -0.00123,478387680.00000,   0.00110,275833952.00000,  -0.00117,  -0.00051,  -0.00057,  96.00000,   2.00000
-503202136.06172,-421436227.86669,-50471537.29261,  -0.00265,  -0.00145,  -0.00123,478391968.00000,   0.00110,275842592.00000,  -0.00118,  -0.00051,  -0.00058,   0.00000,   2.00000
-502900290.18091,-421965109.59008,-50491028.15168,  -0.00265,  -0.00146,  -0.00124,478353440.00000,   0.00111,275851040.00000,  -0.00119,  -0.00052,  -0.00058,   0.00000,   2.00000
-502588510.79954,-422516545.74843,-50501445.81009,  -0.00266,  -0.00147,  -0.00124,478354528.00000,   0.00112,275859488.00000,  -0.00120,  -0.00052,  -0.00059, 128.00000,   2.00000
-502281929.11163,-423044497.79650,-50523731.85851,  -0.00266,  -0.00147,  -0.00125,478345856.00000,   0.00113,275867872.00000,  -0.00120,  -0.00053,  -0.00059,  64.00000,   2.00000
-501966430.49181,-423586436.17092,-50542934.50735,  -0.00267,  -0.00148,  -0.00125,478299104.00000,   0.00113,275876064.00000,  -0.00121,  -0.00053,  -0.00059,  32.00000,   2.00000
-501643834.32055,-424139660.11854,-50559217.43822,  -0.00267,  -0.00149,  -0.00125,478329952.00000,   0.00114,275884320.00000,  -0.00122,  -0.00054,  -0.00060,  96.00000,   2.00000
-501323426.39203,-424680123.64310,-50581317.33075,  -0.00268,  -0.00150,  -0.00126,478291456.00000,   0.00115,275892416.00000,  -0.00123,  -0.00054,  -0.00060,  64.00000,   2.00000
-501003743.79019,-425215745.33116,-50603206.38013,  -0.00268,  -0.00150,  -0.00126,478300928.00000,   0.00116,275900544.00000,  -0.00123,  -0.00055,  -0.00061,  64.00000,   2.00000
-500671356.22672,-425762465.47378,-50631511.68954,  -0.00269,  -0.00151,  -0.00127,478257408.00000,   0.00117,275908448.00000,  -0.00124,  -0.00055,  -0.00061, -32.00000,   2.00000
-500339923.15847,-426304435.45337,-50659635.53704,  -0.00269,  -0.00152,  -0.00127,478266688.00000,   0.00117,275916384.00000,  -0.00125,  -0.00055,  -0.00061,  96.00000,   2.00000
-500005623.59669,-426852156.76134,-50681422.19513,  -0.00270,  -0.00153,  -0.00128,478246528.00000,   0.00118,275924224.00000,  -0.00126,  -0.00056,  -0.00062,  96.00000,   2.00000
-499661860.16005,-427400244.41560,-50715798.93391,  -0.00270,  -0.00153,  -0.00128,478232736.00000,   0.00119,275931968.00000,  -0.00126,  -0.00056,  -0.00062,   0.00000,   2.00000
-499322174.68780,-427946180.50455,-50740547.30174,  -0.00271,  -0.00154,  -0.00128,478238752.00000,   0.00119,275939712.00000,  -0.00127,  -0.00057,  -0.00062,  96.00000,   2.00000
-498969161.02227,-428503332.38399,-50771732.21269,  -0.00271,  -0.00155,  -0.00129,478195520.00000,   0.00120,275947264.00000,  -0.00128,  -0.00057,  -0.00063,  96.00000,   2.00000
-498624909.68736,-429040266.87612,-50805488.20267,  -0.00272,  -0.00156,  -0.00129,478182656.00000,   0.00121,275954784.00000,  -0.00128,  -0.00058,  -0.00063, -32.00000,   2.00000
-498266127.50266,-429595942.49803,-50839617.23592,  -0.00272,  -0.00156,  -0.00130,478187360.00000,   0.00121,275962272.00000,  -0.00129,  -0.00058,  -0.00064, -64.00000,   2.00000
-497908075.87181,-430146921.83991,-50873583.27371,  -0.00272,  -0.00157,  -0.00130,478196352.00000,   0.00122,275969728.00000,  -0.00130,  -0.00059,  -0.00064, 160.00000,   2.00000
-497547452.12335,-430696970.69570,-50907220.08617,  -0.00273,  -0.00158,  -0.00130,478128096.00000,   0.00123,275976960.00000,  -0.00130,  -0.00059,  -0.00064,   0.00000,   2.00000
-497176186.89100,-431255053.02819,-50947397.93642,  -0.00273,  -0.00159,  -0.00131,478161760.00000,   0.00124,275984288.00000,  -0.00131,  -0.00059,  -0.00065,   0.00000,   2.00000
-496809473.29505,-431804422.62953,-50983940.46472,  -0.00274,  -0.00159,  -0.00131,478119392.00000,   0.00124,275991424.00000,  -0.00132,  -0.00060,  -0.00065,   0.00000,   2.00000
-496435978.16033,-432357770.39693,-51023566.91371,  -0.00274,  -0.00160,  -0.00132,478101792.00000,   0.00125,275998464.00000,  -0.00132,  -0.00060,  -0.00065,  64.00000,   2.00000
-496047229.41915,-432929947.31280,-51063458.69100,  -0.00274,  -0.00161,  -0.00132,478106368.00000,   0.00126,276005536.00000,  -0.00133,  -0.00061,  -0.00066,  32.00000,   2.00000
-495667060.17736,-433482961.90254,-51105883.49923,  -0.00275,  -0.00162,  -0.00132,478092544.00000,   0.00126,276012512.00000,  -0.00134,  -0.00061,  -0.00066, -32.00000,   2.00000
-495279944.76253,-434040372.20346,-51151336.55874,  -0.00275,  -0.00162,  -0.00133,478074592.00000,   0.00127,276019392.00000,  -0.00134,  -0.00062,  -0.00066,  64.00000,   2.00000
-494885569.05146,-434602083.38662,-51199760.71875,  -0.00275,  -0.00163,  -0.00133,478056736.00000,   0.00127,276026176.00000,  -0.00135,  -0.00062,  -0.00067,  64.00000,   2.00000
-494479075.75149,-435185869.95360,-51238919.43929,  -0.00276,  -0.00164,  -0.00134,478057696.00000,   0.00128,276032960.00000,  -0.00135,  -0.00062,  -0.00067,  96.00000,   2.00000
-494077715.93118,-435748197.20764,-51290009.58643,  -0.00276,  -0.00165,  -0.00134,478046496.00000,   0.00129,276039712.00000,  -0.00136,  -0.00063,  -0.00067,  32.00000,   2.00000
-493664696.05682,-436326433.94486,-51337843.86749,  -0.00276,  -0.00165,  -0.00134,477999136.00000,   0.00129,276046240.00000,  -0.00137,  -0.00063,  -0.00068, -96.00000,   2.00000
-493252072.46327,-436901185.70653,-51385338.97209,  -0.00276,  -0.00166,  -0.00135,478006528.00000,   0.00130,276052800.00000,  -0.00137,  -0.00064,  -0.00068,   0.00000,   2.00000
-492839734.31170,-437472413.25449,-51432465.34771,  -0.00277,  -0.00167,  -0.00135,478013952.00000,   0.00131,276059328.00000,  -0.00138,  -0.00064,  -0.00068,  32.00000,   2.00000
-492420453.17366,-438042471.23924,-51488565.82462,  -0.00277,  -0.00168,  -0.00136,477947392.00000,   0.00131,276065632.00000,  -0.00138,  -0.00064,  -0.00069,   0.00000,   2.00000
-491993065.30351,-438623469.66938,-51541389.24036,  -0.00277,  -0.00168,  -0.00136,477976832.00000,   0.00132,276072000.00000,  -0.00139,  -0.00065,  -0.00069,  32.00000,   2.00000
-491561474.26210,-439212274.23359,-51587607.90940,  -0.00277,  -0.00169,  -0.00136,477955200.00000,   0.00132,276078304.00000,  -0.00139,  -0.00065,  -0.00069,   0.00000,   2.00000
-491119111.73874,-439803149.79550,-51646114.00368,  -0.00278,  -0.00170,  -0.00137,477939840.00000,   0.00133,276084512.00000,  -0.00140,  -0.00066,  -0.00070,  32.00000,   2.00000
-490680727.10638,-440387445.90625,-51700805.39356,  -0.00278,  -0.00171,  -0.00137,477896000.00000,   0.00133,276090560.00000,  -0.00141,  -0.00066,  -0.00070,  96.00000,   2.00000
-490230996.77017,-440979339.69652,-51761567.28581,  -0.00278,  -0.00171,  -0.00137,477928864.00000,   0.00134,276096704.00000,  -0.00141,  -0.00066,  -0.00070, -32.00000,   2.00000
-489768862.48070,-441587266.37724,-51818910.38049,  -0.00278,  -0.00172,  -0.00138,477881856.00000,   0.00135,276102656.00000,  -0.00142,  -0.00067,  -0.00071,  32.00000,   2.00000
-489315504.85015,-442177195.80870,-51878599.96931,  -0.00279,  -0.00173,  -0.00138,477866944.00000,   0.00135,276108512.00000,  -0.00142,  -0.00067,  -0.00071,  64.00000,   2.00000
-488854212.75703,-442777134.41264,-51934849.08016,  -0.00279,  -0.00174,  -0.00139,477897152.00000,   0.00136,276114496.00000,  -0.00143,  -0.00067,  -0.00071,   0.00000,   2.00000
-488385186.37242,-443375951.88541,-52000003.61769,  -0.00279,  -0.00174,  -0.00139,477831616.00000,   0.00136,276120192.00000,  -0.00143,  -0.00068,  -0.00071,  32.00000,   2.00000
-487916579.29904,-443970555.74016,-52064568.79460,  -0.00279,  -0.00175,  -0.00139,477839552.00000,   0.00137,276125920.00000,  -0.00144,  -0.00068,  -0.00072, 192.00000,   2.00000
-487434663.98324,-444585850.04773,-52119443.20649,  -0.00279,  -0.00176,  -0.00140,477841824.00000,   0.00137,276131648.00000,  -0.00144,  -0.00069,  -0.00072,   0.00000,   2.00000
-486949858.19614,-445188564.50205,-52189404.59142,  -0.00279,  -0.00177,  -0.00140,477805216.00000,   0.00138,276137216.00000,  -0.00145,  -0.00069,  -0.00072, 160.00000,   2.00000
-486468402.34754,-445789466.52907,-52249273.90654,  -0.00279,  -0.00177,  -0.00140,477810656.00000,   0.00138,276142752.00000,  -0.00145,  -0.00069,  -0.00073,  96.00000,   2.00000
-485966606.39048,-446399830.05921,-52324543.79941,  -0.00280,  -0.00178,  -0.00141,477771488.00000,   0.00139,276148160.00000,  -0.00146,  -0.00070,  -0.00073, -64.00000,   2.00000
-485459828.99097,-447021894.91333,-52386751.55140,  -0.00280,  -0.00179,  -0.00141,477799712.00000,   0.00139,276153632.00000,  -0.00146,  -0.00070,  -0.00073,  32.00000,   2.00000
-484952710.11052,-447634177.54474,-52454584.31656,  -0.00280,  -0.00179,  -0.00142,477760192.00000,   0.00140,276158976.00000,  -0.00146,  -0.00070,  -0.00073, -64.00000,   2.00000
-484445659.47181,-448241748.46991,-52521777.99278,  -0.00280,  -0.00180,  -0.00142,477768672.00000,   0.00140,276164288.00000,  -0.00147,  -0.00071,  -0.00074,  96.00000,   2.00000
-483920650.78444,-448861661.08580,-52594908.03881,  -0.00280,  -0.00181,  -0.00142,477726592.00000,   0.00141,276169472.00000,  -0.00147,  -0.00071,  -0.00074,  64.00000,   2.00000
-483398639.48106,-449479694.93718,-52657926.96738,  -0.00280,  -0.00182,  -0.00143,477731648.00000,   0.00141,276174624.00000,  -0.00148,  -0.00071,  -0.00074,   0.00000,   2.00000
-482873336.69055,-450090166.83034,-52729757.16144,  -0.00280,  -0.00182,  -0.00143,477743072.00000,   0.00142,276179808.00000,  -0.00148,  -0.00072,  -0.00074,  64.00000,   2.00000
-482329416.17140,-450713051.73750,-52807503.73207,  -0.00280,  -0.00183,  -0.00143,477700640.00000,   0.00142,276184832.00000,  -0.00149,  -0.00072,  -0.00075, -32.00000,   2.00000
-481797233.58703,-451321630.66321,-52878220.18113,  -0.00280,  -0.00184,  -0.00144,477681824.00000,   0.00143,276189760.00000,  -0.00149,  -0.00072,  -0.00075,  64.00000,   2.00000
-481246707.78233,-451947031.03297,-52948507.87175,  -0.00280,  -0.00185,  -0.00144,477687520.00000,   0.00143,276194720.00000,  -0.00149,  -0.00073,  -0.00075, -32.00000,   2.00000
-480683395.05761,-452573637.30627,-53030885.32228,  -0.00280,  -0.00185,  -0.00144,477672928.00000,   0.00144,276199584.00000,  -0.00150,  -0.00073,  -0.00075,   0.00000,   2.00000
-480113522.66004,-453207382.32117,-53106447.00137,  -0.00280,  -0.00186,  -0.00145,477651840.00000,   0.00144,276204384.00000,  -0.00150,  -0.00073,  -0.00076, -64.00000,   2.00000
-479551957.71345,-453824179.98182,-53184449.31737,  -0.00280,  -0.00187,  -0.00145,477635424.00000,   0.00144,276209088.00000,  -0.00151,  -0.00074,  -0.00076,  64.00000,   2.00000
-478971875.13801,-454457896.56539,-53261993.32126,  -0.00280,  -0.00188,  -0.00145,477640608.00000,   0.00145,276213824.00000,  -0.00151,  -0.00074,  -0.00076, -32.00000,   2.00000
-478381791.04850,-455095880.31243,-53342180.34070,  -0.00280,  -0.00188,  -0.00146,477622272.00000,   0.00145,276218464.00000,  -0.00151,  -0.00074,  -0.00076,  64.00000,   2.00000
-477793466.57497,-455728795.34359,-53418720.91195,  -0.00280,  -0.00189,  -0.00146,477577152.00000,   0.00146,276222944.00000,  -0.00152,  -0.00075,  -0.00077, -32.00000,   2.00000
-477192805.13711,-456366698.45167,-53500877.89050,  -0.00280,  -0.00190,  -0.00146,477610464.00000,   0.00146,276227520.00000,  -0.00152,  -0.00075,  -0.00077,   0.00000,   2.00000
-476590565.02095,-456996654.96003,-53588831.87099,  -0.00280,  -0.00190,  -0.00147,477568288.00000,   0.00147,276231936.00000,  -0.00153,  -0.00075,  -0.00077,  32.00000,   2.00000
-475972573.36242,-457646246.76061,-53666838.84247,  -0.00280,  -0.00191,  -0.00147,477570080.00000,   0.00147,276236352.00000,  -0.00153,  -0.00076,  -0.00077, -32.00000,   2.00000
-475362884.12458,-458279434.10184,-53747377.49943,  -0.00280,  -0.00192,  -0.00147,477552736.00000,   0.00147,276240704.00000,  -0.00153,  -0.00076,  -0.00078,   0.00000,   2.00000
-474720610.94287,-458934401.19050,-53840113.44164,  -0.00280,  -0.00193,  -0.00148,477536608.00000,   0.00148,276244992.00000,  -0.00154,  -0.00076,  -0.00078,  32.00000,   2.00000
-474089579.49275,-459575893.55708,-53925912.97765,  -0.00280,  -0.00193,  -0.00148,477515808.00000,   0.00148,276249184.00000,  -0.00154,  -0.00077,  -0.00078, -64.00000,   2.00000
-473458179.52805,-460213122.15551,-54011062.21899,  -0.00280,  -0.00194,  -0.00148,477521920.00000,   0.00149,276253408.00000,  -0.00154,  -0.00077,  -0.00078,   0.00000,   2.00000
-472796957.64602,-460874944.15723,-54098970.06245,  -0.00280,  -0.00195,  -0.00149,477502816.00000,   0.00149,276257536.00000,  -0.00155,  -0.00077,  -0.00078, -32.00000,   2.00000
-472143681.50749,-461520282.05251,-54189413.88752,  -0.00280,  -0.00195,  -0.00149,477485376.00000,   0.00149,276261600.00000,  -0.00155,  -0.00078,  -0.00079,   0.00000,   2.00000
-471479354.96453,-462169724.80921,-54282513.56465,  -0.00280,  -0.00196,  -0.00149,477467232.00000,   0.00150,276265600.00000,  -0.00155,  -0.00078,  -0.00079,  64.00000,   2.00000
-470806975.11430,-462826278.64550,-54368845.92710,  -0.00279,  -0.00197,  -0.00150,477445728.00000,   0.00150,276269504.00000,  -0.00156,  -0.00078,  -0.00079, -64.00000,   2.00000
-470130602.14641,-463474933.22519,-54463919.10121,  -0.00279,  -0.00198,  -0.00150,477455488.00000,   0.00150,276273440.00000,  -0.00156,  -0.00078,  -0.00079,  64.00000,   2.00000
-469437429.81656,-464142156.37115,-54548964.13204,  -0.00279,  -0.00198,  -0.00150,477458112.00000,   0.00151,276277344.00000,  -0.00156,  -0.00079,  -0.00080,  32.00000,   2.00000
-468737800.17326,-464798333.02109,-54649338.69494,  -0.00279,  -0.00199,  -0.00151,477419904.00000,   0.00151,276281152.00000,  -0.00156,  -0.00079,  -0.00080,   0.00000,   2.00000
-468029824.05281,-465461705.89133,-54742979.35481,  -0.00279,  -0.00200,  -0.00151,477398720.00000,   0.00151,276284832.00000,  -0.00157,  -0.00079,  -0.00080, 160.00000,   2.00000
-467320846.45559,-466120123.31920,-54835946.50918,  -0.00279,  -0.00201,  -0.00151,477405376.00000,   0.00152,276288576.00000,  -0.00157,  -0.00080,  -0.00080,  32.00000,   2.00000
-466596343.27826,-466778783.48373,-54940947.11712,  -0.00279,  -0.00201,  -0.00152,477391200.00000,   0.00152,276292224.00000,  -0.00157,  -0.00080,  -0.00080, -96.00000,   2.00000
-465863146.13783,-467444644.44897,-55039229.40301,  -0.00278,  -0.00202,  -0.00152,477370208.00000,   0.00153,276295808.00000,  -0.00158,  -0.00080,  -0.00081,   0.00000,   2.00000
-465128834.99468,-468105508.24076,-55136848.51429,  -0.00278,  -0.00203,  -0.00152,477376928.00000,   0.00153,276299392.00000,  -0.00158,  -0.00080,  -0.00081,  32.00000,   2.00000
-464370620.28026,-468778588.20931,-55240455.08119,  -0.00278,  -0.00203,  -0.00153,477335616.00000,   0.00153,276302816.00000,  -0.00158,  -0.00081,  -0.00081, -32.00000,   2.00000
-463634703.53043,-469430807.72552,-55334088.09253,  -0.00278,  -0.00204,  -0.00153,477338336.00000,   0.00153,276306272.00000,  -0.00158,  -0.00081,  -0.00081,  32.00000,   2.00000
-462862650.66029,-470102797.93274,-55439760.56831,  -0.00277,  -0.00205,  -0.00153,477324896.00000,   0.00154,276309632.00000,  -0.00159,  -0.00081,  -0.00081,   0.00000,   2.00000
-462089422.56218,-470769938.68411,-55544801.58994,  -0.00277,  -0.00206,  -0.00154,477331488.00000,   0.00154,276313024.00000,  -0.00159,  -0.00081,  -0.00081,  64.00000,   2.00000
-461306503.43087,-471444176.41227,-55643143.68008,  -0.00277,  -0.00206,  -0.00154,477310944.00000,   0.00154,276316352.00000,  -0.00159,  -0.00082,  -0.00082,  96.00000,   2.00000
-460507140.31989,-472118744.69623,-55753570.26159,  -0.00277,  -0.00207,  -0.00154,477297216.00000,   0.00155,276319616.00000,  -0.00159,  -0.00082,  -0.00082, -32.00000,   2.00000
-459706608.10032,-472790365.05516,-55860747.79963,  -0.00276,  -0.00208,  -0.00155,477251968.00000,   0.00155,276322688.00000,  -0.00160,  -0.00082,  -0.00082,  96.00000,   2.00000
-458892707.57465,-473464059.94356,-55973254.17034,  -0.00276,  -0.00208,  -0.00155,477286528.00000,   0.00155,276325888.00000,  -0.00160,  -0.00082,  -0.00082, -32.00000,   2.00000
-458068896.35579,-474145278.55663,-56079095.99737,  -0.00276,  -0.00209,  -0.00155,477265984.00000,   0.00156,276329024.00000,  -0.00160,  -0.00083,  -0.00082,  96.00000,   2.00000
-457252083.57491,-474811501.34640,-56187747.71258,  -0.00276,  -0.00210,  -0.00156,477247936.00000,   0.00156,276332064.00000,  -0.00160,  -0.00083,  -0.00083, -64.00000,   2.00000
-456401055.03418,-475500547.81600,-56298956.67160,  -0.00275,  -0.00211,  -0.00156,477231872.00000,   0.00156,276335072.00000,  -0.00160,  -0.00083,  -0.00083, -32.00000,   2.00000
-455548454.47343,-476184713.20251,-56409489.50038,  -0.00275,  -0.00211,  -0.00156,477238624.00000,   0.00156,276338048.00000,  -0.00161,  -0.00083,  -0.00083,  32.00000,   2.00000
-454702934.57305,-476854167.57437,-56522814.42063,  -0.00275,  -0.00212,  -0.00156,477220608.00000,   0.00157,276340992.00000,  -0.00161,  -0.00084,  -0.00083,   0.00000,   2.00000
-453822349.19811,-477545618.30418,-56638508.83410,  -0.00274,  -0.00213,  -0.00157,477205376.00000,   0.00157,276343872.00000,  -0.00161,  -0.00084,  -0.00083,  32.00000,   2.00000
-452948558.63121,-478222030.03036,-56756890.48925,  -0.00274,  -0.00213,  -0.00157,477187680.00000,   0.00157,276346656.00000,  -0.00161,  -0.00084,  -0.00083,  32.00000,   2.00000
-452051626.85858,-478910940.71962,-56874139.32566,  -0.00274,  -0.00214,  -0.00157,477196576.00000,   0.00158,276349472.00000,  -0.00161,  -0.00084,  -0.00083,  32.00000,   2.00000
-451164469.88644,-479587843.67238,-56984581.60254,  -0.00273,  -0.00215,  -0.00158,477175616.00000,   0.00158,276352224.00000,  -0.00162,  -0.00085,  -0.00084,  32.00000,   2.00000
-450250601.18752,-480272995.07860,-57103112.87977,  -0.00273,  -0.00216,  -0.00158,477188800.00000,   0.00158,276355008.00000,  -0.00162,  -0.00085,  -0.00084,  64.00000,   2.00000
-449332832.34044,-480953916.36860,-57218007.26535,  -0.00273,  -0.00216,  -0.00158,477145152.00000,   0.00158,276357600.00000,  -0.00162,  -0.00085,  -0.00084,  64.00000,   2.00000
-448387759.87412,-481642263.62841,-57340842.55686,  -0.00272,  -0.00217,  -0.00159,477158912.00000,   0.00159,276360288.00000,  -0.00162,  -0.00085,  -0.00084,   0.00000,   2.00000
-447451585.00826,-482317970.55461,-57456753.06877,  -0.00272,  -0.00218,  -0.00159,477138368.00000,   0.00159,276362848.00000,  -0.00162,  -0.00086,  -0.00084, -32.00000,   2.00000
-446499394.57909,-482995535.96163,-57574896.92908,  -0.00271,  -0.00218,  -0.00159,477123072.00000,   0.00159,276365376.00000,  -0.00162,  -0.00086,  -0.00084,   0.00000,   2.00000
-445519372.74182,-483680477.08497,-57701026.36565,  -0.00271,  -0.00219,  -0.00160,477136640.00000,   0.00159,276367936.00000,  -0.00163,  -0.00086,  -0.00085, -64.00000,   2.00000
-444548648.19685,-484354499.33598,-57820573.74925,  -0.00271,  -0.00220,  -0.00160,477114624.00000,   0.00159,276370432.00000,  -0.00163,  -0.00086,  -0.00085,   0.00000,   2.00000
-443561826.38231,-485031601.68169,-57942632.88390,  -0.00270,  -0.00221,  -0.00160,477098304.00000,   0.00160,276372832.00000,  -0.00163,  -0.00086,  -0.00085,   0.00000,   2.00000
-442559115.97528,-485712376.14279,-58067312.47316,  -0.00270,  -0.00221,  -0.00160,477081408.00000,   0.00160,276375200.00000,  -0.00163,  -0.00087,  -0.00085, -32.00000,   2.00000
-441546299.14983,-486397518.00306,-58187660.85437,  -0.00269,  -0.00222,  -0.00161,477112320.00000,   0.00160,276377664.00000,  -0.00163,  -0.00087,  -0.00085,   0.00000,   2.00000
-440525801.73024,-487077814.73120,-58314371.32140,  -0.00269,  -0.00223,  -0.00161,477069632.00000,   0.00160,276379968.00000,  -0.00163,  -0.00087,  -0.00085, -32.00000,   2.00000
-439492636.84931,-487765575.01802,-58434365.24616,  -0.00268,  -0.00223,  -0.00161,477048832.00000,   0.00161,276382176.00000,  -0.00164,  -0.00087,  -0.00085, -32.00000,   2.00000
-438454152.75027,-488444597.10649,-58562927.34215,  -0.00268,  -0.00224,  -0.00162,477058368.00000,   0.00161,276384448.00000,  -0.00164,  -0.00087,  -0.00085,  96.00000,   2.00000
-437399000.58268,-489126047.49613,-58693859.87179,  -0.00267,  -0.00225,  -0.00162,477042464.00000,   0.00161,276386656.00000,  -0.00164,  -0.00088,  -0.00086,  32.00000,   2.00000
-436321774.78344,-489821081.00181,-58813907.32540,  -0.00267,  -0.00226,  -0.00162,477049248.00000,   0.00161,276388864.00000,  -0.00164,  -0.00088,  -0.00086, -32.00000,   2.00000
-435246360.42128,-490496834.06369,-58945903.56960,  -0.00267,  -0.00226,  -0.00162,477035296.00000,   0.00161,276391040.00000,  -0.00164,  -0.00088,  -0.00086,  96.00000,   2.00000
-434155973.07224,-491176590.82099,-59070630.53620,  -0.00266,  -0.00227,  -0.00163,477017888.00000,   0.00162,276393120.00000,  -0.00164,  -0.00088,  -0.00086,  32.00000,   2.00000
-433043752.31001,-491852665.88684,-59206805.38660,  -0.00265,  -0.00228,  -0.00163,477008064.00000,   0.00162,276395200.00000,  -0.00164,  -0.00088,  -0.00086, -64.00000,   2.00000
-431931257.75714,-492525033.86764,-59332617.71457,  -0.00265,  -0.00228,  -0.00163,477012640.00000,   0.00162,276397248.00000,  -0.00164,  -0.00088,  -0.00086, -96.00000,   2.00000
-430800286.31901,-493198436.37087,-59460838.75201,  -0.00264,  -0.00229,  -0.00164,476998272.00000,   0.00162,276399296.00000,  -0.00165,  -0.00089,  -0.00086, -64.00000,   2.00000
-429650951.85032,-493873385.98986,-59591571.15747,  -0.00264,  -0.00230,  -0.00164,476983488.00000,   0.00162,276401248.00000,  -0.00165,  -0.00089,  -0.00086, -64.00000,   2.00000
-428483273.40211,-494550166.93900,-59724846.38324,  -0.00263,  -0.00230,  -0.00164,476968416.00000,   0.00163,276403136.00000,  -0.00165,  -0.00089,  -0.00087,  96.00000,   2.00000
-427312681.74124,-495220942.22833,-59857392.65911,  -0.00263,  -0.00231,  -0.00164,476975136.00000,   0.00163,276405056.00000,  -0.00165,  -0.00089,  -0.00087, -64.00000,   2.00000
-426139464.46389,-495886002.58652,-59989216.49712,  -0.00262,  -0.00232,  -0.00165,476981664.00000,   0.00163,276407008.00000,  -0.00165,  -0.00089,  -0.00087, -96.00000,   2.00000
-424931901.53509,-496560637.41910,-60126685.13619,  -0.00262,  -0.00233,  -0.00165,476945088.00000,   0.00163,276408832.00000,  -0.00165,  -0.00090,  -0.00087,   0.00000,   2.00000
-423721301.92881,-497228967.40582,-60263253.59116,  -0.00261,  -0.00233,  -0.00165,476952000.00000,   0.00163,276410656.00000,  -0.00165,  -0.00090,  -0.00087, -64.00000,   2.00000
-422507739.29326,-497890920.88762,-60398866.79342,  -0.00261,  -0.00234,  -0.00166,476959424.00000,   0.00163,276412512.00000,  -0.00165,  -0.00090,  -0.00087,   0.00000,   2.00000
-421274662.46881,-498553514.98827,-60536602.84353,  -0.00260,  -0.00235,  -0.00166,476945792.00000,   0.00164,276414304.00000,  -0.00165,  -0.00090,  -0.00087,  64.00000,   2.00000
-420032647.48711,-499213415.40160,-60671028.65194,  -0.00259,  -0.00235,  -0.00166,476902400.00000,   0.00164,276415968.00000,  -0.00166,  -0.00090,  -0.00087,  32.00000,   2.00000
-418759634.70338,-499876334.28385,-60812801.94782,  -0.00259,  -0.00236,  -0.00166,476919424.00000,   0.00164,276417664.00000,  -0.00166,  -0.00090,  -0.00087, -32.00000,   2.00000
-417485964.89193,-500535399.36675,-60943995.59977,  -0.00258,  -0.00237,  -0.00167,476924352.00000,   0.00164,276419360.00000,  -0.00166,  -0.00090,  -0.00087,  32.00000,   2.00000
-416188437.72519,-501189928.09214,-61086394.76977,  -0.00257,  -0.00238,  -0.00167,476916064.00000,   0.00164,276421056.00000,  -0.00166,  -0.00091,  -0.00088,  96.00000,   2.00000
-414872994.18130,-501847488.15609,-61221339.14066,  -0.00257,  -0.00238,  -0.00167,476900320.00000,   0.00164,276422656.00000,  -0.00166,  -0.00091,  -0.00088,  96.00000,   2.00000
-413557371.66049,-502486001.82742,-61368271.68168,  -0.00256,  -0.00239,  -0.00168,476886848.00000,   0.00165,276424224.00000,  -0.00166,  -0.00091,  -0.00088, 128.00000,   2.00000
-412233446.35570,-503126829.57367,-61500541.08430,  -0.00256,  -0.00240,  -0.00168,476918624.00000,   0.00165,276425920.00000,  -0.00166,  -0.00091,  -0.00088,   0.00000,   2.00000
-410870863.58142,-503774014.40254,-61637933.61030,  -0.00255,  -0.00240,  -0.00168,476885888.00000,   0.00165,276427456.00000,  -0.00166,  -0.00091,  -0.00088,   0.00000,   2.00000
-409511024.62469,-504406441.92417,-61778135.58051,  -0.00254,  -0.00241,  -0.00168,476868192.00000,   0.00165,276428960.00000,  -0.00166,  -0.00091,  -0.00088, -64.00000,   2.00000
-408122509.00398,-505044481.26604,-61916247.78620,  -0.00254,  -0.00242,  -0.00169,476882912.00000,   0.00165,276430496.00000,  -0.00166,  -0.00092,  -0.00088,  96.00000,   2.00000
-406729791.25093,-505674409.09409,-62053172.72067,  -0.00253,  -0.00242,  -0.00169,476891712.00000,   0.00165,276432064.00000,  -0.00166,  -0.00092,  -0.00088, -64.00000,   2.00000
-405322209.21444,-506297483.56759,-62196277.65963,  -0.00252,  -0.00243,  -0.00169,476852576.00000,   0.00165,276433472.00000,  -0.00166,  -0.00092,  -0.00088,  32.00000,   2.00000
-403903773.03277,-506919005.19679,-62334169.39538,  -0.00251,  -0.00244,  -0.00169,476887776.00000,   0.00166,276435040.00000,  -0.00167,  -0.00092,  -0.00088,  64.00000,   2.00000
-402470066.78358,-507533703.81994,-62478270.13034,  -0.00251,  -0.00245,  -0.00170,476848480.00000,   0.00166,276436448.00000,  -0.00167,  -0.00092,  -0.00088, -32.00000,   2.00000
-401007497.92370,-508153734.28636,-62620325.36180,  -0.00250,  -0.00245,  -0.00170,476863168.00000,   0.00166,276437888.00000,  -0.00167,  -0.00092,  -0.00089, -32.00000,   2.00000
-399529075.45530,-508766747.36141,-62768558.07936,  -0.00249,  -0.00246,  -0.00170,476823968.00000,   0.00166,276439200.00000,  -0.00167,  -0.00092,  -0.00089,  32.00000,   2.00000
-398043079.86836,-509382007.39178,-62902277.23196,  -0.00249,  -0.00247,  -0.00170,476855200.00000,   0.00166,276440608.00000,  -0.00167,  -0.00092,  -0.00089,  32.00000,   2.00000
-396556527.33036,-509979502.36342,-63048344.55661,  -0.00248,  -0.00247,  -0.00171,476840288.00000,   0.00166,276441984.00000,  -0.00167,  -0.00093,  -0.00089,  64.00000,   2.00000
-395043553.53357,-510585303.08298,-63182902.17134,  -0.00247,  -0.00248,  -0.00171,476851744.00000,   0.00166,276443392.00000,  -0.00167,  -0.00093,  -0.00089,  32.00000,   2.00000
-393510795.15521,-511179635.01541,-63332829.44778,  -0.00246,  -0.00249,  -0.00171,476816960.00000,   0.00166,276444640.00000,  -0.00167,  -0.00093,  -0.00089,  96.00000,   2.00000
-391957472.34166,-511776037.72003,-63475306.55861,  -0.00246,  -0.00249,  -0.00172,476801856.00000,   0.00167,276445888.00000,  -0.00167,  -0.00093,  -0.00089,   0.00000,   2.00000
-390390134.22326,-512364801.27291,-63621540.32329,  -0.00245,  -0.00250,  -0.00172,476841920.00000,   0.00167,276447232.00000,  -0.00167,  -0.00093,  -0.00089, -32.00000,   2.00000
-388827611.20520,-512943672.04275,-63761419.21889,  -0.00244,  -0.00251,  -0.00172,476819776.00000,   0.00167,276448512.00000,  -0.00167,  -0.00093,  -0.00089,  64.00000,   2.00000
-387221254.09754,-513525834.29074,-63906006.85497,  -0.00243,  -0.00252,  -0.00172,476789920.00000,   0.00167,276449696.00000,  -0.00167,  -0.00093,  -0.00089,  64.00000,   2.00000
-385603648.38322,-514103402.88617,-64044844.17229,  -0.00242,  -0.00252,  -0.00173,476826912.00000,   0.00167,276450976.00000,  -0.00167,  -0.00094,  -0.00089,   0.00000,   2.00000
-383987199.62254,-514666339.30455,-64186483.02132,  -0.00242,  -0.00253,  -0.00173,476809216.00000,   0.00167,276452224.00000,  -0.00167,  -0.00094,  -0.00089,  32.00000,   2.00000
-382345572.93126,-515225240.11472,-64329581.82460,  -0.00241,  -0.00254,  -0.00173,476799968.00000,   0.00167,276453440.00000,  -0.00167,  -0.00094,  -0.00089, -32.00000,   2.00000
-380677719.49157,-515778680.46835,-64473924.31936,  -0.00240,  -0.00254,  -0.00173,476791040.00000,   0.00167,276454592.00000,  -0.00167,  -0.00094,  -0.00090,-896.00000,   1.00000
-379004988.33963,-516322376.36538,-64616713.02990,  -0.00239,  -0.00255,  -0.00174,476800736.00000,   0.00167,276455808.00000,  -0.00167,  -0.00094,  -0.00090,-992.00000,   1.00000
-377306357.94274,-516861125.69634,-64760807.78516,  -0.00238,  -0.00256,  -0.00174,476792384.00000,   0.00168,276456992.00000,  -0.00167,  -0.00094,  -0.00090,-928.00000,   1.00000
-375602614.01643,-517389545.40609,-64903242.04912,  -0.00237,  -0.00256,  -0.00174,476803648.00000,   0.00168,276458208.00000,  -0.00167,  -0.00094,  -0.00090,  96.00000,   2.00000
-373871546.09925,-517910973.53605,-65046681.55771,  -0.00237,  -0.00257,  -0.00174,476797184.00000,   0.00168,276459392.00000,  -0.00168,  -0.00094,  -0.00090,   0.00000,   2.00000
-372112823.03698,-518424995.16907,-65191071.50176,  -0.00236,  -0.00258,  -0.00175,476790048.00000,   0.00168,276460544.00000,  -0.00168,  -0.00094,  -0.00090,-768.00000,   1.00000
-370351683.54739,-518932449.05483,-65324473.55460,  -0.00235,  -0.00258,  -0.00175,476796736.00000,   0.00168,276461728.00000,  -0.00168,  -0.00095,  -0.00090,-832.00000,   1.00000
-368560242.71048,-519428583.19941,-65468148.80137,  -0.00234,  -0.00259,  -0.00175,476794208.00000,   0.00168,276462880.00000,  -0.00168,  -0.00095,  -0.00090,-832.00000,   1.00000
-366766422.85903,-519918079.69781,-65600837.77561,  -0.00233,  -0.00260,  -0.00175,476801952.00000,   0.00168,276464096.00000,  -0.00168,  -0.00095,  -0.00090,   0.00000,   2.00000
-364940622.64286,-520393728.17852,-65743447.48779,  -0.00232,  -0.00261,  -0.00176,476800736.00000,   0.00168,276465280.00000,  -0.00168,  -0.00095,  -0.00090,-992.00000,   1.00000
-363112649.83328,-520862964.84036,-65875126.50820,  -0.00231,  -0.00261,  -0.00176,476807264.00000,   0.00168,276466496.00000,  -0.00168,  -0.00095,  -0.00090,-864.00000,   1.00000
-361256792.57224,-521324849.18098,-66007850.12605,  -0.00231,  -0.00262,  -0.00176,476801184.00000,   0.00169,276467680.00000,  -0.00168,  -0.00095,  -0.00090,-896.00000,   1.00000
-359374494.30571,-521770723.83274,-66155396.91685,  -0.00230,  -0.00263,  -0.00176,476771552.00000,   0.00169,276468768.00000,  -0.00168,  -0.00095,  -0.00090,-832.00000,   1.00000
-357485037.43323,-522213453.12985,-66287367.16635,  -0.00229,  -0.00263,  -0.00177,476806528.00000,   0.00169,276469984.00000,  -0.00168,  -0.00095,  -0.00090,-928.00000,   1.00000
-355567587.58682,-522649070.04139,-66420473.34410,  -0.00228,  -0.00264,  -0.00177,476800384.00000,   0.00169,276471168.00000,  -0.00168,  -0.00096,  -0.00091,-864.00000,   1.00000
-353649129.45744,-523069726.16581,-66556517.83672,  -0.00227,  -0.00265,  -0.00177,476783488.00000,   0.00169,276472288.00000,  -0.00168,  -0.00096,  -0.00091,-800.00000,   1.00000
-351698543.46397,-523487410.50822,-66689165.08856,  -0.00226,  -0.00265,  -0.00177,476804992.00000,   0.00169,276473504.00000,  -0.00168,  -0.00096,  -0.00091,-736.00000,   1.00000
-349746981.04866,-523890633.95920,-66824855.45891,  -0.00225,  -0.00266,  -0.00178,476787840.00000,   0.00169,276474624.00000,  -0.00168,  -0.00096,  -0.00091,-864.00000,   1.00000
-347763724.83644,-524291426.59257,-66957261.51620,  -0.00224,  -0.00267,  -0.00178,476808992.00000,   0.00169,276475840.00000,  -0.00168,  -0.00096,  -0.00091,-800.00000,   1.00000
-345756208.35132,-524682208.64837,-67095615.22937,  -0.00223,  -0.00267,  -0.00178,476774560.00000,   0.00169,276476896.00000,  -0.00168,  -0.00096,  -0.00091,-768.00000,   1.00000
-343740442.96816,-525066605.51857,-67227900.96374,  -0.00222,  -0.00268,  -0.00178,476812800.00000,   0.00170,276478112.00000,  -0.00168,  -0.00096,  -0.00091,-896.00000,   1.00000
-341726752.78332,-525442513.72908,-67354268.14012,  -0.00221,  -0.00269,  -0.00179,476790528.00000,   0.00170,276479264.00000,  -0.00168,  -0.00096,  -0.00091,-736.00000,   1.00000
-339682310.82737,-525807849.37845,-67491213.67805,  -0.00220,  -0.00270,  -0.00179,476788032.00000,   0.00170,276480352.00000,  -0.00168,  -0.00097,  -0.00091,-736.00000,   1.00000
-337606172.02453,-526170223.94241,-67624827.43867,  -0.00219,  -0.00270,  -0.00179,476809984.00000,   0.00170,276481568.00000,  -0.00168,  -0.00097,  -0.00091,-832.00000,   1.00000
-335531805.76593,-526524141.11107,-67752488.89563,  -0.00218,  -0.00271,  -0.00179,476787744.00000,   0.00170,276482656.00000,  -0.00168,  -0.00097,  -0.00091,-768.00000,   1.00000
-333426034.96957,-526866371.44594,-67890516.27506,  -0.00217,  -0.00272,  -0.00180,476786240.00000,   0.00170,276483744.00000,  -0.00168,  -0.00097,  -0.00091,-768.00000,   1.00000
-331318274.79312,-527202630.05046,-68017761.67152,  -0.00216,  -0.00272,  -0.00180,476792992.00000,   0.00170,276484864.00000,  -0.00168,  -0.00097,  -0.00091,-768.00000,   1.00000
-329181174.87770,-527530642.04881,-68145946.94423,  -0.00215,  -0.00273,  -0.00180,476788320.00000,   0.00170,276485984.00000,  -0.00168,  -0.00097,  -0.00091,-704.00000,   1.00000
-327036323.09805,-527842079.28511,-68281471.92923,  -0.00214,  -0.00274,  -0.00180,476804672.00000,   0.00170,276487136.00000,  -0.00168,  -0.00097,  -0.00091,-608.00000,   1.00000
-324863958.45940,-528148285.03813,-68408443.91882,  -0.00213,  -0.00274,  -0.00180,476797152.00000,   0.00170,276488256.00000,  -0.00168,  -0.00097,  -0.00092,-672.00000,   1.00000
-322686027.38574,-528441240.13077,-68533317.63251,  -0.00212,  -0.00275,  -0.00181,476810336.00000,   0.00171,276489408.00000,  -0.00168,  -0.00097,  -0.00092,-672.00000,   1.00000
-320477176.89973,-528722643.02173,-68658553.50317,  -0.00211,  -0.00276,  -0.00181,476808416.00000,   0.00171,276490592.00000,  -0.00168,  -0.00098,  -0.00092,-832.00000,   1.00000
-318239456.08797,-528989036.20585,-68788834.38915,  -0.00210,  -0.00276,  -0.00181,476778112.00000,   0.00171,276491616.00000,  -0.00168,  -0.00098,  -0.00092,-576.00000,   1.00000
-315993409.09662,-529243597.25564,-68912014.81610,  -0.00209,  -0.00277,  -0.00181,476821184.00000,   0.00171,276492832.00000,  -0.00168,  -0.00098,  -0.00092,-640.00000,   1.00000
-313741572.97385,-529483512.91551,-69032883.61140,  -0.00208,  -0.00278,  -0.00182,476835456.00000,   0.00171,276494080.00000,  -0.00168,  -0.00098,  -0.00092,-608.00000,   1.00000
-311459970.01965,-529707509.37318,-69158727.08265,  -0.00207,  -0.00278,  -0.00182,476805952.00000,   0.00171,276495232.00000,  -0.00168,  -0.00098,  -0.00092,-608.00000,   1.00000
-309144913.20593,-529921345.93164,-69279971.94235,  -0.00206,  -0.00279,  -0.00182,476833984.00000,   0.00171,276496480.00000,  -0.00168,  -0.00098,  -0.00092,-640.00000,   1.00000
-306854433.86144,-530120896.39914,-69392104.89546,  -0.00205,  -0.00280,  -0.00182,476829952.00000,   0.00171,276497728.00000,  -0.00168,  -0.00098,  -0.00092,-672.00000,   1.00000
-304503433.79088,-530303967.16885,-69516060.96462,  -0.00204,  -0.00280,  -0.00183,476818976.00000,   0.00171,276498912.00000,  -0.00168,  -0.00098,  -0.00092,-640.00000,   1.00000
-302145743.00526,-530475211.34762,-69632911.50998,  -0.00202,  -0.00281,  -0.00183,476861952.00000,   0.00172,276500256.00000,  -0.00168,  -0.00099,  -0.00092,-800.00000,   1.00000
-299786375.10533,-530634042.56669,-69743188.26965,  -0.00201,  -0.00282,  -0.00183,476842976.00000,   0.00172,276501536.00000,  -0.00168,  -0.00099,  -0.00092,-832.00000,   1.00000
-297395127.50062,-530779575.37251,-69853636.85132,  -0.00200,  -0.00282,  -0.00183,476842688.00000,   0.00172,276502816.00000,  -0.00168,  -0.00099,  -0.00092,-768.00000,   1.00000
-294969426.14247,-530906588.89140,-69973338.28420,  -0.00199,  -0.00283,  -0.00183,476847168.00000,   0.00172,276504128.00000,  -0.00168,  -0.00099,  -0.00092,-928.00000,   1.00000
-292541128.86291,-531024223.74193,-70081662.02818,  -0.00198,  -0.00284,  -0.00184,476856864.00000,   0.00172,276505440.00000,  -0.00168,  -0.00099,  -0.00093,-800.00000,   1.00000
-290107916.66223,-531127500.81506,-70187736.36313,  -0.00197,  -0.00284,  -0.00184,476871104.00000,   0.00172,276506816.00000,  -0.00168,  -0.00099,  -0.00093,-928.00000,   1.00000
-287642761.08020,-531217308.61978,-70293967.25261,  -0.00196,  -0.00285,  -0.00184,476871264.00000,   0.00172,276508192.00000,  -0.00168,  -0.00099,  -0.00093,-960.00000,   1.00000
-285173102.48142,-531290343.82179,-70402882.24495,  -0.00195,  -0.00286,  -0.00184,476856608.00000,   0.00172,276509504.00000,  -0.00168,  -0.00100,  -0.00093,-992.00000,   1.00000
-282671855.90343,-531353582.60405,-70507249.79398,  -0.00194,  -0.00286,  -0.00185,476885856.00000,   0.00173,276510944.00000,  -0.00169,  -0.00100,  -0.00093,  32.00000,   2.00000
-280137577.58861,-531398711.61201,-70616396.29111,  -0.00192,  -0.00287,  -0.00185,476859072.00000,   0.00173,276512256.00000,  -0.00169,  -0.00100,  -0.00093,  32.00000,   2.00000
-277627216.04175,-531432956.94011,-70716317.60100,  -0.00191,  -0.00288,  -0.00185,476915232.00000,   0.00173,276513760.00000,  -0.00169,  -0.00100,  -0.00093,  32.00000,   2.00000
-275056013.41418,-531449724.41189,-70823411.57242,  -0.00190,  -0.00288,  -0.00185,476874688.00000,   0.00173,276515136.00000,  -0.00169,  -0.00100,  -0.00093,  32.00000,   2.00000
-272509381.16890,-531455523.00156,-70921292.65278,  -0.00189,  -0.00289,  -0.00185,476931200.00000,   0.00173,276516704.00000,  -0.00169,  -0.00100,  -0.00093,  96.00000,   2.00000
-269903199.04439,-531447561.03033,-71017048.68528,  -0.00188,  -0.00290,  -0.00186,476887200.00000,   0.00173,276518144.00000,  -0.00169,  -0.00101,  -0.00093,  96.00000,   2.00000
-267319135.68930,-531420893.82937,-71117593.33676,  -0.00187,  -0.00290,  -0.00186,476919392.00000,   0.00173,276519648.00000,  -0.00169,  -0.00101,  -0.00093,  64.00000,   2.00000
-264704304.36521,-531382992.52373,-71208835.78154,  -0.00185,  -0.00291,  -0.00186,476917920.00000,   0.00174,276521184.00000,  -0.00169,  -0.00101,  -0.00093,   0.00000,   2.00000
-262054412.16018,-531323673.47601,-71308972.34463,  -0.00184,  -0.00292,  -0.00186,476925920.00000,   0.00174,276522720.00000,  -0.00169,  -0.00101,  -0.00094, -32.00000,   2.00000
-259402322.22614,-531253365.45090,-71397555.24307,  -0.00183,  -0.00292,  -0.00186,476937792.00000,   0.00174,276524320.00000,  -0.00169,  -0.00101,  -0.00094, -96.00000,   2.00000
-256715295.59850,-531162691.29412,-71490563.84836,  -0.00182,  -0.00293,  -0.00187,476913152.00000,   0.00174,276525792.00000,  -0.00169,  -0.00101,  -0.00094,   0.00000,   2.00000
-254023835.65564,-531053469.08306,-71585298.29451,  -0.00181,  -0.00294,  -0.00187,476963584.00000,   0.00174,276527488.00000,  -0.00169,  -0.00102,  -0.00094, -64.00000,   2.00000
-251328324.71952,-530929851.16360,-71673178.09559,  -0.00179,  -0.00294,  -0.00187,476947200.00000,   0.00174,276529088.00000,  -0.00169,  -0.00102,  -0.00094,  32.00000,   2.00000
-248601479.08850,-530790248.11678,-71755506.14431,  -0.00178,  -0.00295,  -0.00187,476981856.00000,   0.00174,276530848.00000,  -0.00168,  -0.00102,  -0.00094, -32.00000,   2.00000
-245868444.58386,-530631057.83611,-71840025.46882,  -0.00177,  -0.00296,  -0.00187,476970272.00000,   0.00175,276532544.00000,  -0.00168,  -0.00102,  -0.00094,  32.00000,   2.00000
-243101773.60959,-530452469.95891,-71923712.14646,  -0.00176,  -0.00296,  -0.00188,476976512.00000,   0.00175,276534240.00000,  -0.00168,  -0.00102,  -0.00094, -32.00000,   2.00000
-240333271.27789,-530261822.08452,-71995518.47809,  -0.00174,  -0.00297,  -0.00188,476989536.00000,   0.00175,276536032.00000,  -0.00168,  -0.00102,  -0.00094,  32.00000,   2.00000
-237559419.46731,-530049332.37538,-72073675.48696,  -0.00173,  -0.00297,  -0.00188,477011680.00000,   0.00175,276537856.00000,  -0.00168,  -0.00103,  -0.00094, -32.00000,   2.00000
-234752070.17977,-529816952.89749,-72150865.26147,  -0.00172,  -0.00298,  -0.00188,477018624.00000,   0.00175,276539744.00000,  -0.00168,  -0.00103,  -0.00095,   0.00000,   2.00000
-231912790.72382,-529568712.16074,-72217828.55690,  -0.00171,  -0.00299,  -0.00188,477021504.00000,   0.00175,276541632.00000,  -0.00168,  -0.00103,  -0.00095, -96.00000,   2.00000
-229065044.65363,-529295068.77135,-72295910.91135,  -0.00169,  -0.00299,  -0.00189,477015296.00000,   0.00176,276543488.00000,  -0.00168,  -0.00103,  -0.00095, -96.00000,   2.00000
-226219619.15052,-529011473.36065,-72357009.36429,  -0.00168,  -0.00300,  -0.00189,477058240.00000,   0.00176,276545504.00000,  -0.00168,  -0.00103,  -0.00095, -32.00000,   2.00000
-223336589.37105,-528702800.86017,-72421734.33387,  -0.00167,  -0.00301,  -0.00189,477038208.00000,   0.00176,276547456.00000,  -0.00168,  -0.00104,  -0.00095,  64.00000,   2.00000
-220450569.65570,-528375276.49085,-72483372.21602,  -0.00166,  -0.00301,  -0.00189,477057632.00000,   0.00176,276549472.00000,  -0.00168,  -0.00104,  -0.00095,   0.00000,   2.00000
-217561847.31831,-528028845.15760,-72541931.68432,  -0.00164,  -0.00302,  -0.00189,477077376.00000,   0.00176,276551552.00000,  -0.00168,  -0.00104,  -0.00095,  32.00000,   2.00000
-214637727.71679,-527653512.91298,-72608063.63574,  -0.00163,  -0.00303,  -0.00190,477092512.00000,   0.00177,276553728.00000,  -0.00168,  -0.00104,  -0.00095, -64.00000,   2.00000
-211714377.28375,-527268370.48215,-72652834.68141,  -0.00162,  -0.00303,  -0.00190,477103968.00000,   0.00177,276555904.00000,  -0.00168,  -0.00105,  -0.00095,  64.00000,   2.00000
-208755780.89054,-526853549.65556,-72705130.44919,  -0.00160,  -0.00304,  -0.00190,477120192.00000,   0.00177,276558176.00000,  -0.00168,  -0.00105,  -0.00096, -32.00000,   2.00000
-205789912.50580,-526415781.48501,-72759250.39124,  -0.00159,  -0.00304,  -0.00190,477112224.00000,   0.00177,276560384.00000,  -0.00168,  -0.00105,  -0.00096,  64.00000,   2.00000
-202790349.69425,-525953351.53936,-72811859.84315,  -0.00158,  -0.00305,  -0.00190,477124032.00000,   0.00177,276562656.00000,  -0.00168,  -0.00105,  -0.00096,  32.00000,   2.00000
-199828087.23075,-525486304.22362,-72846203.60015,  -0.00157,  -0.00306,  -0.00191,477176704.00000,   0.00178,276565152.00000,  -0.00168,  -0.00106,  -0.00096,   0.00000,   2.00000
-196793378.52627,-524982158.15061,-72894790.21468,  -0.00155,  -0.00306,  -0.00191,477154848.00000,   0.00178,276567520.00000,  -0.00168,  -0.00106,  -0.00096,   0.00000,   2.00000
-193790895.74779,-524472590.82247,-72930468.85561,  -0.00154,  -0.00307,  -0.00191,477176704.00000,   0.00178,276570016.00000,  -0.00168,  -0.00106,  -0.00096,   0.00000,   2.00000
-190749022.61198,-523938450.70573,-72970178.91427,  -0.00153,  -0.00308,  -0.00191,477157088.00000,   0.00178,276572384.00000,  -0.00168,  -0.00106,  -0.00096, -32.00000,   2.00000
-187679114.88933,-523383198.60437,-73013531.74022,  -0.00151,  -0.00308,  -0.00191,477198464.00000,   0.00179,276574944.00000,  -0.00168,  -0.00107,  -0.00096, -32.00000,   2.00000
-184635752.41653,-522822720.00812,-73049358.25185,  -0.00150,  -0.00309,  -0.00192,477188832.00000,   0.00179,276577408.00000,  -0.00168,  -0.00107,  -0.00097,  64.00000,   2.00000
-181533829.36834,-522240220.09078,-73080999.25524,  -0.00149,  -0.00309,  -0.00192,477218016.00000,   0.00179,276580032.00000,  -0.00168,  -0.00107,  -0.00097,   0.00000,   2.00000
-178457307.18435,-521647568.11719,-73114034.56139,  -0.00147,  -0.00310,  -0.00192,477213472.00000,   0.00179,276582592.00000,  -0.00168,  -0.00107,  -0.00097, -96.00000,   2.00000
-175349272.92951,-521039053.39124,-73136818.20463,  -0.00146,  -0.00311,  -0.00192,477219200.00000,   0.00180,276585184.00000,  -0.00168,  -0.00108,  -0.00097, -32.00000,   2.00000
-172239903.69476,-520410776.55026,-73166088.21809,  -0.00145,  -0.00311,  -0.00192,477242720.00000,   0.00180,276587840.00000,  -0.00168,  -0.00108,  -0.00097,  64.00000,   2.00000
-169090345.83099,-519755155.72447,-73198451.96006,  -0.00143,  -0.00312,  -0.00192,477226656.00000,   0.00180,276590432.00000,  -0.00168,  -0.00108,  -0.00097,   0.00000,   2.00000
-165949403.18508,-519091616.58652,-73213869.95635,  -0.00142,  -0.00312,  -0.00193,477271520.00000,   0.00180,276593216.00000,  -0.00168,  -0.00109,  -0.00097, -96.00000,   2.00000
-162799812.78136,-518402070.34556,-73240140.73496,  -0.00140,  -0.00313,  -0.00193,477267904.00000,   0.00181,276595968.00000,  -0.00167,  -0.00109,  -0.00098,   0.00000,   2.00000
-159618589.98169,-517691892.01692,-73255243.61369,  -0.00139,  -0.00314,  -0.00193,477277568.00000,   0.00181,276598752.00000,  -0.00167,  -0.00109,  -0.00098,   0.00000,   2.00000
-156437810.74068,-516963592.18045,-73267116.21701,  -0.00138,  -0.00314,  -0.00193,477298592.00000,   0.00181,276601600.00000,  -0.00167,  -0.00109,  -0.00098, -64.00000,   2.00000
-153257804.91440,-516217084.87495,-73275741.89246,  -0.00136,  -0.00315,  -0.00193,477319648.00000,   0.00181,276604544.00000,  -0.00167,  -0.00110,  -0.00098,   0.00000,   2.00000
-150037001.53315,-515438964.92312,-73286867.08195,  -0.00135,  -0.00315,  -0.00193,477306272.00000,   0.00182,276607424.00000,  -0.00167,  -0.00110,  -0.00098, 160.00000,   2.00000
-146826117.02669,-514646307.57172,-73289789.72778,  -0.00134,  -0.00316,  -0.00194,477356704.00000,   0.00182,276610528.00000,  -0.00167,  -0.00110,  -0.00098,  96.00000,   2.00000
-143607787.73645,-513829941.43431,-73294141.13506,  -0.00132,  -0.00316,  -0.00194,477349856.00000,   0.00182,276613600.00000,  -0.00167,  -0.00111,  -0.00098,  96.00000,   2.00000
-140391139.32565,-512994944.21197,-73295207.32058,  -0.00131,  -0.00317,  -0.00194,477371456.00000,   0.00183,276616736.00000,  -0.00167,  -0.00111,  -0.00099,  32.00000,   2.00000
-137143644.87497,-512137137.79180,-73284874.62288,  -0.00129,  -0.00318,  -0.00194,477383136.00000,   0.00183,276619936.00000,  -0.00167,  -0.00111,  -0.00099, -32.00000,   2.00000
-133853957.35891,-511242344.18894,-73286254.42093,  -0.00128,  -0.00318,  -0.00194,477375808.00000,   0.00183,276623104.00000,  -0.00167,  -0.00112,  -0.00099,  32.00000,   2.00000
-130610601.27628,-510350480.12152,-73270131.42257,  -0.00127,  -0.00319,  -0.00194,477425408.00000,   0.00183,276626464.00000,  -0.00167,  -0.00112,  -0.00099,  32.00000,   2.00000
-127325545.63391,-509427707.83855,-73256985.47831,  -0.00125,  -0.00319,  -0.00195,477412832.00000,   0.00184,276629760.00000,  -0.00167,  -0.00112,  -0.00099,   0.00000,   2.00000
-124042609.28502,-508490106.84814,-73241476.84311,  -0.00124,  -0.00320,  -0.00195,477432992.00000,   0.00184,276633152.00000,  -0.00166,  -0.00113,  -0.00100, -32.00000,   2.00000
-120728009.68173,-507527505.31561,-73224406.36287,  -0.00122,  -0.00320,  -0.00195,477448800.00000,   0.00184,276636544.00000,  -0.00166,  -0.00113,  -0.00100,   0.00000,   2.00000
-117405244.34177,-506544570.16482,-73209742.19052,  -0.00121,  -0.00321,  -0.00195,477441088.00000,   0.00185,276639936.00000,  -0.00166,  -0.00113,  -0.00100,   0.00000,   2.00000
-114085078.90800,-505546227.91702,-73192665.89646,  -0.00119,  -0.00322,  -0.00195,477462304.00000,   0.00185,276643392.00000,  -0.00166,  -0.00114,  -0.00100, -64.00000,   2.00000
-110779540.64345,-504542199.17908,-73159262.80952,  -0.00118,  -0.00322,  -0.00195,477507904.00000,   0.00185,276647008.00000,  -0.00166,  -0.00114,  -0.00100,   0.00000,   2.00000
-107420582.54940,-503493378.97004,-73142061.24614,  -0.00117,  -0.00323,  -0.00195,477475616.00000,   0.00186,276650496.00000,  -0.00166,  -0.00115,  -0.00100,   0.00000,   2.00000
-104077300.12850,-502436658.20118,-73108025.60127,  -0.00115,  -0.00323,  -0.00196,477523616.00000,   0.00186,276654176.00000,  -0.00166,  -0.00115,  -0.00101, -32.00000,   2.00000
-100737778.17278,-501356465.44869,-73079904.96039,  -0.00114,  -0.00324,  -0.00196,477553184.00000,   0.00186,276657984.00000,  -0.00166,  -0.00115,  -0.00101, -64.00000,   2.00000
-97357273.71209,-500244130.46203,-73044490.69842,  -0.00112,  -0.00324,  -0.00196,477542592.00000,   0.00187,276661696.00000,  -0.00166,  -0.00116,  -0.00101,  96.00000,   2.00000
-93981224.54234,-499113124.88855,-73005799.97995,  -0.00111,  -0.00325,  -0.00196,477567776.00000,   0.00187,276665536.00000,  -0.00165,  -0.00116,  -0.00101,  64.00000,   2.00000
-90597361.23384,-497958140.85933,-72968578.43515,  -0.00109,  -0.00325,  -0.00196,477563776.00000,   0.00187,276669344.00000,  -0.00165,  -0.00116,  -0.00101, 128.00000,   2.00000
-87230074.24994,-496793735.62346,-72923949.05623,  -0.00108,  -0.00326,  -0.00196,477614528.00000,   0.00188,276673344.00000,  -0.00165,  -0.00117,  -0.00102, -64.00000,   2.00000
-83820291.67747,-495600033.30113,-72872545.98497,  -0.00106,  -0.00326,  -0.00196,477601120.00000,   0.00188,276677312.00000,  -0.00165,  -0.00117,  -0.00102, -32.00000,   2.00000
-80448394.23565,-494400962.95431,-72827563.80228,  -0.00105,  -0.00327,  -0.00197,477628256.00000,   0.00189,276681344.00000,  -0.00165,  -0.00118,  -0.00102, -32.00000,   2.00000
-77011795.95271,-493168163.02311,-72771925.78914,  -0.00104,  -0.00328,  -0.00197,477639168.00000,   0.00189,276685408.00000,  -0.00165,  -0.00118,  -0.00102, -32.00000,   2.00000
-73600707.79683,-491928366.83848,-72718268.19273,  -0.00102,  -0.00328,  -0.00197,477632768.00000,   0.00189,276689440.00000,  -0.00165,  -0.00119,  -0.00102, -32.00000,   2.00000
-70172912.01752,-490664432.72406,-72667085.50194,  -0.00101,  -0.00329,  -0.00197,477683904.00000,   0.00190,276693664.00000,  -0.00164,  -0.00119,  -0.00103,  32.00000,   2.00000
-66772993.71904,-489394427.07780,-72607915.85879,  -0.00099,  -0.00329,  -0.00197,477676736.00000,   0.00190,276697856.00000,  -0.00164,  -0.00119,  -0.00103, -32.00000,   2.00000
-63299475.43573,-488072867.15235,-72540323.22185,  -0.00098,  -0.00330,  -0.00197,477670496.00000,   0.00191,276702048.00000,  -0.00164,  -0.00120,  -0.00103, -64.00000,   2.00000
-59885684.74984,-486741557.04530,-72471847.14105,  -0.00096,  -0.00330,  -0.00197,477738400.00000,   0.00191,276706496.00000,  -0.00164,  -0.00120,  -0.00103,  64.00000,   2.00000
-56435626.65543,-485359091.72501,-72402043.74598,  -0.00095,  -0.00331,  -0.00198,477748800.00000,   0.00191,276711040.00000,  -0.00164,  -0.00121,  -0.00103,   0.00000,   2.00000
-53028113.01670,-483972069.67598,-72318887.25136,  -0.00093,  -0.00331,  -0.00198,477777504.00000,   0.00192,276715648.00000,  -0.00163,  -0.00121,  -0.00104, -32.00000,   2.00000
-49583067.63726,-482560279.31944,-72245448.39866,  -0.00092,  -0.00332,  -0.00198,477795136.00000,   0.00192,276720320.00000,  -0.00163,  -0.00122,  -0.00104,  32.00000,   2.00000
-46088217.98112,-481136327.73617,-72168655.31811,  -0.00090,  -0.00332,  -0.00198,477759936.00000,   0.00193,276724800.00000,  -0.00163,  -0.00122,  -0.00104,  32.00000,   2.00000
-42676999.72423,-479679199.15153,-72072857.98145,  -0.00089,  -0.00333,  -0.00198,477818208.00000,   0.00193,276729696.00000,  -0.00163,  -0.00123,  -0.00104, 192.00000,   2.00000
-39279397.72385,-478113272.45461,-71950202.06116,  -0.00087,  -0.00333,  -0.00198,477937312.00000,   0.00194,276735168.00000,  -0.00163,  -0.00123,  -0.00105,  64.00000,   2.00000
-35841719.45061,-476539465.81731,-71828416.83158,  -0.00086,  -0.00334,  -0.00198,477915552.00000,   0.00194,276740448.00000,  -0.00162,  -0.00124,  -0.00105, -32.00000,   2.00000
-32402207.55937,-475005730.54183,-71722526.05975,  -0.00084,  -0.00334,  -0.00198,477915136.00000,   0.00195,276745632.00000,  -0.00162,  -0.00124,  -0.00105,  32.00000,   2.00000
-28928037.00606,-473468278.43946,-71620374.52461,  -0.00083,  -0.00334,  -0.00198,477853536.00000,   0.00195,276750464.00000,  -0.00162,  -0.00125,  -0.00105,  64.00000,   2.00000
-25438765.50504,-471916636.88219,-71523185.03094,  -0.00081,  -0.00335,  -0.00199,477897760.00000,   0.00196,276755520.00000,  -0.00162,  -0.00125,  -0.00106, -64.00000,   2.00000
-21973661.77956,-470366491.42596,-71420516.95120,  -0.00080,  -0.00335,  -0.00199,477884192.00000,   0.00196,276760448.00000,  -0.00161,  -0.00126,  -0.00106,  32.00000,   2.00000
-18480930.15973,-468788698.34819,-71316305.77768,  -0.00078,  -0.00336,  -0.00199,477907072.00000,   0.00196,276765472.00000,  -0.00161,  -0.00126,  -0.00106,  64.00000,   2.00000
-14995946.75023,-467197957.47141,-71210549.02204,  -0.00077,  -0.00336,  -0.00199,477930304.00000,   0.00197,276770560.00000,  -0.00161,  -0.00127,  -0.00106, 160.00000,   2.00000
-11468317.69352,-465571064.57704,-71097870.66663,  -0.00075,  -0.00337,  -0.00199,477925792.00000,   0.00197,276775616.00000,  -0.00161,  -0.00127,  -0.00107, -32.00000,   2.00000
-8001032.80484,-463952022.08949,-70988551.86703,  -0.00074,  -0.00337,  -0.00199,477980256.00000,   0.00198,276780896.00000,  -0.00160,  -0.00128,  -0.00107,   0.00000,   2.00000
-4475098.64624,-462285186.83269,-70876028.65921,  -0.00072,  -0.00338,  -0.00199,477951328.00000,   0.00198,276786016.00000,  -0.00160,  -0.00128,  -0.00107, -32.00000,   2.00000
-1010511.11170,-460626487.92240,-70766642.09026,  -0.00071,  -0.00338,  -0.00199,478006144.00000,   0.00199,276791392.00000,  -0.00160,  -0.00129,  -0.00107,  96.00000,   2.00000
2496010.08018,-458929640.94413,-70649393.48663,  -0.00069,  -0.00339,  -0.00199,478004000.00000,   0.00199,276796704.00000,  -0.00160,  -0.00129,  -0.00107, -64.00000,   2.00000
6027081.04932,-457201644.25482,-70529228.82972,  -0.00067,  -0.00339,  -0.00199,478032096.00000,   0.00200,276802144.00000,  -0.00159,  -0.00130,  -0.00108,  64.00000,   2.00000
9532086.22089,-455470449.59938,-70401664.16721,  -0.00066,  -0.00339,  -0.00199,478023936.00000,   0.00200,276807520.00000,  -0.00159,  -0.00130,  -0.00108,   0.00000,   2.00000
13027373.66518,-453722881.05402,-70280643.98189,  -0.00064,  -0.00340,  -0.00200,478052128.00000,   0.00201,276812992.00000,  -0.00159,  -0.00131,  -0.00108,  32.00000,   2.00000
16548040.53408,-451949650.51035,-70147190.86937,  -0.00063,  -0.00340,  -0.00200,478074240.00000,   0.00201,276818560.00000,  -0.00159,  -0.00131,  -0.00108,  96.00000,   2.00000
20042344.31374,-450167163.27522,-70024678.75771,  -0.00061,  -0.00341,  -0.00200,478072896.00000,   0.00202,276824096.00000,  -0.00158,  -0.00132,  -0.00109, -32.00000,   2.00000
23543454.12273,-448370522.69499,-69885629.00068,  -0.00060,  -0.00341,  -0.00200,478121120.00000,   0.00203,276829824.00000,  -0.00158,  -0.00133,  -0.00109,   0.00000,   2.00000
27070189.14674,-446538400.01731,-69751732.93978,  -0.00058,  -0.00342,  -0.00200,478094336.00000,   0.00203,276835424.00000,  -0.00158,  -0.00133,  -0.00109,  96.00000,   2.00000
30567377.36383,-444705322.19584,-69611053.71015,  -0.00057,  -0.00342,  -0.00200,478144864.00000,   0.00204,276841216.00000,  -0.00157,  -0.00134,  -0.00109,  32.00000,   2.00000
34105484.00642,-442832437.13685,-69461760.00481,  -0.00055,  -0.00342,  -0.00200,478145376.00000,   0.00204,276847008.00000,  -0.00157,  -0.00134,  -0.00110,  64.00000,   2.00000
37614971.00448,-440948105.32703,-69323604.69967,  -0.00054,  -0.00343,  -0.00200,478147616.00000,   0.00205,276852800.00000,  -0.00157,  -0.00135,  -0.00110, 128.00000,   2.00000
41093418.50853,-439066091.28594,-69169878.39331,  -0.00052,  -0.00343,  -0.00200,478195904.00000,   0.00205,276858752.00000,  -0.00156,  -0.00135,  -0.00110, 128.00000,   2.00000
44611349.47000,-437138852.75768,-69017028.73068,  -0.00051,  -0.00343,  -0.00200,478203200.00000,   0.00206,276864768.00000,  -0.00156,  -0.00136,  -0.00111, 128.00000,   2.00000
48135127.63361,-435185099.03748,-68865833.47224,  -0.00049,  -0.00344,  -0.00200,478206304.00000,   0.00206,276870752.00000,  -0.00156,  -0.00136,  -0.00111,  64.00000,   2.00000
51645796.07306,-433218052.13674,-68712569.96747,  -0.00047,  -0.00344,  -0.00200,478234080.00000,   0.00207,276876832.00000,  -0.00155,  -0.00137,  -0.00111, 128.00000,   2.00000
55144220.73586,-431241950.40557,-68548047.34484,  -0.00046,  -0.00345,  -0.00200,478257280.00000,   0.00208,276882976.00000,  -0.00155,  -0.00138,  -0.00111, 192.00000,   2.00000
58629616.98165,-429253569.56601,-68381476.75500,  -0.00044,  -0.00345,  -0.00200,478284480.00000,   0.00208,276889248.00000,  -0.00155,  -0.00138,  -0.00112,   0.00000,   2.00000
62120829.82436,-427236375.42218,-68225741.61243,  -0.00043,  -0.00345,  -0.00201,478291200.00000,   0.00209,276895520.00000,  -0.00154,  -0.00139,  -0.00112,  32.00000,   2.00000
65599663.09574,-425211049.11295,-68058461.15605,  -0.00041,  -0.00346,  -0.00201,478313952.00000,   0.00209,276901856.00000,  -0.00154,  -0.00139,  -0.00112,   0.00000,   2.00000
69086031.18207,-423164043.42207,-67883146.18666,  -0.00040,  -0.00346,  -0.00201,478312416.00000,   0.00210,276908192.00000,  -0.00154,  -0.00140,  -0.00112, 128.00000,   2.00000
72558126.30885,-421102260.00284,-67714556.77024,  -0.00038,  -0.00346,  -0.00201,478343264.00000,   0.00210,276914624.00000,  -0.00153,  -0.00141,  -0.00113,  96.00000,   2.00000
76071247.51913,-418998688.00970,-67536734.51482,  -0.00037,  -0.00347,  -0.00201,478347520.00000,   0.00211,276921024.00000,  -0.00153,  -0.00141,  -0.00113, 160.00000,   2.00000
79537498.64878,-416901348.15643,-67366515.20720,  -0.00035,  -0.00347,  -0.00201,478370432.00000,   0.00212,276927552.00000,  -0.00152,  -0.00142,  -0.00113, 128.00000,   2.00000
83025579.80961,-414777404.10789,-67183526.60879,  -0.00033,  -0.00347,  -0.00201,478396704.00000,   0.00212,276934144.00000,  -0.00152,  -0.00142,  -0.00113, 128.00000,   2.00000
86522944.99920,-412629800.18999,-67001694.97547,  -0.00032,  -0.00348,  -0.00201,478395168.00000,   0.00213,276940704.00000,  -0.00152,  -0.00143,  -0.00114,  64.00000,   2.00000
89978247.95685,-410498189.21695,-66809476.55112,  -0.00030,  -0.00348,  -0.00201,478404480.00000,   0.00214,276947296.00000,  -0.00151,  -0.00144,  -0.00114,  96.00000,   2.00000
93455963.69811,-408335582.29529,-66623594.44088,  -0.00029,  -0.00348,  -0.00201,478434304.00000,   0.00214,276954016.00000,  -0.00151,  -0.00144,  -0.00114, 128.00000,   2.00000
96946516.80756,-406154564.44499,-66430183.75012,  -0.00027,  -0.00349,  -0.00201,478424512.00000,   0.00215,276960672.00000,  -0.00150,  -0.00145,  -0.00115, -32.00000,   2.00000
100449000.64693,-403952100.77883,-66238686.37273,  -0.00026,  -0.00349,  -0.00201,478418528.00000,   0.00215,276967264.00000,  -0.00150,  -0.00146,  -0.00115, 128.00000,   2.00000
103920841.70811,-401758627.09678,-66042239.23499,  -0.00024,  -0.00349,  -0.00201,478459712.00000,   0.00216,276974016.00000,  -0.00150,  -0.00146,  -0.00115, -64.00000,   2.00000
107391428.51424,-399548351.29546,-65852294.09850,  -0.00022,  -0.00350,  -0.00201,478425056.00000,   0.00217,276980608.00000,  -0.00149,  -0.00147,  -0.00115,  32.00000,   2.00000
110861953.60012,-397328509.38948,-65647013.98330,  -0.00021,  -0.00350,  -0.00201,478473056.00000,   0.00217,276987392.00000,  -0.00149,  -0.00147,  -0.00116, 160.00000,   2.00000
114338992.58129,-395083999.24777,-65443405.97356,  -0.00019,  -0.00350,  -0.00201,478474688.00000,   0.00218,276994176.00000,  -0.00148,  -0.00148,  -0.00116, 192.00000,   2.00000
117819415.40566,-392810185.29545,-65250501.33531,  -0.00018,  -0.00350,  -0.00201,478483296.00000,   0.00219,277000960.00000,  -0.00148,  -0.00149,  -0.00116,  64.00000,   2.00000
121283410.46727,-390531794.58088,-65036935.85520,  -0.00016,  -0.00351,  -0.00201,478505600.00000,   0.00219,277007808.00000,  -0.00148,  -0.00149,  -0.00117,  32.00000,   2.00000
124725889.76946,-388238773.76478,-64830510.30771,  -0.00015,  -0.00351,  -0.00201,478542048.00000,   0.00220,277014816.00000,  -0.00147,  -0.00150,  -0.00117,  64.00000,   2.00000
128168690.10221,-385916968.75671,-64624978.35297,  -0.00013,  -0.00351,  -0.00201,478554112.00000,   0.00221,277021856.00000,  -0.00147,  -0.00151,  -0.00117, 128.00000,   2.00000
131612739.13628,-383569146.48742,-64410943.68147,  -0.00011,  -0.00351,  -0.00201,478563264.00000,   0.00221,277028896.00000,  -0.00146,  -0.00151,  -0.00117,  32.00000,   2.00000
135012618.12368,-381226777.00894,-64191512.84696,  -0.00010,  -0.00352,  -0.00201,478620960.00000,   0.00222,277036160.00000,  -0.00146,  -0.00152,  -0.00118, 160.00000,   2.00000
138435246.33628,-378838120.91296,-63976026.56662,  -0.00008,  -0.00352,  -0.00201,478612160.00000,   0.00223,277043360.00000,  -0.00145,  -0.00153,  -0.00118, 192.00000,   2.00000
141846654.51860,-376437141.47726,-63744826.06840,  -0.00007,  -0.00352,  -0.00201,478674592.00000,   0.00223,277050784.00000,  -0.00145,  -0.00153,  -0.00118, 224.00000,   2.00000
145249675.92964,-374009215.72920,-63528419.31580,  -0.00005,  -0.00352,  -0.00201,478659008.00000,   0.00224,277058144.00000,  -0.00144,  -0.00154,  -0.00118, 192.00000,   2.00000
148580228.96915,-371615106.74089,-63299547.49770,  -0.00004,  -0.00353,  -0.00201,478699168.00000,   0.00225,277065632.00000,  -0.00144,  -0.00155,  -0.00119, -32.00000,   2.00000
151943984.52817,-369171073.70541,-63071032.95878,  -0.00002,  -0.00353,  -0.00201,478719744.00000,   0.00225,277073152.00000,  -0.00143,  -0.00155,  -0.00119, 256.00000,   2.00000
155310929.62341,-366701794.84056,-62835055.62644,  -0.00000,  -0.00353,  -0.00201,478727008.00000,   0.00226,277080704.00000,  -0.00143,  -0.00156,  -0.00119, 128.00000,   2.00000
158655005.16441,-364220621.47976,-62607905.46092,   0.00001,  -0.00353,  -0.00201,478763040.00000,   0.00227,277088384.00000,  -0.00142,  -0.00157,  -0.00120,  96.00000,   2.00000
162001635.84841,-361714104.45925,-62373889.01109,   0.00003,  -0.00353,  -0.00201,478771104.00000,   0.00228,277096064.00000,  -0.00142,  -0.00157,  -0.00120, 160.00000,   2.00000
165326280.44481,-359198789.19158,-62140015.85470,   0.00004,  -0.00354,  -0.00201,478804256.00000,   0.00228,277103872.00000,  -0.00141,  -0.00158,  -0.00120,  64.00000,   2.00000
168629258.54276,-356675193.40679,-61906636.15430,   0.00006,  -0.00354,  -0.00201,478837280.00000,   0.00229,277111776.00000,  -0.00140,  -0.00159,  -0.00120,  32.00000,   2.00000
171904911.63745,-354147406.05703,-61678001.75713,   0.00007,  -0.00354,  -0.00201,478837824.00000,   0.00230,277119648.00000,  -0.00140,  -0.00159,  -0.00121, 160.00000,   2.00000
175214586.90621,-351571404.50460,-61441969.70422,   0.00009,  -0.00354,  -0.00201,478858656.00000,   0.00231,277127552.00000,  -0.00139,  -0.00160,  -0.00121, 192.00000,   2.00000
178504362.79258,-348988198.80373,-61207248.20191,   0.00010,  -0.00354,  -0.00201,478891904.00000,   0.00231,277135552.00000,  -0.00139,  -0.00161,  -0.00121, 160.00000,   2.00000
181745881.34159,-346421325.25274,-60975634.46880,   0.00012,  -0.00355,  -0.00201,478912352.00000,   0.00232,277143616.00000,  -0.00138,  -0.00161,  -0.00122, 128.00000,   2.00000
185022965.69688,-343803673.92841,-60747298.37397,   0.00014,  -0.00355,  -0.00201,478935968.00000,   0.00233,277151712.00000,  -0.00138,  -0.00162,  -0.00122, 128.00000,   2.00000
188281768.70982,-341184353.70717,-60516240.82497,   0.00015,  -0.00355,  -0.00201,478928800.00000,   0.00234,277159712.00000,  -0.00137,  -0.00163,  -0.00122,  96.00000,   2.00000
191530590.26743,-338558995.44345,-60289418.94570,   0.00017,  -0.00355,  -0.00201,478953760.00000,   0.00234,277167776.00000,  -0.00136,  -0.00164,  -0.00122, 128.00000,   2.00000
194826144.00897,-335884231.58312,-60068606.21881,   0.00018,  -0.00355,  -0.00201,478967232.00000,   0.00235,277175840.00000,  -0.00136,  -0.00164,  -0.00123, 128.00000,   2.00000
198089061.50877,-333229836.70022,-59854860.95765,   0.00020,  -0.00355,  -0.00201,478972160.00000,   0.00236,277183872.00000,  -0.00135,  -0.00165,  -0.00123, 160.00000,   2.00000
201344850.83259,-330575560.63463,-59637085.33909,   0.00021,  -0.00355,  -0.00200,478989760.00000,   0.00237,277191904.00000,  -0.00135,  -0.00166,  -0.00123, 224.00000,   2.00000
204604622.77572,-327876745.93532,-59435423.74083,   0.00023,  -0.00355,  -0.00200,478992576.00000,   0.00237,277199936.00000,  -0.00134,  -0.00166,  -0.00123, -96.00000,   2.00000
207663306.45216,-325205960.82700,-59205892.16981,   0.00024,  -0.00356,  -0.00200,479135072.00000,   0.00238,277208704.00000,  -0.00133,  -0.00167,  -0.00123,  64.00000,   2.00000
210684841.51704,-322404602.75541,-58976699.25870,   0.00026,  -0.00356,  -0.00200,479229600.00000,   0.00239,277217920.00000,  -0.00133,  -0.00168,  -0.00124, 192.00000,   2.00000
213927818.84580,-319666764.11853,-58762952.45719,   0.00028,  -0.00356,  -0.00200,479050048.00000,   0.00240,277226176.00000,  -0.00132,  -0.00169,  -0.00124, 192.00000,   2.00000
217214874.83288,-316908000.02138,-58547439.63968,   0.00029,  -0.00356,  -0.00200,479001024.00000,   0.00241,277234176.00000,  -0.00131,  -0.00169,  -0.00124,  96.00000,   2.00000
220472737.48504,-314165151.42404,-58333492.13081,   0.00031,  -0.00356,  -0.00200,479001664.00000,   0.00241,277242144.00000,  -0.00131,  -0.00170,  -0.00124,  96.00000,   2.00000
223733886.19828,-311420804.30601,-58119287.70068,   0.00032,  -0.00356,  -0.00200,479001984.00000,   0.00242,277250080.00000,  -0.00130,  -0.00171,  -0.00124, 192.00000,   2.00000
227020748.14373,-308656265.65433,-57895843.51281,   0.00034,  -0.00356,  -0.00200,478977440.00000,   0.00243,277257952.00000,  -0.00130,  -0.00171,  -0.00125,  96.00000,   2.00000
230306445.21351,-305891688.40366,-57670544.26377,   0.00035,  -0.00356,  -0.00200,478973920.00000,   0.00244,277265792.00000,  -0.00129,  -0.00172,  -0.00125,  64.00000,   2.00000
233636456.11183,-303085495.99803,-57446827.37114,   0.00037,  -0.00356,  -0.00200,478932672.00000,   0.00244,277273504.00000,  -0.00129,  -0.00173,  -0.00125, 288.00000,   2.00000
236934826.92846,-300301452.73805,-57219222.99054,   0.00038,  -0.00356,  -0.00200,478954112.00000,   0.00245,277281312.00000,  -0.00128,  -0.00173,  -0.00125,   0.00000,   2.00000
240244347.97457,-297498494.71137,-56981461.33624,   0.00040,  -0.00356,  -0.00200,478942240.00000,   0.00246,277289056.00000,  -0.00127,  -0.00174,  -0.00125, 128.00000,   2.00000
243527016.54322,-294696781.87913,-56743624.79083,   0.00041,  -0.00356,  -0.00199,478930496.00000,   0.00247,277296768.00000,  -0.00127,  -0.00175,  -0.00126,  32.00000,   2.00000
246801290.14968,-291870382.52295,-56503171.11506,   0.00043,  -0.00356,  -0.00199,478943936.00000,   0.00247,277304512.00000,  -0.00126,  -0.00175,  -0.00126, -32.00000,   2.00000
250009664.57836,-289062501.43851,-56255073.95504,   0.00045,  -0.00356,  -0.00199,479005696.00000,   0.00248,277312544.00000,  -0.00126,  -0.00176,  -0.00126, 128.00000,   2.00000
253219068.33672,-286206514.04795,-55993738.27100,   0.00046,  -0.00356,  -0.00199,479019552.00000,   0.00249,277320576.00000,  -0.00125,  -0.00177,  -0.00126,   0.00000,   2.00000
256374497.77445,-283344704.05313,-55733694.02695,   0.00048,  -0.00356,  -0.00199,479080736.00000,   0.00250,277328864.00000,  -0.00124,  -0.00177,  -0.00127,  96.00000,   2.00000
259506158.94558,-280459407.52123,-55447616.81121,   0.00049,  -0.00356,  -0.00199,479118048.00000,   0.00250,277337280.00000,  -0.00124,  -0.00178,  -0.00127, -64.00000,   2.00000
262564735.85326,-277594446.00653,-55164367.78433,   0.00051,  -0.00356,  -0.00199,479163072.00000,   0.00251,277345824.00000,  -0.00123,  -0.00179,  -0.00127,  96.00000,   2.00000
265611558.03162,-274705105.97911,-54865696.78254,   0.00052,  -0.00356,  -0.00199,479196096.00000,   0.00252,277354432.00000,  -0.00122,  -0.00179,  -0.00127, 128.00000,   2.00000
268629041.82266,-271814762.06599,-54560440.36612,   0.00054,  -0.00356,  -0.00199,479242336.00000,   0.00253,277363168.00000,  -0.00122,  -0.00180,  -0.00128,  32.00000,   2.00000
271649622.24888,-268898277.35073,-54251593.06355,   0.00055,  -0.00356,  -0.00198,479265504.00000,   0.00254,277371936.00000,  -0.00121,  -0.00181,  -0.00128, -32.00000,   2.00000
274681573.86727,-265957236.74804,-53930919.93926,   0.00057,  -0.00356,  -0.00198,479279392.00000,   0.00254,277380672.00000,  -0.00120,  -0.00182,  -0.00128,  64.00000,   2.00000
277676268.91340,-263037689.72456,-53618744.90085,   0.00058,  -0.00356,  -0.00198,479293536.00000,   0.00255,277389408.00000,  -0.00119,  -0.00182,  -0.00128,   0.00000,   2.00000
280688494.17168,-260093474.95895,-53297037.35890,   0.00060,  -0.00356,  -0.00198,479298304.00000,   0.00256,277398048.00000,  -0.00119,  -0.00183,  -0.00129,  64.00000,   2.00000
283693555.61890,-257150367.52871,-52964877.49718,   0.00061,  -0.00356,  -0.00198,479317664.00000,   0.00257,277406752.00000,  -0.00118,  -0.00184,  -0.00129, 128.00000,   2.00000
286711162.49199,-254180426.29673,-52634195.61518,   0.00063,  -0.00356,  -0.00198,479324128.00000,   0.00258,277415424.00000,  -0.00117,  -0.00184,  -0.00129, -64.00000,   2.00000
289735797.73694,-251181983.57448,-52315055.80997,   0.00064,  -0.00356,  -0.00198,479334944.00000,   0.00259,277424096.00000,  -0.00117,  -0.00185,  -0.00130, -32.00000,   2.00000
292720390.05289,-248210475.22892,-51979419.92150,   0.00066,  -0.00356,  -0.00197,479336640.00000,   0.00259,277432736.00000,  -0.00116,  -0.00186,  -0.00130, -96.00000,   2.00000
295702768.54804,-245210188.48694,-51655933.54256,   0.00067,  -0.00356,  -0.00197,479352800.00000,   0.00260,277441408.00000,  -0.00115,  -0.00186,  -0.00130, -32.00000,   2.00000
298682643.47538,-242184627.68585,-51325693.75980,   0.00069,  -0.00355,  -0.00197,479365760.00000,   0.00261,277450112.00000,  -0.00114,  -0.00187,  -0.00130, 160.00000,   2.00000
301630247.29442,-239158472.87558,-50996529.21098,   0.00070,  -0.00355,  -0.00197,479400256.00000,   0.00262,277458944.00000,  -0.00114,  -0.00188,  -0.00131,   0.00000,   2.00000
304545453.15924,-236129782.63719,-50671726.53304,   0.00072,  -0.00355,  -0.00197,479402144.00000,   0.00263,277467776.00000,  -0.00113,  -0.00188,  -0.00131,  32.00000,   2.00000
307429084.30025,-233103123.38460,-50337672.51177,   0.00073,  -0.00355,  -0.00197,479435104.00000,   0.00264,277476704.00000,  -0.00112,  -0.00189,  -0.00131,   0.00000,   2.00000
310305208.76024,-230049937.12392,-50004573.34980,   0.00075,  -0.00355,  -0.00196,479455296.00000,   0.00264,277485696.00000,  -0.00111,  -0.00190,  -0.00131,  32.00000,   2.00000
313178223.65957,-226970106.47429,-49671307.25407,   0.00076,  -0.00355,  -0.00196,479472960.00000,   0.00265,277494688.00000,  -0.00111,  -0.00190,  -0.00132, 128.00000,   2.00000
316010873.75913,-223916125.78650,-49327429.07374,   0.00078,  -0.00355,  -0.00196,479477664.00000,   0.00266,277503712.00000,  -0.00110,  -0.00191,  -0.00132, 192.00000,   2.00000
318856961.57772,-220834171.49205,-48980717.00276,   0.00079,  -0.00354,  -0.00196,479482176.00000,   0.00267,277512704.00000,  -0.00109,  -0.00192,  -0.00132,   0.00000,   2.00000
321727305.39249,-217723678.98915,-48629881.83205,   0.00080,  -0.00354,  -0.00196,479477344.00000,   0.00268,277521632.00000,  -0.00108,  -0.00193,  -0.00132,  64.00000,   2.00000
324585657.56976,-214636541.30106,-48274523.39451,   0.00082,  -0.00354,  -0.00195,479456608.00000,   0.00269,277530432.00000,  -0.00108,  -0.00193,  -0.00133, 128.00000,   2.00000
327508577.62132,-211499630.34238,-47901734.47297,   0.00083,  -0.00354,  -0.00195,479447936.00000,   0.00270,277539200.00000,  -0.00107,  -0.00194,  -0.00133, 224.00000,   2.00000
330423422.16650,-208390228.77883,-47523907.14811,   0.00085,  -0.00354,  -0.00195,479415168.00000,   0.00270,277547808.00000,  -0.00106,  -0.00194,  -0.00133,  96.00000,   2.00000
333341228.30259,-205286275.14386,-47134109.89372,   0.00086,  -0.00354,  -0.00195,479372512.00000,   0.00271,277556256.00000,  -0.00105,  -0.00195,  -0.00133,   0.00000,   2.00000
336273682.60428,-202139449.22385,-46748047.71758,   0.00088,  -0.00353,  -0.00195,479396064.00000,   0.00272,277564832.00000,  -0.00105,  -0.00196,  -0.00134,  64.00000,   2.00000
339189563.25097,-198982365.70350,-46351975.72950,   0.00089,  -0.00353,  -0.00194,479386528.00000,   0.00273,277573312.00000,  -0.00104,  -0.00196,  -0.00134,  96.00000,   2.00000
342155487.68397,-195833840.32325,-45959676.81437,   0.00091,  -0.00353,  -0.00194,479323936.00000,   0.00274,277581504.00000,  -0.00103,  -0.00197,  -0.00134,  96.00000,   2.00000
345142985.05228,-192681312.81023,-45568298.03744,   0.00092,  -0.00353,  -0.00194,479313760.00000,   0.00274,277589632.00000,  -0.00103,  -0.00198,  -0.00135,  64.00000,   2.00000
347923360.43210,-189575580.30939,-45176207.10588,   0.00093,  -0.00352,  -0.00194,479447712.00000,   0.00275,277598304.00000,  -0.00102,  -0.00198,  -0.00135, 128.00000,   2.00000
350575236.32271,-186444462.75447,-44777568.53449,   0.00095,  -0.00352,  -0.00193,479581568.00000,   0.00276,277607552.00000,  -0.00101,  -0.00199,  -0.00135, 192.00000,   2.00000
353161809.35797,-183306790.38677,-44367833.35672,   0.00096,  -0.00352,  -0.00193,479625472.00000,   0.00277,277616928.00000,  -0.00100,  -0.00200,  -0.00136,  96.00000,   2.00000
355748458.41614,-180136595.22651,-43958007.84815,   0.00098,  -0.00352,  -0.00193,479649760.00000,   0.00278,277626336.00000,  -0.00099,  -0.00200,  -0.00136,  96.00000,   2.00000
358332027.59056,-176964041.24762,-43549931.88418,   0.00099,  -0.00351,  -0.00193,479666816.00000,   0.00279,277635776.00000,  -0.00098,  -0.00201,  -0.00136,   0.00000,   2.00000
360939278.69028,-173759270.95100,-43146920.15918,   0.00101,  -0.00351,  -0.00192,479668928.00000,   0.00280,277645152.00000,  -0.00098,  -0.00202,  -0.00136, 224.00000,   2.00000
363527309.98364,-170577702.60723,-42741549.79168,   0.00102,  -0.00351,  -0.00192,479660192.00000,   0.00280,277654432.00000,  -0.00097,  -0.00202,  -0.00137, 192.00000,   2.00000
366152681.16054,-167334794.91478,-42343904.45594,   0.00103,  -0.00350,  -0.00192,479657952.00000,   0.00281,277663648.00000,  -0.00096,  -0.00203,  -0.00137, 192.00000,   2.00000
368748407.11012,-164116181.10593,-41944132.66973,   0.00105,  -0.00350,  -0.00192,479656128.00000,   0.00282,277672768.00000,  -0.00095,  -0.00203,  -0.00137, 352.00000,   2.00000
371325238.88954,-160897331.79921,-41559011.09537,   0.00106,  -0.00350,  -0.00191,479682944.00000,   0.00283,277681984.00000,  -0.00094,  -0.00204,  -0.00137, 160.00000,   2.00000
373907985.47937,-157650355.66850,-41169693.48619,   0.00108,  -0.00349,  -0.00191,479694912.00000,   0.00284,277691200.00000,  -0.00093,  -0.00205,  -0.00138, 288.00000,   2.00000
376477298.61754,-154398547.11931,-40777241.14245,   0.00109,  -0.00349,  -0.00191,479686048.00000,   0.00285,277700320.00000,  -0.00093,  -0.00205,  -0.00138, 352.00000,   2.00000
379048285.32741,-151118523.34313,-40388542.97148,   0.00110,  -0.00349,  -0.00191,479701216.00000,   0.00286,277709472.00000,  -0.00092,  -0.00206,  -0.00138,  96.00000,   2.00000
381598105.06996,-147841730.36457,-40001931.04606,   0.00112,  -0.00348,  -0.00190,479726112.00000,   0.00287,277718720.00000,  -0.00091,  -0.00207,  -0.00138, 128.00000,   2.00000
384154852.55834,-144529335.78071,-39620286.53752,   0.00113,  -0.00348,  -0.00190,479709056.00000,   0.00287,277727808.00000,  -0.00090,  -0.00207,  -0.00139, 160.00000,   2.00000
386669871.19258,-141252981.59615,-39228851.05593,   0.00114,  -0.00348,  -0.00190,479741152.00000,   0.00288,277736992.00000,  -0.00089,  -0.00208,  -0.00139,  32.00000,   2.00000
389192250.29233,-137941397.70974,-38841183.42052,   0.00116,  -0.00347,  -0.00189,479724384.00000,   0.00289,277746080.00000,  -0.00088,  -0.00209,  -0.00139, 192.00000,   2.00000
391693496.72651,-134634726.70562,-38453510.40511,   0.00117,  -0.00347,  -0.00189,479749440.00000,   0.00290,277755232.00000,  -0.00087,  -0.00209,  -0.00139, 384.00000,   2.00000
394197109.68846,-131302868.56076,-38056649.09168,   0.00118,  -0.00346,  -0.00189,479763488.00000,   0.00291,277764384.00000,  -0.00087,  -0.00210,  -0.00139, 160.00000,   2.00000
396661542.64150,-127999091.42672,-37661206.18827,   0.00120,  -0.00346,  -0.00189,479767936.00000,   0.00292,277773504.00000,  -0.00086,  -0.00210,  -0.00140,  96.00000,   2.00000
399146684.37068,-124638602.17767,-37266902.56157,   0.00121,  -0.00346,  -0.00188,479777568.00000,   0.00293,277782624.00000,  -0.00085,  -0.00211,  -0.00140,  96.00000,   2.00000
401607884.91648,-121285741.24457,-36862442.68738,   0.00122,  -0.00345,  -0.00188,479805024.00000,   0.00294,277791840.00000,  -0.00084,  -0.00212,  -0.00140, 256.00000,   2.00000
404026052.09723,-117962100.27915,-36459418.77914,   0.00124,  -0.00345,  -0.00188,479813280.00000,   0.00294,277800992.00000,  -0.00083,  -0.00212,  -0.00140, 320.00000,   2.00000
406446127.92274,-114604644.10784,-36049684.12924,   0.00125,  -0.00344,  -0.00187,479802912.00000,   0.00295,277810048.00000,  -0.00082,  -0.00213,  -0.00140, 224.00000,   2.00000
408850649.85398,-111232244.02780,-35648113.61579,   0.00126,  -0.00344,  -0.00187,479860256.00000,   0.00296,277819328.00000,  -0.00081,  -0.00213,  -0.00141,  96.00000,   2.00000
411221648.77379,-107878994.12856,-35231851.65326,   0.00128,  -0.00343,  -0.00187,479832992.00000,   0.00297,277828416.00000,  -0.00080,  -0.00214,  -0.00141, 320.00000,   2.00000
413578742.84503,-104509718.97268,-34824621.15748,   0.00129,  -0.00343,  -0.00186,479887744.00000,   0.00298,277837728.00000,  -0.00080,  -0.00215,  -0.00141, 256.00000,   2.00000
415940579.76446,-101103231.49542,-34411947.52178,   0.00130,  -0.00342,  -0.00186,479873440.00000,   0.00299,277846912.00000,  -0.00079,  -0.00215,  -0.00141, 256.00000,   2.00000
418264901.40439,-97723404.56358,-34002367.48813,   0.00132,  -0.00342,  -0.00186,479873952.00000,   0.00300,277856064.00000,  -0.00078,  -0.00216,  -0.00141,  64.00000,   2.00000
420567808.74800,-94349262.12438,-33593996.48229,   0.00133,  -0.00341,  -0.00185,479896192.00000,   0.00301,277865280.00000,  -0.00077,  -0.00216,  -0.00142, 320.00000,   2.00000
422893256.98941,-90916539.92209,-33177830.01289,   0.00134,  -0.00341,  -0.00185,479901632.00000,   0.00301,277874496.00000,  -0.00076,  -0.00217,  -0.00142, -64.00000,   2.00000
425183634.72570,-87511308.17252,-32763909.88208,   0.00135,  -0.00340,  -0.00184,479899936.00000,   0.00302,277883680.00000,  -0.00075,  -0.00217,  -0.00142,  32.00000,   2.00000
427475322.49553,-84080397.93630,-32340990.46037,   0.00137,  -0.00340,  -0.00184,479913280.00000,   0.00303,277892864.00000,  -0.00074,  -0.00218,  -0.00142, 192.00000,   2.00000
429752800.71826,-80644137.62687,-31920320.70282,   0.00138,  -0.00339,  -0.00184,479905248.00000,   0.00304,277901984.00000,  -0.00073,  -0.00219,  -0.00142,  96.00000,   2.00000
432008774.16927,-77215424.68692,-31499647.15211,   0.00139,  -0.00339,  -0.00183,479927840.00000,   0.00305,277911168.00000,  -0.00072,  -0.00219,  -0.00142, 256.00000,   2.00000
434247290.18608,-73785472.77392,-31080751.35004,   0.00140,  -0.00338,  -0.00183,479923104.00000,   0.00306,277920256.00000,  -0.00072,  -0.00220,  -0.00143,  64.00000,   2.00000
436471953.27732,-70347590.82847,-30651490.34493,   0.00142,  -0.00337,  -0.00183,479953984.00000,   0.00307,277929376.00000,  -0.00071,  -0.00220,  -0.00143,  32.00000,   2.00000
438639575.82803,-66949059.56044,-30212719.62641,   0.00143,  -0.00337,  -0.00182,480003264.00000,   0.00308,277938464.00000,  -0.00070,  -0.00221,  -0.00143, 128.00000,   2.00000
440695367.50245,-63623219.16824,-29782452.91576,   0.00144,  -0.00336,  -0.00182,480164160.00000,   0.00308,277947776.00000,  -0.00069,  -0.00221,  -0.00143, -32.00000,   2.00000
442644391.69162,-60308199.10767,-29342374.34352,   0.00145,  -0.00336,  -0.00181,480361792.00000,   0.00309,277957440.00000,  -0.00068,  -0.00222,  -0.00143, 192.00000,   2.00000
444514198.34414,-56963996.23638,-28893823.61361,   0.00147,  -0.00335,  -0.00181,480465696.00000,   0.00310,277967360.00000,  -0.00067,  -0.00222,  -0.00143, 544.00000,   2.00000
446355917.11864,-53595096.53053,-28456523.99035,   0.00148,  -0.00334,  -0.00181,480447712.00000,   0.00311,277977408.00000,  -0.00066,  -0.00223,  -0.00144, 224.00000,   2.00000
448278721.08826,-50123207.57697,-28011335.68031,   0.00149,  -0.00334,  -0.00180,480354976.00000,   0.00312,277987328.00000,  -0.00065,  -0.00224,  -0.00144,  96.00000,   2.00000
450262784.18462,-46638699.32554,-27558993.64450,   0.00150,  -0.00333,  -0.00180,480255264.00000,   0.00313,277997056.00000,  -0.00064,  -0.00224,  -0.00144, 192.00000,   2.00000
452260502.42589,-43195205.38424,-27121815.53519,   0.00151,  -0.00332,  -0.00179,480144416.00000,   0.00314,278006400.00000,  -0.00063,  -0.00225,  -0.00144, 128.00000,   2.00000
454317197.57329,-39675348.52994,-26665356.08943,   0.00153,  -0.00332,  -0.00179,480139328.00000,   0.00315,278015712.00000,  -0.00062,  -0.00225,  -0.00144,  64.00000,   2.00000
456347584.24424,-36186535.69135,-26220564.73401,   0.00154,  -0.00331,  -0.00178,480124896.00000,   0.00316,278024928.00000,  -0.00061,  -0.00226,  -0.00144, 160.00000,   2.00000
458363615.05373,-32695165.55217,-25767435.71427,   0.00155,  -0.00330,  -0.00178,480116704.00000,   0.00317,278034080.00000,  -0.00060,  -0.00226,  -0.00145,  32.00000,   2.00000
460372298.86640,-29181376.44918,-25313838.46342,   0.00156,  -0.00330,  -0.00178,480140064.00000,   0.00318,278043296.00000,  -0.00059,  -0.00227,  -0.00145, 224.00000,   2.00000
462357014.67265,-25677917.38052,-24849475.30481,   0.00157,  -0.00329,  -0.00177,480165696.00000,   0.00318,278052544.00000,  -0.00058,  -0.00227,  -0.00145,  96.00000,   2.00000
464346222.70131,-22133680.53904,-24386066.78790,   0.00158,  -0.00328,  -0.00177,480156288.00000,   0.00319,278061728.00000,  -0.00057,  -0.00228,  -0.00145, 192.00000,   2.00000
466305331.31138,-18615984.12135,-23923388.98267,   0.00160,  -0.00328,  -0.00176,480152512.00000,   0.00320,278070848.00000,  -0.00056,  -0.00228,  -0.00145, 192.00000,   2.00000
468246814.17683,-15107231.71448,-23450733.37779,   0.00161,  -0.00327,  -0.00176,480172256.00000,   0.00321,278080000.00000,  -0.00055,  -0.00229,  -0.00145,  64.00000,   2.00000
470194068.82085,-11558022.67453,-22980477.62823,   0.00162,  -0.00326,  -0.00175,480162400.00000,   0.00322,278089088.00000,  -0.00054,  -0.00229,  -0.00145,   0.00000,   2.00000
472117579.30598,-8020253.13729,-22511550.14280,   0.00163,  -0.00325,  -0.00175,480189056.00000,   0.00323,278098208.00000,  -0.00053,  -0.00230,  -0.00146,  32.00000,   2.00000
474023077.07817,-4478640.86779,-22036471.18276,   0.00164,  -0.00325,  -0.00174,480189344.00000,   0.00324,278107264.00000,  -0.00052,  -0.00230,  -0.00146, 160.00000,   2.00000
475914884.71843,-916356.11442,-21564114.26899,   0.00165,  -0.00324,  -0.00174,480220864.00000,   0.00325,278116416.00000,  -0.00051,  -0.00231,  -0.00146,  96.00000,   2.00000
477764399.47810,2614723.66109,-21095944.85473,   0.00166,  -0.00323,  -0.00173,480229920.00000,   0.00325,278125536.00000,  -0.00050,  -0.00231,  -0.00146,  96.00000,   2.00000
479589642.92051,6148950.49250,-20622366.56854,   0.00167,  -0.00322,  -0.00173,480234880.00000,   0.00326,278134592.00000,  -0.00050,  -0.00232,  -0.00146, -64.00000,   2.00000
481407885.63461,9720051.45780,-20140964.83193,   0.00169,  -0.00322,  -0.00172,480292544.00000,   0.00327,278143872.00000,  -0.00049,  -0.00232,  -0.00146,  32.00000,   2.00000
483192018.05749,13278482.90100,-19674617.52080,   0.00170,  -0.00321,  -0.00172,480270592.00000,   0.00328,278152992.00000,  -0.00048,  -0.00233,  -0.00146, 192.00000,   2.00000
484962654.87872,16857974.05808,-19201013.51663,   0.00171,  -0.00320,  -0.00171,480297952.00000,   0.00329,278162176.00000,  -0.00047,  -0.00233,  -0.00147,  64.00000,   2.00000
486696769.45807,20408560.34903,-18730488.72611,   0.00172,  -0.00319,  -0.00171,480298176.00000,   0.00330,278171360.00000,  -0.00046,  -0.00233,  -0.00147, -32.00000,   2.00000
488422242.71640,23981629.29133,-18251621.43616,   0.00173,  -0.00318,  -0.00170,480320640.00000,   0.00331,278180576.00000,  -0.00045,  -0.00234,  -0.00147,   0.00000,   2.00000
490132143.47903,27561763.27707,-17774563.97834,   0.00174,  -0.00317,  -0.00170,480315392.00000,   0.00332,278189728.00000,  -0.00044,  -0.00234,  -0.00147, 192.00000,   2.00000
491821070.38172,31130633.44046,-17287789.97888,   0.00175,  -0.00317,  -0.00169,480335776.00000,   0.00332,278198944.00000,  -0.00043,  -0.00235,  -0.00147, -32.00000,   2.00000
493497612.30949,34706945.80233,-16801618.16513,   0.00176,  -0.00316,  -0.00169,480328704.00000,   0.00333,278208064.00000,  -0.00042,  -0.00235,  -0.00147, 128.00000,   2.00000
495176936.37141,38324813.86965,-16315620.60634,   0.00177,  -0.00315,  -0.00168,480321504.00000,   0.00334,278217152.00000,  -0.00041,  -0.00236,  -0.00147,   0.00000,   2.00000
496819255.83544,41895309.20255,-15828533.11212,   0.00178,  -0.00314,  -0.00168,480345536.00000,   0.00335,278226272.00000,  -0.00040,  -0.00236,  -0.00147, 128.00000,   2.00000
498469842.69177,45520831.65542,-15330562.75900,   0.00179,  -0.00313,  -0.00167,480368992.00000,   0.00336,278235424.00000,  -0.00039,  -0.00237,  -0.00147, 128.00000,   2.00000
500082852.17151,49101513.10826,-14824078.80831,   0.00180,  -0.00312,  -0.00167,480341280.00000,   0.00337,278244416.00000,  -0.00038,  -0.00237,  -0.00147,  64.00000,   2.00000
501683716.29215,52700758.05070,-14317183.89575,   0.00181,  -0.00311,  -0.00166,480371616.00000,   0.00338,278253440.00000,  -0.00037,  -0.00237,  -0.00148, 128.00000,   2.00000
503269522.13257,56317305.03850,-13810346.51032,   0.00182,  -0.00310,  -0.00166,480405312.00000,   0.00339,278262560.00000,  -0.00036,  -0.00238,  -0.00148, 256.00000,   2.00000
504831576.34173,59935873.20622,-13305201.82215,   0.00183,  -0.00309,  -0.00165,480413536.00000,   0.00339,278271648.00000,  -0.00035,  -0.00238,  -0.00148,  32.00000,   2.00000
506355109.56533,63521564.18286,-12792590.98786,   0.00184,  -0.00308,  -0.00165,480421792.00000,   0.00340,278280704.00000,  -0.00034,  -0.00239,  -0.00148,   0.00000,   2.00000
507857894.68315,67122137.71369,-12281915.98115,   0.00185,  -0.00307,  -0.00164,480460544.00000,   0.00341,278289824.00000,  -0.00033,  -0.00239,  -0.00148,  96.00000,   2.00000
509333143.47047,70723510.70171,-11764930.61647,   0.00186,  -0.00306,  -0.00163,480471520.00000,   0.00342,278298912.00000,  -0.00032,  -0.00239,  -0.00148, 128.00000,   2.00000
510771842.21997,74304497.39850,-11251031.45593,   0.00187,  -0.00306,  -0.00163,480510432.00000,   0.00343,278308128.00000,  -0.00031,  -0.00240,  -0.00148, 160.00000,   2.00000
512194904.39803,77920914.30807,-10741351.21023,   0.00188,  -0.00305,  -0.00162,480523296.00000,   0.00344,278317312.00000,  -0.00030,  -0.00240,  -0.00148,   0.00000,   2.00000
513578261.43476,81504766.98470,-10226290.93097,   0.00189,  -0.00304,  -0.00162,480530528.00000,   0.00345,278326464.00000,  -0.00029,  -0.00240,  -0.00148, 128.00000,   2.00000
514940259.21441,85103854.59703,-9714743.00240,   0.00190,  -0.00303,  -0.00161,480567552.00000,   0.00346,278335680.00000,  -0.00028,  -0.00241,  -0.00148, -64.00000,   2.00000
516266528.73153,88672453.84615,-9197530.92180,   0.00191,  -0.00302,  -0.00160,480570784.00000,   0.00346,278344896.00000,  -0.00027,  -0.00241,  -0.00148,  96.00000,   2.00000
517570701.75881,92246009.39590,-8684041.70143,   0.00192,  -0.00301,  -0.00160,480574976.00000,   0.00347,278354048.00000,  -0.00026,  -0.00242,  -0.00149,  32.00000,   2.00000
518870969.47238,95871541.96186,-8173097.12314,   0.00193,  -0.00299,  -0.00159,480609024.00000,   0.00348,278363296.00000,  -0.00025,  -0.00242,  -0.00149,  32.00000,   2.00000
520129055.11530,99435319.59294,-7665217.44412,   0.00193,  -0.00298,  -0.00159,480604416.00000,   0.00349,278372480.00000,  -0.00024,  -0.00242,  -0.00149, 192.00000,   2.00000
521385990.33480,103052536.10822,-7149563.64238,   0.00194,  -0.00297,  -0.00158,480635264.00000,   0.00350,278381760.00000,  -0.00023,  -0.00243,  -0.00149,  64.00000,   2.00000
522611443.19943,106632530.17374,-6627499.99717,   0.00195,  -0.00296,  -0.00157,480600736.00000,   0.00351,278390848.00000,  -0.00022,  -0.00243,  -0.00149, 288.00000,   2.00000
523827162.44351,110242757.78119,-6107439.94756,   0.00196,  -0.00295,  -0.00157,480655776.00000,   0.00352,278400128.00000,  -0.00021,  -0.00243,  -0.00149,  32.00000,   2.00000
525017504.47654,113845772.93932,-5591444.78168,   0.00197,  -0.00294,  -0.00156,480625408.00000,   0.00353,278409248.00000,  -0.00020,  -0.00244,  -0.00149, 128.00000,   2.00000
526180812.10324,117456957.09845,-5079093.23952,   0.00198,  -0.00293,  -0.00155,480657632.00000,   0.00354,278418496.00000,  -0.00019,  -0.00244,  -0.00149, -64.00000,   2.00000
527301706.26854,121039799.68640,-4560979.34881,   0.00199,  -0.00292,  -0.00155,480689440.00000,   0.00354,278427808.00000,  -0.00018,  -0.00244,  -0.00149, -64.00000,   2.00000
528391609.12995,124615253.71122,-4037704.88596,   0.00200,  -0.00291,  -0.00154,480663744.00000,   0.00355,278436992.00000,  -0.00017,  -0.00245,  -0.00149,  32.00000,   2.00000
529470748.74130,128212827.45970,-3528266.35692,   0.00200,  -0.00290,  -0.00154,480686400.00000,   0.00356,278446272.00000,  -0.00016,  -0.00245,  -0.00149, 160.00000,   2.00000
530545467.05254,131832963.90530,-3003005.59998,   0.00201,  -0.00289,  -0.00153,480705568.00000,   0.00357,278455552.00000,  -0.00014,  -0.00245,  -0.00149, -64.00000,   2.00000
531597297.38863,135426057.67021,-2491426.24349,   0.00202,  -0.00288,  -0.00152,480698464.00000,   0.00358,278464800.00000,  -0.00013,  -0.00245,  -0.00149, 192.00000,   2.00000
532626680.43366,139019727.67983,-1973567.73822,   0.00203,  -0.00286,  -0.00152,480705568.00000,   0.00359,278473984.00000,  -0.00012,  -0.00246,  -0.00149,  96.00000,   2.00000
533626705.70552,142610322.18858,-1459193.63971,   0.00204,  -0.00285,  -0.00151,480719616.00000,   0.00360,278483136.00000,  -0.00011,  -0.00246,  -0.00149,-128.00000,   2.00000
534588258.57502,146172297.04995,-938428.77915,   0.00204,  -0.00284,  -0.00150,480761120.00000,   0.00361,278492384.00000,  -0.00010,  -0.00246,  -0.00149,   0.00000,   2.00000
535526571.38328,149764040.88066,-421028.21943,   0.00205,  -0.00283,  -0.00150,480785056.00000,   0.00361,278501632.00000,  -0.00009,  -0.00247,  -0.00149, 192.00000,   2.00000
536425936.13235,153320561.83480,93298.73093,   0.00206,  -0.00282,  -0.00149,480796960.00000,   0.00362,278510848.00000,  -0.00008,  -0.00247,  -0.00149,  32.00000,   2.00000
537299486.92713,156885090.92071,614523.96697,   0.00207,  -0.00281,  -0.00148,480841792.00000,   0.00363,278520192.00000,  -0.00007,  -0.00247,  -0.00149, 128.00000,   2.00000
538139868.57298,160418425.44650,1133367.48956,   0.00208,  -0.00279,  -0.00147,480849120.00000,   0.00364,278529472.00000,  -0.00006,  -0.00247,  -0.00149,  32.00000,   2.00000
538959301.65989,163962901.02473,1659807.56065,   0.00208,  -0.00278,  -0.00147,480889984.00000,   0.00365,278538816.00000,  -0.00005,  -0.00248,  -0.00149, 192.00000,   2.00000
539757541.20920,167512106.40982,2174719.43376,   0.00209,  -0.00277,  -0.00146,480899520.00000,   0.00366,278548160.00000,  -0.00004,  -0.00248,  -0.00149,  96.00000,   2.00000
540535775.56656,171066965.16093,2707946.52375,   0.00210,  -0.00276,  -0.00145,480908032.00000,   0.00367,278557440.00000,  -0.00003,  -0.00248,  -0.00149,   0.00000,   2.00000
541288081.85866,174595389.98211,3230083.05653,   0.00210,  -0.00274,  -0.00145,480908064.00000,   0.00368,278566688.00000,  -0.00002,  -0.00248,  -0.00149, -32.00000,   2.00000
542029251.40971,178169087.21051,3760405.85182,   0.00211,  -0.00273,  -0.00144,480951680.00000,   0.00369,278576032.00000,  -0.00001,  -0.00249,  -0.00149,-160.00000,   2.00000
542737071.45399,181682897.85159,4299195.78000,   0.00212,  -0.00272,  -0.00143,480944320.00000,   0.00370,278585280.00000,   0.00000,  -0.00249,  -0.00149,  96.00000,   2.00000
543430039.06672,185233117.29826,4836077.43902,   0.00213,  -0.00271,  -0.00142,480959072.00000,   0.00370,278594528.00000,   0.00001,  -0.00249,  -0.00149,  32.00000,   2.00000
544094674.31599,188759497.99050,5370531.68388,   0.00213,  -0.00269,  -0.00142,480989984.00000,   0.00371,278603808.00000,   0.00003,  -0.00249,  -0.00149, -32.00000,   2.00000
544740162.94000,192318625.03255,5902386.99768,   0.00214,  -0.00268,  -0.00141,481008032.00000,   0.00372,278613120.00000,   0.00004,  -0.00249,  -0.00149,  96.00000,   2.00000
545346360.86830,195812646.80627,6441476.64661,   0.00215,  -0.00267,  -0.00140,481003840.00000,   0.00373,278622368.00000,   0.00005,  -0.00250,  -0.00149,  32.00000,   2.00000
545930520.28969,199342032.13252,6986720.08242,   0.00215,  -0.00265,  -0.00139,481054592.00000,   0.00374,278631744.00000,   0.00006,  -0.00250,  -0.00149, 288.00000,   2.00000
546479772.68915,202836680.75931,7518895.18314,   0.00216,  -0.00264,  -0.00139,481058976.00000,   0.00375,278641056.00000,   0.00007,  -0.00250,  -0.00148,  32.00000,   2.00000
546997812.34877,206327785.98976,8067261.19732,   0.00217,  -0.00263,  -0.00138,481072800.00000,   0.00376,278650368.00000,   0.00008,  -0.00250,  -0.00148,  96.00000,   2.00000
547487308.71580,209820458.45876,8601599.68303,   0.00217,  -0.00262,  -0.00137,481115104.00000,   0.00377,278659776.00000,   0.00009,  -0.00250,  -0.00148, 128.00000,   2.00000
547941929.48897,213278620.17725,9142288.07065,   0.00218,  -0.00260,  -0.00136,481119040.00000,   0.00378,278669152.00000,   0.00010,  -0.00250,  -0.00148, 128.00000,   2.00000
548367743.41001,216734714.59028,9679291.32729,   0.00218,  -0.00259,  -0.00136,481130592.00000,   0.00379,278678528.00000,   0.00011,  -0.00251,  -0.00148,  32.00000,   2.00000
548765305.92961,220189647.36199,10222497.37991,   0.00219,  -0.00257,  -0.00135,481141696.00000,   0.00379,278687904.00000,   0.00012,  -0.00251,  -0.00148,  64.00000,   2.00000
549137751.49436,223648833.61932,10761449.02312,   0.00220,  -0.00256,  -0.00134,481181056.00000,   0.00380,278697344.00000,   0.00013,  -0.00251,  -0.00148,  96.00000,   2.00000
549482733.60217,227079662.67845,11297396.09606,   0.00220,  -0.00255,  -0.00133,481179488.00000,   0.00381,278706752.00000,   0.00015,  -0.00251,  -0.00148,  96.00000,   2.00000
549806433.17163,230518469.56301,11839517.43804,   0.00221,  -0.00253,  -0.00132,481216512.00000,   0.00382,278716224.00000,   0.00016,  -0.00251,  -0.00148,  96.00000,   2.00000
550108098.35017,233931212.12002,12380491.22148,   0.00221,  -0.00252,  -0.00132,481181984.00000,   0.00383,278725536.00000,   0.00017,  -0.00251,  -0.00148, -64.00000,   2.00000
550397732.78814,237387151.27202,12918545.97125,   0.00222,  -0.00251,  -0.00131,481225312.00000,   0.00384,278734944.00000,   0.00018,  -0.00251,  -0.00148, 256.00000,   2.00000
550667223.17000,240823696.18356,13463953.35833,   0.00223,  -0.00249,  -0.00130,481249632.00000,   0.00385,278744416.00000,   0.00019,  -0.00251,  -0.00148,  64.00000,   2.00000
550911217.38638,244229141.53386,14007189.91969,   0.00223,  -0.00248,  -0.00129,481216992.00000,   0.00386,278753696.00000,   0.00020,  -0.00251,  -0.00147,   0.00000,   2.00000
551122053.58485,247654569.87565,14552455.74055,   0.00224,  -0.00246,  -0.00128,481273760.00000,   0.00387,278763136.00000,   0.00021,  -0.00251,  -0.00147, 128.00000,   2.00000
551284229.34368,251026745.36562,15089825.27948,   0.00224,  -0.00245,  -0.00128,481288896.00000,   0.00388,278772576.00000,   0.00022,  -0.00252,  -0.00147,  96.00000,   2.00000
551403279.84328,254381148.48761,15619602.80951,   0.00225,  -0.00243,  -0.00127,481346176.00000,   0.00389,278782144.00000,   0.00023,  -0.00252,  -0.00147, 160.00000,   2.00000
551487134.13634,257699156.53583,16156287.93565,   0.00225,  -0.00242,  -0.00126,481358304.00000,   0.00389,278791648.00000,   0.00025,  -0.00252,  -0.00147,  96.00000,   2.00000
551546763.26250,261046926.37631,16690411.09329,   0.00226,  -0.00240,  -0.00125,481387296.00000,   0.00390,278801216.00000,   0.00026,  -0.00252,  -0.00147,  96.00000,   2.00000
551578591.57883,264337962.45831,17233310.20014,   0.00226,  -0.00239,  -0.00124,481379264.00000,   0.00391,278810688.00000,   0.00027,  -0.00252,  -0.00147, -32.00000,   2.00000
551588146.94386,267660065.16731,17762742.18956,   0.00227,  -0.00237,  -0.00123,481433344.00000,   0.00392,278820288.00000,   0.00028,  -0.00252,  -0.00147, 192.00000,   2.00000
551569559.55658,270953436.45601,18310652.94550,   0.00227,  -0.00236,  -0.00123,481435488.00000,   0.00393,278829824.00000,   0.00029,  -0.00252,  -0.00146, -64.00000,   2.00000
551528470.63764,274249048.27474,18847173.54233,   0.00228,  -0.00234,  -0.00122,481444768.00000,   0.00394,278839360.00000,   0.00030,  -0.00252,  -0.00146, 256.00000,   2.00000
551462388.61858,277545761.58394,19391623.31732,   0.00228,  -0.00233,  -0.00121,481455360.00000,   0.00395,278848864.00000,   0.00031,  -0.00252,  -0.00146, 224.00000,   2.00000
551373167.89309,280815554.58829,19932770.48915,   0.00229,  -0.00231,  -0.00120,481481440.00000,   0.00396,278858432.00000,   0.00032,  -0.00252,  -0.00146, 160.00000,   2.00000
551257872.65401,284084362.13526,20480285.14109,   0.00229,  -0.00230,  -0.00119,481493408.00000,   0.00397,278868000.00000,   0.00034,  -0.00252,  -0.00146,  64.00000,   2.00000
551117331.99882,287350459.18331,21022070.70442,   0.00229,  -0.00228,  -0.00118,481535296.00000,   0.00398,278877664.00000,   0.00035,  -0.00252,  -0.00146, 224.00000,   2.00000
550949228.69686,290585022.67191,21560976.52283,   0.00230,  -0.00227,  -0.00117,481508352.00000,   0.00399,278887168.00000,   0.00036,  -0.00252,  -0.00145,   0.00000,   2.00000
550750742.95042,293811513.73511,22102700.34955,   0.00230,  -0.00225,  -0.00117,481556736.00000,   0.00400,278896768.00000,   0.00037,  -0.00252,  -0.00145,  64.00000,   2.00000
550523347.08042,297001735.01812,22637935.97871,   0.00231,  -0.00224,  -0.00116,481592960.00000,   0.00401,278906432.00000,   0.00038,  -0.00252,  -0.00145,  32.00000,   2.00000
550261550.03380,300210592.08336,23178217.59865,   0.00231,  -0.00222,  -0.00115,481600960.00000,   0.00402,278916064.00000,   0.00039,  -0.00251,  -0.00145, 128.00000,   2.00000
549969883.61940,303382031.84826,23712246.24828,   0.00231,  -0.00221,  -0.00114,481639712.00000,   0.00402,278925728.00000,   0.00040,  -0.00251,  -0.00145, 160.00000,   2.00000
549648923.60157,306518879.63688,24242140.26184,   0.00232,  -0.00219,  -0.00113,481648672.00000,   0.00403,278935392.00000,   0.00041,  -0.00251,  -0.00144, 128.00000,   2.00000
549298041.54431,309648814.60023,24767477.81390,   0.00232,  -0.00217,  -0.00112,481671392.00000,   0.00404,278945024.00000,   0.00043,  -0.00251,  -0.00144,  64.00000,   2.00000
548916647.32696,312769445.76993,25296509.94296,   0.00233,  -0.00216,  -0.00111,481724032.00000,   0.00405,278954816.00000,   0.00044,  -0.00251,  -0.00144,   0.00000,   2.00000
548504999.53915,315883775.57206,25831284.80884,   0.00233,  -0.00214,  -0.00110,481747008.00000,   0.00406,278964576.00000,   0.00045,  -0.00251,  -0.00144, 256.00000,   2.00000
548069357.76536,318968455.12117,26353460.59491,   0.00233,  -0.00213,  -0.00109,481751136.00000,   0.00407,278974304.00000,   0.00046,  -0.00251,  -0.00144,   0.00000,   2.00000
547605128.67268,322044686.49368,26879811.92315,   0.00234,  -0.00211,  -0.00108,481802080.00000,   0.00408,278984128.00000,   0.00047,  -0.00251,  -0.00143,  32.00000,   2.00000
547113964.84883,325089505.54167,27413211.56140,   0.00234,  -0.00209,  -0.00107,481808416.00000,   0.00409,278993920.00000,   0.00048,  -0.00251,  -0.00143,  32.00000,   2.00000
546596825.10165,328129671.18149,27933145.29656,   0.00234,  -0.00208,  -0.00106,481826528.00000,   0.00410,279003680.00000,   0.00049,  -0.00250,  -0.00143,  64.00000,   2.00000
546048973.76282,331161969.20169,28458985.60620,   0.00234,  -0.00206,  -0.00106,481848512.00000,   0.00411,279013472.00000,   0.00051,  -0.00250,  -0.00143, 160.00000,   2.00000
545474399.14896,334157495.03570,28989625.30722,   0.00235,  -0.00204,  -0.00105,481884064.00000,   0.00412,279023328.00000,   0.00052,  -0.00250,  -0.00142, 160.00000,   2.00000
544872199.61111,337145825.62150,29506415.17729,   0.00235,  -0.00203,  -0.00104,481902816.00000,   0.00413,279033216.00000,   0.00053,  -0.00250,  -0.00142,  32.00000,   2.00000
544238379.21329,340124477.99458,30028680.18309,   0.00235,  -0.00201,  -0.00103,481924736.00000,   0.00414,279043072.00000,   0.00054,  -0.00250,  -0.00142,  96.00000,   2.00000
543576583.04275,343069462.37684,30557261.02702,   0.00236,  -0.00199,  -0.00102,481930240.00000,   0.00415,279052928.00000,   0.00055,  -0.00249,  -0.00141,  64.00000,   2.00000
542887172.47724,346002038.77742,31078516.57013,   0.00236,  -0.00198,  -0.00101,481978752.00000,   0.00416,279062880.00000,   0.00056,  -0.00249,  -0.00141, 160.00000,   2.00000
542173036.57757,348902672.85449,31594894.52987,   0.00236,  -0.00196,  -0.00100,481981984.00000,   0.00417,279072800.00000,   0.00057,  -0.00249,  -0.00141,   0.00000,   2.00000
541431801.90269,351789776.98742,32101714.28622,   0.00236,  -0.00194,  -0.00099,482031296.00000,   0.00418,279082816.00000,   0.00059,  -0.00249,  -0.00141, 128.00000,   2.00000
540656683.18933,354670151.06121,32612853.57790,   0.00237,  -0.00192,  -0.00098,482026848.00000,   0.00419,279092768.00000,   0.00060,  -0.00248,  -0.00140,  64.00000,   2.00000
539857587.15606,357513673.94751,33117220.30239,   0.00237,  -0.00191,  -0.00097,482060064.00000,   0.00420,279102784.00000,   0.00061,  -0.00248,  -0.00140, -96.00000,   2.00000
539026476.12241,360349551.49958,33629314.17969,   0.00237,  -0.00189,  -0.00096,482079936.00000,   0.00421,279112800.00000,   0.00062,  -0.00248,  -0.00140,  64.00000,   2.00000
538170934.95221,363177531.65952,34140201.67688,   0.00237,  -0.00187,  -0.00095,482120384.00000,   0.00422,279122944.00000,   0.00063,  -0.00248,  -0.00139,  96.00000,   2.00000
537297637.79620,365980982.23104,34652883.03400,   0.00237,  -0.00186,  -0.00094,482112352.00000,   0.00423,279133024.00000,   0.00064,  -0.00247,  -0.00139, 160.00000,   2.00000
536405884.13502,368754929.38779,35162404.93510,   0.00238,  -0.00184,  -0.00093,482108416.00000,   0.00424,279143040.00000,   0.00065,  -0.00247,  -0.00139, -32.00000,   2.00000
535482071.46831,371511708.32777,35671796.00094,   0.00238,  -0.00182,  -0.00092,482132832.00000,   0.00424,279153088.00000,   0.00066,  -0.00247,  -0.00138,  64.00000,   2.00000
534523374.71522,374244744.09291,36171660.42737,   0.00238,  -0.00180,  -0.00091,482186016.00000,   0.00425,279163264.00000,   0.00068,  -0.00246,  -0.00138, -64.00000,   2.00000
533527882.19194,376966168.61155,36682212.02850,   0.00238,  -0.00178,  -0.00090,482202720.00000,   0.00426,279173504.00000,   0.00069,  -0.00246,  -0.00138,  96.00000,   2.00000
532514317.01097,379658111.25873,37191725.69666,   0.00238,  -0.00177,  -0.00089,482192288.00000,   0.00427,279183680.00000,   0.00070,  -0.00246,  -0.00137, -32.00000,   2.00000
531483172.60293,382306609.12482,37691396.48018,   0.00238,  -0.00175,  -0.00088,482217984.00000,   0.00428,279193888.00000,   0.00071,  -0.00245,  -0.00137, 160.00000,   2.00000
530419336.41678,384934305.68675,38182047.58675,   0.00238,  -0.00173,  -0.00087,482241408.00000,   0.00429,279204160.00000,   0.00072,  -0.00245,  -0.00137,  32.00000,   2.00000
529320573.84209,387541267.28276,38675270.52121,   0.00239,  -0.00171,  -0.00086,482266944.00000,   0.00430,279214464.00000,   0.00073,  -0.00244,  -0.00136, 128.00000,   2.00000
528197908.23579,390112130.01717,39164672.51001,   0.00239,  -0.00169,  -0.00085,482270560.00000,   0.00431,279224736.00000,   0.00074,  -0.00244,  -0.00136, 160.00000,   2.00000
527047192.36337,392659819.37122,39656160.75406,   0.00239,  -0.00168,  -0.00084,482320864.00000,   0.00432,279235136.00000,   0.00076,  -0.00244,  -0.00135, 128.00000,   2.00000
525868792.95898,395194184.20687,40143181.82863,   0.00239,  -0.00166,  -0.00083,482342368.00000,   0.00433,279245568.00000,   0.00077,  -0.00243,  -0.00135, 320.00000,   2.00000
524673852.66682,397689799.92262,40625126.40473,   0.00239,  -0.00164,  -0.00082,482372096.00000,   0.00435,279256064.00000,   0.00078,  -0.00243,  -0.00135, 128.00000,   2.00000
523455650.35715,400162531.34705,41107591.18537,   0.00239,  -0.00162,  -0.00081,482348960.00000,   0.00436,279266400.00000,   0.00079,  -0.00242,  -0.00134,  96.00000,   2.00000
522212918.11481,402615099.21268,41592714.09080,   0.00239,  -0.00160,  -0.00080,482401088.00000,   0.00437,279276864.00000,   0.00080,  -0.00242,  -0.00134, 160.00000,   2.00000
520949190.61281,405049785.00262,42070741.57547,   0.00239,  -0.00158,  -0.00079,482452192.00000,   0.00438,279287456.00000,   0.00081,  -0.00241,  -0.00133,  96.00000,   2.00000
519662745.70733,407463693.63700,42549003.03418,   0.00239,  -0.00157,  -0.00078,482432384.00000,   0.00439,279297920.00000,   0.00082,  -0.00241,  -0.00133,  96.00000,   2.00000
518353278.94266,409858062.50927,43029135.69673,   0.00239,  -0.00155,  -0.00076,482488192.00000,   0.00440,279308480.00000,   0.00083,  -0.00240,  -0.00132, 192.00000,   2.00000
517026203.42303,412224878.29038,43505954.86563,   0.00239,  -0.00153,  -0.00075,482497216.00000,   0.00441,279319040.00000,   0.00084,  -0.00240,  -0.00132,  64.00000,   2.00000
515679458.72161,414573796.20320,43973950.47118,   0.00239,  -0.00151,  -0.00074,482553312.00000,   0.00442,279329696.00000,   0.00085,  -0.00239,  -0.00131,  64.00000,   2.00000
514312130.43627,416892247.29446,44447003.71320,   0.00239,  -0.00149,  -0.00073,482567872.00000,   0.00443,279340320.00000,   0.00087,  -0.00238,  -0.00131,  64.00000,   2.00000
512919032.35094,419198320.84911,44912629.56576,   0.00239,  -0.00147,  -0.00072,482601440.00000,   0.00444,279351008.00000,   0.00088,  -0.00238,  -0.00131,  64.00000,   2.00000
511507189.46065,421473640.82185,45372564.85009,   0.00239,  -0.00145,  -0.00071,482616128.00000,   0.00445,279361664.00000,   0.00089,  -0.00237,  -0.00130,  32.00000,   2.00000
510070973.58502,423722213.12121,45830545.79533,   0.00239,  -0.00143,  -0.00070,482681344.00000,   0.00446,279372448.00000,   0.00090,  -0.00237,  -0.00130,  32.00000,   2.00000
508607182.11173,425952295.16214,46279705.90739,   0.00239,  -0.00141,  -0.00069,482718944.00000,   0.00447,279383296.00000,   0.00091,  -0.00236,  -0.00129,  64.00000,   2.00000
507138387.47749,428122325.94152,46721756.86003,   0.00239,  -0.00139,  -0.00068,482741344.00000,   0.00448,279394144.00000,   0.00092,  -0.00235,  -0.00129,  64.00000,   2.00000
505628330.42710,430294676.76207,47155024.55971,   0.00239,  -0.00137,  -0.00067,482776608.00000,   0.00449,279405056.00000,   0.00093,  -0.00235,  -0.00128,  96.00000,   2.00000
504103674.18646,432418830.66106,47587757.60473,   0.00239,  -0.00136,  -0.00066,482826560.00000,   0.00450,279416032.00000,   0.00094,  -0.00234,  -0.00127,  64.00000,   2.00000
502567226.00507,434500120.49469,48011238.03266,   0.00239,  -0.00134,  -0.00064,482873632.00000,   0.00451,279427072.00000,   0.00095,  -0.00233,  -0.00127,  64.00000,   2.00000
501003376.07815,436567484.58749,48427647.19717,   0.00239,  -0.00132,  -0.00063,482914016.00000,   0.00452,279438176.00000,   0.00096,  -0.00233,  -0.00126, 256.00000,   2.00000
499408890.50868,438623965.14058,48848069.67830,   0.00239,  -0.00130,  -0.00062,482952416.00000,   0.00453,279449344.00000,   0.00097,  -0.00232,  -0.00126,  96.00000,   2.00000
497805913.56415,440648656.56909,49269775.60622,   0.00239,  -0.00128,  -0.00061,482936672.00000,   0.00454,279460416.00000,   0.00098,  -0.00231,  -0.00125, 160.00000,   2.00000
496179023.76403,442678138.52263,49681368.50076,   0.00239,  -0.00126,  -0.00060,483009920.00000,   0.00456,279471680.00000,   0.00099,  -0.00230,  -0.00125,  64.00000,   2.00000
494538021.07519,444690368.99119,50091623.89123,   0.00239,  -0.00124,  -0.00059,483011456.00000,   0.00457,279482880.00000,   0.00100,  -0.00230,  -0.00124,  32.00000,   2.00000
492879438.88754,446679091.28165,50509670.99740,   0.00238,  -0.00122,  -0.00058,483016992.00000,   0.00458,279494080.00000,   0.00101,  -0.00229,  -0.00123, 128.00000,   2.00000
491205565.06068,448648472.48387,50919688.53315,   0.00238,  -0.00120,  -0.00057,483068640.00000,   0.00459,279505376.00000,   0.00102,  -0.00228,  -0.00123,  96.00000,   2.00000
489512679.20311,450586674.98240,51337184.96968,   0.00238,  -0.00118,  -0.00056,483076608.00000,   0.00460,279516704.00000,   0.00103,  -0.00227,  -0.00122, -64.00000,   2.00000
487807560.18928,452502450.78091,51737192.71308,   0.00238,  -0.00116,  -0.00054,483126944.00000,   0.00461,279528128.00000,   0.00104,  -0.00227,  -0.00122, 160.00000,   2.00000
486074318.63409,454391876.95380,52148090.54728,   0.00238,  -0.00114,  -0.00053,483111456.00000,   0.00462,279539456.00000,   0.00105,  -0.00226,  -0.00121, 224.00000,   2.00000
484325605.92168,456253092.19389,52550835.67027,   0.00238,  -0.00112,  -0.00052,483166240.00000,   0.00463,279550944.00000,   0.00106,  -0.00225,  -0.00120, -32.00000,   2.00000
482567703.95754,458070542.27116,52957839.12954,   0.00238,  -0.00110,  -0.00051,483201088.00000,   0.00464,279562528.00000,   0.00107,  -0.00224,  -0.00120,  32.00000,   2.00000
480789561.55323,459871815.23791,53350454.01954,   0.00237,  -0.00108,  -0.00050,483228064.00000,   0.00466,279574144.00000,   0.00108,  -0.00223,  -0.00119, 128.00000,   2.00000
478993467.34176,461638861.51218,53750416.79379,   0.00237,  -0.00106,  -0.00049,483238528.00000,   0.00467,279585760.00000,   0.00109,  -0.00222,  -0.00119,  96.00000,   2.00000
477181446.03009,463375969.29929,54151082.29204,   0.00237,  -0.00104,  -0.00047,483297088.00000,   0.00468,279597536.00000,   0.00110,  -0.00221,  -0.00118, 128.00000,   2.00000
475358881.16112,465086802.48150,54539940.67164,   0.00237,  -0.00102,  -0.00046,483301376.00000,   0.00469,279609280.00000,   0.00111,  -0.00221,  -0.00117, 160.00000,   2.00000
473519522.57723,466765974.99522,54935592.07444,   0.00237,  -0.00100,  -0.00045,483312384.00000,   0.00470,279621024.00000,   0.00112,  -0.00220,  -0.00117,  96.00000,   2.00000
471658335.66148,468428716.88278,55325199.64175,   0.00237,  -0.00098,  -0.00044,483344064.00000,   0.00471,279632832.00000,   0.00113,  -0.00219,  -0.00116,  32.00000,   2.00000
469806488.10842,470047309.14268,55705307.00257,   0.00236,  -0.00095,  -0.00043,483400416.00000,   0.00472,279644800.00000,   0.00114,  -0.00218,  -0.00115, 128.00000,   2.00000
467919049.91634,471655701.98379,56091660.53760,   0.00236,  -0.00093,  -0.00042,483412768.00000,   0.00474,279656768.00000,   0.00115,  -0.00217,  -0.00115, 192.00000,   2.00000
466030637.08511,473229311.43053,56471390.94043,   0.00236,  -0.00091,  -0.00040,483445952.00000,   0.00475,279668800.00000,   0.00116,  -0.00216,  -0.00114, 192.00000,   2.00000
464121654.86225,474787793.86639,56844339.49926,   0.00236,  -0.00089,  -0.00039,483479840.00000,   0.00476,279680896.00000,   0.00117,  -0.00215,  -0.00113, 128.00000,   2.00000
462200877.16441,476320949.75088,57213832.33911,   0.00235,  -0.00087,  -0.00038,483490144.00000,   0.00477,279692992.00000,   0.00118,  -0.00214,  -0.00112,  96.00000,   2.00000
460280463.22049,477820417.96691,57576440.26534,   0.00235,  -0.00085,  -0.00037,483524320.00000,   0.00478,279705184.00000,   0.00119,  -0.00213,  -0.00112,   0.00000,   2.00000
458349360.38901,479293088.92388,57937895.35133,   0.00235,  -0.00083,  -0.00036,483586720.00000,   0.00480,279717504.00000,   0.00120,  -0.00212,  -0.00111, 128.00000,   2.00000
456394212.27994,480749323.66541,58299026.96194,   0.00235,  -0.00081,  -0.00034,483575264.00000,   0.00481,279729760.00000,   0.00121,  -0.00211,  -0.00110,  96.00000,   2.00000
454429029.74844,482178377.51941,58658775.53441,   0.00234,  -0.00079,  -0.00033,483638912.00000,   0.00482,279742176.00000,   0.00122,  -0.00210,  -0.00110, 128.00000,   2.00000
452469040.72833,483577952.25095,59002268.52558,   0.00234,  -0.00077,  -0.00032,483670784.00000,   0.00483,279754656.00000,   0.00122,  -0.00208,  -0.00109,  64.00000,   2.00000
450494697.06314,484949898.19466,59351712.85793,   0.00234,  -0.00075,  -0.00031,483686592.00000,   0.00484,279767136.00000,   0.00123,  -0.00207,  -0.00108,  32.00000,   2.00000
448500741.92274,486307135.43840,59694278.06044,   0.00233,  -0.00072,  -0.00030,483724032.00000,   0.00486,279779712.00000,   0.00124,  -0.00206,  -0.00107, -32.00000,   2.00000
446501048.88721,487642302.75860,60026984.44758,   0.00233,  -0.00070,  -0.00028,483783680.00000,   0.00487,279792416.00000,   0.00125,  -0.00205,  -0.00107,  32.00000,   2.00000
444494135.14216,488943499.72768,60370416.25342,   0.00233,  -0.00068,  -0.00027,483772672.00000,   0.00488,279805056.00000,   0.00126,  -0.00204,  -0.00106,   0.00000,   2.00000
442484538.86456,490229740.56798,60695494.76125,   0.00232,  -0.00066,  -0.00026,483826016.00000,   0.00489,279817856.00000,   0.00127,  -0.00203,  -0.00105,  32.00000,   2.00000
440436721.79893,491510767.98589,61027653.40846,   0.00232,  -0.00064,  -0.00025,483840256.00000,   0.00491,279830624.00000,   0.00128,  -0.00202,  -0.00104,  96.00000,   2.00000
438414196.41068,492750018.41872,61354860.63187,   0.00232,  -0.00062,  -0.00024,483865792.00000,   0.00492,279843488.00000,   0.00128,  -0.00201,  -0.00103, 192.00000,   2.00000
436369601.99314,493974984.79510,61684718.69312,   0.00231,  -0.00060,  -0.00022,483901184.00000,   0.00493,279856416.00000,   0.00129,  -0.00199,  -0.00103,  64.00000,   2.00000
434310524.87662,495190796.38110,61998311.78993,   0.00231,  -0.00057,  -0.00021,483930048.00000,   0.00494,279869408.00000,   0.00130,  -0.00198,  -0.00102, 160.00000,   2.00000
432237831.29167,496379783.13302,62318320.23085,   0.00231,  -0.00055,  -0.00020,483941440.00000,   0.00496,279882432.00000,   0.00131,  -0.00197,  -0.00101,  64.00000,   2.00000
430170497.11298,497538817.41164,62632586.56293,   0.00230,  -0.00053,  -0.00019,483970304.00000,   0.00497,279895520.00000,   0.00132,  -0.00196,  -0.00100,  32.00000,   2.00000
428101509.68903,498676432.16312,62937188.84099,   0.00230,  -0.00051,  -0.00017,484024832.00000,   0.00498,279908768.00000,   0.00132,  -0.00194,  -0.00099,  96.00000,   2.00000
426019917.68060,499788851.03279,63248525.11541,   0.00230,  -0.00049,  -0.00016,484035776.00000,   0.00500,279922048.00000,   0.00133,  -0.00193,  -0.00098,  32.00000,   2.00000
423932671.62058,500884500.19853,63547856.46005,   0.00229,  -0.00047,  -0.00015,484039296.00000,   0.00501,279935296.00000,   0.00134,  -0.00192,  -0.00098, 192.00000,   2.00000
421841958.58154,501954984.62732,63845762.50849,   0.00229,  -0.00044,  -0.00014,484098464.00000,   0.00502,279948736.00000,   0.00135,  -0.00191,  -0.00097,  96.00000,   2.00000
419742781.19871,503004903.20145,64140456.07921,   0.00228,  -0.00042,  -0.00012,484106752.00000,   0.00504,279962176.00000,   0.00135,  -0.00189,  -0.00096,  96.00000,   2.00000
417648659.01847,504022918.18525,64437574.32630,   0.00228,  -0.00040,  -0.00011,484140416.00000,   0.00505,279975712.00000,   0.00136,  -0.00188,  -0.00095, 128.00000,   2.00000
415542489.08452,505031494.16599,64717850.96668,   0.00227,  -0.00038,  -0.00010,484171776.00000,   0.00506,279989344.00000,   0.00137,  -0.00187,  -0.00094,  96.00000,   2.00000
413442202.71005,506008485.05471,65000573.55757,   0.00227,  -0.00036,  -0.00009,484206112.00000,   0.00508,280003040.00000,   0.00138,  -0.00185,  -0.00093, 160.00000,   2.00000
411333736.61940,506965237.65949,65279984.63790,   0.00227,  -0.00034,  -0.00007,484216064.00000,   0.00509,280016768.00000,   0.00138,  -0.00184,  -0.00092,  64.00000,   2.00000
409228001.41187,507901965.47643,65548439.64225,   0.00226,  -0.00031,  -0.00006,484272896.00000,   0.00510,280030656.00000,   0.00139,  -0.00183,  -0.00091,  96.00000,   2.00000
407113858.00767,508819034.99535,65813866.15311,   0.00226,  -0.00029,  -0.00005,484282912.00000,   0.00512,280044544.00000,   0.00140,  -0.00181,  -0.00090,  32.00000,   2.00000
404987993.38565,509712838.31030,66085541.74481,   0.00225,  -0.00027,  -0.00004,484296736.00000,   0.00513,280058496.00000,   0.00140,  -0.00180,  -0.00090,  64.00000,   2.00000
402868497.17519,510592089.56896,66337470.94205,   0.00225,  -0.00025,  -0.00002,484348832.00000,   0.00514,280072544.00000,   0.00141,  -0.00178,  -0.00089, 160.00000,   2.00000
400755380.23186,511442296.25726,66592637.30031,   0.00224,  -0.00022,  -0.00001,484381920.00000,   0.00516,280086720.00000,   0.00142,  -0.00177,  -0.00088, 224.00000,   2.00000
398633518.68663,512274971.48791,66845512.04295,   0.00224,  -0.00020,   0.00000,484390400.00000,   0.00517,280100896.00000,   0.00142,  -0.00176,  -0.00087, 160.00000,   2.00000
396502864.39586,513090284.30359,67096299.46757,   0.00223,  -0.00018,   0.00001,484398464.00000,   0.00519,280115072.00000,   0.00143,  -0.00174,  -0.00086, -32.00000,   2.00000
394373332.61208,513883640.24927,67346348.68738,   0.00223,  -0.00016,   0.00003,484456768.00000,   0.00520,280129408.00000,   0.00144,  -0.00173,  -0.00085, 192.00000,   2.00000
392257947.69388,514657989.85141,67582373.38434,   0.00222,  -0.00014,   0.00004,484479872.00000,   0.00521,280143840.00000,   0.00144,  -0.00171,  -0.00084, -32.00000,   2.00000
390106026.86866,515421992.23542,67825012.02498,   0.00222,  -0.00011,   0.00005,484499584.00000,   0.00523,280158304.00000,   0.00145,  -0.00170,  -0.00083, 128.00000,   2.00000
387985979.56219,516156280.38896,68060070.93513,   0.00221,  -0.00009,   0.00007,484546272.00000,   0.00524,280172896.00000,   0.00146,  -0.00168,  -0.00082, 192.00000,   2.00000
385858831.56475,516872415.05621,68294639.10611,   0.00221,  -0.00007,   0.00008,484555072.00000,   0.00526,280187488.00000,   0.00146,  -0.00167,  -0.00081,  96.00000,   2.00000
383724889.86051,517569969.15371,68529043.18450,   0.00220,  -0.00005,   0.00009,484564704.00000,   0.00527,280202112.00000,   0.00147,  -0.00165,  -0.00080, 224.00000,   2.00000
381599400.50809,518248453.19707,68755676.34606,   0.00220,  -0.00002,   0.00010,484620640.00000,   0.00529,280216864.00000,   0.00147,  -0.00164,  -0.00079, 224.00000,   2.00000
379485082.23214,518898000.15380,68988594.92814,   0.00219,   0.00000,   0.00012,484654944.00000,   0.00530,280231744.00000,   0.00148,  -0.00162,  -0.00078, 160.00000,   2.00000
377364836.36787,519529131.10008,69222154.62598,   0.00219,   0.00002,   0.00013,484667040.00000,   0.00532,280246592.00000,   0.00148,  -0.00161,  -0.00077,  32.00000,   2.00000
375262624.43006,520141576.52215,69444239.29502,   0.00218,   0.00005,   0.00014,484694176.00000,   0.00533,280261536.00000,   0.00149,  -0.00159,  -0.00076, 128.00000,   2.00000
373146164.98229,520736530.28878,69671600.01499,   0.00218,   0.00007,   0.00016,484739584.00000,   0.00535,280276576.00000,   0.00149,  -0.00157,  -0.00075, 256.00000,   2.00000
371020029.36292,521309322.16085,69908756.14561,   0.00217,   0.00009,   0.00017,484758880.00000,   0.00536,280291648.00000,   0.00150,  -0.00156,  -0.00074,  32.00000,   2.00000
368911899.87633,521865642.56711,70134441.03227,   0.00217,   0.00011,   0.00018,484788224.00000,   0.00538,280306752.00000,   0.00150,  -0.00154,  -0.00073, 160.00000,   2.00000
366813588.45638,522405626.95994,70353008.24224,   0.00216,   0.00014,   0.00019,484849632.00000,   0.00539,280322048.00000,   0.00151,  -0.00153,  -0.00072,   0.00000,   2.00000
364731194.91345,522917139.13817,70582925.22482,   0.00215,   0.00016,   0.00021,484860640.00000,   0.00541,280337312.00000,   0.00151,  -0.00151,  -0.00071, 192.00000,   2.00000
362614104.32479,523423012.37538,70811567.61508,   0.00215,   0.00018,   0.00022,484887552.00000,   0.00542,280352608.00000,   0.00152,  -0.00149,  -0.00070,  96.00000,   2.00000
360529002.84934,523910218.45845,71029898.06967,   0.00214,   0.00021,   0.00023,484967776.00000,   0.00544,280368128.00000,   0.00152,  -0.00148,  -0.00069,  32.00000,   2.00000
358439144.23429,524379881.07930,71253303.79715,   0.00214,   0.00023,   0.00025,484957344.00000,   0.00545,280383552.00000,   0.00153,  -0.00146,  -0.00068, -32.00000,   2.00000
356335988.44601,524840587.23076,71472330.51391,   0.00213,   0.00025,   0.00026,485002336.00000,   0.00547,280399072.00000,   0.00153,  -0.00144,  -0.00067, 192.00000,   2.00000
354245998.68075,525284248.23211,71688747.26078,   0.00212,   0.00027,   0.00027,485036960.00000,   0.00548,280414656.00000,   0.00154,  -0.00143,  -0.00066, 128.00000,   2.00000
352166032.22749,525706496.32221,71911633.73245,   0.00212,   0.00030,   0.00029,485075456.00000,   0.00550,280430336.00000,   0.00154,  -0.00141,  -0.00065,   0.00000,   2.00000
350075014.68234,526124944.32816,72121050.79516,   0.00211,   0.00032,   0.00030,485115616.00000,   0.00551,280446080.00000,   0.00155,  -0.00139,  -0.00064,   0.00000,   2.00000
347994143.37970,526522594.22370,72337094.95441,   0.00211,   0.00034,   0.00031,485153152.00000,   0.00553,280461888.00000,   0.00155,  -0.00137,  -0.00063, -64.00000,   2.00000
345929645.59260,526900606.97353,72555344.03306,   0.00210,   0.00037,   0.00033,485157280.00000,   0.00554,280477664.00000,   0.00155,  -0.00136,  -0.00062,  96.00000,   2.00000
343847803.42972,527274028.94575,72764526.65381,   0.00209,   0.00039,   0.00034,485228512.00000,   0.00556,280493664.00000,   0.00156,  -0.00134,  -0.00061,  32.00000,   2.00000
341758935.48508,527631555.88151,72978802.45972,   0.00209,   0.00041,   0.00035,485214208.00000,   0.00558,280509536.00000,   0.00156,  -0.00132,  -0.00060,  32.00000,   2.00000
339704083.82896,527973608.98872,73183079.35705,   0.00208,   0.00044,   0.00037,485289760.00000,   0.00559,280525632.00000,   0.00156,  -0.00130,  -0.00059,  32.00000,   2.00000
337639078.32678,528303385.89178,73387669.69908,   0.00207,   0.00046,   0.00038,485302432.00000,   0.00561,280541760.00000,   0.00157,  -0.00129,  -0.00057, -32.00000,   2.00000
335564220.18796,528620789.52886,73592474.42577,   0.00207,   0.00048,   0.00039,485314592.00000,   0.00562,280557888.00000,   0.00157,  -0.00127,  -0.00056,-160.00000,   2.00000
333501290.26372,528917968.40958,73803695.99349,   0.00206,   0.00051,   0.00041,485347104.00000,   0.00564,280574080.00000,   0.00158,  -0.00125,  -0.00055,  32.00000,   2.00000
331456061.32823,529204511.08257,74003022.86460,   0.00205,   0.00053,   0.00042,485369856.00000,   0.00566,280590336.00000,   0.00158,  -0.00123,  -0.00054, -64.00000,   2.00000
329396582.47017,529477508.57898,74206557.59650,   0.00205,   0.00055,   0.00043,485413472.00000,   0.00567,280606688.00000,   0.00158,  -0.00121,  -0.00053, -32.00000,   2.00000
327353260.51016,529735543.46618,74407069.35820,   0.00204,   0.00058,   0.00045,485439872.00000,   0.00569,280623136.00000,   0.00158,  -0.00120,  -0.00052,  96.00000,   2.00000
325326414.10582,529978871.75974,74604432.22640,   0.00203,   0.00060,   0.00046,485465984.00000,   0.00571,280639648.00000,   0.00159,  -0.00118,  -0.00051, -96.00000,   2.00000
323291600.91905,530210431.07838,74801181.08812,   0.00203,   0.00062,   0.00047,485475648.00000,   0.00572,280656192.00000,   0.00159,  -0.00116,  -0.00050,  32.00000,   2.00000
321271740.80234,530431093.87230,74989768.27318,   0.00202,   0.00065,   0.00049,485530176.00000,   0.00574,280672896.00000,   0.00159,  -0.00114,  -0.00049,   0.00000,   2.00000
319269466.61007,530638261.76990,75174928.93816,   0.00201,   0.00067,   0.00050,485555360.00000,   0.00576,280689632.00000,   0.00160,  -0.00112,  -0.00048, -96.00000,   2.00000
317261468.57568,530831203.72683,75363914.74317,   0.00201,   0.00069,   0.00051,485536640.00000,   0.00577,280706336.00000,   0.00160,  -0.00110,  -0.00047, -32.00000,   2.00000
315264924.31782,531012996.04589,75548743.69636,   0.00200,   0.00072,   0.00053,485624256.00000,   0.00579,280723264.00000,   0.00160,  -0.00108,  -0.00046, -64.00000,   2.00000
313264940.52382,531186182.21720,75728183.89232,   0.00199,   0.00074,   0.00054,485601408.00000,   0.00581,280740128.00000,   0.00160,  -0.00107,  -0.00044, -64.00000,   2.00000
311279880.97920,531342365.63272,75912925.32240,   0.00199,   0.00076,   0.00055,485631808.00000,   0.00582,280757088.00000,   0.00161,  -0.00105,  -0.00043, -32.00000,   2.00000
309313657.43502,531495843.99181,76080172.06265,   0.00198,   0.00079,   0.00057,485681728.00000,   0.00584,280774144.00000,   0.00161,  -0.00103,  -0.00042,  32.00000,   2.00000
307362073.12613,531633386.09966,76252859.86239,   0.00197,   0.00081,   0.00058,485712736.00000,   0.00586,280791328.00000,   0.00161,  -0.00101,  -0.00041,-128.00000,   2.00000
305401410.49828,531762009.13863,76424451.55012,   0.00196,   0.00083,   0.00059,485724064.00000,   0.00587,280808480.00000,   0.00161,  -0.00099,  -0.00040,-160.00000,   2.00000
303457717.42777,531880928.06343,76592567.47463,   0.00196,   0.00086,   0.00061,485750528.00000,   0.00589,280825696.00000,   0.00161,  -0.00097,  -0.00039, -96.00000,   2.00000
301533076.21238,531995356.61681,76748278.80509,   0.00195,   0.00088,   0.00062,485772576.00000,   0.00591,280842976.00000,   0.00162,  -0.00095,  -0.00038, -96.00000,   2.00000
299594863.48417,532099490.40933,76907373.97385,   0.00194,   0.00091,   0.00063,485818464.00000,   0.00592,280860352.00000,   0.00162,  -0.00093,  -0.00037,  64.00000,   2.00000
297673573.97279,532191421.35802,77068166.12252,   0.00194,   0.00093,   0.00065,485816800.00000,   0.00594,280877696.00000,   0.00162,  -0.00091,  -0.00035,  64.00000,   2.00000
295767638.34768,532277420.02677,77220996.21868,   0.00193,   0.00095,   0.00066,485872448.00000,   0.00596,280895200.00000,   0.00162,  -0.00089,  -0.00034,   0.00000,   2.00000
293848341.27204,532350163.56104,77382302.45729,   0.00192,   0.00098,   0.00067,485890080.00000,   0.00598,280912704.00000,   0.00162,  -0.00087,  -0.00033, -32.00000,   2.00000
291947312.08744,532422366.49071,77526838.96448,   0.00191,   0.00100,   0.00069,485941248.00000,   0.00599,280930336.00000,   0.00162,  -0.00085,  -0.00032, -32.00000,   2.00000
290062745.09223,532482859.83926,77673624.43258,   0.00191,   0.00102,   0.00070,485939424.00000,   0.00601,280947936.00000,   0.00162,  -0.00083,  -0.00031,  64.00000,   2.00000
288194308.34441,532534467.66912,77817805.51247,   0.00190,   0.00105,   0.00071,485966304.00000,   0.00603,280965600.00000,   0.00163,  -0.00081,  -0.00030,-128.00000,   2.00000
286312840.96537,532575870.08239,77966020.39933,   0.00189,   0.00107,   0.00073,486012704.00000,   0.00605,280983360.00000,   0.00163,  -0.00079,  -0.00029, 256.00000,   1.00000
284450161.02895,532612260.56110,78102595.58052,   0.00188,   0.00110,   0.00074,486034944.00000,   0.00607,281001184.00000,   0.00163,  -0.00077,  -0.00027,-576.00000,   1.00000
282603080.26662,532636097.54714,78246166.88429,   0.00188,   0.00112,   0.00076,486065376.00000,   0.00608,281019040.00000,   0.00163,  -0.00075,  -0.00026,   0.00000,   2.00000
280775763.73197,532655644.98098,78378446.49343,   0.00187,   0.00114,   0.00077,486087328.00000,   0.00610,281036960.00000,   0.00163,  -0.00073,  -0.00025, -32.00000,   2.00000
278936456.94323,532660931.62830,78519984.92745,   0.00186,   0.00117,   0.00078,486104800.00000,   0.00612,281054912.00000,   0.00163,  -0.00071,  -0.00024, 160.00000,   2.00000
277118571.11486,532665166.94006,78645559.87995,   0.00185,   0.00119,   0.00080,486155040.00000,   0.00614,281072992.00000,   0.00163,  -0.00069,  -0.00023,-128.00000,   2.00000
275316722.06803,532652486.74470,78783299.82593,   0.00185,   0.00122,   0.00081,486156416.00000,   0.00615,281091040.00000,   0.00163,  -0.00067,  -0.00021, 160.00000,   2.00000
273534805.75278,532633804.09965,78914308.90421,   0.00184,   0.00124,   0.00082,486210816.00000,   0.00617,281109248.00000,   0.00163,  -0.00065,  -0.00020,-160.00000,   2.00000
271746635.70079,532611051.76420,79036934.62933,   0.00183,   0.00126,   0.00084,486218720.00000,   0.00619,281127424.00000,   0.00163,  -0.00063,  -0.00019, -64.00000,   2.00000
270004263.06720,532575613.61630,79164935.81689,   0.00182,   0.00129,   0.00085,486261408.00000,   0.00621,281145760.00000,   0.00163,  -0.00061,  -0.00018,  96.00000,   2.00000
268253082.45480,532530903.01400,79293665.62026,   0.00181,   0.00131,   0.00086,486273952.00000,   0.00623,281164096.00000,   0.00163,  -0.00059,  -0.00017,   0.00000,   2.00000
266493030.81344,532476841.34737,79423125.55470,   0.00181,   0.00134,   0.00088,486286880.00000,   0.00625,281182432.00000,   0.00163,  -0.00057,  -0.00015, -64.00000,   2.00000
264781273.24916,532416769.51448,79549151.55287,   0.00180,   0.00136,   0.00089,486324032.00000,   0.00626,281200864.00000,   0.00163,  -0.00055,  -0.00014,   0.00000,   2.00000
263063657.94908,532356518.86318,79662027.39984,   0.00179,   0.00138,   0.00090,486360800.00000,   0.00628,281219392.00000,   0.00163,  -0.00053,  -0.00013,   0.00000,   2.00000
261362535.07564,532284351.41535,79782576.23900,   0.00178,   0.00141,   0.00092,486390784.00000,   0.00630,281238016.00000,   0.00163,  -0.00050,  -0.00012,  64.00000,   2.00000
259677511.74611,532203269.56707,79906591.11923,   0.00177,   0.00143,   0.00093,486387072.00000,   0.00632,281256544.00000,   0.00163,  -0.00048,  -0.00011,  96.00000,   2.00000
258011391.71929,532119837.44998,80023982.30371,   0.00177,   0.00146,   0.00095,486440608.00000,   0.00634,281275232.00000,   0.00163,  -0.00046,  -0.00009,  64.00000,   2.00000
256361268.95849,532031794.96213,80139525.95088,   0.00176,   0.00148,   0.00096,486465440.00000,   0.00636,281293984.00000,   0.00163,  -0.00044,  -0.00008,  32.00000,   2.00000
254696770.99663,531937726.64114,80254947.80055,   0.00175,   0.00150,   0.00097,486478688.00000,   0.00638,281312704.00000,   0.00163,  -0.00042,  -0.00007,  32.00000,   2.00000
253077834.53466,531845713.60351,80361028.89489,   0.00174,   0.00153,   0.00099,486543648.00000,   0.00640,281331616.00000,   0.00163,  -0.00040,  -0.00006, 192.00000,   2.00000
251439674.35779,531745315.24388,80471289.73504,   0.00173,   0.00155,   0.00100,486528384.00000,   0.00641,281350400.00000,   0.00163,  -0.00038,  -0.00005,  96.00000,   2.00000
249816057.57036,531645916.09095,80573530.78949,   0.00173,   0.00158,   0.00101,486581568.00000,   0.00643,281369344.00000,   0.00163,  -0.00035,  -0.00003, -64.00000,   2.00000
248172116.60167,531538925.69732,80679379.46522,   0.00172,   0.00160,   0.00103,486565952.00000,   0.00645,281388192.00000,   0.00163,  -0.00033,  -0.00002,  64.00000,   2.00000
246574767.12986,531441051.21554,80765802.38440,   0.00171,   0.00163,   0.00104,486625568.00000,   0.00647,281407168.00000,   0.00162,  -0.00031,  -0.00001, 192.00000,   2.00000
244988820.56179,531335531.69086,80857701.64466,   0.00170,   0.00165,   0.00105,486655264.00000,   0.00649,281426208.00000,   0.00162,  -0.00029,   0.00000, 224.00000,   2.00000
243389142.16664,531224628.62070,80948087.99934,   0.00169,   0.00167,   0.00107,486669248.00000,   0.00651,281445248.00000,   0.00162,  -0.00027,   0.00002, 128.00000,   2.00000
241808977.63870,531110297.90265,81035269.27017,   0.00169,   0.00170,   0.00108,486694976.00000,   0.00653,281464352.00000,   0.00162,  -0.00025,   0.00003,  32.00000,   2.00000
240252195.36129,530992014.14811,81119691.79777,   0.00168,   0.00172,   0.00110,486721408.00000,   0.00655,281483520.00000,   0.00162,  -0.00022,   0.00004, 128.00000,   2.00000
238725480.18738,530872231.95546,81196698.78596,   0.00167,   0.00175,   0.00111,486778112.00000,   0.00657,281502848.00000,   0.00162,  -0.00020,   0.00005, 224.00000,   2.00000
237224885.41543,530743995.15942,81276944.96694,   0.00166,   0.00177,   0.00112,486778624.00000,   0.00659,281522144.00000,   0.00162,  -0.00018,   0.00007, 256.00000,   2.00000
235758310.07869,530613827.32150,81350521.41399,   0.00165,   0.00180,   0.00114,486837536.00000,   0.00661,281541600.00000,   0.00161,  -0.00016,   0.00008,  96.00000,   2.00000
234291766.96617,530475545.59892,81424692.13220,   0.00164,   0.00182,   0.00115,486858368.00000,   0.00663,281561120.00000,   0.00161,  -0.00014,   0.00009, 224.00000,   2.00000
232879539.72092,530332969.77858,81500882.31135,   0.00164,   0.00184,   0.00116,486871968.00000,   0.00665,281580608.00000,   0.00161,  -0.00011,   0.00010,  96.00000,   2.00000
231467423.00421,530191734.27012,81563600.97569,   0.00163,   0.00187,   0.00118,486917632.00000,   0.00667,281600224.00000,   0.00161,  -0.00009,   0.00012, 224.00000,   2.00000
230105061.67266,530045983.57382,81632251.91622,   0.00162,   0.00189,   0.00119,486964352.00000,   0.00669,281619936.00000,   0.00161,  -0.00007,   0.00013, 128.00000,   2.00000
228733469.08366,529897499.93288,81696278.08937,   0.00161,   0.00192,   0.00120,487014880.00000,   0.00671,281639776.00000,   0.00160,  -0.00005,   0.00014, 224.00000,   2.00000
227370819.93900,529743437.14078,81764054.07086,   0.00160,   0.00194,   0.00122,487017376.00000,   0.00673,281659520.00000,   0.00160,  -0.00002,   0.00016, 224.00000,   2.00000
226018464.62116,529587838.47418,81830441.82071,   0.00159,   0.00197,   0.00123,487047744.00000,   0.00675,281679296.00000,   0.00160,  -0.00000,   0.00017, 224.00000,   2.00000
224680240.46906,529440028.69841,81881403.81229,   0.00159,   0.00199,   0.00125,487101248.00000,   0.00677,281699168.00000,   0.00160,   0.00002,   0.00018, 224.00000,   2.00000
223341322.66716,529282325.26574,81945225.07280,   0.00158,   0.00202,   0.00126,487106208.00000,   0.00679,281718944.00000,   0.00159,   0.00004,   0.00019, 224.00000,   2.00000
222011515.17075,529127313.27843,82002665.10809,   0.00157,   0.00204,   0.00127,487163104.00000,   0.00681,281738848.00000,   0.00159,   0.00007,   0.00021,  64.00000,   2.00000
220655945.50727,528972618.99708,82051782.19289,   0.00156,   0.00207,   0.00129,487175776.00000,   0.00683,281758720.00000,   0.00159,   0.00009,   0.00022,  96.00000,   2.00000
219333134.05625,528816269.63354,82107135.48417,   0.00155,   0.00209,   0.00130,487217248.00000,   0.00685,281778624.00000,   0.00159,   0.00011,   0.00023, 192.00000,   2.00000
218015454.60483,528664754.56162,82152639.62015,   0.00154,   0.00211,   0.00131,487238400.00000,   0.00687,281798528.00000,   0.00158,   0.00013,   0.00025, 160.00000,   2.00000
216699674.22112,528506978.44165,82206250.22274,   0.00154,   0.00214,   0.00133,487268896.00000,   0.00689,281818464.00000,   0.00158,   0.00016,   0.00026,  96.00000,   2.00000
215358628.93255,528348905.24724,82251755.14113,   0.00153,   0.00216,   0.00134,487279616.00000,   0.00691,281838336.00000,   0.00158,   0.00018,   0.00027,  32.00000,   2.00000
214053897.96857,528194694.51417,82294846.39892,   0.00152,   0.00219,   0.00135,487313440.00000,   0.00693,281858240.00000,   0.00157,   0.00020,   0.00028, 256.00000,   2.00000
212726770.24319,528032837.69849,82342665.73383,   0.00151,   0.00221,   0.00137,487362176.00000,   0.00695,281878272.00000,   0.00157,   0.00022,   0.00030,  96.00000,   2.00000
211434500.42508,527876306.58111,82384277.49157,   0.00150,   0.00224,   0.00138,487361024.00000,   0.00697,281898208.00000,   0.00157,   0.00025,   0.00031,  64.00000,   2.00000
210123401.08973,527717492.04645,82421703.71799,   0.00149,   0.00226,   0.00139,487403840.00000,   0.00699,281918208.00000,   0.00157,   0.00027,   0.00032, 320.00000,   2.00000
208850241.39960,527556720.90849,82465702.32803,   0.00149,   0.00229,   0.00141,487440992.00000,   0.00701,281938304.00000,   0.00156,   0.00029,   0.00034, 288.00000,   2.00000
207556740.29810,527395172.67650,82501681.54764,   0.00148,   0.00231,   0.00142,487448960.00000,   0.00703,281958368.00000,   0.00156,   0.00032,   0.00035, 160.00000,   2.00000
206299553.74612,527233488.12390,82540461.55198,   0.00147,   0.00234,   0.00143,487451104.00000,   0.00705,281978368.00000,   0.00156,   0.00034,   0.00036, 160.00000,   2.00000
205031721.98882,527072907.44531,82569891.08629,   0.00146,   0.00236,   0.00145,487521152.00000,   0.00707,281998592.00000,   0.00155,   0.00036,   0.00037, 256.00000,   2.00000
203801477.50881,526912339.93870,82602181.66398,   0.00145,   0.00239,   0.00146,487522656.00000,   0.00709,282018720.00000,   0.00155,   0.00039,   0.00039, 192.00000,   2.00000
202551660.40328,526745387.38047,82635438.61086,   0.00144,   0.00241,   0.00148,487534304.00000,   0.00711,282038880.00000,   0.00155,   0.00041,   0.00040, 320.00000,   2.00000
201345548.32377,526582369.95722,82666468.20223,   0.00143,   0.00243,   0.00149,487563616.00000,   0.00713,282059104.00000,   0.00155,   0.00043,   0.00041, 160.00000,   2.00000
200127562.58338,526422063.70282,82684426.79936,   0.00143,   0.00246,   0.00150,487598720.00000,   0.00715,282079392.00000,   0.00154,   0.00045,   0.00043,  96.00000,   2.00000
198952477.26444,526260820.01287,82709316.00985,   0.00142,   0.00248,   0.00152,487632384.00000,   0.00717,282099744.00000,   0.00154,   0.00048,   0.00044, 160.00000,   2.00000
197753680.81624,526089150.00243,82740390.62564,   0.00141,   0.00251,   0.00153,487614496.00000,   0.00719,282120000.00000,   0.00154,   0.00050,   0.00045, 192.00000,   2.00000
196607019.79696,525931395.89888,82755445.69788,   0.00140,   0.00253,   0.00154,487666496.00000,   0.00721,282140416.00000,   0.00153,   0.00052,   0.00047, 128.00000,   2.00000
195440642.46438,525761697.37392,82780652.65143,   0.00139,   0.00256,   0.00156,487682112.00000,   0.00723,282160832.00000,   0.00153,   0.00055,   0.00048, 256.00000,   2.00000
194321206.38327,525602338.35177,82795110.72112,   0.00138,   0.00258,   0.00157,487704864.00000,   0.00725,282181280.00000,   0.00152,   0.00057,   0.00049, 192.00000,   2.00000
193213660.21431,525436941.33668,82818332.65156,   0.00138,   0.00261,   0.00158,487728896.00000,   0.00727,282201792.00000,   0.00152,   0.00059,   0.00051,  32.00000,   2.00000
192121250.26894,525276574.96656,82832489.76912,   0.00137,   0.00263,   0.00160,487742848.00000,   0.00729,282222272.00000,   0.00152,   0.00062,   0.00052, 320.00000,   2.00000
191016386.12793,525113415.34321,82842928.94568,   0.00136,   0.00266,   0.00161,487782176.00000,   0.00731,282242880.00000,   0.00151,   0.00064,   0.00053, 256.00000,   2.00000
189951037.51219,524952010.33006,82857025.48488,   0.00135,   0.00268,   0.00162,487780800.00000,   0.00734,282263424.00000,   0.00151,   0.00066,   0.00055, 256.00000,   2.00000
188904868.84276,524794229.30523,82866100.97587,   0.00134,   0.00271,   0.00164,487828288.00000,   0.00736,282284128.00000,   0.00151,   0.00069,   0.00056, 192.00000,   2.00000
187871796.38448,524636129.70358,82875299.94284,   0.00133,   0.00273,   0.00165,487847296.00000,   0.00738,282304800.00000,   0.00150,   0.00071,   0.00057,  96.00000,   2.00000
186845584.32463,524473889.04997,82889752.12157,   0.00133,   0.00276,   0.00166,487837792.00000,   0.00740,282325440.00000,   0.00150,   0.00074,   0.00059, 288.00000,   2.00000
185870150.00402,524321881.58739,82897919.15683,   0.00132,   0.00278,   0.00168,487893216.00000,   0.00742,282346176.00000,   0.00149,   0.00076,   0.00060, 160.00000,   2.00000
184875088.55325,524163358.13358,82907735.40887,   0.00131,   0.00281,   0.00169,487904704.00000,   0.00744,282366944.00000,   0.00149,   0.00078,   0.00061, 288.00000,   2.00000
183900293.45868,524014259.19595,82903857.95019,   0.00130,   0.00283,   0.00170,487947296.00000,   0.00746,282387808.00000,   0.00149,   0.00081,   0.00063, 224.00000,   2.00000
182961857.54875,523862523.98205,82913018.80672,   0.00129,   0.00286,   0.00172,487950976.00000,   0.00748,282408608.00000,   0.00148,   0.00083,   0.00064, 288.00000,   2.00000
182004494.95522,523709200.57305,82914867.36897,   0.00128,   0.00288,   0.00173,487958048.00000,   0.00750,282429408.00000,   0.00148,   0.00085,   0.00065, 352.00000,   2.00000
181096168.66346,523561782.75495,82919729.43314,   0.00128,   0.00291,   0.00174,488018048.00000,   0.00753,282450336.00000,   0.00147,   0.00088,   0.00067, 416.00000,   2.00000
180200563.74407,523419790.82225,82916033.66787,   0.00127,   0.00293,   0.00176,488032960.00000,   0.00755,282471296.00000,   0.00147,   0.00090,   0.00068, 320.00000,   2.00000
179309367.58508,523273668.26092,82917779.03045,   0.00126,   0.00296,   0.00177,488024544.00000,   0.00757,282492160.00000,   0.00146,   0.00093,   0.00069,  96.00000,   2.00000
178435884.90899,523132160.51057,82914977.05944,   0.00125,   0.00298,   0.00178,488072320.00000,   0.00759,282513120.00000,   0.00146,   0.00095,   0.00070,  96.00000,   2.00000
177573181.22463,522991049.76953,82912663.59812,   0.00124,   0.00301,   0.00180,488092384.00000,   0.00761,282534112.00000,   0.00145,   0.00097,   0.00072, 256.00000,   2.00000
176721026.28959,522850165.20093,82910798.82332,   0.00123,   0.00303,   0.00181,488112544.00000,   0.00763,282555104.00000,   0.00145,   0.00100,   0.00073, 288.00000,   2.00000
175886214.00425,522713966.37446,82904424.36162,   0.00123,   0.00306,   0.00182,488160832.00000,   0.00765,282576224.00000,   0.00145,   0.00102,   0.00074, 192.00000,   2.00000
175086850.23058,522580875.66238,82902226.58104,   0.00122,   0.00308,   0.00184,488160384.00000,   0.00768,282597280.00000,   0.00144,   0.00105,   0.00076, 256.00000,   2.00000
174305633.76522,522457948.22906,82886601.00681,   0.00121,   0.00311,   0.00185,488204000.00000,   0.00770,282618432.00000,   0.00144,   0.00107,   0.00077, 224.00000,   2.00000
173493203.79834,522318573.79492,82886668.05553,   0.00120,   0.00313,   0.00186,488194496.00000,   0.00772,282639456.00000,   0.00143,   0.00109,   0.00078, 192.00000,   2.00000
172731326.89151,522196467.80564,82872000.67335,   0.00119,   0.00316,   0.00188,488245120.00000,   0.00774,282660640.00000,   0.00143,   0.00112,   0.00080, 352.00000,   2.00000
171978715.39619,522074952.05394,82857881.11428,   0.00119,   0.00318,   0.00189,488265888.00000,   0.00776,282681824.00000,   0.00142,   0.00114,   0.00081, 160.00000,   2.00000
171266212.24391,521955922.34088,82851973.00070,   0.00118,   0.00321,   0.00190,488298656.00000,   0.00778,282703040.00000,   0.00142,   0.00117,   0.00082, 128.00000,   2.00000
170538569.30561,521839812.36122,82833861.87333,   0.00117,   0.00323,   0.00191,488335712.00000,   0.00781,282724352.00000,   0.00141,   0.00119,   0.00084, 256.00000,   2.00000
169844788.76061,521727319.21053,82820009.10053,   0.00116,   0.00326,   0.00193,488335776.00000,   0.00783,282745568.00000,   0.00141,   0.00122,   0.00085, 352.00000,   2.00000
169128170.04653,521612984.88710,82798865.62964,   0.00115,   0.00328,   0.00194,488345344.00000,   0.00785,282766752.00000,   0.00140,   0.00124,   0.00086, 384.00000,   2.00000
168458768.68039,521506000.90315,82781101.02626,   0.00115,   0.00331,   0.00195,488406016.00000,   0.00787,282788128.00000,   0.00140,   0.00127,   0.00088, 256.00000,   2.00000
167797422.36211,521399586.21212,82763828.73396,   0.00114,   0.00333,   0.00197,488427392.00000,   0.00789,282809472.00000,   0.00139,   0.00129,   0.00089, 384.00000,   2.00000
167177752.64469,521306494.15119,82736895.47635,   0.00113,   0.00336,   0.00198,488450720.00000,   0.00791,282830816.00000,   0.00139,   0.00131,   0.00090, 224.00000,   2.00000
166531799.89676,521201158.96920,82720637.13371,   0.00112,   0.00339,   0.00199,488470208.00000,   0.00794,282852192.00000,   0.00138,   0.00134,   0.00092, 224.00000,   2.00000
165927359.42666,521109388.23116,82694722.93483,   0.00111,   0.00341,   0.00201,488493440.00000,   0.00796,282873568.00000,   0.00138,   0.00136,   0.00093, 256.00000,   2.00000
165337832.27505,521022707.26063,82664442.68958,   0.00111,   0.00344,   0.00202,488543040.00000,   0.00798,282895040.00000,   0.00137,   0.00139,   0.00094, 224.00000,   2.00000
164747691.73986,520932015.61512,82639583.68536,   0.00110,   0.00346,   0.00203,488536704.00000,   0.00800,282916416.00000,   0.00136,   0.00141,   0.00096, 192.00000,   2.00000
164172363.87285,520846522.39753,82610352.65865,   0.00109,   0.00349,   0.00204,488586336.00000,   0.00802,282937920.00000,   0.00136,   0.00144,   0.00097, 320.00000,   2.00000
163636555.76372,520769478.66969,82580519.27990,   0.00108,   0.00351,   0.00206,488614720.00000,   0.00805,282959456.00000,   0.00135,   0.00146,   0.00098, 256.00000,   2.00000
163074553.32521,520685042.12203,82552315.65589,   0.00108,   0.00354,   0.00207,488630048.00000,   0.00807,282980960.00000,   0.00135,   0.00149,   0.00100, 224.00000,   2.00000
162551927.06964,520609167.37173,82523506.96739,   0.00107,   0.00356,   0.00208,488658304.00000,   0.00809,283002528.00000,   0.00134,   0.00151,   0.00101, 224.00000,   2.00000
162044691.29869,520543782.80463,82481403.14779,   0.00106,   0.00359,   0.00210,488703232.00000,   0.00811,283024160.00000,   0.00134,   0.00154,   0.00102, 384.00000,   2.00000
161575027.55906,520481619.57334,82447744.56513,   0.00105,   0.00361,   0.00211,488736704.00000,   0.00813,283045920.00000,   0.00133,   0.00156,   0.00104, 288.00000,   2.00000
161071619.83906,520412627.67590,82411609.01010,   0.00104,   0.00364,   0.00212,488719712.00000,   0.00816,283067520.00000,   0.00133,   0.00159,   0.00105, 224.00000,   2.00000
160614933.62761,520356978.21087,82370100.95559,   0.00104,   0.00367,   0.00214,488775968.00000,   0.00818,283089312.00000,   0.00132,   0.00161,   0.00106, 320.00000,   2.00000
160163731.62806,520301696.87841,82329152.07901,   0.00103,   0.00369,   0.00215,488798432.00000,   0.00820,283111136.00000,   0.00131,   0.00164,   0.00108, 256.00000,   2.00000
159758777.73099,520259884.89748,82282905.57251,   0.00102,   0.00372,   0.00216,488854848.00000,   0.00822,283133152.00000,   0.00131,   0.00166,   0.00109, 416.00000,   2.00000
159317968.15131,520205752.31690,82243176.18120,   0.00101,   0.00374,   0.00217,488843392.00000,   0.00825,283155104.00000,   0.00130,   0.00169,   0.00110, 384.00000,   2.00000
158924444.17249,520170083.70567,82189139.61230,   0.00101,   0.00377,   0.00219,488895232.00000,   0.00827,283177216.00000,   0.00130,   0.00171,   0.00112, 192.00000,   2.00000
158534577.89311,520129721.98325,82144751.81613,   0.00100,   0.00379,   0.00220,488922656.00000,   0.00829,283199424.00000,   0.00129,   0.00174,   0.00113, 256.00000,   2.00000
158150634.90971,520095142.78476,82092011.04831,   0.00099,   0.00382,   0.00221,488940768.00000,   0.00831,283221664.00000,   0.00129,   0.00176,   0.00115, 288.00000,   2.00000
157802932.34147,520063808.35466,82047801.46660,   0.00098,   0.00385,   0.00223,488974752.00000,   0.00834,283243968.00000,   0.00128,   0.00179,   0.00116, 128.00000,   2.00000
157468830.63121,520042941.64474,81990432.50305,   0.00098,   0.00387,   0.00224,489020384.00000,   0.00836,283266400.00000,   0.00127,   0.00181,   0.00117, 192.00000,   2.00000
157130620.41745,520017681.58046,81938539.76784,   0.00097,   0.00390,   0.00225,489015840.00000,   0.00838,283288704.00000,   0.00127,   0.00184,   0.00119, 224.00000,   2.00000
156804728.58095,519997361.97528,81882470.93791,   0.00096,   0.00392,   0.00226,489066720.00000,   0.00840,283311072.00000,   0.00126,   0.00186,   0.00120, 224.00000,   2.00000
156515591.94830,519985481.94116,81825996.52732,   0.00096,   0.00395,   0.00228,489095936.00000,   0.00843,283333312.00000,   0.00126,   0.00189,   0.00121, 224.00000,   2.00000
156206594.58235,519975425.57517,81757465.75544,   0.00095,   0.00397,   0.00229,489136000.00000,   0.00845,283355456.00000,   0.00125,   0.00191,   0.00123, 224.00000,   2.00000
155957537.47374,519971948.32616,81701306.22561,   0.00094,   0.00400,   0.00230,489148192.00000,   0.00847,283377280.00000,   0.00125,   0.00194,   0.00124, 256.00000,   2.00000
