# sigma_xx, sigma_yy, sigma_xy, epsilon_xx, epsilon_yy, epsilon_xy, vonMises, epsPlastic, hardening, epsilonP__xx, epsilonP__yy, epsilonP__xy, yieldValue, iteration
   0.00000,   0.00000,   0.00000,   0.00000,   0.00000,   0.00000,   0.00000,   0.00000,274640135.82653,   0.00000,   0.00000,   0.00000,-474640135.82653,   0.00000
   0.00000,   0.00000,   0.00000,   0.00000,   0.00000,   0.00000,   0.00000,   0.00000,274640135.82653,   0.00000,   0.00000,   0.00000,-474640135.82653,   0.00000
-1074828.66779,3184305.49242,1014557.90137,  -0.00001,   0.00002,   0.00001,4219671.09739,   0.00000,274640135.82653,   0.00000,   0.00000,   0.00000,-470420464.72914,   0.00000
-2149657.33558,6368610.98485,2039160.93048,  -0.00002,   0.00003,   0.00003,8446602.61638,   0.00000,274640135.82653,   0.00000,   0.00000,   0.00000,-466193533.21015,   0.00000
-3254621.38658,9482600.58312,3053718.83185,  -0.00003,   0.00005,   0.00004,12623396.72827,   0.00000,274640135.82653,   0.00000,   0.00000,   0.00000,-462016739.09826,   0.00000
-4424878.76786,12511206.59563,4068276.73322,  -0.00004,   0.00007,   0.00005,16766724.24025,   0.00000,274640135.82653,   0.00000,   0.00000,   0.00000,-457873411.58628,   0.00000
-5595136.14915,15539812.60814,5092879.76233,  -0.00006,   0.00008,   0.00007,20917718.91290,   0.00000,274640135.82653,   0.00000,   0.00000,   0.00000,-453722416.91363,   0.00000
-6795528.91364,18498102.72650,6107437.66370,  -0.00007,   0.00010,   0.00008,25019308.42509,   0.00000,274640135.82653,   0.00000,   0.00000,   0.00000,-449620827.40144,   0.00000
-8046147.31682,21406167.20617,7132040.69281,  -0.00008,   0.00011,   0.00009,29116999.66109,   0.00000,274640135.82653,   0.00000,   0.00000,   0.00000,-445523136.16544,   0.00000
-9276675.46452,24294141.43038,8146598.59418,  -0.00009,   0.00013,   0.00011,33177282.69790,   0.00000,274640135.82653,   0.00000,   0.00000,   0.00000,-441462853.12863,   0.00000
-10572496.94251,27096732.06882,9161156.49556,  -0.00010,   0.00014,   0.00012,37205793.39789,   0.00000,274640135.82653,   0.00000,   0.00000,   0.00000,-437434342.42864,   0.00000
-11883386.11211,29864164.76019,10185759.52466,  -0.00011,   0.00016,   0.00013,41221592.57424,   0.00000,274640135.82653,   0.00000,   0.00000,   0.00000,-433418543.25229,   0.00000
-13244500.92038,32581371.81287,11200317.42604,  -0.00012,   0.00017,   0.00015,45219773.70723,   0.00000,274640135.82653,   0.00000,   0.00000,   0.00000,-429420362.11930,   0.00000
-14620683.42027,35263420.91848,12214875.32741,  -0.00014,   0.00019,   0.00016,49198151.28545,   0.00000,274640135.82653,   0.00000,   0.00000,   0.00000,-425441984.54108,   0.00000
-16027001.30336,37875154.12993,13229433.22878,  -0.00015,   0.00020,   0.00017,53136342.80239,   0.00000,274640135.82653,   0.00000,   0.00000,   0.00000,-421503793.02414,   0.00000
-17433319.18645,40486887.34138,14254036.25789,  -0.00016,   0.00022,   0.00019,57082940.91287,   0.00000,274640135.82653,   0.00000,   0.00000,   0.00000,-417557194.91366,   0.00000
-18904930.39982,43013236.96707,15268594.15926,  -0.00017,   0.00023,   0.00020,60992516.76839,   0.00000,274640135.82653,   0.00000,   0.00000,   0.00000,-413647619.05814,   0.00000
-20371519.04933,45484338.39022,16283152.06063,  -0.00018,   0.00025,   0.00021,64852386.35721,   0.00000,274640135.82653,   0.00000,   0.00000,   0.00000,-409787749.46932,   0.00000
-21873265.64591,47940372.12176,17297709.96200,  -0.00019,   0.00026,   0.00022,68723822.89688,   0.00000,274640135.82653,   0.00000,   0.00000,   0.00000,-405916312.92965,   0.00000
-23440305.57279,50311022.26754,18312267.86338,  -0.00020,   0.00027,   0.00024,72567004.10986,   0.00000,274640135.82653,   0.00000,   0.00000,   0.00000,-402073131.71667,   0.00000
-24987255.24418,52661582.15784,19326825.76475,  -0.00022,   0.00029,   0.00025,76380967.11465,   0.00000,274640135.82653,   0.00000,   0.00000,   0.00000,-398259168.71188,   0.00000
-26584430.55427,54961916.40947,20341383.66612,  -0.00023,   0.00030,   0.00026,80187225.42631,   0.00000,274640135.82653,   0.00000,   0.00000,   0.00000,-394452910.40022,   0.00000
-28196673.55595,57227092.71402,21355941.56749,  -0.00024,   0.00032,   0.00028,83975204.15358,   0.00000,274640135.82653,   0.00000,   0.00000,   0.00000,-390664931.67295,   0.00000
-29839051.94084,59421953.12441,22360454.34113,  -0.00025,   0.00033,   0.00029,87717740.70608,   0.00000,274640135.82653,   0.00000,   0.00000,   0.00000,-386922395.12045,   0.00000
-31531655.96442,61566587.89612,23375012.24250,  -0.00026,   0.00034,   0.00030,91461249.35449,   0.00000,274640135.82653,   0.00000,   0.00000,   0.00000,-383178886.47204,   0.00000
-33239327.67960,63676064.72076,24379525.01613,  -0.00028,   0.00035,   0.00032,95179448.53566,   0.00000,274640135.82653,   0.00000,   0.00000,   0.00000,-379460687.29087,   0.00000
-34977134.77799,65715225.65124,25394082.91751,  -0.00029,   0.00037,   0.00033,98868597.06653,   0.00000,274640135.82653,   0.00000,   0.00000,   0.00000,-375771538.76000,   0.00000
-36714941.87638,67754386.58172,26398595.69114,  -0.00030,   0.00038,   0.00034,102551937.02052,   0.00000,274640135.82653,   0.00000,   0.00000,   0.00000,-372088198.80600,   0.00000
-38482884.35798,69723231.61804,27403108.46478,  -0.00031,   0.00039,   0.00036,106198886.69752,   0.00000,274640135.82653,   0.00000,   0.00000,   0.00000,-368441249.12901,   0.00000
-40301052.47826,71641851.01569,28407621.23841,  -0.00032,   0.00040,   0.00037,109840568.45496,   0.00000,274640135.82653,   0.00000,   0.00000,   0.00000,-364799567.37157,   0.00000
-42134288.29014,73525312.46625,29412134.01205,  -0.00034,   0.00042,   0.00038,113465534.04661,   0.00000,274640135.82653,   0.00000,   0.00000,   0.00000,-361174601.77992,   0.00000
-43997659.48524,75338458.02267,30416646.78568,  -0.00035,   0.00043,   0.00040,117055159.32539,   0.00000,274640135.82653,   0.00000,   0.00000,   0.00000,-357584976.50114,   0.00000
-45911256.31901,77101377.94040,31421159.55932,  -0.00036,   0.00044,   0.00041,120640602.06425,   0.00000,274640135.82653,   0.00000,   0.00000,   0.00000,-353999533.76228,   0.00000
-47789695.20571,78879365.54973,32425672.33296,  -0.00037,   0.00045,   0.00042,124216354.77568,   0.00000,274640135.82653,   0.00000,   0.00000,   0.00000,-350423781.05085,   0.00000
-49748495.11430,80536811.62623,33420139.97886,  -0.00038,   0.00046,   0.00043,127743466.53111,   0.00000,274640135.82653,   0.00000,   0.00000,   0.00000,-346896669.29542,   0.00000
-51707295.02289,82194257.70273,34414607.62475,  -0.00040,   0.00047,   0.00045,131273297.90939,   0.00000,274640135.82653,   0.00000,   0.00000,   0.00000,-343366837.91714,   0.00000
-53731388.26177,83766320.19347,35419120.39839,  -0.00041,   0.00049,   0.00046,134789767.51316,   0.00000,274640135.82653,   0.00000,   0.00000,   0.00000,-339850368.31336,   0.00000
-55720323.55356,85353450.37581,36413588.04429,  -0.00042,   0.00050,   0.00047,138288596.78983,   0.00000,274640135.82653,   0.00000,   0.00000,   0.00000,-336351539.03670,   0.00000
-57774552.17565,86855196.97240,37408055.69019,  -0.00043,   0.00051,   0.00049,141766823.06160,   0.00000,274640135.82653,   0.00000,   0.00000,   0.00000,-332873312.76493,   0.00000
-59843848.48934,88321785.62191,38392478.20835,  -0.00044,   0.00052,   0.00050,145222197.76418,   0.00000,274640135.82653,   0.00000,   0.00000,   0.00000,-329417938.06235,   0.00000
-61943280.18624,89718058.37726,39386945.85425,  -0.00046,   0.00053,   0.00051,148653036.62630,   0.00000,274640135.82653,   0.00000,   0.00000,   0.00000,-325987099.20023,   0.00000
-64077869.83021,91099263.44101,40371368.37241,  -0.00047,   0.00054,   0.00052,152092202.62280,   0.00000,274640135.82653,   0.00000,   0.00000,   0.00000,-322547933.20372,   0.00000
-66207436.91032,92425220.30221,41355790.89058,  -0.00048,   0.00055,   0.00054,155486293.00611,   0.00000,274640135.82653,   0.00000,   0.00000,   0.00000,-319153842.82042,   0.00000
-68387229.62911,93700951.52472,42340213.40874,  -0.00049,   0.00056,   0.00055,158879548.70235,   0.00000,274640135.82653,   0.00000,   0.00000,   0.00000,-315760587.12418,   0.00000
-70582090.03950,94941524.80016,43324635.92690,  -0.00051,   0.00057,   0.00056,162258953.68901,   0.00000,274640135.82653,   0.00000,   0.00000,   0.00000,-312381182.13752,   0.00000
-72827176.08858,96131872.43692,44309058.44506,  -0.00052,   0.00058,   0.00058,165638236.09849,   0.00000,274640135.82653,   0.00000,   0.00000,   0.00000,-309001899.72804,   0.00000
-75067239.57379,97266971.87113,45283435.83549,  -0.00053,   0.00059,   0.00059,168965339.75190,   0.00000,274640135.82653,   0.00000,   0.00000,   0.00000,-305674796.07463,   0.00000
-77342461.00607,98387003.61373,46267858.35365,  -0.00054,   0.00060,   0.00060,172318008.04027,   0.00000,274640135.82653,   0.00000,   0.00000,   0.00000,-302322127.78626,   0.00000
-79647817.82156,99436719.46218,47242235.74408,  -0.00056,   0.00061,   0.00061,175632685.71634,   0.00000,274640135.82653,   0.00000,   0.00000,   0.00000,-299007450.11019,   0.00000
-81968242.32866,100451277.36356,48216613.13451,  -0.00057,   0.00062,   0.00063,178934602.20446,   0.00000,274640135.82653,   0.00000,   0.00000,   0.00000,-295705533.62207,   0.00000
-84303734.52736,101430677.31785,49180945.39720,  -0.00058,   0.00063,   0.00064,182215759.52820,   0.00000,274640135.82653,   0.00000,   0.00000,   0.00000,-292424376.29833,   0.00000
-86704520.05635,102324693.68639,50155322.78762,  -0.00059,   0.00063,   0.00065,185490429.41348,   0.00000,274640135.82653,   0.00000,   0.00000,   0.00000,-289149706.41305,   0.00000
-89070147.63826,103233777.74653,51119655.05031,  -0.00061,   0.00064,   0.00066,188746945.11607,   0.00000,274640135.82653,   0.00000,   0.00000,   0.00000,-285893190.71046,   0.00000
-91501068.55046,104057478.22091,52083987.31300,  -0.00062,   0.00065,   0.00068,191989582.97448,   0.00000,274640135.82653,   0.00000,   0.00000,   0.00000,-282650552.85205,   0.00000
-93931989.46266,104881178.69529,53048319.57569,  -0.00063,   0.00066,   0.00069,195236653.04030,   0.00000,274640135.82653,   0.00000,   0.00000,   0.00000,-279403482.78623,   0.00000
-96393045.75807,105634563.27552,54002606.71065,  -0.00064,   0.00067,   0.00070,198447882.61660,   0.00000,274640135.82653,   0.00000,   0.00000,   0.00000,-276192253.20993,   0.00000
-98904327.69216,106337722.21706,54956893.84560,  -0.00066,   0.00068,   0.00071,201662635.78118,   0.00000,274640135.82653,   0.00000,   0.00000,   0.00000,-272977500.04535,   0.00000
-101395519.37077,107020790.90313,55921226.10829,  -0.00067,   0.00068,   0.00073,204859660.01011,   0.00000,274640135.82653,   0.00000,   0.00000,   0.00000,-269780475.81642,   0.00000
-103936936.68807,107653633.95052,56865468.11551,  -0.00068,   0.00069,   0.00074,208044286.24453,   0.00000,274640135.82653,   0.00000,   0.00000,   0.00000,-266595849.58200,   0.00000
-106508489.38858,108216161.10376,57819755.25046,  -0.00070,   0.00070,   0.00075,211211050.78602,   0.00000,274640135.82653,   0.00000,   0.00000,   0.00000,-263429085.04051,   0.00000
-109080042.08909,108778688.25699,58763997.25768,  -0.00071,   0.00071,   0.00076,214374589.48215,   0.00000,274640135.82653,   0.00000,   0.00000,   0.00000,-260265546.34438,   0.00000
-111716888.11988,109255831.82447,59708239.26490,  -0.00072,   0.00071,   0.00078,217528027.91265,   0.00000,274640135.82653,   0.00000,   0.00000,   0.00000,-257112107.91388,   0.00000
-114318576.20359,109748043.08355,60652481.27211,  -0.00073,   0.00072,   0.00079,220671204.07004,   0.00000,274640135.82653,   0.00000,   0.00000,   0.00000,-253968931.75649,   0.00000
-116985557.61760,110154870.75688,61596723.27933,  -0.00075,   0.00073,   0.00080,223805080.77031,   0.00000,274640135.82653,   0.00000,   0.00000,   0.00000,-250835055.05622,   0.00000
-119632448.77613,110541608.17472,62530920.15881,  -0.00076,   0.00074,   0.00081,226905445.38055,   0.00000,274640135.82653,   0.00000,   0.00000,   0.00000,-247734690.44598,   0.00000
-122329565.57334,110878119.95389,63465117.03829,  -0.00077,   0.00074,   0.00083,230012207.47054,   0.00000,274640135.82653,   0.00000,   0.00000,   0.00000,-244627928.35598,   0.00000
-125041750.06215,111179473.78598,64389268.79004,  -0.00079,   0.00075,   0.00084,233101532.44685,   0.00000,274640135.82653,   0.00000,   0.00000,   0.00000,-241538603.37968,   0.00000
-127769002.24257,111445669.67100,65323465.66952,  -0.00080,   0.00076,   0.00085,236190225.75422,   0.00000,274640135.82653,   0.00000,   0.00000,   0.00000,-238449910.07231,   0.00000
-130546480.06168,111661639.91733,66247617.42127,  -0.00081,   0.00076,   0.00086,239278038.64255,   0.00000,274640135.82653,   0.00000,   0.00000,   0.00000,-235362097.18398,   0.00000
-133318935.31691,111822361.96111,67171769.17301,  -0.00082,   0.00077,   0.00087,242326963.23639,   0.00000,274640135.82653,   0.00000,   0.00000,   0.00000,-232313172.59014,   0.00000
-136126548.51922,111968016.31329,68085875.79702,  -0.00084,   0.00077,   0.00089,245389797.96092,   0.00000,274640135.82653,   0.00000,   0.00000,   0.00000,-229250337.86561,   0.00000
-138949229.41314,112078512.71839,69010027.54876,  -0.00085,   0.00078,   0.00090,248452925.22026,   0.00000,274640135.82653,   0.00000,   0.00000,   0.00000,-226187210.60627,   0.00000
-141802045.69026,112118693.22933,69924134.17277,  -0.00086,   0.00079,   0.00091,251486053.71446,   0.00000,274640135.82653,   0.00000,   0.00000,   0.00000,-223154082.11207,   0.00000
-144654861.96739,112158873.74028,70828195.66904,  -0.00088,   0.00079,   0.00092,254516931.37001,   0.00000,274640135.82653,   0.00000,   0.00000,   0.00000,-220123204.45652,   0.00000
-147537813.62772,112128738.35707,71742302.29305,  -0.00089,   0.00080,   0.00093,257535168.72955,   0.00000,274640135.82653,   0.00000,   0.00000,   0.00000,-217104967.09698,   0.00000
-150420765.28806,112098602.97386,72646363.78932,  -0.00090,   0.00080,   0.00094,260551230.24276,   0.00000,274640135.82653,   0.00000,   0.00000,   0.00000,-214088905.58377,   0.00000
-153333852.33160,111998151.69650,73540380.15786,  -0.00092,   0.00081,   0.00096,263538473.18600,   0.00000,274640135.82653,   0.00000,   0.00000,   0.00000,-211101662.64053,   0.00000
-156297165.01382,111847474.78045,74444441.65413,  -0.00093,   0.00081,   0.00097,266544610.35228,   0.00000,274640135.82653,   0.00000,   0.00000,   0.00000,-208095525.47425,   0.00000
-159260477.69605,111696797.86441,75338458.02267,  -0.00094,   0.00082,   0.00098,269548900.13843,   0.00000,274640135.82653,   0.00000,   0.00000,   0.00000,-205091235.68810,   0.00000
-162218767.81441,111490872.74581,76232474.39120,  -0.00096,   0.00082,   0.00099,272516468.84480,   0.00000,274640135.82653,   0.00000,   0.00000,   0.00000,-202123666.98173,   0.00000
-165227283.57144,111234721.98853,77116445.63200,  -0.00097,   0.00083,   0.00100,275486965.43756,   0.00000,274640135.82653,   0.00000,   0.00000,   0.00000,-199153170.38897,   0.00000
-168235799.32848,110978571.23126,78000416.87280,  -0.00098,   0.00083,   0.00101,278464164.99191,   0.00000,274640135.82653,   0.00000,   0.00000,   0.00000,-196175970.83462,   0.00000
-171274450.46873,110652104.57982,78884388.11360,  -0.00100,   0.00084,   0.00103,281423069.59558,   0.00000,274640135.82653,   0.00000,   0.00000,   0.00000,-193217066.23095,   0.00000
-174328169.30058,110290479.98132,79758314.22666,  -0.00101,   0.00084,   0.00104,284368078.58384,   0.00000,274640135.82653,   0.00000,   0.00000,   0.00000,-190272057.24269,   0.00000
-177417046.07951,109913787.69120,80642285.46746,  -0.00102,   0.00085,   0.00105,287346416.57073,   0.00000,274640135.82653,   0.00000,   0.00000,   0.00000,-187293719.25580,   0.00000
-180500900.29457,109481847.19854,81506166.45279,  -0.00103,   0.00085,   0.00106,290272608.71101,   0.00000,274640135.82653,   0.00000,   0.00000,   0.00000,-184367527.11552,   0.00000
-183584754.50963,109049906.70588,82380092.56585,  -0.00105,   0.00085,   0.00107,293214228.07615,   0.00000,274640135.82653,   0.00000,   0.00000,   0.00000,-181425907.75038,   0.00000
-186733902.05498,108532582.62745,83243973.55118,  -0.00106,   0.00086,   0.00108,296149053.21537,   0.00000,274640135.82653,   0.00000,   0.00000,   0.00000,-178491082.61116,   0.00000
-189883049.60033,108015258.54903,84097809.40877,  -0.00107,   0.00086,   0.00109,299082697.49963,   0.00000,274640135.82653,   0.00000,   0.00000,   0.00000,-175557438.32690,   0.00000
-193027174.58181,107442686.26806,84961690.39410,  -0.00109,   0.00087,   0.00110,301990472.73582,   0.00000,274640135.82653,   0.00000,   0.00000,   0.00000,-172649663.09071,   0.00000
-196206457.51037,106855046.29548,85815526.25169,  -0.00110,   0.00087,   0.00112,304915625.42100,   0.00000,274640135.82653,   0.00000,   0.00000,   0.00000,-169724510.40553,   0.00000
-199415875.82213,106197090.42875,86659316.98154,  -0.00111,   0.00087,   0.00113,307817171.38940,   0.00000,274640135.82653,   0.00000,   0.00000,   0.00000,-166822964.43713,   0.00000
-202625294.13390,105539134.56202,87513152.83913,  -0.00113,   0.00088,   0.00114,310734730.42090,   0.00000,274640135.82653,   0.00000,   0.00000,   0.00000,-163905405.40563,   0.00000
-205849780.13727,104846020.74821,88346898.44125,  -0.00114,   0.00088,   0.00115,313631748.64982,   0.00000,274640135.82653,   0.00000,   0.00000,   0.00000,-161008387.17671,   0.00000
-209089333.83224,104117748.98733,89190689.17110,  -0.00115,   0.00088,   0.00116,316533889.27083,   0.00000,274640135.82653,   0.00000,   0.00000,   0.00000,-158106246.55570,   0.00000
-212343955.21882,103354319.27936,90024434.77322,  -0.00117,   0.00088,   0.00117,319424376.25378,   0.00000,274640135.82653,   0.00000,   0.00000,   0.00000,-155215759.57275,   0.00000
-215613644.29700,102555731.62432,90858180.37534,  -0.00118,   0.00089,   0.00118,322311904.15256,   0.00000,274640135.82653,   0.00000,   0.00000,   0.00000,-152328231.67396,   0.00000
-218898401.06679,101721986.02220,91681880.84972,  -0.00119,   0.00089,   0.00119,325188182.98321,   0.00000,274640135.82653,   0.00000,   0.00000,   0.00000,-149451952.84331,   0.00000
-222183157.83658,100888240.42009,92505581.32410,  -0.00121,   0.00089,   0.00120,328072108.31574,   0.00000,274640135.82653,   0.00000,   0.00000,   0.00000,-146568027.51079,   0.00000
-225533207.93666,99969111.23221,93329281.79848,  -0.00122,   0.00089,   0.00121,330962943.47947,   0.00000,274640135.82653,   0.00000,   0.00000,   0.00000,-143677192.34706,   0.00000
-228848100.08965,99065049.73594,94142937.14512,  -0.00123,   0.00090,   0.00122,333833586.16849,   0.00000,274640135.82653,   0.00000,   0.00000,   0.00000,-140806549.65804,   0.00000
-232193127.62586,98090672.34551,94956592.49177,  -0.00125,   0.00090,   0.00123,336692251.01514,   0.00000,274640135.82653,   0.00000,   0.00000,   0.00000,-137947884.81139,   0.00000
-235573313.10914,97101227.26348,95760202.71068,  -0.00126,   0.00090,   0.00124,339570230.24447,   0.00000,274640135.82653,   0.00000,   0.00000,   0.00000,-135069905.58206,   0.00000
-238933408.33695,96091691.92598,96563812.92959,  -0.00127,   0.00090,   0.00126,342426652.35631,   0.00000,274640135.82653,   0.00000,   0.00000,   0.00000,-132213483.47022,   0.00000
-242308571.25637,95046998.64140,97367423.14849,  -0.00129,   0.00090,   0.00127,345281513.21752,   0.00000,274640135.82653,   0.00000,   0.00000,   0.00000,-129358622.60901,   0.00000
-245718892.12286,93987237.66521,98160988.23967,  -0.00130,   0.00091,   0.00128,348155932.79359,   0.00000,274640135.82653,   0.00000,   0.00000,   0.00000,-126484203.03294,   0.00000
-249124190.42549,92872228.48648,98954553.33084,  -0.00131,   0.00091,   0.00129,350999775.90964,   0.00000,274640135.82653,   0.00000,   0.00000,   0.00000,-123640359.91689,   0.00000
-252564646.67519,91742151.61614,99748118.42201,  -0.00133,   0.00091,   0.00130,353872022.95133,   0.00000,274640135.82653,   0.00000,   0.00000,   0.00000,-120768112.87520,   0.00000
-255985012.66942,90591984.49032,100531638.38545,  -0.00134,   0.00091,   0.00131,356714529.57813,   0.00000,274640135.82653,   0.00000,   0.00000,   0.00000,-117925606.24840,   0.00000
-259420446.35525,89406659.41743,101305113.22115,  -0.00135,   0.00091,   0.00132,359547788.37144,   0.00000,274640135.82653,   0.00000,   0.00000,   0.00000,-115092347.45509,   0.00000
-262906105.67977,88171108.70586,102088633.18458,  -0.00137,   0.00091,   0.00133,362409650.41502,   0.00000,274640135.82653,   0.00000,   0.00000,   0.00000,-112230485.41151,   0.00000
-266371674.74881,86915467.73882,102852062.89254,  -0.00138,   0.00091,   0.00134,365233660.64434,   0.00000,274640135.82653,   0.00000,   0.00000,   0.00000,-109406475.18219,   0.00000
-269872401.76493,85644759.08017,103625537.72824,  -0.00139,   0.00092,   0.00135,368095165.72786,   0.00000,274640135.82653,   0.00000,   0.00000,   0.00000,-106544970.09867,   0.00000
-273353038.52558,84353960.16605,104388967.43621,  -0.00141,   0.00092,   0.00136,370927290.93059,   0.00000,274640135.82653,   0.00000,   0.00000,   0.00000,-103712844.89594,   0.00000
-276883900.92491,83012935.61324,105142352.01643,  -0.00142,   0.00092,   0.00137,373772029.54874,   0.00000,274640135.82653,   0.00000,   0.00000,   0.00000,-100868106.27779,   0.00000
-280394673.06876,81651820.80497,105895736.59666,  -0.00144,   0.00092,   0.00138,376596135.42126,   0.00000,274640135.82653,   0.00000,   0.00000,   0.00000,-98044000.40527,   0.00000
-283905445.21262,80290705.99669,106649121.17689,  -0.00145,   0.00092,   0.00139,379428482.15000,   0.00000,274640135.82653,   0.00000,   0.00000,   0.00000,-95211653.67653,   0.00000
-287466442.99516,78879365.54973,107392460.62938,  -0.00146,   0.00092,   0.00140,382274119.70758,   0.00000,274640135.82653,   0.00000,   0.00000,   0.00000,-92366016.11894,   0.00000
-291007350.52222,77447934.84730,108135800.08187,  -0.00148,   0.00092,   0.00141,385099250.54646,   0.00000,274640135.82653,   0.00000,   0.00000,   0.00000,-89540885.28007,   0.00000
-294563325.74089,75981346.19779,108879139.53436,  -0.00149,   0.00092,   0.00142,387925298.15556,   0.00000,274640135.82653,   0.00000,   0.00000,   0.00000,-86714837.67097,   0.00000
-298119300.95956,74514757.54829,109612433.85911,  -0.00150,   0.00092,   0.00142,390751213.81528,   0.00000,274640135.82653,   0.00000,   0.00000,   0.00000,-83888922.01125,   0.00000
-301725501.81691,72997943.26010,110335683.05613,  -0.00152,   0.00092,   0.00143,393591422.79147,   0.00000,274640135.82653,   0.00000,   0.00000,   0.00000,-81048713.03506,   0.00000
-305311612.41879,71461038.71643,111058932.25315,  -0.00153,   0.00092,   0.00144,396411408.75038,   0.00000,274640135.82653,   0.00000,   0.00000,   0.00000,-78228727.07615,   0.00000
-308912790.71227,69888976.22569,111782181.45016,  -0.00154,   0.00092,   0.00145,399232949.81589,   0.00000,274640135.82653,   0.00000,   0.00000,   0.00000,-75407186.01064,   0.00000
-312513969.00576,68316913.73495,112495385.51945,  -0.00156,   0.00092,   0.00146,402054482.22479,   0.00000,274640135.82653,   0.00000,   0.00000,   0.00000,-72585653.60174,   0.00000
-316130214.99085,66709693.29714,113208589.58873,  -0.00157,   0.00092,   0.00147,404877759.28539,   0.00000,274640135.82653,   0.00000,   0.00000,   0.00000,-69762376.54114,   0.00000
-319746460.97593,65102472.85932,113911748.53027,  -0.00158,   0.00092,   0.00148,407700963.86476,   0.00000,274640135.82653,   0.00000,   0.00000,   0.00000,-66939171.96177,   0.00000
-323357684.39715,63440004.21895,114614907.47182,  -0.00159,   0.00092,   0.00149,410497710.22589,   0.00000,274640135.82653,   0.00000,   0.00000,   0.00000,-64142425.60064,   0.00000
-327004065.76545,61762467.88698,115318066.41336,  -0.00161,   0.00092,   0.00150,413325064.44846,   0.00000,274640135.82653,   0.00000,   0.00000,   0.00000,-61315071.37807,   0.00000
-330650447.13375,60084931.55501,116011180.22717,  -0.00162,   0.00092,   0.00151,416152386.13696,   0.00000,274640135.82653,   0.00000,   0.00000,   0.00000,-58487749.68957,   0.00000
-334276738.24657,58387304.96757,116704294.04098,  -0.00163,   0.00092,   0.00152,418959675.52560,   0.00000,274640135.82653,   0.00000,   0.00000,   0.00000,-55680460.30093,   0.00000
-337953254.99808,56639452.74144,117387362.72705,  -0.00165,   0.00092,   0.00153,421783470.95395,   0.00000,274640135.82653,   0.00000,   0.00000,   0.00000,-52856664.87258,   0.00000
-341609681.49411,54871510.25984,118060386.28539,  -0.00166,   0.00092,   0.00153,424579157.16770,   0.00000,274640135.82653,   0.00000,   0.00000,   0.00000,-50060978.65883,   0.00000
-345301265.93722,53088500.08664,118743454.97146,  -0.00167,   0.00091,   0.00154,427414206.22342,   0.00000,274640135.82653,   0.00000,   0.00000,   0.00000,-47225929.60311,   0.00000
-348957692.43326,51320557.60504,119416478.52980,  -0.00169,   0.00091,   0.00155,430226521.88219,   0.00000,274640135.82653,   0.00000,   0.00000,   0.00000,-44413613.94434,   0.00000
-352644254.31250,49482299.22929,120079456.96039,  -0.00170,   0.00091,   0.00156,433028110.52139,   0.00000,274640135.82653,   0.00000,   0.00000,   0.00000,-41612025.30514,   0.00000
-356330816.19174,47644040.85353,120742435.39099,  -0.00171,   0.00091,   0.00157,435838103.28284,   0.00000,274640135.82653,   0.00000,   0.00000,   0.00000,-38802032.54369,   0.00000
-360017378.07098,45805782.47778,121395368.69386,  -0.00173,   0.00091,   0.00158,438647998.45731,   0.00000,274640135.82653,   0.00000,   0.00000,   0.00000,-35992137.36922,   0.00000
-363683849.69475,43947433.84656,122048301.99672,  -0.00174,   0.00091,   0.00159,441438167.19543,   0.00000,274640135.82653,   0.00000,   0.00000,   0.00000,-33201968.63110,   0.00000
-367400546.95721,42038859.57665,122701235.29958,  -0.00175,   0.00091,   0.00160,444254777.18648,   0.00000,274640135.82653,   0.00000,   0.00000,   0.00000,-30385358.64005,   0.00000
-371117244.21966,40130285.30674,123344123.47471,  -0.00177,   0.00091,   0.00160,447071367.94478,   0.00000,274640135.82653,   0.00000,   0.00000,   0.00000,-27568767.88175,   0.00000
-374813851.22664,38201620.78136,123987011.64984,  -0.00178,   0.00090,   0.00161,449868448.19724,   0.00000,274640135.82653,   0.00000,   0.00000,   0.00000,-24771687.62928,   0.00000
-378510458.23361,36272956.25598,124619854.69723,  -0.00179,   0.00090,   0.00162,452665342.38440,   0.00000,274640135.82653,   0.00000,   0.00000,   0.00000,-21974793.44213,   0.00000
-382222132.93220,34309133.78352,125242652.61688,  -0.00181,   0.00090,   0.00163,455457738.94133,   0.00000,274640135.82653,   0.00000,   0.00000,   0.00000,-19182396.88520,   0.00000
-385948875.32239,32310153.36399,125875495.66427,  -0.00182,   0.00090,   0.00164,458262445.49551,   0.00000,274640135.82653,   0.00000,   0.00000,   0.00000,-16377690.33102,   0.00000
-389675617.71257,30311172.94445,126498293.58393,  -0.00183,   0.00090,   0.00164,461067060.33353,   0.00000,274640135.82653,   0.00000,   0.00000,   0.00000,-13573075.49300,   0.00000
-393402360.10276,28312192.52492,127111046.37584,  -0.00185,   0.00090,   0.00165,463871463.73889,   0.00000,274640135.82653,   0.00000,   0.00000,   0.00000,-10768672.08764,   0.00000
-397109012.23748,26293121.84991,127723799.16776,  -0.00186,   0.00089,   0.00166,466656445.49801,   0.00000,274640135.82653,   0.00000,   0.00000,   0.00000,-7983690.32852,   0.00000
-400865890.01087,24223825.53622,128326506.83194,  -0.00187,   0.00089,   0.00167,469461220.92025,   0.00000,274640135.82653,   0.00000,   0.00000,   0.00000,-5178914.90628,   0.00000
-404587609.83719,22169596.91414,128929214.49612,  -0.00188,   0.00089,   0.00168,472250353.45610,   0.00000,274640135.82653,   0.00000,   0.00000,   0.00000,-2389782.37042,   0.00000
-407768127.53717,20414088.49404,129444278.09126,  -0.00190,   0.00089,   0.00168,474640136.18373,   0.00000,274640135.82653,   0.00000,   0.00000,   0.00000,   0.35720,   0.00000
-407979352.85047,20069320.31708,129418233.07141,  -0.00190,   0.00089,   0.00168,474640136.18373,   0.00000,274642006.93111,  -0.00000,   0.00000,   0.00000,   0.73295,   1.00000
-409445005.22812,17675493.50760,129231617.22458,  -0.00191,   0.00089,   0.00169,477435426.12009,   0.00001,274654833.09460,  -0.00001,   0.00001,   0.00001,   0.00000,   2.00000
-410919693.62972,15259229.19488,129036439.29282,  -0.00192,   0.00088,   0.00170,477445585.72721,   0.00003,274667635.79399,  -0.00002,   0.00001,   0.00002,  -0.00000,   2.00000
-412363689.62357,12871868.03783,128846230.12720,  -0.00194,   0.00088,   0.00171,477443104.55172,   0.00004,274680357.24807,  -0.00003,   0.00002,   0.00003,   0.00000,   2.00000
-413792735.82265,10495876.95908,128654364.07169,  -0.00195,   0.00088,   0.00171,477464362.06179,   0.00005,274693106.62634,  -0.00005,   0.00002,   0.00004,   0.00000,   2.00000
-415245913.79522,8080107.12460,128447194.11385,  -0.00196,   0.00088,   0.00172,477498914.98678,   0.00006,274705944.29442,  -0.00006,   0.00003,   0.00005,   0.00000,   2.00000
-416668739.12412,5693171.08713,128245112.79112,  -0.00197,   0.00087,   0.00173,477496236.54287,   0.00007,274718699.48763,  -0.00007,   0.00004,   0.00006,   0.00000,   2.00000
-418085390.68300,3300718.18979,128041084.59603,  -0.00199,   0.00087,   0.00174,477482623.97315,   0.00008,274731322.67697,  -0.00008,   0.00004,   0.00007,   0.00000,   2.00000
-419501828.81275,902931.59535,127828745.89893,  -0.00200,   0.00087,   0.00174,477528209.07335,   0.00009,274744084.69461,  -0.00009,   0.00005,   0.00008,   0.00000,   2.00000
-420895254.76543,-1465686.80318,127613851.71934,  -0.00201,   0.00087,   0.00175,477516986.82681,   0.00011,274756725.65364,  -0.00010,   0.00005,   0.00009,   0.00000,   2.00000
-422290550.06658,-3857543.82411,127398041.31735,  -0.00203,   0.00086,   0.00176,477535990.92361,   0.00012,274769383.81808,  -0.00011,   0.00006,   0.00010,  -0.00000,   2.00000
-423687409.50410,-6272461.34513,127181239.30229,  -0.00204,   0.00086,   0.00177,477555297.84005,   0.00013,274782060.25132,  -0.00012,   0.00006,   0.00011,  -0.00000,   2.00000
-425059377.64722,-8640039.76839,126954645.52119,  -0.00205,   0.00086,   0.00177,477570361.70822,   0.00014,274794735.59052,  -0.00013,   0.00007,   0.00012,  -0.00000,   2.00000
-426439633.68018,-11030232.35152,126719324.17309,  -0.00206,   0.00085,   0.00178,477581733.83546,   0.00015,274807392.85765,  -0.00014,   0.00007,   0.00013,  -0.00000,   2.00000
-427807067.62515,-13427076.19563,126489810.47016,  -0.00208,   0.00085,   0.00179,477576631.13772,   0.00016,274819957.29908,  -0.00016,   0.00008,   0.00014,  -0.00000,   2.00000
-429159487.02190,-15811923.99626,126258866.27745,  -0.00209,   0.00085,   0.00179,477597761.38636,   0.00018,274832548.36974,  -0.00017,   0.00008,   0.00015,   0.00000,   2.00000
-430503795.39442,-18184403.28670,126018730.14854,  -0.00210,   0.00085,   0.00180,477610821.61702,   0.00019,274845129.26294,  -0.00018,   0.00009,   0.00016,  -0.00000,   2.00000
-431826442.78046,-20528614.07902,125776289.88043,  -0.00211,   0.00084,   0.00181,477598811.33511,   0.00020,274857586.62544,  -0.00019,   0.00009,   0.00017,  -0.00000,   2.00000
-433157041.52147,-22912032.33710,125533852.06976,  -0.00213,   0.00084,   0.00181,477651537.73742,   0.00021,274870213.58418,  -0.00020,   0.00010,   0.00018,  -0.00000,   2.00000
-434488672.94511,-25301954.26492,125281514.38734,  -0.00214,   0.00084,   0.00182,477630742.61269,   0.00022,274882676.89746,  -0.00021,   0.00010,   0.00019,   0.00000,   2.00000
-435769647.05241,-27629296.12489,125042384.05124,  -0.00215,   0.00083,   0.00183,477635188.66343,   0.00023,274895091.68189,  -0.00022,   0.00011,   0.00020,   0.00000,   2.00000
-437078636.66307,-29994876.59838,124779662.41439,  -0.00216,   0.00083,   0.00183,477664480.91771,   0.00024,274907569.88666,  -0.00023,   0.00011,   0.00021,   0.00000,   2.00000
-438352948.62769,-32332957.95340,124530479.68274,  -0.00217,   0.00083,   0.00184,477667915.45201,   0.00026,274919994.72955,  -0.00024,   0.00012,   0.00022,  -0.00000,   2.00000
-439634953.19354,-34693811.81931,124272349.20941,  -0.00219,   0.00082,   0.00185,477680258.99949,   0.00027,274932406.39783,  -0.00025,   0.00012,   0.00023,   0.00000,   2.00000
-440909152.94589,-37042333.00945,124005185.28450,  -0.00220,   0.00082,   0.00185,477693107.04507,   0.00028,274944807.15999,  -0.00027,   0.00013,   0.00024,   0.00000,   2.00000
-442168743.03198,-39378582.05672,123736925.66665,  -0.00221,   0.00082,   0.00186,477713749.55908,   0.00029,274957232.00009,  -0.00028,   0.00013,   0.00025,   0.00000,   2.00000
-443401301.86560,-41687588.29526,123474491.18233,  -0.00222,   0.00081,   0.00186,477708760.53099,   0.00030,274969565.87811,  -0.00029,   0.00014,   0.00026,   0.00000,   2.00000
-444641390.70811,-44019480.94402,123203079.31364,  -0.00224,   0.00081,   0.00187,477721407.50172,   0.00031,274981888.14450,  -0.00030,   0.00014,   0.00027,   0.00000,   2.00000
-445873960.21747,-46339147.04973,122922743.90913,  -0.00225,   0.00081,   0.00188,477734046.28980,   0.00032,274994198.75573,  -0.00031,   0.00015,   0.00028,   0.00000,   2.00000
-447080011.17401,-48631909.01492,122648348.23242,  -0.00226,   0.00080,   0.00188,477728675.93585,   0.00033,275006417.33813,  -0.00032,   0.00015,   0.00029,   0.00000,   2.00000
-448286524.61128,-50947495.00634,122372856.24090,  -0.00227,   0.00080,   0.00189,477749322.37382,   0.00035,275018660.42831,  -0.00033,   0.00016,   0.00030,  -0.00000,   2.00000
-449471383.23754,-53215961.86176,122088675.43999,  -0.00228,   0.00080,   0.00189,477761111.32664,   0.00036,275030888.43790,  -0.00034,   0.00016,   0.00031,   0.00000,   2.00000
-450656631.54836,-55507232.10279,121803442.59878,  -0.00230,   0.00079,   0.00190,477781872.46713,   0.00037,275043141.21451,  -0.00035,   0.00017,   0.00032,   0.00000,   2.00000
-451823030.69000,-57772251.32556,121516329.77803,  -0.00231,   0.00079,   0.00191,477768303.77924,   0.00038,275055265.84766,  -0.00036,   0.00017,   0.00033,   0.00000,   2.00000
-452989679.63855,-60060044.09865,121228120.02985,  -0.00232,   0.00078,   0.00191,477789194.58086,   0.00039,275067416.14087,  -0.00038,   0.00017,   0.00034,   0.00000,   2.00000
-454117005.61808,-62286625.17603,120946320.29149,  -0.00233,   0.00078,   0.00192,477781897.24307,   0.00040,275079466.96160,  -0.00039,   0.00018,   0.00035,  -0.00000,   2.00000
-455263066.48376,-64550263.01282,120648534.66766,  -0.00234,   0.00078,   0.00192,477821148.48353,   0.00041,275091625.08934,  -0.00040,   0.00018,   0.00036,   0.00000,   2.00000
-456390984.63427,-66788223.42664,120348975.21257,  -0.00236,   0.00077,   0.00193,477807183.01511,   0.00042,275103654.05500,  -0.00041,   0.00019,   0.00036,   0.00000,   2.00000
-457500869.47687,-69034911.36586,120063215.30303,  -0.00237,   0.00077,   0.00193,477809709.81231,   0.00043,275115627.60232,  -0.00042,   0.00019,   0.00037,   0.00000,   2.00000
-458597722.39022,-71235385.06349,119761178.67050,  -0.00238,   0.00076,   0.00194,477812319.02845,   0.00045,275127546.53101,  -0.00043,   0.00019,   0.00038,   0.00000,   2.00000
-459694743.54563,-73458730.70135,119458064.03794,  -0.00239,   0.00076,   0.00195,477833352.74245,   0.00046,275139492.33869,  -0.00044,   0.00020,   0.00039,   0.00000,   2.00000
-460765233.83944,-75635030.20976,119154848.02850,  -0.00240,   0.00076,   0.00195,477850784.96597,   0.00047,275151449.07174,  -0.00045,   0.00020,   0.00040,   0.00000,   2.00000
-461825154.03351,-77821041.60140,118857483.86915,  -0.00241,   0.00075,   0.00196,477845502.30333,   0.00048,275163316.45499,  -0.00046,   0.00021,   0.00041,   0.00000,   2.00000
-462879074.45677,-79995582.05839,118551523.87164,  -0.00242,   0.00075,   0.00196,477857017.65467,   0.00049,275175168.93443,  -0.00047,   0.00021,   0.00042,   0.00000,   2.00000
-463939885.03866,-82193486.93930,118236417.33734,  -0.00244,   0.00075,   0.00197,477870802.78245,   0.00050,275187016.33956,  -0.00049,   0.00021,   0.00043,   0.00000,   2.00000
-464964459.21015,-84331653.10549,117928371.31421,  -0.00245,   0.00074,   0.00197,477860942.59459,   0.00051,275198755.09735,  -0.00050,   0.00022,   0.00044,   0.00000,   2.00000
-465976524.03779,-86457992.65449,117619894.97849,  -0.00246,   0.00074,   0.00198,477879579.65647,   0.00052,275210510.86862,  -0.00051,   0.00022,   0.00045,   0.00000,   2.00000
-466995585.81372,-88607913.92558,117302264.11842,  -0.00247,   0.00073,   0.00198,477893382.98826,   0.00053,275222262.11559,  -0.00052,   0.00023,   0.00046,   0.00000,   2.00000
-467991909.14027,-90733398.79706,116991157.12355,  -0.00248,   0.00073,   0.00199,477885416.85762,   0.00054,275233913.65466,  -0.00053,   0.00023,   0.00047,   0.00000,   2.00000
-468982786.90639,-92847781.53107,116671588.28873,  -0.00249,   0.00073,   0.00199,477896495.61311,   0.00055,275245549.32230,  -0.00054,   0.00023,   0.00047,   0.00000,   2.00000
-469961354.50145,-94950333.60330,116351699.80580,  -0.00250,   0.00072,   0.00200,477914918.22826,   0.00056,275257201.23817,  -0.00055,   0.00024,   0.00048,   0.00000,   2.00000
-470924834.89164,-97029798.42535,116030335.08194,  -0.00252,   0.00072,   0.00200,477899067.39752,   0.00057,275268719.85734,  -0.00056,   0.00024,   0.00049,   0.00000,   2.00000
-471866668.69042,-99085688.54314,115715622.03707,  -0.00253,   0.00071,   0.00201,477890269.74021,   0.00059,275280136.84310,  -0.00057,   0.00024,   0.00050,   0.00000,   2.00000
-472806406.94040,-101141957.91690,115393758.10869,  -0.00254,   0.00071,   0.00201,477935045.44643,   0.00060,275291685.82344,  -0.00058,   0.00025,   0.00051,   0.00000,   2.00000
-473743465.27914,-103210317.19152,115069579.57671,  -0.00255,   0.00071,   0.00201,477922229.11915,   0.00061,275303115.47735,  -0.00059,   0.00025,   0.00052,   0.00000,   2.00000
-474647736.55431,-105220901.35371,114753003.95909,  -0.00256,   0.00070,   0.00202,477909565.17437,   0.00062,275314427.49508,  -0.00060,   0.00025,   0.00053,   0.00000,   2.00000
-475561501.94106,-107266214.12280,114428430.86172,  -0.00257,   0.00070,   0.00202,477957805.29540,   0.00063,275325886.41198,  -0.00062,   0.00026,   0.00054,   0.00000,   2.00000
-476456841.76645,-109255978.15427,114095261.59209,  -0.00258,   0.00069,   0.00203,477930247.63193,   0.00064,275337163.16560,  -0.00063,   0.00026,   0.00055,   0.00000,   2.00000
-477336251.02747,-111256718.89094,113776091.82772,  -0.00259,   0.00069,   0.00203,477931613.98681,   0.00065,275348383.98914,  -0.00064,   0.00026,   0.00055,   0.00000,   2.00000
-478211397.03136,-113247209.03664,113448626.37547,  -0.00260,   0.00068,   0.00204,477941753.04811,   0.00066,275359587.09318,  -0.00065,   0.00027,   0.00056,   0.00000,   2.00000
-479064438.41083,-115192082.34956,113122149.49840,  -0.00261,   0.00068,   0.00204,477954887.81958,   0.00067,275370785.66858,  -0.00066,   0.00027,   0.00057,   0.00000,   2.00000
-479915670.26522,-117150428.61090,112793279.60297,  -0.00262,   0.00068,   0.00205,477941738.04809,   0.00068,275381866.28431,  -0.00067,   0.00027,   0.00058,   0.00000,   2.00000
-480756107.00000,-119097729.87191,112464399.08687,  -0.00263,   0.00067,   0.00205,477958725.92445,   0.00069,275392959.45416,  -0.00068,   0.00028,   0.00059,   0.00000,   2.00000
-481577191.40320,-121023296.32917,112142383.84041,  -0.00264,   0.00067,   0.00205,477948322.48334,   0.00070,275403947.34777,  -0.00069,   0.00028,   0.00060,   0.00000,   2.00000
-482384113.74355,-122904908.10311,111813311.46728,  -0.00266,   0.00066,   0.00206,477953340.85988,   0.00071,275414897.03392,  -0.00070,   0.00028,   0.00060,  -0.00000,   2.00000
-483191339.06515,-124810114.90683,111483177.68444,  -0.00267,   0.00066,   0.00206,477974453.85803,   0.00072,275425877.60847,  -0.00071,   0.00029,   0.00061,   0.00000,   2.00000
-483986671.98321,-126695319.79714,111151727.83392,  -0.00268,   0.00066,   0.00207,477956554.23090,   0.00073,275436721.69155,  -0.00072,   0.00029,   0.00062,   0.00000,   2.00000
-484771874.50066,-128569889.26500,110820391.92522,  -0.00269,   0.00065,   0.00207,477972915.62337,   0.00074,275447576.82476,  -0.00073,   0.00029,   0.00063,  -0.00000,   2.00000
-485538813.92088,-130423688.73755,110496008.46378,  -0.00270,   0.00065,   0.00207,477961711.47328,   0.00075,275458325.12437,  -0.00074,   0.00029,   0.00064,   0.00000,   2.00000
-486302760.51227,-132268296.88377,110163487.43348,  -0.00271,   0.00064,   0.00208,477970801.52641,   0.00076,275469053.91420,  -0.00075,   0.00030,   0.00065,   0.00000,   2.00000
-487038979.57476,-134058532.09744,109839236.68111,  -0.00272,   0.00064,   0.00208,477954049.02339,   0.00077,275479653.32008,  -0.00076,   0.00030,   0.00065,  -0.00000,   2.00000
-487782506.39894,-135874032.95462,109505604.67599,  -0.00273,   0.00063,   0.00208,477968000.07359,   0.00078,275490254.78701,  -0.00077,   0.00030,   0.00066,   0.00000,   2.00000
-488516522.85746,-137679306.75540,109172196.01848,  -0.00274,   0.00063,   0.00209,477983764.22543,   0.00079,275500865.99112,  -0.00078,   0.00030,   0.00067,   0.00000,   2.00000
-489233296.83353,-139464761.40048,108845806.38964,  -0.00275,   0.00063,   0.00209,477971801.98029,   0.00080,275511369.05112,  -0.00079,   0.00031,   0.00068,   0.00000,   2.00000
-489938165.38315,-141207672.93001,108512709.97554,  -0.00276,   0.00062,   0.00210,477974808.13176,   0.00081,275521828.37244,  -0.00080,   0.00031,   0.00069,   0.00000,   2.00000
-490635816.83459,-142965233.01997,108185299.24545,  -0.00277,   0.00062,   0.00210,477968011.96924,   0.00082,275532202.53751,  -0.00081,   0.00031,   0.00069,   0.00000,   2.00000
-491324523.76379,-144712946.28086,107858156.03032,  -0.00278,   0.00061,   0.00210,477983240.22433,   0.00083,275542585.39681,  -0.00082,   0.00031,   0.00070,   0.00000,   2.00000
-491994429.14217,-146409323.24807,107531133.41539,  -0.00279,   0.00061,   0.00211,477957911.82597,   0.00084,275552805.46871,  -0.00083,   0.00032,   0.00071,   0.00000,   2.00000
-492655872.44049,-148096276.92042,107204451.49474,  -0.00280,   0.00061,   0.00211,477972679.84802,   0.00085,275563033.29552,  -0.00084,   0.00032,   0.00072,  -0.00000,   2.00000
-493317228.70010,-149799977.16355,106875016.32196,  -0.00281,   0.00060,   0.00211,477958855.58148,   0.00086,275573147.93662,  -0.00085,   0.00032,   0.00072,   0.00000,   2.00000
-493954557.46388,-151459105.01372,106555775.02061,  -0.00281,   0.00060,   0.00212,477974153.90592,   0.00086,275583273.16118,  -0.00086,   0.00032,   0.00073,   0.00000,   2.00000
-494597168.05158,-153112009.87497,106220138.53872,  -0.00282,   0.00059,   0.00212,477975158.34806,   0.00087,275593348.59447,  -0.00087,   0.00033,   0.00074,   0.00000,   2.00000
-495217789.85045,-154745527.17002,105900014.50035,  -0.00283,   0.00059,   0.00212,477968378.78383,   0.00088,275603341.89600,  -0.00088,   0.00033,   0.00075,   0.00000,   2.00000
-495830119.04898,-156362972.43284,105578560.89660,  -0.00284,   0.00059,   0.00213,477947946.42581,   0.00089,275613196.23295,  -0.00089,   0.00033,   0.00075,   0.00000,   2.00000
-496441712.95572,-157980019.87373,105250835.16948,  -0.00285,   0.00058,   0.00213,477989968.83232,   0.00090,275623174.66082,  -0.00090,   0.00033,   0.00076,   0.00000,   2.00000
-497038259.40192,-159572896.94205,104928462.28127,  -0.00286,   0.00058,   0.00213,477941438.71538,   0.00091,275632896.66938,  -0.00091,   0.00033,   0.00077,   0.00000,   2.00000
-497627263.89150,-161157087.73973,104606511.36316,  -0.00287,   0.00057,   0.00213,477955230.49100,   0.00092,275642625.01058,  -0.00092,   0.00034,   0.00078,   0.00000,   2.00000
-498200638.30919,-162699275.05294,104286612.63435,  -0.00288,   0.00057,   0.00214,477962180.22580,   0.00093,275652331.17778,  -0.00093,   0.00034,   0.00078,   0.00000,   2.00000
-498774751.91519,-164259866.03776,103963752.49528,  -0.00289,   0.00057,   0.00214,477947919.17933,   0.00094,275661926.48234,  -0.00094,   0.00034,   0.00079,   0.00000,   2.00000
-499333620.77158,-165778718.49088,103642999.59124,  -0.00290,   0.00056,   0.00214,477954467.03604,   0.00095,275671498.70390,  -0.00095,   0.00034,   0.00080,   0.00000,   2.00000
-499886732.77022,-167314634.81691,103327692.28958,  -0.00291,   0.00056,   0.00215,477946692.97370,   0.00095,275680988.12335,  -0.00096,   0.00034,   0.00080,   0.00000,   2.00000
-500431625.07418,-168810741.92657,103006047.59515,  -0.00292,   0.00055,   0.00215,477946308.23380,   0.00096,275690426.19692,  -0.00097,   0.00035,   0.00081,  -0.00000,   2.00000
-500963200.14490,-170291073.62729,102691508.29231,  -0.00292,   0.00055,   0.00215,477931201.67703,   0.00097,275699752.03080,  -0.00098,   0.00035,   0.00082,   0.00000,   2.00000
-501480548.74365,-171730406.10160,102379177.18401,  -0.00293,   0.00055,   0.00215,477936773.83658,   0.00098,275709052.49204,  -0.00099,   0.00035,   0.00082,  -0.00000,   2.00000
-501992637.00619,-173187566.02033,102072221.61352,  -0.00294,   0.00054,   0.00216,477928609.04043,   0.00099,275718270.56000,  -0.00100,   0.00035,   0.00083,   0.00000,   2.00000
-502498533.40162,-174631273.39383,101763798.13296,  -0.00295,   0.00054,   0.00216,477906569.02470,   0.00100,275727349.20625,  -0.00100,   0.00035,   0.00084,   0.00000,   2.00000
-502997075.67639,-176041760.52737,101451081.92545,  -0.00296,   0.00053,   0.00216,477939767.37433,   0.00101,275736518.37747,  -0.00101,   0.00035,   0.00084,   0.00000,   2.00000
-503483563.79433,-177432012.94313,101143460.57849,  -0.00297,   0.00053,   0.00217,477889200.47969,   0.00101,275745430.74386,  -0.00102,   0.00036,   0.00085,  -0.00000,   2.00000
-503964105.87384,-178815035.80656,100836371.37559,  -0.00298,   0.00053,   0.00217,477901292.63049,   0.00102,275754347.09445,  -0.00103,   0.00036,   0.00086,   0.00000,   2.00000
-504438751.07587,-180190844.22666,100529824.74190,  -0.00298,   0.00052,   0.00217,477913358.46804,   0.00103,275763267.28847,  -0.00104,   0.00036,   0.00086,   0.00000,   2.00000
-504901508.38604,-181552473.83115,100230319.02504,  -0.00299,   0.00052,   0.00217,477897043.55627,   0.00104,275772074.20333,  -0.00105,   0.00036,   0.00087,   0.00000,   2.00000
-505358172.56362,-182876126.92538,99924603.76500,  -0.00300,   0.00052,   0.00218,477894626.63137,   0.00105,275780825.99063,  -0.00106,   0.00036,   0.00088,   0.00000,   2.00000
-505803390.78533,-184186141.64757,99625940.76929,  -0.00301,   0.00051,   0.00218,477877900.39198,   0.00106,275789464.09778,  -0.00107,   0.00036,   0.00088,   0.00000,   2.00000
-506249951.38341,-185522107.11028,99325996.50031,  -0.00302,   0.00051,   0.00218,477897472.11156,   0.00106,275798138.43642,  -0.00107,   0.00036,   0.00089,   0.00000,   2.00000
-506684987.92456,-186813792.75347,99026314.57745,  -0.00302,   0.00050,   0.00218,477866239.78597,   0.00107,275806640.09868,  -0.00108,   0.00037,   0.00089,   0.00000,   2.00000
-507096051.73886,-188057960.99310,98744080.83066,  -0.00303,   0.00050,   0.00218,477847108.66250,   0.00108,275815020.10932,  -0.00109,   0.00037,   0.00090,   0.00000,   2.00000
-507515135.79706,-189330310.30634,98451912.14146,  -0.00304,   0.00050,   0.00219,477860112.58866,   0.00109,275823410.86910,  -0.00110,   0.00037,   0.00091,   0.00000,   2.00000
-507929195.03920,-190565671.34752,98153578.85692,  -0.00305,   0.00049,   0.00219,477856612.74991,   0.00109,275831744.78687,  -0.00111,   0.00037,   0.00091,   0.00000,   2.00000
-508326344.13714,-191786648.14483,97870852.40760,  -0.00306,   0.00049,   0.00219,477845230.74683,   0.00110,275839990.01519,  -0.00112,   0.00037,   0.00092,   0.00000,   2.00000
-508719580.84174,-192997240.90368,97586438.08051,  -0.00306,   0.00049,   0.00219,477821269.23462,   0.00111,275848095.63959,  -0.00112,   0.00037,   0.00092,   0.00000,   2.00000
-509108198.46406,-194201909.24600,97302571.75690,  -0.00307,   0.00048,   0.00220,477831837.61186,   0.00112,275856203.65308,  -0.00113,   0.00037,   0.00093,   0.00000,   2.00000
-509492522.31144,-195370284.57274,97012556.96796,  -0.00308,   0.00048,   0.00220,477827597.27006,   0.00112,275864253.69219,  -0.00114,   0.00037,   0.00094,   0.00000,   2.00000
-509866603.50323,-196557287.87850,96736194.53713,  -0.00309,   0.00048,   0.00220,477824253.97433,   0.00113,275872249.68707,  -0.00115,   0.00038,   0.00094,   0.00000,   2.00000
-510231266.39328,-197702309.34531,96459997.19811,  -0.00309,   0.00047,   0.00220,477791156.97577,   0.00114,275880070.85609,  -0.00116,   0.00038,   0.00095,   0.00000,   2.00000
-510592221.76071,-198811640.50130,96177651.17914,  -0.00310,   0.00047,   0.00220,477786270.49342,   0.00115,275887833.26001,  -0.00116,   0.00038,   0.00095,   0.00000,   2.00000
-510943261.41029,-199940116.45972,95908907.04530,  -0.00311,   0.00047,   0.00220,477782523.30227,   0.00115,275895541.80692,  -0.00117,   0.00038,   0.00096,  -0.00000,   2.00000
-511290864.93497,-201033130.88790,95633994.11378,  -0.00311,   0.00046,   0.00221,477777365.04795,   0.00116,275903191.20462,  -0.00118,   0.00038,   0.00096,   0.00000,   2.00000
-511623041.51426,-202113401.39001,95374615.68621,  -0.00312,   0.00046,   0.00221,477764477.53097,   0.00117,275910750.48970,  -0.00119,   0.00038,   0.00097,  -0.00000,   2.00000
-511958804.31086,-203187065.29400,95104657.96623,  -0.00313,   0.00046,   0.00221,477733318.88683,   0.00117,275918146.02457,  -0.00120,   0.00038,   0.00097,   0.00000,   2.00000
-512289751.58751,-204259320.40301,94837674.21405,  -0.00314,   0.00045,   0.00221,477777365.14705,   0.00118,275925683.68957,  -0.00120,   0.00038,   0.00098,   0.00000,   2.00000
-512607535.87182,-205285792.68137,94577049.44716,  -0.00314,   0.00045,   0.00221,477714344.65867,   0.00119,275932929.11911,  -0.00121,   0.00038,   0.00098,  -0.00000,   2.00000
-512915641.83714,-206305647.27316,94325662.35456,  -0.00315,   0.00045,   0.00222,477729383.17223,   0.00119,275940200.01271,  -0.00122,   0.00039,   0.00099,   0.00000,   2.00000
-513226596.06337,-207322928.97273,94066073.33177,  -0.00316,   0.00044,   0.00222,477732470.20429,   0.00120,275947447.85347,  -0.00123,   0.00039,   0.00099,   0.00000,   2.00000
-513530311.97889,-208327203.07623,93810728.80695,  -0.00316,   0.00044,   0.00222,477678157.20295,   0.00121,275954440.87764,  -0.00123,   0.00039,   0.00100,   0.00000,   2.00000
-513824402.72799,-209298420.31136,93560452.87257,  -0.00317,   0.00044,   0.00222,477712114.97603,   0.00121,275961537.10187,  -0.00124,   0.00039,   0.00100,   0.00000,   2.00000
-514116592.59383,-210262291.53357,93308160.64691,  -0.00318,   0.00043,   0.00222,477686205.78244,   0.00122,275968494.41634,  -0.00125,   0.00039,   0.00101,  -0.00000,   2.00000
-514394603.26321,-211214886.45526,93071308.72686,  -0.00318,   0.00043,   0.00222,477671941.41171,   0.00123,275975360.63286,  -0.00125,   0.00039,   0.00101,   0.00000,   2.00000
-514672150.10547,-212130847.38142,92825660.76282,  -0.00319,   0.00043,   0.00223,477630269.17093,   0.00123,275982025.99218,  -0.00126,   0.00039,   0.00102,   0.00000,   2.00000
-514950471.29710,-213077458.89142,92581047.37181,  -0.00319,   0.00043,   0.00223,477682676.10154,   0.00124,275988870.13793,  -0.00127,   0.00039,   0.00102,   0.00000,   2.00000
-515206536.72154,-213947088.97355,92353366.68756,  -0.00320,   0.00042,   0.00223,477614158.36135,   0.00125,275995406.09624,  -0.00127,   0.00039,   0.00103,   0.00000,   2.00000
-515470963.65738,-214846796.83137,92115306.29257,  -0.00321,   0.00042,   0.00223,477625913.90127,   0.00125,276001958.02258,  -0.00128,   0.00039,   0.00103,   0.00000,   2.00000
-515732692.60300,-215742775.89571,91877725.55577,  -0.00321,   0.00042,   0.00223,477633888.87477,   0.00126,276008510.64691,  -0.00129,   0.00039,   0.00104,   0.00000,   2.00000
-515977631.08150,-216594196.91159,91654936.90347,  -0.00322,   0.00041,   0.00223,477574415.02793,   0.00126,276014793.53078,  -0.00129,   0.00039,   0.00104,   0.00000,   2.00000
-516224860.06331,-217446841.90371,91426484.03327,  -0.00323,   0.00041,   0.00223,477610774.42223,   0.00127,276021192.40259,  -0.00130,   0.00039,   0.00105,   0.00000,   2.00000
-516460422.73961,-218260040.64004,91206687.72552,  -0.00323,   0.00041,   0.00224,477579701.42205,   0.00128,276027436.60217,  -0.00131,   0.00039,   0.00105,   0.00000,   2.00000
-516695157.52321,-219067622.17559,90984621.97417,  -0.00324,   0.00041,   0.00224,477552520.76764,   0.00128,276033542.57100,  -0.00131,   0.00040,   0.00105,   0.00000,   2.00000
-516916984.59468,-219865507.02930,90777868.44865,  -0.00324,   0.00040,   0.00224,477536700.13761,   0.00129,276039556.58536,  -0.00132,   0.00040,   0.00106,   0.00000,   2.00000
-517147338.92180,-220666846.60079,90556646.43134,  -0.00325,   0.00040,   0.00224,477566931.29285,   0.00129,276045663.22302,  -0.00133,   0.00040,   0.00106,   0.00000,   2.00000
-517362040.66374,-221425075.29927,90350085.36357,  -0.00325,   0.00040,   0.00224,477506365.09647,   0.00130,276051499.37344,  -0.00133,   0.00040,   0.00107,  -0.00000,   2.00000
-517574779.53872,-222180479.38617,90143925.08714,  -0.00326,   0.00040,   0.00224,477513219.17045,   0.00130,276057335.71605,  -0.00134,   0.00040,   0.00107,  -0.00000,   2.00000
-517787077.29921,-222930949.50912,89935368.92436,  -0.00326,   0.00039,   0.00224,477485503.57752,   0.00131,276063034.30524,  -0.00134,   0.00040,   0.00107,   0.00000,   2.00000
-517991435.72370,-223676538.93984,89736039.36536,  -0.00327,   0.00039,   0.00224,477497894.06701,   0.00131,276068755.84835,  -0.00135,   0.00040,   0.00108,  -0.00000,   2.00000
-518195792.99452,-224390352.15085,89530393.72724,  -0.00328,   0.00039,   0.00225,477488646.11941,   0.00132,276074414.08391,  -0.00135,   0.00040,   0.00108,   0.00000,   2.00000
-518389476.10500,-225093382.03481,89337146.20145,  -0.00328,   0.00039,   0.00225,477437443.73761,   0.00132,276079842.31515,  -0.00136,   0.00040,   0.00109,   0.00000,   2.00000
-518571454.15514,-225760691.17664,89155247.36977,  -0.00329,   0.00038,   0.00225,477439040.27601,   0.00133,276085252.06237,  -0.00137,   0.00040,   0.00109,   0.00000,   2.00000
-518757866.23563,-226427837.91032,88964841.91840,  -0.00329,   0.00038,   0.00225,477439600.28196,   0.00133,276090639.27374,  -0.00137,   0.00040,   0.00109,  -0.00000,   2.00000
-518944300.66411,-227090865.75833,88771913.13524,  -0.00330,   0.00038,   0.00225,477411255.13501,   0.00134,276095889.15421,  -0.00138,   0.00040,   0.00110,  -0.00000,   2.00000
-519118879.24871,-227745571.93181,88594161.26990,  -0.00330,   0.00038,   0.00225,477393996.84902,   0.00134,276101046.52819,  -0.00138,   0.00040,   0.00110,   0.00000,   2.00000
-519288139.74546,-228367090.91011,88418888.08340,  -0.00331,   0.00038,   0.00225,477389408.72167,   0.00135,276106162.30308,  -0.00139,   0.00040,   0.00110,  -0.00000,   2.00000
-519461977.00279,-228988725.49853,88235068.51647,  -0.00331,   0.00037,   0.00225,477389626.87202,   0.00135,276111255.74448,  -0.00139,   0.00040,   0.00111,   0.00000,   2.00000
-519619922.65060,-229598569.88085,88072326.79376,  -0.00331,   0.00037,   0.00226,477343128.09184,   0.00136,276116141.73978,  -0.00140,   0.00040,   0.00111,   0.00000,   2.00000
-519783061.11269,-230181477.21032,87897233.55809,  -0.00332,   0.00037,   0.00226,477361437.00221,   0.00136,276121078.33626,  -0.00140,   0.00040,   0.00111,   0.00000,   2.00000
-519936456.45367,-230755107.82604,87734292.14290,  -0.00332,   0.00037,   0.00226,477309098.45893,   0.00137,276125785.39625,  -0.00141,   0.00040,   0.00112,   0.00000,   2.00000
-520088695.43466,-231326987.99795,87571629.06394,  -0.00333,   0.00037,   0.00226,477314396.59913,   0.00137,276130492.34341,  -0.00141,   0.00040,   0.00112,   0.00000,   2.00000
-520236164.38070,-231866268.83304,87411426.85338,  -0.00333,   0.00036,   0.00226,477308988.15659,   0.00138,276135156.90271,  -0.00142,   0.00040,   0.00112,   0.00000,   2.00000
-520381957.56862,-232431157.68267,87255213.04145,  -0.00334,   0.00036,   0.00226,477295949.30230,   0.00138,276139749.02179,  -0.00142,   0.00040,   0.00113,   0.00000,   2.00000
-520515378.70191,-232929188.05361,87109513.38808,  -0.00334,   0.00036,   0.00226,477250612.53985,   0.00138,276144141.56868,  -0.00143,   0.00040,   0.00113,  -0.00000,   2.00000
-520651409.50808,-233456591.23788,86961868.81887,  -0.00335,   0.00036,   0.00226,477266241.71396,   0.00139,276148576.40617,  -0.00143,   0.00041,   0.00113,   0.00000,   2.00000
-520784704.26856,-233950413.90464,86813617.15265,  -0.00335,   0.00036,   0.00226,477225876.05709,   0.00139,276152832.20495,  -0.00144,   0.00041,   0.00113,   0.00000,   2.00000
-520911251.32700,-234440678.23200,86674518.78424,  -0.00335,   0.00035,   0.00226,477236064.51888,   0.00140,276157109.50127,  -0.00144,   0.00041,   0.00114,  -0.00000,   2.00000
-521035260.73813,-234897634.84490,86534779.75265,  -0.00336,   0.00035,   0.00227,477195428.30541,   0.00140,276161207.67080,  -0.00144,   0.00041,   0.00114,   0.00000,   2.00000
-521148544.92731,-235347787.10107,86410030.14730,  -0.00336,   0.00035,   0.00227,477176386.05897,   0.00140,276165212.82409,  -0.00145,   0.00041,   0.00114,   0.00000,   2.00000
-521266947.08407,-235798972.08982,86276548.19600,  -0.00336,   0.00035,   0.00227,477175284.86571,   0.00141,276169196.14775,  -0.00145,   0.00041,   0.00115,   0.00000,   2.00000
-521381283.67422,-236218327.93430,86145476.24845,  -0.00337,   0.00035,   0.00227,477168686.88441,   0.00141,276173136.16615,  -0.00146,   0.00041,   0.00115,   0.00000,   2.00000
-521480999.66966,-236627801.66058,86035193.20954,  -0.00337,   0.00035,   0.00227,477120386.32995,   0.00141,276176868.80759,  -0.00146,   0.00041,   0.00115,   0.00000,   2.00000
-521589992.96045,-237041771.24482,85910315.71061,  -0.00338,   0.00035,   0.00227,477147977.28619,   0.00142,276180693.97335,  -0.00146,   0.00041,   0.00115,   0.00000,   2.00000
-521690273.01455,-237448215.57113,85797254.85155,  -0.00338,   0.00034,   0.00227,477094089.75722,   0.00142,276184290.42543,  -0.00147,   0.00041,   0.00116,  -0.00000,   2.00000
-521790782.00218,-237826341.94539,85680753.73839,  -0.00338,   0.00034,   0.00227,477115951.54260,   0.00142,276187957.47551,  -0.00147,   0.00041,   0.00116,  -0.00000,   2.00000
-521882715.71509,-238197178.00728,85576030.67514,  -0.00339,   0.00034,   0.00227,477061840.62055,   0.00143,276191395.88722,  -0.00148,   0.00041,   0.00116,   0.00000,   2.00000
-521970989.22040,-238536629.66988,85473664.18337,  -0.00339,   0.00034,   0.00227,477054439.28048,   0.00143,276194790.53712,  -0.00148,   0.00041,   0.00116,  -0.00000,   2.00000
-522058820.89418,-238875340.40020,85371441.58136,  -0.00339,   0.00034,   0.00227,477058038.36056,   0.00143,276198184.88498,  -0.00148,   0.00041,   0.00116,  -0.00000,   2.00000
-522142230.82162,-239210183.67438,85275148.53440,  -0.00340,   0.00034,   0.00228,477032609.09428,   0.00144,276201464.83879,  -0.00149,   0.00041,   0.00117,   0.00000,   2.00000
-522221253.33741,-239541214.01356,85184764.72421,  -0.00340,   0.00034,   0.00228,477007055.04064,   0.00144,276204630.45167,  -0.00149,   0.00041,   0.00117,   0.00000,   2.00000
-522296809.21403,-239841067.54955,85096715.22274,  -0.00340,   0.00034,   0.00228,476999253.97464,   0.00144,276207752.06201,  -0.00149,   0.00041,   0.00117,   0.00000,   2.00000
-522368066.82644,-240137257.72762,85014552.94176,  -0.00340,   0.00033,   0.00228,476973496.62160,   0.00145,276210759.36230,  -0.00150,   0.00041,   0.00117,  -0.00000,   2.00000
-522441731.04262,-240404622.32288,84925755.19398,  -0.00341,   0.00033,   0.00228,476960090.75522,   0.00145,276213701.41756,  -0.00150,   0.00041,   0.00118,   0.00000,   2.00000
-522505396.91916,-240666234.00742,84851798.10091,  -0.00341,   0.00033,   0.00228,476939493.20743,   0.00145,276216550.32007,  -0.00150,   0.00041,   0.00118,   0.00000,   2.00000
-522568802.55488,-240927371.10074,84777929.92656,  -0.00341,   0.00033,   0.00228,476942457.29349,   0.00145,276219398.95204,  -0.00150,   0.00041,   0.00118,   0.00000,   2.00000
-522625040.49459,-241154600.04048,84712134.01358,  -0.00342,   0.00033,   0.00228,476905146.89358,   0.00146,276222089.37474,  -0.00151,   0.00041,   0.00118,   0.00000,   2.00000
-522680125.90866,-241408899.06965,84649940.48527,  -0.00342,   0.00033,   0.00228,476890120.05825,   0.00146,276224709.64997,  -0.00151,   0.00041,   0.00118,   0.00000,   2.00000
-522734827.89465,-241604154.17740,84583299.99058,  -0.00342,   0.00033,   0.00228,476864979.21994,   0.00146,276227220.52520,  -0.00151,   0.00041,   0.00118,   0.00000,   2.00000
-522786553.54418,-241827286.76113,84523478.91324,  -0.00342,   0.00033,   0.00228,476884172.97960,   0.00146,276229796.26736,  -0.00152,   0.00041,   0.00119,   0.00000,   2.00000
-522831266.57919,-242016718.90357,84471698.48749,  -0.00343,   0.00033,   0.00229,476846499.55086,   0.00147,276232213.73616,  -0.00152,   0.00041,   0.00119,  -0.00000,   2.00000
-522871943.32279,-242202943.74486,84425715.06650,  -0.00343,   0.00033,   0.00229,476819921.44889,   0.00147,276234517.11517,  -0.00152,   0.00041,   0.00119,   0.00000,   2.00000
-522912491.28481,-242388899.97947,84379776.73519,  -0.00343,   0.00033,   0.00229,476822277.90602,   0.00147,276236820.28223,  -0.00152,   0.00041,   0.00119,  -0.00000,   2.00000
-522946134.61547,-242541308.54913,84341855.28528,  -0.00343,   0.00033,   0.00229,476784270.77364,   0.00147,276238965.15355,  -0.00153,   0.00041,   0.00119,  -0.00000,   2.00000
-522979686.88481,-242693515.23957,84303969.98595,  -0.00343,   0.00033,   0.00229,476786449.36028,   0.00147,276241109.82851,  -0.00153,   0.00041,   0.00119,   0.00000,   2.00000
-523012130.03450,-242814504.56158,84265109.84824,  -0.00344,   0.00033,   0.00229,476742914.05844,   0.00148,276243075.29652,  -0.00153,   0.00041,   0.00119,   0.00000,   2.00000
-523038771.83915,-242933113.57045,84235268.61198,  -0.00344,   0.00033,   0.00229,476750232.43110,   0.00148,276245061.48567,  -0.00153,   0.00041,   0.00120,   0.00000,   2.00000
-523061481.48441,-243048716.82973,84211186.13780,  -0.00344,   0.00032,   0.00229,476723179.54431,   0.00148,276246933.72199,  -0.00153,   0.00041,   0.00120,   0.00000,   2.00000
-523080269.58614,-243161333.51423,84192854.02555,  -0.00344,   0.00032,   0.00229,476696010.73657,   0.00148,276248692.03609,  -0.00154,   0.00041,   0.00120,  -0.00000,   2.00000
-523096170.42608,-243243473.56583,84176773.52216,  -0.00344,   0.00032,   0.00229,476686435.73328,   0.00148,276250405.82154,  -0.00154,   0.00041,   0.00120,   0.00000,   2.00000
-523106315.13528,-243323291.99514,84169690.66819,  -0.00344,   0.00032,   0.00229,476693482.77476,   0.00148,276252140.34284,  -0.00154,   0.00041,   0.00120,   0.00000,   2.00000
-523115464.45617,-243372076.05372,84161596.02144,  -0.00345,   0.00032,   0.00230,476649482.10137,   0.00149,276253695.72321,  -0.00154,   0.00041,   0.00120,   0.00000,   2.00000
-523123568.18954,-243448330.42846,84156996.54768,  -0.00345,   0.00032,   0.00230,476633339.37016,   0.00149,276255181.70831,  -0.00154,   0.00041,   0.00120,   0.00000,   2.00000
-523128827.06271,-243494168.99500,84154639.57756,  -0.00345,   0.00032,   0.00230,476623467.79521,   0.00149,276256623.15908,  -0.00154,   0.00041,   0.00120,   0.00000,   2.00000
-523125523.05094,-243507380.94813,84163511.77387,  -0.00345,   0.00032,   0.00230,476618871.33981,   0.00149,276258040.94064,  -0.00155,   0.00041,   0.00120,   0.00000,   2.00000
-523126911.83322,-243550341.66971,84166878.61288,  -0.00345,   0.00032,   0.00230,476597270.72929,   0.00149,276259368.56167,  -0.00155,   0.00041,   0.00121,   0.96748,   1.00000
-523121603.60898,-243560093.09214,84178215.89113,  -0.00345,   0.00032,   0.00230,476558175.13285,   0.00149,276260537.95462,  -0.00155,   0.00041,   0.00121,   0.75063,   1.00000
-523107740.93807,-243537244.85815,84200775.53640,  -0.00345,   0.00032,   0.00230,476553306.42378,   0.00149,276261683.72730,  -0.00155,   0.00041,   0.00121,   0.72064,   1.00000
-523092839.45911,-243541931.02548,84226810.46014,  -0.00346,   0.00032,   0.00230,476536767.30455,   0.00149,276262760.27881,  -0.00155,   0.00041,   0.00121,   0.63622,   1.00000
-523080850.24405,-243518502.23203,84246085.90163,  -0.00346,   0.00032,   0.00230,476521152.18254,   0.00150,276263771.51552,  -0.00155,   0.00041,   0.00121,   0.56138,   1.00000
-523063128.56151,-243492841.64800,84274335.55327,  -0.00346,   0.00032,   0.00230,476527500.53011,   0.00150,276264803.65589,  -0.00155,   0.00041,   0.00121,   0.58485,   1.00000
-523034815.50095,-243431158.58861,84316292.74160,  -0.00346,   0.00032,   0.00231,476459072.75952,   0.00150,276265563.98827,  -0.00155,   0.00041,   0.00121,   0.31739,   1.00000
-523010382.21804,-243372337.40452,84352485.01724,  -0.00346,   0.00032,   0.00231,476488904.53161,   0.00150,276266438.14202,  -0.00155,   0.00041,   0.00121,   0.41955,   1.00000
-522982058.55656,-243310691.67428,84394401.47200,  -0.00346,   0.00032,   0.00231,476460744.83588,   0.00150,276267198.69352,  -0.00155,   0.00041,   0.00121,   0.31760,   1.00000
-522949836.67051,-243246212.74309,84442044.34480,  -0.00346,   0.00032,   0.00231,476432476.01249,   0.00150,276267845.65339,  -0.00156,   0.00041,   0.00121,   0.22982,   1.00000
-522914748.55404,-243151369.92454,84491912.01265,  -0.00346,   0.00033,   0.00231,476421800.38190,   0.00150,276268448.33931,  -0.00156,   0.00041,   0.00121,   0.19945,   1.00000
-522875737.52313,-243053680.31938,84547511.08281,  -0.00346,   0.00033,   0.00231,476393390.55613,   0.00150,276268937.49035,  -0.00156,   0.00041,   0.00121,   0.13139,   1.00000
-522828069.34895,-242923364.01463,84614315.73301,  -0.00346,   0.00033,   0.00231,476387937.38492,   0.00150,276269403.42956,  -0.00156,   0.00041,   0.00121,   0.11922,   1.00000
-522788998.80189,-242825703.37311,84669864.71978,  -0.00346,   0.00033,   0.00231,476394430.25460,   0.00150,276269893.00894,  -0.00156,   0.00041,   0.00121,   0.13163,   1.00000
-522737326.03804,-242692512.34181,84742382.94441,  -0.00346,   0.00033,   0.00231,476359958.45471,   0.00150,276270245.72754,  -0.00156,   0.00041,   0.00121,   0.06833,   1.00000
-522684537.59312,-242528252.23725,84813916.09116,  -0.00346,   0.00033,   0.00232,476314659.98920,   0.00150,276270419.68888,  -0.00156,   0.00041,   0.00121,   0.01662,   1.00000
-522628811.11144,-242392151.67369,84892154.30583,  -0.00346,   0.00033,   0.00232,476331585.37422,   0.00150,276270659.29240,  -0.00156,   0.00041,   0.00121,   0.03153,   1.00000
-522566150.89081,-242222684.90701,84978397.07267,  -0.00346,   0.00033,   0.00232,476291568.24308,   0.00150,276270741.21104,  -0.00156,   0.00041,   0.00121,   0.00369,   1.00000
-522503393.59656,-242053186.93617,85064617.22234,  -0.00346,   0.00033,   0.00232,476291743.99152,   0.00150,276270823.50997,  -0.00156,   0.00041,   0.00121,   0.00372,   1.00000
-522437588.27896,-241853206.92206,85153063.74347,  -0.00346,   0.00033,   0.00232,476280646.36446,   0.00150,276270862.00737,  -0.00156,   0.00041,   0.00121,   0.00081,   1.00000
-522362249.82093,-241677417.18668,85253515.02083,  -0.00346,   0.00033,   0.00232,476268432.83351,   0.00150,276270862.00737,  -0.00156,   0.00041,   0.00121,-2429.17386,   0.00000
-522271843.67131,-241466469.50421,85343921.17046,  -0.00346,   0.00033,   0.00232,476249463.00876,   0.00150,276270862.00737,  -0.00156,   0.00041,   0.00121,-21398.99861,   0.00000
-522146279.57460,-241240454.13014,85444372.44782,  -0.00346,   0.00033,   0.00232,476207004.06922,   0.00150,276270862.00737,  -0.00156,   0.00041,   0.00121,-63857.93815,   0.00000
-521970489.83922,-240964213.11739,85534778.59745,  -0.00346,   0.00033,   0.00232,476119030.24434,   0.00150,276270862.00737,  -0.00156,   0.00041,   0.00121,-151831.76303,   0.00000
-521829858.05091,-240703039.79625,85635229.87481,  -0.00346,   0.00033,   0.00233,476065645.49274,   0.00150,276270862.00737,  -0.00156,   0.00041,   0.00121,-205216.51463,   0.00000
-521618910.36844,-240411731.09189,85735681.15218,  -0.00346,   0.00034,   0.00233,475954413.73781,   0.00150,276270862.00737,  -0.00156,   0.00041,   0.00121,-316448.26956,   0.00000
-521443120.63306,-240135490.07914,85836132.42954,  -0.00346,   0.00034,   0.00233,475872364.42229,   0.00150,276270862.00737,  -0.00156,   0.00041,   0.00121,-398497.58509,   0.00000
-521181947.31191,-239793955.73611,85946628.83464,  -0.00346,   0.00034,   0.00233,475726761.52530,   0.00150,276270862.00737,  -0.00156,   0.00041,   0.00121,-544100.48207,   0.00000
-520955931.93784,-239467489.08468,86047080.11200,  -0.00346,   0.00034,   0.00233,475604933.10334,   0.00150,276270862.00737,  -0.00156,   0.00041,   0.00121,-665928.90404,   0.00000
-520694758.61670,-239125954.74164,86147531.38937,  -0.00346,   0.00034,   0.00233,475454323.87587,   0.00150,276270862.00737,  -0.00156,   0.00041,   0.00121,-816538.13150,   0.00000
-520398427.34848,-238769352.70700,86258027.79447,  -0.00346,   0.00034,   0.00233,475280415.55289,   0.00150,276270862.00737,  -0.00156,   0.00041,   0.00121,-990446.45449,   0.00000
-520087028.38865,-238377592.72528,86368524.19957,  -0.00346,   0.00034,   0.00234,475095638.68124,   0.00150,276270862.00737,  -0.00156,   0.00041,   0.00121,-1175223.32613,   0.00000
-519775629.42882,-237985832.74356,86479020.60467,  -0.00346,   0.00034,   0.00234,474911137.51898,   0.00150,276270862.00737,  -0.00156,   0.00041,   0.00121,-1359724.48839,   0.00000
-519429072.52192,-237579005.07024,86589517.00977,  -0.00346,   0.00034,   0.00234,474697942.00606,   0.00150,276270862.00737,  -0.00156,   0.00041,   0.00121,-1572920.00132,   0.00000
-519082515.61501,-237172177.39692,86710058.54260,  -0.00346,   0.00034,   0.00234,474490539.45122,   0.00150,276270862.00737,  -0.00156,   0.00041,   0.00121,-1780322.55615,   0.00000
-518685733.06943,-236715124.08492,86820554.94770,  -0.00346,   0.00035,   0.00234,474237923.70495,   0.00150,276270862.00737,  -0.00156,   0.00041,   0.00121,-2032938.30242,   0.00000
-518288950.52384,-236258070.77291,86941096.48054,  -0.00346,   0.00035,   0.00234,473991168.12287,   0.00150,276270862.00737,  -0.00156,   0.00041,   0.00121,-2279693.88451,   0.00000
-517892167.97825,-235801017.46091,87061638.01338,  -0.00346,   0.00035,   0.00234,473744766.49903,   0.00150,276270862.00737,  -0.00156,   0.00041,   0.00121,-2526095.50834,   0.00000
-517445159.79399,-235293738.51022,87182179.54621,  -0.00345,   0.00035,   0.00235,473458792.23611,   0.00150,276270862.00737,  -0.00156,   0.00041,   0.00121,-2812069.77126,   0.00000
-517013219.30132,-234821617.50661,87302721.07905,  -0.00345,   0.00035,   0.00235,473184188.10810,   0.00150,276270862.00737,  -0.00156,   0.00041,   0.00121,-3086673.89927,   0.00000
-516531053.16998,-234299270.86432,87423262.61189,  -0.00345,   0.00035,   0.00235,472870075.83167,   0.00150,276270862.00737,  -0.00156,   0.00041,   0.00121,-3400786.17570,   0.00000
-516048887.03863,-233776924.22203,87553849.27246,  -0.00345,   0.00035,   0.00235,472561966.43372,   0.00150,276270862.00737,  -0.00156,   0.00041,   0.00121,-3708895.57365,   0.00000
-515551653.21568,-233219419.63266,87674390.80529,  -0.00345,   0.00036,   0.00235,472237804.37703,   0.00150,276270862.00737,  -0.00156,   0.00041,   0.00121,-4033057.63034,   0.00000
-515034329.13726,-232682005.29877,87804977.46587,  -0.00345,   0.00036,   0.00235,471901682.00771,   0.00150,276270862.00737,  -0.00156,   0.00041,   0.00121,-4369179.99966,   0.00000
-514466779.42016,-232094365.32619,87935564.12644,  -0.00345,   0.00036,   0.00236,471526257.17651,   0.00150,276270862.00737,  -0.00156,   0.00041,   0.00121,-4744604.83086,   0.00000
-513934387.65013,-231521793.04522,88066150.78701,  -0.00345,   0.00036,   0.00236,471180247.11479,   0.00150,276270862.00737,  -0.00156,   0.00041,   0.00121,-5090614.89258,   0.00000
-513366837.93303,-230934153.07264,88206782.57532,  -0.00344,   0.00036,   0.00236,470811498.25377,   0.00150,276270862.00737,  -0.00156,   0.00041,   0.00121,-5459363.75360,   0.00000
-512749062.57724,-230296287.46138,88347414.36363,  -0.00344,   0.00036,   0.00236,470403627.27737,   0.00150,276270862.00737,  -0.00156,   0.00041,   0.00121,-5867234.73000,   0.00000
-512146354.91306,-229693579.79720,88478001.02420,  -0.00344,   0.00037,   0.00236,470001457.23863,   0.00150,276270862.00737,  -0.00156,   0.00041,   0.00121,-6269404.76874,   0.00000
-511528579.55727,-229055714.18594,88618632.81251,  -0.00344,   0.00037,   0.00236,469594772.15231,   0.00150,276270862.00737,  -0.00156,   0.00041,   0.00121,-6676089.85507,   0.00000
-510910804.20149,-228417848.57469,88769309.72856,  -0.00344,   0.00037,   0.00237,469194402.92600,   0.00150,276270862.00737,  -0.00156,   0.00041,   0.00121,-7076459.08137,   0.00000
-510242803.20702,-227729757.32475,88909941.51687,  -0.00344,   0.00037,   0.00237,468749425.54238,   0.00150,276270862.00737,  -0.00156,   0.00041,   0.00121,-7521436.46499,   0.00000
-509554711.95708,-227061756.33028,89060618.43291,  -0.00343,   0.00037,   0.00237,468292685.28247,   0.00150,276270862.00737,  -0.00156,   0.00041,   0.00121,-7978176.72490,   0.00000
-508886710.96261,-226373665.08034,89201250.22122,  -0.00343,   0.00037,   0.00237,467849078.32340,   0.00150,276270862.00737,  -0.00156,   0.00041,   0.00121,-8421783.68398,   0.00000
-508183552.02107,-225670506.13879,89351927.13727,  -0.00343,   0.00038,   0.00237,467383098.90187,   0.00150,276270862.00737,  -0.00156,   0.00041,   0.00121,-8887763.10551,   0.00000
-507445235.13245,-224952279.50564,89512649.18105,  -0.00343,   0.00038,   0.00238,466894822.67028,   0.00150,276270862.00737,  -0.00156,   0.00041,   0.00121,-9376039.33709,   0.00000
-506742076.19090,-224249120.56410,89663326.09709,  -0.00343,   0.00038,   0.00238,466430349.63195,   0.00150,276270862.00737,  -0.00156,   0.00041,   0.00121,-9840512.37543,   0.00000
-505988691.61067,-223495735.98387,89824048.14087,  -0.00342,   0.00038,   0.00238,465933110.95376,   0.00150,276270862.00737,  -0.00156,   0.00041,   0.00121,-10337751.05361,   0.00000
-505215216.77497,-222762441.65912,89984770.18466,  -0.00342,   0.00038,   0.00238,465418437.55736,   0.00150,276270862.00737,  -0.00156,   0.00041,   0.00121,-10852424.45001,   0.00000
-504426674.24767,-221993989.38729,90145492.22844,  -0.00342,   0.00039,   0.00238,464894117.57342,   0.00150,276270862.00737,  -0.00156,   0.00041,   0.00121,-11376744.43395,   0.00000
-503638131.72037,-221225537.11546,90306214.27222,  -0.00342,   0.00039,   0.00239,464370678.23204,   0.00150,276270862.00737,  -0.00156,   0.00041,   0.00121,-11900183.77534,   0.00000
-502849589.19306,-220457084.84362,90466936.31600,  -0.00342,   0.00039,   0.00239,463848122.51455,   0.00150,276270862.00737,  -0.00156,   0.00041,   0.00121,-12422739.49282,   0.00000
-502025888.71868,-219673564.88019,90637703.48752,  -0.00341,   0.00039,   0.00239,463303605.95882,   0.00150,276270862.00737,  -0.00156,   0.00041,   0.00121,-12967256.04855,   0.00000
-501187120.55270,-218854886.96968,90808470.65904,  -0.00341,   0.00039,   0.00239,462749690.18844,   0.00150,276270862.00737,  -0.00156,   0.00041,   0.00121,-13521171.81894,   0.00000
-500348352.38671,-218036209.05916,90979237.83055,  -0.00341,   0.00040,   0.00240,462196786.42573,   0.00150,276270862.00737,  -0.00156,   0.00041,   0.00121,-14074075.58164,   0.00000
-499489493.96525,-217237621.40412,91150005.00207,  -0.00341,   0.00040,   0.00240,461626471.71199,   0.00150,276270862.00737,  -0.00156,   0.00041,   0.00121,-14644390.29539,   0.00000
-498615567.85219,-216403875.80200,91330817.30133,  -0.00341,   0.00040,   0.00240,461052855.01236,   0.00150,276270862.00737,  -0.00156,   0.00041,   0.00121,-15218006.99502,   0.00000
-497726574.04752,-215534972.25281,91511629.60058,  -0.00340,   0.00040,   0.00240,460470105.98599,   0.00150,276270862.00737,  -0.00156,   0.00041,   0.00121,-15800756.02139,   0.00000
-496817489.98738,-214686158.95909,91692441.89984,  -0.00340,   0.00040,   0.00240,459870023.24738,   0.00150,276270862.00737,  -0.00156,   0.00041,   0.00121,-16400838.75999,   0.00000
-495943563.87432,-213852413.35697,91873254.19909,  -0.00340,   0.00041,   0.00241,459299716.67199,   0.00150,276270862.00737,  -0.00156,   0.00041,   0.00121,-16971145.33538,   0.00000
-494984254.17550,-212953374.42457,92054066.49835,  -0.00340,   0.00041,   0.00241,458663098.38860,   0.00150,276270862.00737,  -0.00156,   0.00041,   0.00121,-17607763.61878,   0.00000
-494060102.42375,-212069403.18377,92244923.92534,  -0.00339,   0.00041,   0.00241,458062401.30112,   0.00150,276270862.00737,  -0.00156,   0.00041,   0.00121,-18208460.70626,   0.00000
-493115860.41653,-211205522.19844,92435781.35233,  -0.00339,   0.00041,   0.00241,457444371.06657,   0.00150,276270862.00737,  -0.00156,   0.00041,   0.00121,-18826490.94080,   0.00000
-492156550.71771,-210306483.26604,92626638.77932,  -0.00339,   0.00041,   0.00242,456817530.91903,   0.00150,276270862.00737,  -0.00156,   0.00041,   0.00121,-19453331.08834,   0.00000
-491182173.32729,-209372286.38656,92827541.33404,  -0.00339,   0.00042,   0.00242,456188123.83683,   0.00150,276270862.00737,  -0.00156,   0.00041,   0.00121,-20082738.17054,   0.00000
-490187705.68139,-208458179.76255,93018398.76104,  -0.00338,   0.00042,   0.00242,455535322.63369,   0.00150,276270862.00737,  -0.00156,   0.00041,   0.00121,-20735539.37369,   0.00000
-489193238.03549,-207544073.13854,93219301.31576,  -0.00338,   0.00042,   0.00242,454890012.72204,   0.00150,276270862.00737,  -0.00156,   0.00041,   0.00121,-21380849.28533,   0.00000
-488183702.69798,-206594808.56745,93420203.87049,  -0.00338,   0.00042,   0.00243,454236202.18550,   0.00150,276270862.00737,  -0.00156,   0.00041,   0.00121,-22034659.82187,   0.00000
-487189235.05208,-205680701.94345,93621106.42522,  -0.00337,   0.00043,   0.00243,453593664.81756,   0.00150,276270862.00737,  -0.00156,   0.00041,   0.00121,-22677197.18981,   0.00000
-486144541.76750,-204716369.68076,93832054.10768,  -0.00337,   0.00043,   0.00243,452920439.93294,   0.00150,276270862.00737,  -0.00156,   0.00041,   0.00121,-23350422.07444,   0.00000
-485135006.43000,-203767105.10967,94032956.66241,  -0.00337,   0.00043,   0.00244,452270983.54530,   0.00150,276270862.00737,  -0.00156,   0.00041,   0.00121,-23999878.46208,   0.00000
-484055155.19834,-202787705.15537,94243904.34487,  -0.00337,   0.00043,   0.00244,451572312.10900,   0.00150,276270862.00737,  -0.00156,   0.00041,   0.00121,-24698549.89837,   0.00000
-483010461.91376,-201823372.89268,94464897.15507,  -0.00336,   0.00044,   0.00244,450910002.08644,   0.00150,276270862.00737,  -0.00156,   0.00041,   0.00121,-25360859.92094,   0.00000
-481965768.62918,-200859040.62999,94675844.83753,  -0.00336,   0.00044,   0.00244,450242957.98698,   0.00150,276270862.00737,  -0.00156,   0.00041,   0.00121,-26027904.02039,   0.00000
-480885917.39752,-199879640.67570,94896837.64773,  -0.00336,   0.00044,   0.00245,449555404.05950,   0.00150,276270862.00737,  -0.00156,   0.00041,   0.00121,-26715457.94787,   0.00000
-479806066.16586,-198900240.72141,95117830.45793,  -0.00335,   0.00044,   0.00245,448869502.01777,   0.00150,276270862.00737,  -0.00156,   0.00041,   0.00121,-27401359.98960,   0.00000
-478675989.29552,-197870615.12843,95338823.26813,  -0.00335,   0.00044,   0.00245,448147346.61347,   0.00150,276270862.00737,  -0.00156,   0.00041,   0.00121,-28123515.39390,   0.00000
-477596138.06386,-196891215.17413,95559816.07833,  -0.00335,   0.00045,   0.00246,447464828.86052,   0.00150,276270862.00737,  -0.00156,   0.00041,   0.00121,-28806033.14686,   0.00000
-476466061.19352,-195861589.58116,95790854.01627,  -0.00334,   0.00045,   0.00246,446752652.76794,   0.00150,276270862.00737,  -0.00156,   0.00041,   0.00121,-29518209.23943,   0.00000
-475335984.32318,-194831963.98818,96021891.95421,  -0.00334,   0.00045,   0.00246,446042329.83814,   0.00150,276270862.00737,  -0.00156,   0.00041,   0.00121,-30228532.16923,   0.00000
-474220975.14445,-193837496.34228,96252929.89214,  -0.00334,   0.00045,   0.00246,445343217.37135,   0.00150,276270862.00737,  -0.00156,   0.00041,   0.00121,-30927644.63602,   0.00000
-473090898.27411,-192807870.74931,96483967.83008,  -0.00334,   0.00046,   0.00247,444636584.67369,   0.00150,276270862.00737,  -0.00156,   0.00041,   0.00121,-31634277.33368,   0.00000
-471925663.45669,-191763177.46472,96715005.76801,  -0.00333,   0.00046,   0.00247,443903548.45498,   0.00150,276270862.00737,  -0.00156,   0.00041,   0.00121,-32367313.55239,   0.00000
-470795586.58635,-190733551.87175,96956088.83369,  -0.00333,   0.00046,   0.00247,443207295.97945,   0.00150,276270862.00737,  -0.00156,   0.00041,   0.00121,-33063566.02792,   0.00000
-469630351.76893,-189688858.58717,97197171.89936,  -0.00333,   0.00046,   0.00248,442484751.90166,   0.00150,276270862.00737,  -0.00156,   0.00041,   0.00121,-33786110.10571,   0.00000
-468465116.95152,-188644165.30259,97438254.96503,  -0.00332,   0.00047,   0.00248,441764209.20476,   0.00150,276270862.00737,  -0.00156,   0.00041,   0.00121,-34506652.80262,   0.00000
-467299882.13410,-187599472.01801,97689383.15844,  -0.00332,   0.00047,   0.00248,441052352.13881,   0.00150,276270862.00737,  -0.00156,   0.00041,   0.00121,-35218509.86857,   0.00000
-466099489.36961,-186539711.04182,97940511.35185,  -0.00332,   0.00047,   0.00249,440314393.37593,   0.00150,276270862.00737,  -0.00156,   0.00041,   0.00121,-35956468.63144,   0.00000
-464934254.55219,-185495017.75724,98191639.54526,  -0.00331,   0.00047,   0.00249,439606720.93862,   0.00150,276270862.00737,  -0.00156,   0.00041,   0.00121,-36664141.06875,   0.00000
-463718794.09609,-184400098.83398,98442767.73867,  -0.00331,   0.00048,   0.00249,438864057.02173,   0.00150,276270862.00737,  -0.00156,   0.00041,   0.00121,-37406804.98565,   0.00000
-462518401.33160,-183340337.85779,98693895.93208,  -0.00331,   0.00048,   0.00250,438132544.29832,   0.00150,276270862.00737,  -0.00156,   0.00041,   0.00121,-38138317.70906,   0.00000
-461318008.56710,-182280576.88160,98955069.25322,  -0.00330,   0.00048,   0.00250,437410011.54735,   0.00150,276270862.00737,  -0.00156,   0.00041,   0.00121,-38860850.46003,   0.00000
-460102548.11100,-181185657.95834,99216242.57437,  -0.00330,   0.00048,   0.00250,436680893.66488,   0.00150,276270862.00737,  -0.00156,   0.00041,   0.00121,-39589968.34249,   0.00000
-458866997.39943,-180110829.29055,99477415.89551,  -0.00330,   0.00049,   0.00251,435934840.90420,   0.00150,276270862.00737,  -0.00156,   0.00041,   0.00121,-40336021.10318,   0.00000
-457666604.63494,-179051068.31437,99738589.21666,  -0.00329,   0.00049,   0.00251,435219105.86241,   0.00150,276270862.00737,  -0.00156,   0.00041,   0.00121,-41051756.14496,   0.00000
-456415986.23176,-177941081.69950,99999762.53780,  -0.00329,   0.00049,   0.00251,434468968.13481,   0.00150,276270862.00737,  -0.00156,   0.00041,   0.00121,-41801893.87257,   0.00000
-455180435.52019,-176866253.03171,100270980.98668,  -0.00328,   0.00049,   0.00252,433736845.49750,   0.00150,276270862.00737,  -0.00156,   0.00041,   0.00121,-42534016.50987,   0.00000
-453929817.11701,-175756266.41684,100542199.43557,  -0.00328,   0.00050,   0.00252,432998540.16258,   0.00150,276270862.00737,  -0.00156,   0.00041,   0.00121,-43272321.84479,   0.00000
-452694266.40544,-174681437.74905,100813417.88445,  -0.00328,   0.00050,   0.00252,432271273.49688,   0.00150,276270862.00737,  -0.00156,   0.00041,   0.00121,-43999588.51050,   0.00000
-451443648.00226,-173571451.13418,101094681.46107,  -0.00327,   0.00050,   0.00253,431545004.30488,   0.00150,276270862.00737,  -0.00156,   0.00041,   0.00121,-44725857.70249,   0.00000
-450208097.29069,-172496622.46639,101375945.03768,  -0.00327,   0.00050,   0.00253,430829764.68160,   0.00150,276270862.00737,  -0.00156,   0.00041,   0.00121,-45441097.32577,   0.00000
-448922320.94044,-171371568.15992,101657208.61430,  -0.00327,   0.00051,   0.00253,430080814.12723,   0.00150,276270862.00737,  -0.00156,   0.00041,   0.00121,-46190047.88014,   0.00000
-447686770.22887,-170296739.49213,101938472.19092,  -0.00326,   0.00051,   0.00254,429370682.24754,   0.00150,276270862.00737,  -0.00156,   0.00041,   0.00121,-46900179.75983,   0.00000
-446400993.87861,-169171685.18566,102219735.76754,  -0.00326,   0.00051,   0.00254,428627018.68002,   0.00150,276270862.00737,  -0.00156,   0.00041,   0.00121,-47643843.32735,   0.00000
-445165443.16704,-168096856.51787,102511044.47189,  -0.00326,   0.00052,   0.00255,427929265.24215,   0.00150,276270862.00737,  -0.00156,   0.00041,   0.00121,-48341596.76522,   0.00000
-443879666.81679,-166971802.21140,102792308.04851,  -0.00325,   0.00052,   0.00255,427190975.08670,   0.00150,276270862.00737,  -0.00156,   0.00041,   0.00121,-49079886.92067,   0.00000
-442608958.15814,-165881905.85200,103083616.75286,  -0.00325,   0.00052,   0.00255,426470837.37700,   0.00150,276270862.00737,  -0.00156,   0.00041,   0.00121,-49800024.63038,   0.00000
-441323181.80788,-164756851.54553,103384970.58495,  -0.00325,   0.00052,   0.00256,425752638.76113,   0.00150,276270862.00737,  -0.00156,   0.00041,   0.00121,-50518223.24625,   0.00000
-440052473.14924,-163666955.18614,103676279.28931,  -0.00324,   0.00053,   0.00256,425038016.65736,   0.00150,276270862.00737,  -0.00156,   0.00041,   0.00121,-51232845.35002,   0.00000
-438781764.49059,-162577058.82674,103977633.12140,  -0.00324,   0.00053,   0.00256,424333515.92483,   0.00150,276270862.00737,  -0.00156,   0.00041,   0.00121,-51937346.08255,   0.00000
-437495988.14033,-161452004.52027,104278986.95349,  -0.00323,   0.00053,   0.00257,423623897.47016,   0.00150,276270862.00737,  -0.00156,   0.00041,   0.00121,-52646964.53722,   0.00000
-436190121.53461,-160347040.46927,104580340.78558,  -0.00323,   0.00053,   0.00257,422897556.71806,   0.00150,276270862.00737,  -0.00156,   0.00041,   0.00121,-53373305.28931,   0.00000
-434919412.87596,-159257144.10988,104881694.61767,  -0.00323,   0.00054,   0.00258,422201633.85692,   0.00150,276270862.00737,  -0.00156,   0.00041,   0.00121,-54069228.15045,   0.00000
-433633636.52570,-158132089.80341,105183048.44976,  -0.00322,   0.00054,   0.00258,421500790.56011,   0.00150,276270862.00737,  -0.00156,   0.00041,   0.00121,-54770071.44727,   0.00000
-432327769.91998,-157027125.75241,105494447.40959,  -0.00322,   0.00054,   0.00258,420790764.00906,   0.00150,276270862.00737,  -0.00156,   0.00041,   0.00121,-55480097.99832,   0.00000
-431057061.26133,-155937229.39301,105805846.36942,  -0.00322,   0.00054,   0.00259,420111172.32047,   0.00150,276270862.00737,  -0.00156,   0.00041,   0.00121,-56159689.68690,   0.00000
-429751194.65560,-154832265.34201,106117245.32924,  -0.00321,   0.00055,   0.00259,419407174.43279,   0.00150,276270862.00737,  -0.00156,   0.00041,   0.00121,-56863687.57459,   0.00000
-428480485.99695,-153742368.98262,106428644.28907,  -0.00321,   0.00055,   0.00260,418733575.07633,   0.00150,276270862.00737,  -0.00156,   0.00041,   0.00121,-57537286.93104,   0.00000
-427174619.39123,-152637404.93162,106750088.37663,  -0.00320,   0.00055,   0.00260,418043360.89098,   0.00150,276270862.00737,  -0.00156,   0.00041,   0.00121,-58227501.11639,   0.00000
-425868752.78550,-151532440.88062,107071532.46420,  -0.00320,   0.00055,   0.00260,417356302.00901,   0.00150,276270862.00737,  -0.00156,   0.00041,   0.00121,-58914559.99836,   0.00000
-424598044.12685,-150442544.52123,107392976.55176,  -0.00320,   0.00056,   0.00261,416699654.85843,   0.00150,276270862.00737,  -0.00156,   0.00041,   0.00121,-59571207.14895,   0.00000
-423292177.52113,-149337580.47023,107714420.63932,  -0.00319,   0.00056,   0.00261,416018917.97044,   0.00150,276270862.00737,  -0.00156,   0.00041,   0.00121,-60251944.03693,   0.00000
-422001378.60701,-148267774.36631,108035864.72689,  -0.00319,   0.00056,   0.00262,415348691.43653,   0.00150,276270862.00737,  -0.00156,   0.00041,   0.00121,-60922170.57085,   0.00000
-420730669.94836,-147177878.00691,108357308.81445,  -0.00319,   0.00056,   0.00262,414701454.44032,   0.00150,276270862.00737,  -0.00156,   0.00041,   0.00121,-61569407.56706,   0.00000
-419424803.34263,-146072913.95591,108688798.02975,  -0.00318,   0.00057,   0.00263,414038190.37908,   0.00150,276270862.00737,  -0.00156,   0.00041,   0.00121,-62232671.62829,   0.00000
-418134004.42851,-145003107.85199,109020287.24505,  -0.00318,   0.00057,   0.00263,413385396.32939,   0.00150,276270862.00737,  -0.00156,   0.00041,   0.00121,-62885465.67799,   0.00000
-416828137.82278,-143898143.80099,109351776.46035,  -0.00317,   0.00057,   0.00263,412728736.57956,   0.00150,276270862.00737,  -0.00156,   0.00041,   0.00121,-63542125.42781,   0.00000
-415572496.85574,-142843405.38867,109683265.67565,  -0.00317,   0.00057,   0.00264,412109456.67022,   0.00150,276270862.00737,  -0.00156,   0.00041,   0.00121,-64161405.33716,   0.00000
-414281697.94162,-141773599.28475,110024800.01869,  -0.00317,   0.00057,   0.00264,411474472.02228,   0.00150,276270862.00737,  -0.00156,   0.00041,   0.00121,-64796389.98509,   0.00000
-412990899.02749,-140703793.18083,110356289.23398,  -0.00316,   0.00058,   0.00265,410834742.65593,   0.00150,276270862.00737,  -0.00156,   0.00041,   0.00121,-65436119.35144,   0.00000
-411700100.11337,-139633987.07691,110697823.57702,  -0.00316,   0.00058,   0.00265,410206436.75548,   0.00150,276270862.00737,  -0.00156,   0.00041,   0.00121,-66064425.25189,   0.00000
-410444459.14633,-138579248.66459,111039357.92006,  -0.00316,   0.00058,   0.00266,409608342.76076,   0.00150,276270862.00737,  -0.00156,   0.00041,   0.00121,-66662519.24661,   0.00000
-409153660.23221,-137509442.56067,111380892.26309,  -0.00315,   0.00058,   0.00266,408986775.11447,   0.00150,276270862.00737,  -0.00156,   0.00041,   0.00121,-67284086.89290,   0.00000
-407862861.31808,-136439636.45675,111722426.60613,  -0.00315,   0.00059,   0.00267,408368619.43208,   0.00150,276270862.00737,  -0.00156,   0.00041,   0.00121,-67902242.57529,   0.00000
-406607220.35104,-135384898.04443,112074006.07690,  -0.00314,   0.00059,   0.00267,407788883.74148,   0.00150,276270862.00737,  -0.00156,   0.00041,   0.00121,-68481978.26589,   0.00000
-405331489.12852,-134350249.88758,112415540.41994,  -0.00314,   0.00059,   0.00267,407184208.99637,   0.00150,276270862.00737,  -0.00156,   0.00041,   0.00121,-69086653.01100,   0.00000
-404075848.16148,-133295511.47527,112767119.89071,  -0.00314,   0.00059,   0.00268,406611310.19282,   0.00150,276270862.00737,  -0.00156,   0.00041,   0.00121,-69659551.81455,   0.00000
-402800116.93896,-132260863.31842,113118699.36148,  -0.00313,   0.00060,   0.00268,406021796.70107,   0.00150,276270862.00737,  -0.00156,   0.00041,   0.00121,-70249065.30630,   0.00000
-401559543.66352,-131241282.85318,113470278.83226,  -0.00313,   0.00060,   0.00269,405462284.70065,   0.00150,276270862.00737,  -0.00156,   0.00041,   0.00121,-70808577.30672,   0.00000
-400283812.44100,-130206634.69634,113821858.30303,  -0.00313,   0.00060,   0.00269,404879656.64201,   0.00150,276270862.00737,  -0.00156,   0.00041,   0.00121,-71391205.36536,   0.00000
-399043239.16556,-129187054.23110,114183482.90154,  -0.00312,   0.00060,   0.00270,404335484.99803,   0.00150,276270862.00737,  -0.00156,   0.00041,   0.00121,-71935377.00934,   0.00000
-397802665.89012,-128167473.76586,114535062.37231,  -0.00312,   0.00060,   0.00270,403786256.71788,   0.00150,276270862.00737,  -0.00156,   0.00041,   0.00121,-72484605.28949,   0.00000
-396562092.61468,-127147893.30062,114896686.97082,  -0.00311,   0.00061,   0.00271,403249043.96848,   0.00150,276270862.00737,  -0.00156,   0.00041,   0.00121,-73021818.03890,   0.00000
-395301429.08377,-126148403.09085,115248266.44159,  -0.00311,   0.00061,   0.00271,402686583.05557,   0.00150,276270862.00737,  -0.00156,   0.00041,   0.00121,-73584278.95180,   0.00000
-394060855.80833,-125128822.62561,115609891.04010,  -0.00311,   0.00061,   0.00272,402156375.20850,   0.00150,276270862.00737,  -0.00156,   0.00041,   0.00121,-74114486.79887,   0.00000
-392835350.22450,-124144400.10745,115971515.63861,  -0.00310,   0.00061,   0.00272,401635796.32295,   0.00150,276270862.00737,  -0.00156,   0.00041,   0.00121,-74635065.68442,   0.00000
-391609844.64066,-123159977.58928,116343185.36485,  -0.00310,   0.00062,   0.00273,401127412.61613,   0.00150,276270862.00737,  -0.00156,   0.00041,   0.00121,-75143449.39124,   0.00000
-390419497.00390,-122190622.76273,116704809.96336,  -0.00310,   0.00062,   0.00273,400639948.65722,   0.00150,276270862.00737,  -0.00156,   0.00041,   0.00121,-75630913.35015,   0.00000
-389193991.42007,-121206200.24456,117066434.56187,  -0.00309,   0.00062,   0.00273,400129768.17559,   0.00150,276270862.00737,  -0.00156,   0.00041,   0.00121,-76141093.83178,   0.00000
-387983553.52784,-120256935.67348,117438104.28812,  -0.00309,   0.00062,   0.00274,399637811.22794,   0.00150,276270862.00737,  -0.00156,   0.00041,   0.00121,-76633050.77943,   0.00000
-386793205.89108,-119287580.84692,117809774.01436,  -0.00309,   0.00062,   0.00274,399169530.16104,   0.00150,276270862.00737,  -0.00156,   0.00041,   0.00121,-77101331.84634,   0.00000
-385582767.99885,-118338316.27583,118171398.61287,  -0.00308,   0.00063,   0.00275,398675621.12206,   0.00150,276270862.00737,  -0.00156,   0.00041,   0.00121,-77595240.88532,   0.00000
-384392420.36209,-117368961.44928,118543068.33911,  -0.00308,   0.00063,   0.00275,398214319.09261,   0.00150,276270862.00737,  -0.00156,   0.00041,   0.00121,-78056542.91476,   0.00000
-383217140.41694,-116434764.56979,118914738.06536,  -0.00308,   0.00063,   0.00276,397762213.35574,   0.00150,276270862.00737,  -0.00156,   0.00041,   0.00121,-78508648.65163,   0.00000
-382041860.47178,-115500567.69031,119286407.79160,  -0.00307,   0.00063,   0.00276,397313545.92443,   0.00150,276270862.00737,  -0.00156,   0.00041,   0.00121,-78957316.08294,   0.00000
-380881648.21823,-114601528.75791,119668122.64559,  -0.00307,   0.00063,   0.00277,396882980.12639,   0.00150,276270862.00737,  -0.00156,   0.00041,   0.00121,-79387881.88098,   0.00000
-379706368.27308,-113667331.87843,120039792.37183,  -0.00306,   0.00064,   0.00277,396441211.18100,   0.00150,276270862.00737,  -0.00156,   0.00041,   0.00121,-79829650.82637,   0.00000
-378546156.01953,-112768292.94602,120411462.09808,  -0.00306,   0.00064,   0.00278,396008379.87259,   0.00150,276270862.00737,  -0.00156,   0.00041,   0.00121,-80262482.13479,   0.00000
-377370876.07438,-111834096.06654,120793176.95206,  -0.00306,   0.00064,   0.00278,395582718.45350,   0.00150,276270862.00737,  -0.00156,   0.00041,   0.00121,-80688143.55387,   0.00000
-376245821.76791,-110950124.82574,121164846.67830,  -0.00305,   0.00064,   0.00279,395182347.68025,   0.00150,276270862.00737,  -0.00156,   0.00041,   0.00121,-81088514.32713,   0.00000
-375100677.20596,-110086243.84042,121546561.53229,  -0.00305,   0.00064,   0.00279,394774333.47246,   0.00150,276270862.00737,  -0.00156,   0.00041,   0.00121,-81496528.53491,   0.00000
-373975622.89949,-109202272.59962,121928276.38627,  -0.00305,   0.00064,   0.00280,394389944.97081,   0.00150,276270862.00737,  -0.00156,   0.00041,   0.00121,-81880917.03656,   0.00000
-372850568.59302,-108318301.35882,122299946.11251,  -0.00304,   0.00065,   0.00280,393999608.01516,   0.00150,276270862.00737,  -0.00156,   0.00041,   0.00121,-82271253.99221,   0.00000
-371740581.97815,-107469488.06510,122681660.96649,  -0.00304,   0.00065,   0.00281,393627172.49792,   0.00150,276270862.00737,  -0.00156,   0.00041,   0.00121,-82643689.50945,   0.00000
-370630595.36328,-106620674.77137,123063375.82047,  -0.00304,   0.00065,   0.00281,393258065.07240,   0.00150,276270862.00737,  -0.00156,   0.00041,   0.00121,-83012796.93497,   0.00000
-369555766.69549,-105786929.16926,123445090.67446,  -0.00303,   0.00065,   0.00282,392917600.26795,   0.00150,276270862.00737,  -0.00156,   0.00041,   0.00121,-83353261.73943,   0.00000
-368445780.08063,-104938115.87554,123826805.52844,  -0.00303,   0.00065,   0.00282,392555127.79851,   0.00150,276270862.00737,  -0.00156,   0.00041,   0.00121,-83715734.20886,   0.00000
-367386019.10444,-104139528.22050,124208520.38242,  -0.00303,   0.00065,   0.00283,392226199.11707,   0.00150,276270862.00737,  -0.00156,   0.00041,   0.00121,-84044662.89030,   0.00000
-366311190.43665,-103305782.61838,124590235.23640,  -0.00302,   0.00066,   0.00283,391895507.62974,   0.00150,276270862.00737,  -0.00156,   0.00041,   0.00121,-84375354.37764,   0.00000
-365251429.46046,-102507194.96334,124981995.21812,  -0.00302,   0.00066,   0.00284,391582596.18876,   0.00150,276270862.00737,  -0.00156,   0.00041,   0.00121,-84688265.81861,   0.00000
-364191668.48428,-101708607.30830,125363710.07210,  -0.00302,   0.00066,   0.00284,391263292.69210,   0.00150,276270862.00737,  -0.00156,   0.00041,   0.00121,-85007569.31528,   0.00000
-363131907.50809,-100910019.65326,125745424.92608,  -0.00301,   0.00066,   0.00285,390947185.77200,   0.00150,276270862.00737,  -0.00156,   0.00041,   0.00121,-85323676.23538,   0.00000
-362122372.17059,-100161657.63690,126127139.78006,  -0.00301,   0.00066,   0.00285,390663997.81694,   0.00150,276270862.00737,  -0.00156,   0.00041,   0.00121,-85606864.19043,   0.00000
-361062611.19440,-99363069.98186,126518899.76178,  -0.00301,   0.00066,   0.00286,390363978.05842,   0.00150,276270862.00737,  -0.00156,   0.00041,   0.00121,-85906883.94895,   0.00000
-360053075.85690,-98614707.96550,126900614.61576,  -0.00300,   0.00067,   0.00286,390086973.76739,   0.00150,276270862.00737,  -0.00156,   0.00041,   0.00121,-86183888.23998,   0.00000
-359043540.51940,-97866345.94914,127292374.59748,  -0.00300,   0.00067,   0.00287,389822847.20481,   0.00150,276270862.00737,  -0.00156,   0.00041,   0.00121,-86448014.80257,   0.00000
-358049072.87350,-97153141.87986,127674089.45146,  -0.00300,   0.00067,   0.00287,389556540.87391,   0.00150,276270862.00737,  -0.00156,   0.00041,   0.00121,-86714321.13346,   0.00000
-357074695.48307,-96419847.55511,128055804.30544,  -0.00300,   0.00067,   0.00288,389313375.70337,   0.00150,276270862.00737,  -0.00156,   0.00041,   0.00121,-86957486.30400,   0.00000
-356080227.83717,-95706643.48582,128447564.28716,  -0.00299,   0.00067,   0.00288,389062947.55456,   0.00150,276270862.00737,  -0.00156,   0.00041,   0.00121,-87207914.45281,   0.00000
-355120918.13835,-95008507.10815,128829279.14114,  -0.00299,   0.00067,   0.00289,388830199.62347,   0.00150,276270862.00737,  -0.00156,   0.00041,   0.00121,-87440662.38391,   0.00000
-354161608.43953,-94310370.73047,129221039.12286,  -0.00299,   0.00067,   0.00289,388610356.50808,   0.00150,276270862.00737,  -0.00156,   0.00041,   0.00121,-87660505.49929,   0.00000
-353202298.74071,-93612234.35279,129602753.97684,  -0.00298,   0.00067,   0.00290,388383418.03909,   0.00150,276270862.00737,  -0.00156,   0.00041,   0.00121,-87887443.96828,   0.00000
-352293214.68057,-92964323.61380,129984468.83082,  -0.00298,   0.00068,   0.00290,388188176.75210,   0.00150,276270862.00737,  -0.00156,   0.00041,   0.00121,-88082685.25527,   0.00000
-351348972.67335,-92301345.18320,130376228.81254,  -0.00298,   0.00068,   0.00291,387981364.54333,   0.00150,276270862.00737,  -0.00156,   0.00041,   0.00121,-88289497.46405,   0.00000
-350439888.61321,-91653434.44421,130757943.66652,  -0.00297,   0.00068,   0.00291,387791655.03490,   0.00150,276270862.00737,  -0.00156,   0.00041,   0.00121,-88479206.97248,   0.00000
-349530804.55307,-91005523.70521,131139658.52050,  -0.00297,   0.00068,   0.00292,387604676.01352,   0.00150,276270862.00737,  -0.00156,   0.00041,   0.00121,-88666185.99386,   0.00000
-348636788.18453,-90392770.91329,131531418.50222,  -0.00297,   0.00068,   0.00292,387434846.06101,   0.00150,276270862.00737,  -0.00156,   0.00041,   0.00121,-88836015.94636,   0.00000
-347762862.07147,-89759927.86590,131913133.35620,  -0.00297,   0.00068,   0.00293,387277559.02997,   0.00150,276270862.00737,  -0.00156,   0.00041,   0.00121,-88993302.97740,   0.00000
-346904003.65001,-89162242.76559,132294848.21019,  -0.00296,   0.00068,   0.00293,387127026.80447,   0.00150,276270862.00737,  -0.00156,   0.00041,   0.00121,-89143835.20290,   0.00000
-346025054.97308,-88584647.92075,132676563.06417,  -0.00296,   0.00068,   0.00294,386959018.51408,   0.00150,276270862.00737,  -0.00156,   0.00041,   0.00121,-89311843.49330,   0.00000
-345201354.49870,-88002030.51204,133058277.91815,  -0.00296,   0.00068,   0.00294,386837728.71608,   0.00150,276270862.00737,  -0.00156,   0.00041,   0.00121,-89433133.29129,   0.00000
-344357563.76884,-87439503.35880,133439992.77213,  -0.00295,   0.00069,   0.00295,386698899.83258,   0.00150,276270862.00737,  -0.00156,   0.00041,   0.00121,-89571962.17479,   0.00000
-343548930.98607,-86892043.89717,133821707.62611,  -0.00295,   0.00069,   0.00295,386586568.28469,   0.00150,276270862.00737,  -0.00156,   0.00041,   0.00121,-89684293.72268,   0.00000
-342705140.25621,-86329516.74394,134203422.48009,  -0.00295,   0.00069,   0.00296,386452720.64174,   0.00150,276270862.00737,  -0.00156,   0.00041,   0.00121,-89818141.36563,   0.00000
-341896507.47344,-85782057.28231,134585137.33407,  -0.00295,   0.00069,   0.00296,386345279.45752,   0.00150,276270862.00737,  -0.00156,   0.00041,   0.00121,-89925582.54986,   0.00000
-341138100.32934,-85284823.45936,134966852.18806,  -0.00294,   0.00069,   0.00297,386267984.06756,   0.00150,276270862.00737,  -0.00156,   0.00041,   0.00121,-90002877.93981,   0.00000
-340344535.23817,-84772521.94480,135348567.04204,  -0.00294,   0.00069,   0.00297,386169162.88344,   0.00150,276270862.00737,  -0.00156,   0.00041,   0.00121,-90101699.12393,   0.00000
-339586128.09408,-84275288.12185,135720236.76828,  -0.00294,   0.00069,   0.00298,386085860.65790,   0.00150,276270862.00737,  -0.00156,   0.00041,   0.00121,-90185001.34947,   0.00000
-338827720.94998,-83778054.29890,136101951.62226,  -0.00294,   0.00069,   0.00298,386015392.65775,   0.00150,276270862.00737,  -0.00156,   0.00041,   0.00121,-90255469.34963,   0.00000
-338084381.49749,-83315978.42303,136473621.34851,  -0.00293,   0.00069,   0.00299,385940303.94745,   0.00150,276270862.00737,  -0.00156,   0.00041,   0.00121,-90330558.05993,   0.00000
-337376199.99208,-82868970.23876,136855336.20249,  -0.00293,   0.00069,   0.00299,385901668.06378,   0.00150,276270862.00737,  -0.00156,   0.00041,   0.00121,-90369193.94359,   0.00000
-336668018.48666,-82421962.05449,137227005.92874,  -0.00293,   0.00069,   0.00300,385854440.59188,   0.00150,276270862.00737,  -0.00156,   0.00041,   0.00121,-90416421.41549,   0.00000
-335959836.98125,-81974953.87023,137598675.65498,  -0.00293,   0.00069,   0.00300,385809278.80719,   0.00150,276270862.00737,  -0.00156,   0.00041,   0.00121,-90461583.20019,   0.00000
-335266723.16744,-81563103.63304,137970345.38123,  -0.00292,   0.00069,   0.00301,385769840.27412,   0.00150,276270862.00737,  -0.00156,   0.00041,   0.00121,-90501021.73326,   0.00000
-334573609.35363,-81151253.39585,138342015.10747,  -0.00292,   0.00069,   0.00301,385732417.20577,   0.00150,276270862.00737,  -0.00156,   0.00041,   0.00121,-90538444.80161,   0.00000
-333915653.48690,-80754470.85026,138713684.83372,  -0.00292,   0.00070,   0.00302,385720397.93143,   0.00150,276270862.00737,  -0.00156,   0.00041,   0.00121,-90550464.07594,   0.00000
-333257697.62017,-80357688.30467,139075309.43223,  -0.00292,   0.00070,   0.00302,385699439.95718,   0.00150,276270862.00737,  -0.00156,   0.00041,   0.00121,-90571422.05019,   0.00000
-332649967.39212,-80011131.39777,139446979.15847,  -0.00292,   0.00070,   0.00303,385718111.69859,   0.00150,276270862.00737,  -0.00156,   0.00041,   0.00121,-90552750.30878,   0.00000
-332007079.21700,-79649506.79926,139808603.75698,  -0.00291,   0.00070,   0.00303,385704396.55713,   0.00150,276270862.00737,  -0.00156,   0.00041,   0.00121,-90566465.45025,   0.00000
-331399348.98895,-79302949.89236,140170228.35549,  -0.00291,   0.00070,   0.00303,385715723.24237,   0.00150,276270862.00737,  -0.00156,   0.00041,   0.00121,-90555138.76500,   0.00000
-330791618.76090,-78956392.98545,140531852.95400,  -0.00291,   0.00070,   0.00304,385728789.53042,   0.00150,276270862.00737,  -0.00156,   0.00041,   0.00121,-90542072.47696,   0.00000
-330234114.17153,-78660061.71723,140893477.55251,  -0.00291,   0.00070,   0.00304,385770211.03328,   0.00150,276270862.00737,  -0.00156,   0.00041,   0.00121,-90500650.97409,   0.00000
-329641451.63508,-78348662.75740,141255102.15101,  -0.00291,   0.00070,   0.00305,385790155.80756,   0.00150,276270862.00737,  -0.00156,   0.00041,   0.00121,-90480706.19981,   0.00000
-329083947.04572,-78052331.48918,141616726.74952,  -0.00290,   0.00070,   0.00305,385834852.25839,   0.00150,276270862.00737,  -0.00156,   0.00041,   0.00121,-90436009.74899,   0.00000
-328526442.45635,-77756000.22096,141968306.22030,  -0.00290,   0.00070,   0.00306,385870077.54468,   0.00150,276270862.00737,  -0.00156,   0.00041,   0.00121,-90400784.46269,   0.00000
-328019163.50566,-77509894.59142,142319885.69107,  -0.00290,   0.00070,   0.00306,385933250.94969,   0.00150,276270862.00737,  -0.00156,   0.00041,   0.00121,-90337611.05769,   0.00000
-327511884.55498,-77263788.96188,142671465.16184,  -0.00290,   0.00070,   0.00307,385997874.85557,   0.00150,276270862.00737,  -0.00156,   0.00041,   0.00121,-90272987.15181,   0.00000
-327004605.60429,-77017683.33233,143023044.63261,  -0.00290,   0.00070,   0.00307,386063948.53392,   0.00150,276270862.00737,  -0.00156,   0.00041,   0.00121,-90206913.47346,   0.00000
-326512394.34521,-76806735.64987,143364578.97565,  -0.00289,   0.00070,   0.00308,386123652.03125,   0.00150,276270862.00737,  -0.00156,   0.00041,   0.00121,-90147209.97613,   0.00000
-326040273.34160,-76575697.71194,143716158.44642,  -0.00289,   0.00070,   0.00308,386215404.28005,   0.00150,276270862.00737,  -0.00156,   0.00041,   0.00121,-90055457.72732,   0.00000
-325548062.08252,-76364750.02947,144057692.78946,  -0.00289,   0.00070,   0.00309,386277848.11545,   0.00150,276270862.00737,  -0.00156,   0.00041,   0.00121,-89993013.89192,   0.00000
-325141234.40920,-76219095.67729,144399227.13249,  -0.00289,   0.00070,   0.00309,386390492.11169,   0.00150,276270862.00737,  -0.00156,   0.00041,   0.00121,-89880369.89568,   0.00000
-324684181.09719,-76023215.68644,144740761.47553,  -0.00289,   0.00070,   0.00309,386478298.67417,   0.00150,276270862.00737,  -0.00156,   0.00041,   0.00121,-89792563.33320,   0.00000
-324277353.42387,-75877561.33426,145072250.69083,  -0.00289,   0.00070,   0.00310,386582080.86434,   0.00150,276270862.00737,  -0.00156,   0.00041,   0.00121,-89688781.14304,   0.00000
-323870525.75055,-75731906.98208,145413785.03387,  -0.00288,   0.00070,   0.00310,386698349.21852,   0.00150,276270862.00737,  -0.00156,   0.00041,   0.00121,-89572512.78886,   0.00000
-323463698.07723,-75586252.62990,145745274.24917,  -0.00288,   0.00070,   0.00311,386804461.78767,   0.00150,276270862.00737,  -0.00156,   0.00041,   0.00121,-89466400.21970,   0.00000
-323107096.04258,-75490823.91641,146066718.33673,  -0.00288,   0.00070,   0.00311,386926217.42671,   0.00150,276270862.00737,  -0.00156,   0.00041,   0.00121,-89344644.58066,   0.00000
-322750494.00794,-75395395.20291,146398207.55203,  -0.00288,   0.00070,   0.00312,387060397.71055,   0.00150,276270862.00737,  -0.00156,   0.00041,   0.00121,-89210464.29682,   0.00000
-322393891.97330,-75299966.48942,146719651.63959,  -0.00288,   0.00070,   0.00312,387184227.21587,   0.00150,276270862.00737,  -0.00156,   0.00041,   0.00121,-89086634.79151,   0.00000
-322037289.93866,-75204537.77592,147041095.72716,  -0.00288,   0.00070,   0.00312,387309081.45125,   0.00150,276270862.00737,  -0.00156,   0.00041,   0.00121,-88961780.55613,   0.00000
-321730913.54270,-75159334.70111,147362539.81472,  -0.00288,   0.00070,   0.00313,387460681.01037,   0.00150,276270862.00737,  -0.00156,   0.00041,   0.00121,-88810180.99700,   0.00000
-321424537.14675,-75114131.62630,147683983.90228,  -0.00287,   0.00070,   0.00313,387613232.69795,   0.00150,276270862.00737,  -0.00156,   0.00041,   0.00121,-88657629.30942,   0.00000
-321153318.69786,-75083996.24309,147995382.86211,  -0.00287,   0.00070,   0.00314,387777624.51362,   0.00150,276270862.00737,  -0.00156,   0.00041,   0.00121,-88493237.49375,   0.00000
-320846942.30190,-75038793.16827,148306781.82194,  -0.00287,   0.00070,   0.00314,387920504.90494,   0.00150,276270862.00737,  -0.00156,   0.00041,   0.00121,-88350357.10243,   0.00000
-320590791.54463,-75043815.73214,148608135.65403,  -0.00287,   0.00070,   0.00314,388078352.35227,   0.00150,276270862.00737,  -0.00156,   0.00041,   0.00121,-88192509.65511,   0.00000
-320369798.73443,-75063905.98761,148919534.61385,  -0.00287,   0.00069,   0.00315,388270875.59924,   0.00150,276270862.00737,  -0.00156,   0.00041,   0.00121,-87999986.40813,   0.00000
-320113647.97715,-75068928.55148,149220888.44594,  -0.00287,   0.00069,   0.00315,388430333.17771,   0.00150,276270862.00737,  -0.00156,   0.00041,   0.00121,-87840528.82966,   0.00000
-319892655.16695,-75089018.80695,149512197.15030,  -0.00287,   0.00069,   0.00316,388601257.41593,   0.00150,276270862.00737,  -0.00156,   0.00041,   0.00121,-87669604.59144,   0.00000
-319686730.04836,-75144267.00950,149813550.98239,  -0.00287,   0.00069,   0.00316,388787784.53691,   0.00150,276270862.00737,  -0.00156,   0.00041,   0.00121,-87483077.47047,   0.00000
-319515962.87684,-75214582.90366,150104859.68674,  -0.00287,   0.00069,   0.00316,388985643.48877,   0.00150,276270862.00737,  -0.00156,   0.00041,   0.00121,-87285218.51860,   0.00000
-319310037.75824,-75269831.10621,150396168.39110,  -0.00286,   0.00069,   0.00317,389161993.87340,   0.00150,276270862.00737,  -0.00156,   0.00041,   0.00121,-87108868.13398,   0.00000
-319189496.22541,-75390372.63905,150677431.96772,  -0.00286,   0.00069,   0.00317,389375003.35478,   0.00150,276270862.00737,  -0.00156,   0.00041,   0.00121,-86895858.65259,   0.00000
-319033796.74549,-75495846.48028,150958695.54433,  -0.00286,   0.00069,   0.00318,389566480.90132,   0.00150,276270862.00737,  -0.00156,   0.00041,   0.00121,-86704381.10605,   0.00000
-318913255.21266,-75616388.01311,151239959.12095,  -0.00286,   0.00069,   0.00318,389780720.07543,   0.00150,276270862.00737,  -0.00156,   0.00041,   0.00121,-86490141.93195,   0.00000
-318792713.67982,-75736929.54595,151511177.56983,  -0.00286,   0.00069,   0.00318,389983853.87405,   0.00150,276270862.00737,  -0.00156,   0.00041,   0.00121,-86287008.13333,   0.00000
-318672172.14698,-75857471.07879,151782396.01872,  -0.00286,   0.00069,   0.00319,390187559.20793,   0.00150,276270862.00737,  -0.00156,   0.00041,   0.00121,-86083302.79945,   0.00000
-318566698.30575,-76013170.55870,152053614.46760,  -0.00286,   0.00069,   0.00319,390395163.40902,   0.00150,276270862.00737,  -0.00156,   0.00041,   0.00121,-85875698.59835,   0.00000
-318496382.41160,-76183937.73022,152314787.78874,  -0.00286,   0.00069,   0.00319,390613636.66646,   0.00150,276270862.00737,  -0.00156,   0.00041,   0.00121,-85657225.34091,   0.00000
-318441134.20905,-76389862.84881,152575961.10989,  -0.00286,   0.00069,   0.00320,390835981.27677,   0.00150,276270862.00737,  -0.00156,   0.00041,   0.00121,-85434880.73061,   0.00000
-318405976.26197,-76575697.71194,152837134.43103,  -0.00286,   0.00068,   0.00320,391077501.77524,   0.00150,276270862.00737,  -0.00156,   0.00041,   0.00121,-85193360.23213,   0.00000
-318385886.00650,-76796690.52214,153088262.62444,  -0.00286,   0.00068,   0.00320,391311091.31885,   0.00150,276270862.00737,  -0.00156,   0.00041,   0.00121,-84959770.68852,   0.00000
-318365795.75102,-77017683.33233,153329345.69011,  -0.00286,   0.00068,   0.00321,391533360.21128,   0.00150,276270862.00737,  -0.00156,   0.00041,   0.00121,-84737501.79609,   0.00000
-318345705.49555,-77238676.14253,153580473.88352,  -0.00286,   0.00068,   0.00321,391767898.53999,   0.00150,276270862.00737,  -0.00156,   0.00041,   0.00121,-84502963.46739,   0.00000
-318375840.87876,-77509894.59142,153821556.94920,  -0.00286,   0.00068,   0.00321,392016448.75526,   0.00150,276270862.00737,  -0.00156,   0.00041,   0.00121,-84254413.25211,   0.00000
-318390908.57037,-77745955.09322,154052594.88713,  -0.00286,   0.00068,   0.00322,392250181.50180,   0.00150,276270862.00737,  -0.00156,   0.00041,   0.00121,-84020680.50557,   0.00000
-318436111.64518,-78052331.48918,154283632.82507,  -0.00286,   0.00068,   0.00322,392491223.82474,   0.00150,276270862.00737,  -0.00156,   0.00041,   0.00121,-83779638.18263,   0.00000
-318501404.97547,-78338617.62967,154514670.76300,  -0.00285,   0.00068,   0.00322,392751161.23009,   0.00150,276270862.00737,  -0.00156,   0.00041,   0.00121,-83519700.77728,   0.00000
-318566698.30575,-78624903.77015,154735663.57320,  -0.00285,   0.00068,   0.00322,392999640.59519,   0.00150,276270862.00737,  -0.00156,   0.00041,   0.00121,-83271221.41218,   0.00000
-318647059.32764,-78946347.85772,154956656.38340,  -0.00285,   0.00067,   0.00323,393252016.83053,   0.00150,276270862.00737,  -0.00156,   0.00041,   0.00121,-83018845.17684,   0.00000
-318727420.34953,-79267791.94528,155167604.06587,  -0.00285,   0.00067,   0.00323,393492933.27028,   0.00150,276270862.00737,  -0.00156,   0.00041,   0.00121,-82777928.73709,   0.00000
-318842939.31850,-79604303.72445,155378551.74833,  -0.00285,   0.00067,   0.00323,393756114.83891,   0.00150,276270862.00737,  -0.00156,   0.00041,   0.00121,-82514747.16846,   0.00000
-318973525.97907,-79975973.45069,155589499.43079,  -0.00285,   0.00067,   0.00324,394023254.84558,   0.00150,276270862.00737,  -0.00156,   0.00041,   0.00121,-82247607.16179,   0.00000
-319139270.58672,-80362710.86854,155790401.98552,  -0.00285,   0.00067,   0.00324,394300761.41474,   0.00150,276270862.00737,  -0.00156,   0.00041,   0.00121,-81970100.59264,   0.00000
-319269857.24730,-80734380.59479,155981259.41251,  -0.00285,   0.00067,   0.00324,394544912.08610,   0.00150,276270862.00737,  -0.00156,   0.00041,   0.00121,-81725949.92128,   0.00000
-319435601.85495,-81121118.01264,156172116.83950,  -0.00285,   0.00067,   0.00324,394811292.39034,   0.00150,276270862.00737,  -0.00156,   0.00041,   0.00121,-81459569.61703,   0.00000
-319636504.40967,-81522923.12209,156362974.26649,  -0.00285,   0.00066,   0.00325,395099884.75573,   0.00150,276270862.00737,  -0.00156,   0.00041,   0.00121,-81170977.25164,   0.00000
-319817316.70893,-81944818.48702,156543786.56575,  -0.00285,   0.00066,   0.00325,395358784.79437,   0.00150,276270862.00737,  -0.00156,   0.00041,   0.00121,-80912077.21301,   0.00000
-320033286.95526,-82381781.54355,156724598.86500,  -0.00285,   0.00066,   0.00325,395639924.71091,   0.00150,276270862.00737,  -0.00156,   0.00041,   0.00121,-80630937.29647,   0.00000
-320249257.20159,-82818744.60008,156895366.03652,  -0.00285,   0.00066,   0.00325,395909531.84530,   0.00150,276270862.00737,  -0.00156,   0.00041,   0.00121,-80361330.16208,   0.00000
-320500385.39500,-83270775.34822,157056088.08030,  -0.00285,   0.00066,   0.00325,396189409.10057,   0.00150,276270862.00737,  -0.00156,   0.00041,   0.00121,-80081452.90681,   0.00000
-320731423.33294,-83742896.35183,157216810.12408,  -0.00285,   0.00066,   0.00326,396451657.10134,   0.00150,276270862.00737,  -0.00156,   0.00041,   0.00121,-79819204.90604,   0.00000
-321032777.16503,-84245152.73864,157377532.16787,  -0.00285,   0.00065,   0.00326,396757983.31176,   0.00150,276270862.00737,  -0.00156,   0.00041,   0.00121,-79512878.69562,   0.00000
-321298973.05004,-84732341.43386,157528209.08391,  -0.00286,   0.00065,   0.00326,397030975.43215,   0.00150,276270862.00737,  -0.00156,   0.00041,   0.00121,-79239886.57522,   0.00000
-321565168.93505,-85219530.12907,157678885.99996,  -0.00286,   0.00065,   0.00326,397304400.75047,   0.00150,276270862.00737,  -0.00156,   0.00041,   0.00121,-78966461.25690,   0.00000
-321866522.76714,-85721786.51589,157819517.78827,  -0.00286,   0.00065,   0.00326,397588116.51657,   0.00150,276270862.00737,  -0.00156,   0.00041,   0.00121,-78682745.49080,   0.00000
-322218102.23792,-86274268.54139,157950104.44884,  -0.00286,   0.00065,   0.00327,397886076.94538,   0.00150,276270862.00737,  -0.00156,   0.00041,   0.00121,-78384785.06200,   0.00000
-322534523.76161,-86811682.87528,158080691.10941,  -0.00286,   0.00065,   0.00327,398162701.93670,   0.00150,276270862.00737,  -0.00156,   0.00041,   0.00121,-78108160.07068,   0.00000
-322886103.23238,-87364164.90078,158201232.64225,  -0.00286,   0.00064,   0.00327,398449680.92724,   0.00150,276270862.00737,  -0.00156,   0.00041,   0.00121,-77821181.08013,   0.00000
-323237682.70316,-87916646.92628,158321774.17508,  -0.00286,   0.00064,   0.00327,398737151.06123,   0.00150,276270862.00737,  -0.00156,   0.00041,   0.00121,-77533710.94615,   0.00000
-323604329.86553,-88504286.89886,158432270.58018,  -0.00286,   0.00064,   0.00327,399017234.88922,   0.00150,276270862.00737,  -0.00156,   0.00041,   0.00121,-77253627.11815,   0.00000
-323991067.28338,-89071836.61596,158542766.98528,  -0.00286,   0.00064,   0.00327,399315603.54877,   0.00150,276270862.00737,  -0.00156,   0.00041,   0.00121,-76955258.45860,   0.00000
-324392872.39284,-89674544.28014,158643218.26265,  -0.00286,   0.00064,   0.00328,399606667.42906,   0.00150,276270862.00737,  -0.00156,   0.00041,   0.00121,-76664194.57831,   0.00000
-324809745.19390,-90312409.89140,158733624.41227,  -0.00286,   0.00063,   0.00328,399890537.10461,   0.00150,276270862.00737,  -0.00156,   0.00041,   0.00121,-76380324.90276,   0.00000
-325211550.30335,-90915117.55558,158824030.56190,  -0.00286,   0.00063,   0.00328,400170816.99741,   0.00150,276270862.00737,  -0.00156,   0.00041,   0.00121,-76100045.00996,   0.00000
-325648513.35988,-91532892.91137,158914436.71153,  -0.00286,   0.00063,   0.00328,400473555.71140,   0.00150,276270862.00737,  -0.00156,   0.00041,   0.00121,-75797306.29597,   0.00000
-326100544.10802,-92185826.21423,158984752.60568,  -0.00286,   0.00063,   0.00328,400757280.68010,   0.00150,276270862.00737,  -0.00156,   0.00041,   0.00121,-75513581.32727,   0.00000
-326552574.85615,-92838759.51710,159055068.49984,  -0.00286,   0.00063,   0.00328,401041678.49933,   0.00150,276270862.00737,  -0.00156,   0.00041,   0.00121,-75229183.50804,   0.00000
-327039763.55137,-93506760.51156,159125384.39399,  -0.00286,   0.00062,   0.00328,401348671.64668,   0.00150,276270862.00737,  -0.00156,   0.00041,   0.00121,-74922190.36070,   0.00000
-327526952.24658,-94174761.50603,159185655.16041,  -0.00287,   0.00062,   0.00328,401644414.83056,   0.00150,276270862.00737,  -0.00156,   0.00041,   0.00121,-74626447.17682,   0.00000
-328029208.63340,-94877920.44758,159235880.79909,  -0.00287,   0.00062,   0.00328,401933389.43847,   0.00150,276270862.00737,  -0.00156,   0.00041,   0.00121,-74337472.56890,   0.00000
-328531465.02022,-95581079.38912,159286106.43777,  -0.00287,   0.00062,   0.00328,402223153.63230,   0.00150,276270862.00737,  -0.00156,   0.00041,   0.00121,-74047708.37507,   0.00000
-329053811.66251,-96264148.07519,159326286.94872,  -0.00287,   0.00062,   0.00328,402519203.84284,   0.00150,276270862.00737,  -0.00156,   0.00041,   0.00121,-73751658.16453,   0.00000
-329591225.99640,-96982374.70834,159356422.33193,  -0.00287,   0.00061,   0.00328,402808671.07476,   0.00150,276270862.00737,  -0.00156,   0.00041,   0.00121,-73462190.93262,   0.00000
-330143708.02190,-97735759.28857,159386557.71514,  -0.00287,   0.00061,   0.00328,403103615.65377,   0.00150,276270862.00737,  -0.00156,   0.00041,   0.00121,-73167246.35360,   0.00000
-330681122.35580,-98453985.92172,159406647.97061,  -0.00287,   0.00061,   0.00329,403382889.71280,   0.00150,276270862.00737,  -0.00156,   0.00041,   0.00121,-72887972.29458,   0.00000
-331268762.32837,-99222438.19355,159416693.09835,  -0.00287,   0.00061,   0.00329,403677887.62242,   0.00150,276270862.00737,  -0.00156,   0.00041,   0.00121,-72592974.38495,   0.00000
-331841334.60935,-99955732.51830,159426738.22608,  -0.00287,   0.00060,   0.00329,403969096.24633,   0.00150,276270862.00737,  -0.00156,   0.00041,   0.00121,-72301765.76104,   0.00000
-332428974.58192,-100724184.79013,159426738.22608,  -0.00287,   0.00060,   0.00329,404254130.04948,   0.00150,276270862.00737,  -0.00156,   0.00041,   0.00121,-72016731.95789,   0.00000
-333016614.55450,-101492637.06197,159416693.09835,  -0.00288,   0.00060,   0.00329,404528284.13571,   0.00150,276270862.00737,  -0.00156,   0.00041,   0.00121,-71742577.87166,   0.00000
-333639412.47415,-102276157.02540,159406647.97061,  -0.00288,   0.00060,   0.00329,404825581.16254,   0.00150,276270862.00737,  -0.00156,   0.00041,   0.00121,-71445280.84483,   0.00000
-334277278.08541,-103094834.93591,159386557.71514,  -0.00288,   0.00059,   0.00328,405117028.97861,   0.00150,276270862.00737,  -0.00156,   0.00041,   0.00121,-71153833.02876,   0.00000
-334900076.00507,-103878354.89935,159356422.33193,  -0.00288,   0.00059,   0.00328,405392788.03281,   0.00150,276270862.00737,  -0.00156,   0.00041,   0.00121,-70878073.97456,   0.00000
-335537941.61632,-104697032.80986,159326286.94872,  -0.00288,   0.00059,   0.00328,405674683.95199,   0.00150,276270862.00737,  -0.00156,   0.00041,   0.00121,-70596178.05538,   0.00000
-336210965.17466,-105530778.41198,159276061.31004,  -0.00288,   0.00059,   0.00328,405956333.30410,   0.00150,276270862.00737,  -0.00156,   0.00041,   0.00121,-70314528.70328,   0.00000
-336848830.78592,-106349456.32249,159235880.79909,  -0.00288,   0.00058,   0.00328,406228813.41255,   0.00150,276270862.00737,  -0.00156,   0.00041,   0.00121,-70042048.59482,   0.00000
-337557012.29133,-107198269.61622,159175610.03267,  -0.00289,   0.00058,   0.00328,406523434.04671,   0.00150,276270862.00737,  -0.00156,   0.00041,   0.00121,-69747427.96066,   0.00000
-338230035.84967,-108032015.21833,159115339.26625,  -0.00289,   0.00058,   0.00328,406797092.72835,   0.00150,276270862.00737,  -0.00156,   0.00041,   0.00121,-69473769.27902,   0.00000
-338903059.40800,-108865760.82045,159045023.37210,  -0.00289,   0.00058,   0.00328,407060261.54193,   0.00150,276270862.00737,  -0.00156,   0.00041,   0.00121,-69210600.46544,   0.00000
-339626308.60502,-109749732.06125,158964662.35021,  -0.00289,   0.00057,   0.00328,407340678.59985,   0.00150,276270862.00737,  -0.00156,   0.00041,   0.00121,-68930183.40752,   0.00000
-340349557.80204,-110633703.30205,158884301.32832,  -0.00289,   0.00057,   0.00328,407622582.09191,   0.00150,276270862.00737,  -0.00156,   0.00041,   0.00121,-68648279.91546,   0.00000
-341057739.30745,-111482516.59577,158783850.05096,  -0.00289,   0.00057,   0.00328,407877053.87358,   0.00150,276270862.00737,  -0.00156,   0.00041,   0.00121,-68393808.13380,   0.00000
-341816146.45155,-112381555.52817,158683398.77359,  -0.00289,   0.00057,   0.00328,408160905.64147,   0.00150,276270862.00737,  -0.00156,   0.00041,   0.00121,-68109956.36591,   0.00000
-342539395.64856,-113265526.76897,158582947.49623,  -0.00290,   0.00056,   0.00327,408423879.99241,   0.00150,276270862.00737,  -0.00156,   0.00041,   0.00121,-67846982.01497,   0.00000
-343297802.79266,-114164565.70138,158462405.96339,  -0.00290,   0.00056,   0.00327,408687517.80928,   0.00150,276270862.00737,  -0.00156,   0.00041,   0.00121,-67583344.19809,   0.00000
-344071277.62836,-115098762.58086,158341864.43056,  -0.00290,   0.00056,   0.00327,408958468.59535,   0.00150,276270862.00737,  -0.00156,   0.00041,   0.00121,-67312393.41203,   0.00000
-344864842.71953,-116012869.20487,158211277.76998,  -0.00290,   0.00056,   0.00327,409236375.35557,   0.00150,276270862.00737,  -0.00156,   0.00041,   0.00121,-67034486.65180,   0.00000
-345623249.86363,-116911908.13727,158070645.98167,  -0.00290,   0.00055,   0.00327,409481793.04533,   0.00150,276270862.00737,  -0.00156,   0.00041,   0.00121,-66789068.96204,   0.00000
-346431882.64640,-117861172.70836,157930014.19336,  -0.00290,   0.00055,   0.00327,409757373.99491,   0.00150,276270862.00737,  -0.00156,   0.00041,   0.00121,-66513488.01247,   0.00000
-347240515.42918,-118810437.27944,157769292.14958,  -0.00291,   0.00055,   0.00326,410011642.17485,   0.00150,276270862.00737,  -0.00156,   0.00041,   0.00121,-66259219.83252,   0.00000
-348034080.52035,-119724543.90345,157608570.10580,  -0.00291,   0.00055,   0.00326,410261928.74280,   0.00150,276270862.00737,  -0.00156,   0.00041,   0.00121,-66008933.26457,   0.00000
-348842713.30313,-120673808.47454,157437802.93428,  -0.00291,   0.00054,   0.00326,410508481.37631,   0.00150,276270862.00737,  -0.00156,   0.00041,   0.00121,-65762380.63107,   0.00000
-349651346.08590,-121623073.04562,157256990.63503,  -0.00291,   0.00054,   0.00326,410745478.15161,   0.00150,276270862.00737,  -0.00156,   0.00041,   0.00121,-65525383.85576,   0.00000
-350495136.81576,-122587405.30831,157076178.33577,  -0.00291,   0.00054,   0.00325,411007300.27338,   0.00150,276270862.00737,  -0.00156,   0.00041,   0.00121,-65263561.73399,   0.00000
-351338927.54561,-123551737.57100,156875275.78105,  -0.00292,   0.00053,   0.00325,411248216.22137,   0.00150,276270862.00737,  -0.00156,   0.00041,   0.00121,-65022645.78600,   0.00000
-352182718.27547,-124516069.83369,156674373.22632,  -0.00292,   0.00053,   0.00325,411491298.12585,   0.00150,276270862.00737,  -0.00156,   0.00041,   0.00121,-64779563.88152,   0.00000
-353041576.69692,-125515560.04346,156463425.54386,  -0.00292,   0.00053,   0.00325,411731356.67652,   0.00150,276270862.00737,  -0.00156,   0.00041,   0.00121,-64539505.33085,   0.00000
-353885367.42678,-126479892.30615,156242432.73366,  -0.00292,   0.00053,   0.00324,411955976.57431,   0.00150,276270862.00737,  -0.00156,   0.00041,   0.00121,-64314885.43306,   0.00000
-354764316.10371,-127459292.26044,156021439.92346,  -0.00292,   0.00052,   0.00324,412205836.52053,   0.00150,276270862.00737,  -0.00156,   0.00041,   0.00121,-64065025.48684,   0.00000
-355658332.47225,-128473850.16182,155780356.85778,  -0.00293,   0.00052,   0.00324,412441684.44244,   0.00150,276270862.00737,  -0.00156,   0.00041,   0.00121,-63829177.56494,   0.00000
-356537281.14918,-129453250.11611,155539273.79211,  -0.00293,   0.00052,   0.00323,412673556.28618,   0.00150,276270862.00737,  -0.00156,   0.00041,   0.00121,-63597305.72119,   0.00000
-357431297.51771,-130467808.01748,155288145.59870,  -0.00293,   0.00052,   0.00323,412903049.10542,   0.00150,276270862.00737,  -0.00156,   0.00041,   0.00121,-63367812.90195,   0.00000
-358325313.88625,-131482365.91885,155026972.27756,  -0.00293,   0.00051,   0.00323,413123794.37834,   0.00150,276270862.00737,  -0.00156,   0.00041,   0.00121,-63147067.62903,   0.00000
-359204262.56318,-132461765.87315,154755753.82868,  -0.00293,   0.00051,   0.00322,413329191.76215,   0.00150,276270862.00737,  -0.00156,   0.00041,   0.00121,-62941670.24522,   0.00000
-360133436.87879,-133491391.46613,154474490.25206,  -0.00294,   0.00051,   0.00322,413555842.38065,   0.00150,276270862.00737,  -0.00156,   0.00041,   0.00121,-62715019.62673,   0.00000
-361062611.19440,-134521017.05910,154183181.54770,  -0.00294,   0.00050,   0.00322,413774049.41558,   0.00150,276270862.00737,  -0.00156,   0.00041,   0.00121,-62496812.59179,   0.00000
-361956627.56294,-135535574.96047,153891872.84335,  -0.00294,   0.00050,   0.00321,413971760.23348,   0.00150,276270862.00737,  -0.00156,   0.00041,   0.00121,-62299101.77389,   0.00000
-362870734.18695,-136530042.60637,153580473.88352,  -0.00294,   0.00050,   0.00321,414166332.93785,   0.00150,276270862.00737,  -0.00156,   0.00041,   0.00121,-62104529.06952,   0.00000
-363835066.44964,-137574735.89095,153269074.92370,  -0.00295,   0.00050,   0.00321,414394109.92810,   0.00150,276270862.00737,  -0.00156,   0.00041,   0.00121,-61876752.07928,   0.00000
-364764240.76525,-138604361.48393,152947630.83613,  -0.00295,   0.00049,   0.00320,414590326.72644,   0.00150,276270862.00737,  -0.00156,   0.00041,   0.00121,-61680535.28093,   0.00000
-365693415.08086,-139633987.07691,152616141.62083,  -0.00295,   0.00049,   0.00320,414778440.41690,   0.00150,276270862.00737,  -0.00156,   0.00041,   0.00121,-61492421.59047,   0.00000
-366657747.34355,-140678680.36149,152274607.27780,  -0.00295,   0.00049,   0.00319,414982089.75752,   0.00150,276270862.00737,  -0.00156,   0.00041,   0.00121,-61288772.24986,   0.00000
-367622079.60624,-141723373.64607,151923027.80702,  -0.00295,   0.00048,   0.00319,415177896.61448,   0.00150,276270862.00737,  -0.00156,   0.00041,   0.00121,-61092965.39289,   0.00000
-368551253.92186,-142752999.23905,151561403.20852,  -0.00296,   0.00048,   0.00318,415342299.21363,   0.00150,276270862.00737,  -0.00156,   0.00041,   0.00121,-60928562.79375,   0.00000
-369515586.18455,-143797692.52363,151199778.61001,  -0.00296,   0.00048,   0.00318,415533603.11619,   0.00150,276270862.00737,  -0.00156,   0.00041,   0.00121,-60737258.89119,   0.00000
-370479918.44724,-144842385.80821,150818063.75603,  -0.00296,   0.00048,   0.00317,415706334.42697,   0.00150,276270862.00737,  -0.00156,   0.00041,   0.00121,-60564527.58040,   0.00000
-371479408.65701,-145902146.78439,150426303.77431,  -0.00296,   0.00047,   0.00317,415895374.92595,   0.00150,276270862.00737,  -0.00156,   0.00041,   0.00121,-60375487.08142,   0.00000
-372443740.91970,-146946840.06897,150034543.79259,  -0.00297,   0.00047,   0.00316,416064149.04201,   0.00150,276270862.00737,  -0.00156,   0.00041,   0.00121,-60206712.96537,   0.00000
-373408073.18239,-147991533.35356,149632738.68314,  -0.00297,   0.00047,   0.00316,416225562.88953,   0.00150,276270862.00737,  -0.00156,   0.00041,   0.00121,-60045299.11784,   0.00000
-374407563.39215,-149051294.32974,149210843.31821,  -0.00297,   0.00046,   0.00315,416392852.03683,   0.00150,276270862.00737,  -0.00156,   0.00041,   0.00121,-59878009.97054,   0.00000
-375371895.65484,-150095987.61432,148788947.95328,  -0.00297,   0.00046,   0.00315,416539917.94735,   0.00150,276270862.00737,  -0.00156,   0.00041,   0.00121,-59730944.06002,   0.00000
-376356318.17301,-151120590.64343,148357007.46062,  -0.00298,   0.00046,   0.00314,416696204.73251,   0.00150,276270862.00737,  -0.00156,   0.00041,   0.00121,-59574657.27486,   0.00000
-377355808.38277,-152180351.61962,147915021.84022,  -0.00298,   0.00046,   0.00314,416853315.91804,   0.00150,276270862.00737,  -0.00156,   0.00041,   0.00121,-59417546.08933,   0.00000
-378355298.59254,-153240112.59580,147462991.09208,  -0.00298,   0.00045,   0.00313,417003665.15099,   0.00150,276270862.00737,  -0.00156,   0.00041,   0.00121,-59267196.85639,   0.00000
-379354788.80231,-154299873.57199,147000915.21621,  -0.00298,   0.00045,   0.00312,417147357.70907,   0.00150,276270862.00737,  -0.00156,   0.00041,   0.00121,-59123504.29830,   0.00000
-380354279.01208,-155359634.54817,146528794.21260,  -0.00299,   0.00045,   0.00312,417284500.57938,   0.00150,276270862.00737,  -0.00156,   0.00041,   0.00121,-58986361.42799,   0.00000
-381338701.53024,-156384237.57728,146046628.08126,  -0.00299,   0.00044,   0.00311,417407146.16738,   0.00150,276270862.00737,  -0.00156,   0.00041,   0.00121,-58863715.84000,   0.00000
-382338191.74001,-157443998.55347,145554416.82217,  -0.00299,   0.00044,   0.00310,417531455.82771,   0.00150,276270862.00737,  -0.00156,   0.00041,   0.00121,-58739406.17967,   0.00000
-383337681.94977,-158503759.52965,145062205.56309,  -0.00299,   0.00044,   0.00310,417660013.50108,   0.00150,276270862.00737,  -0.00156,   0.00041,   0.00121,-58610848.50629,   0.00000
-384357262.41501,-159543430.25036,144549904.04854,  -0.00300,   0.00044,   0.00309,417788175.39659,   0.00150,276270862.00737,  -0.00156,   0.00041,   0.00121,-58482686.61078,   0.00000
-385356752.62478,-160603191.22655,144027557.40625,  -0.00300,   0.00043,   0.00309,417894124.71421,   0.00150,276270862.00737,  -0.00156,   0.00041,   0.00121,-58376737.29316,   0.00000
-386376333.09002,-161642861.94726,143495165.63622,  -0.00300,   0.00043,   0.00308,418010402.98554,   0.00150,276270862.00737,  -0.00156,   0.00041,   0.00121,-58260459.02183,   0.00000
-387360755.60818,-162667464.97637,142962773.86620,  -0.00300,   0.00043,   0.00307,418106602.59749,   0.00150,276270862.00737,  -0.00156,   0.00041,   0.00121,-58164259.40988,   0.00000
-388395403.76503,-163742293.64416,142410291.84070,  -0.00301,   0.00042,   0.00306,418219855.82558,   0.00150,276270862.00737,  -0.00156,   0.00041,   0.00121,-58051006.18179,   0.00000
-389414984.23027,-164781964.36487,141847764.68746,  -0.00301,   0.00042,   0.00306,418319166.07886,   0.00150,276270862.00737,  -0.00156,   0.00041,   0.00121,-57951695.92851,   0.00000
-390399406.74843,-165806567.39398,141285237.53422,  -0.00301,   0.00042,   0.00305,418398475.22452,   0.00150,276270862.00737,  -0.00156,   0.00041,   0.00121,-57872386.78285,   0.00000
-391418987.21367,-166846238.11469,140702620.12552,  -0.00301,   0.00042,   0.00304,418487021.43757,   0.00150,276270862.00737,  -0.00156,   0.00041,   0.00121,-57783840.56980,   0.00000
-392438567.67891,-167885908.83541,140109957.58907,  -0.00302,   0.00041,   0.00303,418570427.57147,   0.00150,276270862.00737,  -0.00156,   0.00041,   0.00121,-57700434.43591,   0.00000
-393458148.14415,-168925579.55612,139517295.05263,  -0.00302,   0.00041,   0.00303,418658867.00209,   0.00150,276270862.00737,  -0.00156,   0.00041,   0.00121,-57611995.00529,   0.00000
-394462660.91779,-169930092.32976,138904542.26071,  -0.00302,   0.00041,   0.00302,418723496.27064,   0.00150,276270862.00737,  -0.00156,   0.00041,   0.00121,-57547365.73673,   0.00000
-395482241.38303,-170969763.05047,138281744.34105,  -0.00302,   0.00041,   0.00301,418792168.60033,   0.00150,276270862.00737,  -0.00156,   0.00041,   0.00121,-57478693.40705,   0.00000
-396486754.15666,-171974275.82410,137648901.29366,  -0.00303,   0.00040,   0.00300,418847269.81207,   0.00150,276270862.00737,  -0.00156,   0.00041,   0.00121,-57423592.19530,   0.00000
-397506334.62190,-173013946.54482,137016058.24627,  -0.00303,   0.00040,   0.00299,418916665.56260,   0.00150,276270862.00737,  -0.00156,   0.00041,   0.00121,-57354196.44477,   0.00000
-398510847.39554,-174018459.31845,136363124.94341,  -0.00303,   0.00040,   0.00299,418962744.79124,   0.00150,276270862.00737,  -0.00156,   0.00041,   0.00121,-57308117.21613,   0.00000
-399515360.16917,-175022972.09209,135700146.51281,  -0.00303,   0.00039,   0.00298,419004519.46083,   0.00150,276270862.00737,  -0.00156,   0.00041,   0.00121,-57266342.54655,   0.00000
-400519872.94281,-176027484.86572,135037168.08221,  -0.00304,   0.00039,   0.00297,419051844.60685,   0.00150,276270862.00737,  -0.00156,   0.00041,   0.00121,-57219017.40052,   0.00000
-401524385.71644,-177031997.63936,134354099.39614,  -0.00304,   0.00039,   0.00296,419085395.21498,   0.00150,276270862.00737,  -0.00156,   0.00041,   0.00121,-57185466.79240,   0.00000
-402528898.49008,-178036510.41299,133660985.58233,  -0.00304,   0.00039,   0.00295,419115079.58153,   0.00150,276270862.00737,  -0.00156,   0.00041,   0.00121,-57155782.42584,   0.00000
-403518343.57211,-179005865.23955,132957826.64078,  -0.00305,   0.00038,   0.00294,419131666.84624,   0.00150,276270862.00737,  -0.00156,   0.00041,   0.00121,-57139195.16113,   0.00000
-404522856.34575,-180010378.01319,132244622.57150,  -0.00305,   0.00038,   0.00293,419154012.04097,   0.00150,276270862.00737,  -0.00156,   0.00041,   0.00121,-57116849.96641,   0.00000
-405512301.42778,-180979732.83975,131521373.37449,  -0.00305,   0.00038,   0.00292,419163449.37900,   0.00150,276270862.00737,  -0.00156,   0.00041,   0.00121,-57107412.62837,   0.00000
-406501746.50981,-181949087.66631,130788079.04973,  -0.00305,   0.00038,   0.00291,419169516.27052,   0.00150,276270862.00737,  -0.00156,   0.00041,   0.00121,-57101345.73685,   0.00000
-407491191.59184,-182918442.49286,130044739.59724,  -0.00306,   0.00037,   0.00290,419172371.01717,   0.00150,276270862.00737,  -0.00156,   0.00041,   0.00121,-57098490.99020,   0.00000
-408480636.67387,-183887797.31942,129291355.01702,  -0.00306,   0.00037,   0.00289,419172174.00645,   0.00150,276270862.00737,  -0.00156,   0.00041,   0.00121,-57098688.00092,   0.00000
-409455014.06430,-184821994.19890,128527925.30905,  -0.00306,   0.00037,   0.00288,419159359.43350,   0.00150,276270862.00737,  -0.00156,   0.00041,   0.00121,-57111502.57388,   0.00000
-410444459.14633,-185791349.02546,127754450.47335,  -0.00306,   0.00037,   0.00287,419153490.38156,   0.00150,276270862.00737,  -0.00156,   0.00041,   0.00121,-57117371.62581,   0.00000
-411418836.53676,-186725545.90494,126970930.50992,  -0.00307,   0.00036,   0.00286,419135220.76594,   0.00150,276270862.00737,  -0.00156,   0.00041,   0.00121,-57135641.24143,   0.00000
-412393213.92718,-187659742.78442,126167320.29101,  -0.00307,   0.00036,   0.00285,419105375.33147,   0.00150,276270862.00737,  -0.00156,   0.00041,   0.00121,-57165486.67590,   0.00000
-413367591.31761,-188593939.66390,125363710.07210,  -0.00307,   0.00036,   0.00284,419082326.59327,   0.00150,276270862.00737,  -0.00156,   0.00041,   0.00121,-57188535.41410,   0.00000
-414326901.01643,-189492978.59631,124550054.72546,  -0.00307,   0.00036,   0.00283,419047109.10987,   0.00150,276270862.00737,  -0.00156,   0.00041,   0.00121,-57223752.89750,   0.00000
-415301278.40686,-190427175.47579,123716309.12334,  -0.00308,   0.00036,   0.00282,419010962.88386,   0.00150,276270862.00737,  -0.00156,   0.00041,   0.00121,-57259899.12351,   0.00000
-416260588.10568,-191326214.40819,122882563.52122,  -0.00308,   0.00035,   0.00281,418971846.61133,   0.00150,276270862.00737,  -0.00156,   0.00041,   0.00121,-57299015.39604,   0.00000
-417184739.85742,-192210185.64899,122028727.66363,  -0.00308,   0.00035,   0.00280,418895855.15354,   0.00150,276270862.00737,  -0.00156,   0.00041,   0.00121,-57375006.85383,   0.00000
-418144049.55625,-193109224.58140,121164846.67830,  -0.00308,   0.00035,   0.00279,418844727.59762,   0.00150,276270862.00737,  -0.00156,   0.00041,   0.00121,-57426134.40976,   0.00000
-419088291.56346,-193973105.56672,120300965.69298,  -0.00309,   0.00035,   0.00278,418790725.09734,   0.00150,276270862.00737,  -0.00156,   0.00041,   0.00121,-57480136.91004,   0.00000
-420012443.31521,-194857076.80752,119416994.45218,  -0.00309,   0.00034,   0.00277,418710630.01358,   0.00150,276270862.00737,  -0.00156,   0.00041,   0.00121,-57560231.99379,   0.00000
-420956685.32242,-195720957.79285,118522978.08364,  -0.00309,   0.00034,   0.00275,418645754.30527,   0.00150,276270862.00737,  -0.00156,   0.00041,   0.00121,-57625107.70210,   0.00000
-421865769.38257,-196569771.08657,117618916.58737,  -0.00309,   0.00034,   0.00274,418553429.30448,   0.00150,276270862.00737,  -0.00156,   0.00041,   0.00121,-57717432.70289,   0.00000
-422759785.75110,-197383426.43322,116704809.96336,  -0.00310,   0.00034,   0.00273,418449897.13807,   0.00150,276270862.00737,  -0.00156,   0.00041,   0.00121,-57820964.86930,   0.00000
-423704027.75832,-198247307.41854,115780658.21162,  -0.00310,   0.00034,   0.00272,418383075.46983,   0.00150,276270862.00737,  -0.00156,   0.00041,   0.00121,-57887786.53755,   0.00000
-424598044.12685,-199060962.76519,114846461.33214,  -0.00310,   0.00033,   0.00271,418278614.75670,   0.00150,276270862.00737,  -0.00156,   0.00041,   0.00121,-57992247.25067,   0.00000
-425492060.49539,-199874618.11183,113892174.19718,  -0.00310,   0.00033,   0.00269,418165727.24090,   0.00150,276270862.00737,  -0.00156,   0.00041,   0.00121,-58105134.76647,   0.00000
-426371009.17232,-200653115.51140,112937887.06223,  -0.00311,   0.00033,   0.00268,418050401.11825,   0.00150,276270862.00737,  -0.00156,   0.00041,   0.00121,-58220460.88912,   0.00000
-427265025.54086,-201466770.85804,111973554.79954,  -0.00311,   0.00033,   0.00267,417945914.84717,   0.00150,276270862.00737,  -0.00156,   0.00041,   0.00121,-58324947.16021,   0.00000
-428143974.21779,-202245268.25761,110989132.28138,  -0.00311,   0.00033,   0.00266,417823025.60624,   0.00150,276270862.00737,  -0.00156,   0.00041,   0.00121,-58447836.40113,   0.00000
-429022922.89472,-203023765.65718,109994664.63548,  -0.00311,   0.00032,   0.00264,417700786.65981,   0.00150,276270862.00737,  -0.00156,   0.00041,   0.00121,-58570075.34756,   0.00000
-429851645.93297,-203752037.41807,109000196.98958,  -0.00312,   0.00032,   0.00263,417549171.29392,   0.00150,276270862.00737,  -0.00156,   0.00041,   0.00121,-58721690.71345,   0.00000
-430715526.91829,-204495376.87056,107985639.08821,  -0.00312,   0.00032,   0.00262,417417758.41073,   0.00150,276270862.00737,  -0.00156,   0.00041,   0.00121,-58853103.59664,   0.00000
-431544249.95654,-205223648.63144,106961036.05910,  -0.00312,   0.00032,   0.00260,417260218.34182,   0.00150,276270862.00737,  -0.00156,   0.00041,   0.00121,-59010643.66555,   0.00000
-432408130.94187,-205966988.08393,105926387.90225,  -0.00312,   0.00032,   0.00259,417131382.77282,   0.00150,276270862.00737,  -0.00156,   0.00041,   0.00121,-59139479.23455,   0.00000
-433221786.28852,-206660101.89774,104881694.61767,  -0.00313,   0.00032,   0.00258,416965663.97044,   0.00150,276270862.00737,  -0.00156,   0.00041,   0.00121,-59305198.03693,   0.00000
-434035441.63516,-207353215.71155,103826956.20535,  -0.00313,   0.00031,   0.00256,416801615.41208,   0.00150,276270862.00737,  -0.00156,   0.00041,   0.00121,-59469246.59529,   0.00000
-434849096.98180,-208046329.52536,102752127.53756,  -0.00313,   0.00031,   0.00255,416632035.48320,   0.00150,276270862.00737,  -0.00156,   0.00041,   0.00121,-59638826.52418,   0.00000
-435647684.63684,-208704285.39209,101677298.86977,  -0.00313,   0.00031,   0.00253,416460879.89387,   0.00150,276270862.00737,  -0.00156,   0.00041,   0.00121,-59809982.11350,   0.00000
-436446272.29189,-209362241.25882,100582379.94651,  -0.00314,   0.00031,   0.00252,416284725.12624,   0.00150,276270862.00737,  -0.00156,   0.00041,   0.00121,-59986136.88114,   0.00000
-437209701.99985,-210005129.43395,99487461.02325,  -0.00314,   0.00031,   0.00251,416090690.30161,   0.00150,276270862.00737,  -0.00156,   0.00041,   0.00121,-60180171.70577,   0.00000
-438008289.65489,-210663085.30068,98372451.84451,  -0.00314,   0.00031,   0.00249,415919989.27021,   0.00150,276270862.00737,  -0.00156,   0.00041,   0.00121,-60350872.73716,   0.00000
-438756651.67125,-211270815.52873,97247397.53804,  -0.00314,   0.00031,   0.00248,415713182.67101,   0.00150,276270862.00737,  -0.00156,   0.00041,   0.00121,-60557679.33636,   0.00000
-439489945.99600,-211843387.80970,96112298.10383,  -0.00315,   0.00030,   0.00246,415498154.10247,   0.00150,276270862.00737,  -0.00156,   0.00041,   0.00121,-60772707.90490,   0.00000
-440238308.01236,-212451118.03775,94967153.54189,  -0.00315,   0.00030,   0.00245,415297971.83751,   0.00150,276270862.00737,  -0.00156,   0.00041,   0.00121,-60972890.16987,   0.00000
-440971602.33711,-213023690.31872,93811963.85221,  -0.00315,   0.00030,   0.00243,415089993.05522,   0.00150,276270862.00737,  -0.00156,   0.00041,   0.00121,-61180868.95216,   0.00000
-441689828.97026,-213561104.65262,92646729.03479,  -0.00315,   0.00030,   0.00242,414874356.70339,   0.00150,276270862.00737,  -0.00156,   0.00041,   0.00121,-61396505.30399,   0.00000
-442423123.29502,-214133676.93359,91461403.96190,  -0.00315,   0.00030,   0.00240,414667730.49715,   0.00150,276270862.00737,  -0.00156,   0.00041,   0.00121,-61603131.51022,   0.00000
-443106191.98109,-214656023.57588,90276078.88901,  -0.00316,   0.00030,   0.00239,414432387.60454,   0.00150,276270862.00737,  -0.00156,   0.00041,   0.00121,-61838474.40283,   0.00000
-443774192.97556,-215143212.27109,89070663.56065,  -0.00316,   0.00030,   0.00237,414183389.40506,   0.00150,276270862.00737,  -0.00156,   0.00041,   0.00121,-62087472.60232,   0.00000
-444477351.91710,-215645468.65791,87865248.23228,  -0.00316,   0.00030,   0.00235,413973988.55327,   0.00150,276270862.00737,  -0.00156,   0.00041,   0.00121,-62296873.45411,   0.00000
-445145352.91157,-216132657.35312,86639742.64845,  -0.00316,   0.00030,   0.00234,413734936.61847,   0.00150,276270862.00737,  -0.00156,   0.00041,   0.00121,-62535925.38891,   0.00000
-445778195.95896,-216604778.35673,85404191.93688,  -0.00316,   0.00030,   0.00232,413472817.32735,   0.00150,276270862.00737,  -0.00156,   0.00041,   0.00121,-62798044.68003,   0.00000
-446431129.26182,-217056809.10487,84158596.09757,  -0.00317,   0.00029,   0.00231,413232988.81074,   0.00150,276270862.00737,  -0.00156,   0.00041,   0.00121,-63037873.19663,   0.00000
-447033836.92600,-217458614.21432,82902955.13053,  -0.00317,   0.00029,   0.00229,412958643.78419,   0.00150,276270862.00737,  -0.00156,   0.00041,   0.00121,-63312218.22318,   0.00000
-447686770.22887,-217910644.96246,81637269.03574,  -0.00317,   0.00029,   0.00227,412730798.06457,   0.00150,276270862.00737,  -0.00156,   0.00041,   0.00121,-63540063.94280,   0.00000
-448274410.20144,-218277292.12484,80351492.68549,  -0.00317,   0.00029,   0.00226,412451070.84542,   0.00150,276270862.00737,  -0.00156,   0.00041,   0.00121,-63819791.16195,   0.00000
-448877117.86563,-218679097.23429,79065716.33524,  -0.00317,   0.00029,   0.00224,412195747.31598,   0.00150,276270862.00737,  -0.00156,   0.00041,   0.00121,-64075114.69139,   0.00000
-449464757.83820,-219045744.39667,77759849.72951,  -0.00318,   0.00029,   0.00222,411929662.57114,   0.00150,276270862.00737,  -0.00156,   0.00041,   0.00121,-64341199.43623,   0.00000
-450017239.86370,-219397323.86744,76453983.12378,  -0.00318,   0.00029,   0.00221,411647614.32675,   0.00150,276270862.00737,  -0.00156,   0.00041,   0.00121,-64623247.68062,   0.00000
-450554654.19760,-219713745.39113,75128026.26259,  -0.00318,   0.00029,   0.00219,411355365.52486,   0.00150,276270862.00737,  -0.00156,   0.00041,   0.00121,-64915496.48251,   0.00000
-451112158.78696,-220010076.65936,73792024.27365,  -0.00318,   0.00029,   0.00217,411087802.71326,   0.00150,276270862.00737,  -0.00156,   0.00041,   0.00121,-65183059.29412,   0.00000
-451614415.17378,-220311430.49145,72445977.15698,  -0.00318,   0.00029,   0.00215,410782360.11194,   0.00150,276270862.00737,  -0.00156,   0.00041,   0.00121,-65488501.89543,   0.00000
-452136761.81607,-220592694.06807,71089884.91257,  -0.00319,   0.00029,   0.00214,410502176.48164,   0.00150,276270862.00737,  -0.00156,   0.00041,   0.00121,-65768685.52574,   0.00000
-452644040.76676,-220838799.69761,69723747.54043,  -0.00319,   0.00029,   0.00212,410218526.34124,   0.00150,276270862.00737,  -0.00156,   0.00041,   0.00121,-66052335.66614,   0.00000
-453116161.77037,-221069837.63554,68337519.91281,  -0.00319,   0.00029,   0.00210,409909578.73731,   0.00150,276270862.00737,  -0.00156,   0.00041,   0.00121,-66361283.27006,   0.00000
-453588282.77398,-221300875.57348,66951292.28519,  -0.00319,   0.00029,   0.00208,409614880.45193,   0.00150,276270862.00737,  -0.00156,   0.00041,   0.00121,-66655981.55544,   0.00000
-454045336.08598,-221496755.56434,65544974.40210,  -0.00319,   0.00029,   0.00206,409312645.94795,   0.00150,276270862.00737,  -0.00156,   0.00041,   0.00121,-66958216.05942,   0.00000
-454487321.70638,-221657477.60812,64138656.51901,  -0.00319,   0.00029,   0.00205,409012898.83978,   0.00150,276270862.00737,  -0.00156,   0.00041,   0.00121,-67257963.16760,   0.00000
-454894149.37970,-221803131.96030,62712248.38045,  -0.00320,   0.00029,   0.00203,408689182.30758,   0.00150,276270862.00737,  -0.00156,   0.00041,   0.00121,-67581679.69979,   0.00000
-455336135.00010,-221963854.00408,61275795.11415,  -0.00320,   0.00029,   0.00201,408405379.65341,   0.00150,276270862.00737,  -0.00156,   0.00041,   0.00121,-67865482.35396,   0.00000
-455727894.98182,-222074350.40918,59829296.72012,  -0.00320,   0.00029,   0.00199,408090785.69708,   0.00150,276270862.00737,  -0.00156,   0.00041,   0.00121,-68180076.31029,   0.00000
-456084497.01646,-222169779.12267,58372753.19834,  -0.00320,   0.00029,   0.00197,407757798.40319,   0.00150,276270862.00737,  -0.00156,   0.00041,   0.00121,-68513063.60418,   0.00000
-456461189.30657,-222245117.58070,56906164.54884,  -0.00320,   0.00029,   0.00195,407453523.28105,   0.00150,276270862.00737,  -0.00156,   0.00041,   0.00121,-68817338.72632,   0.00000
-456802723.64961,-222305388.34711,55429530.77159,  -0.00320,   0.00029,   0.00193,407131435.51879,   0.00150,276270862.00737,  -0.00156,   0.00041,   0.00121,-69139426.48858,   0.00000
-457129190.30104,-222330501.16645,53932806.73888,  -0.00320,   0.00029,   0.00191,406805149.08856,   0.00150,276270862.00737,  -0.00156,   0.00041,   0.00121,-69465712.91881,   0.00000
-457455656.95247,-222355613.98580,52436082.70616,  -0.00321,   0.00029,   0.00189,406495377.56852,   0.00150,276270862.00737,  -0.00156,   0.00041,   0.00121,-69775484.43885,   0.00000
-457767055.91230,-222345568.85806,50929313.54571,  -0.00321,   0.00029,   0.00187,406186087.83763,   0.00150,276270862.00737,  -0.00156,   0.00041,   0.00121,-70084774.16974,   0.00000
-458043296.92505,-222320456.03872,49402454.12978,  -0.00321,   0.00029,   0.00185,405856452.20387,   0.00150,276270862.00737,  -0.00156,   0.00041,   0.00121,-70414409.80350,   0.00000
-458304470.24619,-222260185.27230,47865549.58612,  -0.00321,   0.00029,   0.00184,405528141.37668,   0.00150,276270862.00737,  -0.00156,   0.00041,   0.00121,-70742720.63070,   0.00000
-458550575.87574,-222164756.55880,46318599.91472,  -0.00321,   0.00030,   0.00181,405201518.66404,   0.00150,276270862.00737,  -0.00156,   0.00041,   0.00121,-71069343.34333,   0.00000
-458811749.19688,-222104485.79239,44761605.11558,  -0.00321,   0.00030,   0.00179,404901568.35568,   0.00150,276270862.00737,  -0.00156,   0.00041,   0.00121,-71369293.65169,   0.00000
-459007629.18774,-221958831.44021,43194565.18871,  -0.00321,   0.00030,   0.00177,404561788.72420,   0.00150,276270862.00737,  -0.00156,   0.00041,   0.00121,-71709073.28317,   0.00000
-459238667.12568,-221828244.77964,41617480.13410,  -0.00322,   0.00030,   0.00175,404267065.26762,   0.00150,276270862.00737,  -0.00156,   0.00041,   0.00121,-72003796.73976,   0.00000
-459399389.16946,-221667522.73586,40030349.95176,  -0.00322,   0.00030,   0.00173,403927780.19510,   0.00150,276270862.00737,  -0.00156,   0.00041,   0.00121,-72343081.81227,   0.00000
-459580201.46871,-221486710.43660,38433174.64168,  -0.00322,   0.00030,   0.00171,403622031.38093,   0.00150,276270862.00737,  -0.00156,   0.00041,   0.00121,-72648830.62645,   0.00000
-459710788.12928,-221255672.49866,36825954.20386,  -0.00322,   0.00030,   0.00169,403290112.03093,   0.00150,276270862.00737,  -0.00156,   0.00041,   0.00121,-72980749.97644,   0.00000
-459876532.73693,-221039702.25233,35198643.51057,  -0.00322,   0.00030,   0.00167,403002279.12493,   0.00150,276270862.00737,  -0.00156,   0.00041,   0.00121,-73268582.88244,   0.00000
-459971961.45043,-220793596.62279,33571332.81728,  -0.00322,   0.00030,   0.00165,402673884.27522,   0.00150,276270862.00737,  -0.00156,   0.00041,   0.00121,-73596977.73216,   0.00000
-460072412.72779,-220492242.79070,31923931.86852,  -0.00322,   0.00031,   0.00163,402366087.33019,   0.00150,276270862.00737,  -0.00156,   0.00041,   0.00121,-73904774.67719,   0.00000
-460152773.74968,-220210979.21408,30266485.79202,  -0.00322,   0.00031,   0.00161,402058376.54134,   0.00150,276270862.00737,  -0.00156,   0.00041,   0.00121,-74212485.46604,   0.00000
-460202999.38837,-219859399.74331,28609039.71552,  -0.00322,   0.00031,   0.00158,401746726.87686,   0.00150,276270862.00737,  -0.00156,   0.00041,   0.00121,-74524135.13051,   0.00000
-460253225.02705,-219507820.27254,26931503.38355,  -0.00322,   0.00031,   0.00156,401451677.95514,   0.00150,276270862.00737,  -0.00156,   0.00041,   0.00121,-74819184.05223,   0.00000
-460303450.66573,-219156240.80177,25243921.92384,  -0.00323,   0.00031,   0.00154,401175918.37428,   0.00150,276270862.00737,  -0.00156,   0.00041,   0.00121,-75094943.63309,   0.00000
-460303450.66573,-218754435.69231,23546295.33640,  -0.00323,   0.00031,   0.00152,400877328.24948,   0.00150,276270862.00737,  -0.00156,   0.00041,   0.00121,-75393533.75789,   0.00000
-460288382.97412,-218317472.63578,21838623.62122,  -0.00323,   0.00032,   0.00150,400586687.68382,   0.00150,276270862.00737,  -0.00156,   0.00041,   0.00121,-75684174.32355,   0.00000
-460273315.28252,-217880509.57925,20120906.77830,  -0.00323,   0.00032,   0.00147,400316636.43288,   0.00150,276270862.00737,  -0.00156,   0.00041,   0.00121,-75954225.57450,   0.00000
-460208021.95223,-217393320.88404,18393144.80765,  -0.00323,   0.00032,   0.00145,400025064.93000,   0.00150,276270862.00737,  -0.00156,   0.00041,   0.00121,-76245797.07737,   0.00000
-460127660.93034,-216870974.24175,16655337.70926,  -0.00323,   0.00032,   0.00143,399742855.52450,   0.00150,276270862.00737,  -0.00156,   0.00041,   0.00121,-76528006.48287,   0.00000
-460047299.90845,-216348627.59945,14897440.35540,  -0.00323,   0.00032,   0.00141,399481471.45847,   0.00150,276270862.00737,  -0.00156,   0.00041,   0.00121,-76789390.54890,   0.00000
-459931780.93948,-215811213.26556,13139543.00154,  -0.00323,   0.00033,   0.00138,399213263.80300,   0.00150,276270862.00737,  -0.00156,   0.00041,   0.00121,-77057598.20437,   0.00000
-459821284.53438,-215218550.72911,11371600.51994,  -0.00323,   0.00033,   0.00136,398974319.63982,   0.00150,276270862.00737,  -0.00156,   0.00041,   0.00121,-77296542.36755,   0.00000
-459690697.87381,-214645978.44814,9583567.78287,  -0.00323,   0.00033,   0.00134,398739524.57887,   0.00150,276270862.00737,  -0.00156,   0.00041,   0.00121,-77531337.42850,   0.00000
-459494817.88295,-213988022.58141,7795535.04579,  -0.00323,   0.00033,   0.00131,398474949.15535,   0.00150,276270862.00737,  -0.00156,   0.00041,   0.00121,-77795912.85202,   0.00000
-459334095.83917,-213345134.40628,5987412.05325,  -0.00323,   0.00034,   0.00129,398264749.72098,   0.00150,276270862.00737,  -0.00156,   0.00041,   0.00121,-78006112.28640,   0.00000
-459123148.15671,-212652020.59248,4179289.06071,  -0.00323,   0.00034,   0.00127,398037537.48892,   0.00150,276270862.00737,  -0.00156,   0.00041,   0.00121,-78233324.51845,   0.00000
-458912200.47424,-211958906.77867,2351075.81269,  -0.00323,   0.00034,   0.00124,397835443.69430,   0.00150,276270862.00737,  -0.00156,   0.00041,   0.00121,-78435418.31308,   0.00000
-458651027.15310,-211215567.32618,522862.56467,  -0.00323,   0.00035,   0.00122,397617107.07717,   0.00150,276270862.00737,  -0.00156,   0.00041,   0.00121,-78653754.93020,   0.00000
-458374786.14035,-210437069.92661,-1325440.93882,  -0.00323,   0.00035,   0.00120,397413422.55382,   0.00150,276270862.00737,  -0.00156,   0.00041,   0.00121,-78857439.45355,   0.00000
-458098545.12760,-209658572.52704,-3183789.57004,  -0.00323,   0.00035,   0.00117,397236851.99389,   0.00150,276270862.00737,  -0.00156,   0.00041,   0.00121,-79034010.01349,   0.00000
-457807236.42325,-208844917.18040,-5042138.20127,  -0.00323,   0.00035,   0.00115,397075836.90159,   0.00150,276270862.00737,  -0.00156,   0.00041,   0.00121,-79195025.10578,   0.00000
-457465702.08021,-207981036.19507,-6920577.08797,  -0.00323,   0.00036,   0.00112,396901086.43824,   0.00150,276270862.00737,  -0.00156,   0.00041,   0.00121,-79369775.56913,   0.00000
-457124167.73717,-207117155.20974,-8809061.10240,  -0.00323,   0.00036,   0.00110,396755040.52848,   0.00150,276270862.00737,  -0.00156,   0.00041,   0.00121,-79515821.47890,   0.00000
-456767565.70253,-206218116.27734,-10707590.24457,  -0.00323,   0.00036,   0.00107,396626689.78470,   0.00150,276270862.00737,  -0.00156,   0.00041,   0.00121,-79644172.22268,   0.00000
-456360738.02921,-205268851.70625,-12606119.38674,  -0.00323,   0.00037,   0.00105,396485211.29328,   0.00150,276270862.00737,  -0.00156,   0.00041,   0.00121,-79785650.71410,   0.00000
-455953910.35589,-204319587.13517,-14524738.78439,  -0.00323,   0.00037,   0.00102,396374887.51130,   0.00150,276270862.00737,  -0.00156,   0.00041,   0.00121,-79895974.49608,   0.00000
-455532014.99096,-203335164.61701,-16453403.30977,  -0.00323,   0.00037,   0.00100,396284079.96848,   0.00150,276270862.00737,  -0.00156,   0.00041,   0.00121,-79986782.03889,   0.00000
-455110119.62603,-202350742.09884,-18392112.96288,  -0.00323,   0.00038,   0.00097,396224662.06519,   0.00150,276270862.00737,  -0.00156,   0.00041,   0.00121,-80046199.94219,   0.00000
-454622930.93082,-201280935.99492,-20340867.74374,  -0.00323,   0.00038,   0.00095,396144352.68260,   0.00150,276270862.00737,  -0.00156,   0.00041,   0.00121,-80126509.32477,   0.00000
-454135742.23561,-200211129.89100,-22289622.52459,  -0.00323,   0.00039,   0.00092,396094964.17918,   0.00150,276270862.00737,  -0.00156,   0.00041,   0.00121,-80175897.82820,   0.00000
-453613395.59332,-199126256.09547,-24258467.56092,  -0.00323,   0.00039,   0.00090,396049821.47990,   0.00150,276270862.00737,  -0.00156,   0.00041,   0.00121,-80221040.52748,   0.00000
-453060913.56782,-197971066.40579,-26237357.72498,  -0.00323,   0.00039,   0.00087,396016387.47925,   0.00150,276270862.00737,  -0.00156,   0.00041,   0.00121,-80254474.52813,   0.00000
-452508431.54232,-196815876.71611,-28226293.01678,  -0.00323,   0.00040,   0.00085,396017293.96757,   0.00150,276270862.00737,  -0.00156,   0.00041,   0.00121,-80253568.03981,   0.00000
-451940881.82521,-195625529.07935,-30225273.43631,  -0.00323,   0.00040,   0.00082,396042214.46177,   0.00150,276270862.00737,  -0.00156,   0.00041,   0.00121,-80228647.54561,   0.00000
-451338174.16103,-194420113.75099,-32224253.85585,  -0.00323,   0.00041,   0.00079,396069837.95173,   0.00150,276270862.00737,  -0.00156,   0.00041,   0.00121,-80201024.05565,   0.00000
-450720398.80525,-193179540.47555,-34243324.53085,  -0.00323,   0.00041,   0.00077,396125067.44477,   0.00150,276270862.00737,  -0.00156,   0.00041,   0.00121,-80145794.56260,   0.00000
-450087555.75786,-191903809.25303,-36272440.33360,  -0.00323,   0.00042,   0.00074,396206301.30003,   0.00150,276270862.00737,  -0.00156,   0.00041,   0.00121,-80064560.70734,   0.00000
-449404487.07178,-190577852.39183,-38301556.13634,  -0.00323,   0.00042,   0.00071,396281208.77546,   0.00150,276270862.00737,  -0.00156,   0.00041,   0.00121,-79989653.23192,   0.00000
-448721418.38571,-189251895.53064,-40350762.19456,  -0.00323,   0.00043,   0.00069,396396725.91279,   0.00150,276270862.00737,  -0.00156,   0.00041,   0.00121,-79874136.09459,   0.00000
-448023282.00803,-187890780.72236,-42410013.38051,  -0.00323,   0.00043,   0.00066,396540275.59408,   0.00150,276270862.00737,  -0.00156,   0.00041,   0.00121,-79730586.41329,   0.00000
-447310077.93875,-186494507.96701,-44469264.56646,  -0.00323,   0.00044,   0.00063,396709189.34001,   0.00150,276270862.00737,  -0.00156,   0.00041,   0.00121,-79561672.66737,   0.00000
-446561715.92239,-185083167.52005,-46548606.00789,  -0.00323,   0.00044,   0.00061,396890924.95865,   0.00150,276270862.00737,  -0.00156,   0.00041,   0.00121,-79379937.04872,   0.00000
-445798286.21443,-183636669.12601,-48627947.44931,  -0.00323,   0.00045,   0.00058,397099052.72654,   0.00150,276270862.00737,  -0.00156,   0.00041,   0.00121,-79171809.28083,   0.00000
-444984630.86779,-182139945.09330,-50727379.14621,  -0.00323,   0.00045,   0.00055,397311724.03875,   0.00150,276270862.00737,  -0.00156,   0.00041,   0.00121,-78959137.96863,   0.00000
-444155907.82954,-180608063.11350,-52826810.84311,  -0.00323,   0.00046,   0.00053,397552034.98352,   0.00150,276270862.00737,  -0.00156,   0.00041,   0.00121,-78718827.02385,   0.00000
-443327184.79129,-179076181.13371,-54936287.66775,  -0.00323,   0.00046,   0.00050,397834034.85293,   0.00150,276270862.00737,  -0.00156,   0.00041,   0.00121,-78436827.15445,   0.00000
-442483394.06143,-177509141.20684,-57055809.62012,  -0.00323,   0.00047,   0.00047,398148588.07762,   0.00150,276270862.00737,  -0.00156,   0.00041,   0.00121,-78122273.92975,   0.00000
-441589377.69290,-175891875.64128,-59195421.82796,  -0.00322,   0.00047,   0.00044,398471379.64766,   0.00150,276270862.00737,  -0.00156,   0.00041,   0.00121,-77799482.35971,   0.00000
-440680293.63276,-174239452.12865,-61335034.03580,  -0.00322,   0.00048,   0.00042,398823988.93297,   0.00150,276270862.00737,  -0.00156,   0.00041,   0.00121,-77446873.07441,   0.00000
-439736051.62554,-172571960.92442,-63484691.37138,  -0.00322,   0.00048,   0.00039,399191285.21788,   0.00150,276270862.00737,  -0.00156,   0.00041,   0.00121,-77079576.78950,   0.00000
-438811899.87380,-170884379.46471,-65644393.83470,  -0.00322,   0.00049,   0.00036,399623341.07257,   0.00150,276270862.00737,  -0.00156,   0.00041,   0.00121,-76647520.93481,   0.00000
-437837522.48337,-169146572.36632,-67804096.29802,  -0.00322,   0.00050,   0.00033,400057157.51702,   0.00150,276270862.00737,  -0.00156,   0.00041,   0.00121,-76213704.49035,   0.00000
-436812919.45426,-167358539.62925,-69983889.01681,  -0.00322,   0.00050,   0.00030,400503769.35016,   0.00150,276270862.00737,  -0.00156,   0.00041,   0.00121,-75767092.65721,   0.00000
-435823474.37223,-165585574.58378,-72173726.86333,  -0.00322,   0.00051,   0.00027,401025863.81819,   0.00150,276270862.00737,  -0.00156,   0.00041,   0.00121,-75244998.18918,   0.00000
-434783803.65152,-163762383.89963,-74363564.70986,  -0.00322,   0.00051,   0.00025,401551567.54808,   0.00150,276270862.00737,  -0.00156,   0.00041,   0.00121,-74719294.45929,   0.00000
-433729065.23920,-161904035.26841,-76573492.81186,  -0.00322,   0.00052,   0.00022,402121663.42820,   0.00150,276270862.00737,  -0.00156,   0.00041,   0.00121,-74149198.57917,   0.00000
-432624101.18820,-159995460.99850,-78783420.91385,  -0.00321,   0.00053,   0.00019,402696846.51487,   0.00150,276270862.00737,  -0.00156,   0.00041,   0.00121,-73574015.49250,   0.00000
-431519137.13720,-158086886.72859,-81003394.14359,  -0.00321,   0.00053,   0.00016,403320421.13646,   0.00150,276270862.00737,  -0.00156,   0.00041,   0.00121,-72950440.87091,   0.00000
-430399105.39460,-156143154.51161,-83233412.50106,  -0.00321,   0.00054,   0.00013,403984657.48062,   0.00150,276270862.00737,  -0.00156,   0.00041,   0.00121,-72286204.52675,   0.00000
-429228848.01331,-154149196.65594,-85473475.98627,  -0.00321,   0.00055,   0.00010,404661886.00513,   0.00150,276270862.00737,  -0.00156,   0.00041,   0.00121,-71608976.00225,   0.00000
-428043522.94042,-152120080.85320,-87723584.59921,  -0.00321,   0.00055,   0.00007,405381355.14161,   0.00150,276270862.00737,  -0.00156,   0.00041,   0.00121,-70889506.86576,   0.00000
-426843130.17593,-150055807.10338,-89983738.33989,  -0.00321,   0.00056,   0.00004,406143733.32063,   0.00150,276270862.00737,  -0.00156,   0.00041,   0.00121,-70127128.68675,   0.00000
-425642737.41143,-147991533.35356,-92243892.08057,  -0.00321,   0.00057,   0.00001,406950266.44988,   0.00150,276270862.00737,  -0.00156,   0.00041,   0.00121,-69320595.55749,   0.00000
-424392119.00826,-145877033.96505,-94524136.07672,  -0.00320,   0.00058,  -0.00002,407779539.77467,   0.00150,276270862.00737,  -0.00156,   0.00041,   0.00121,-68491322.23270,   0.00000
-423126432.91348,-143727376.62947,-96804380.07288,  -0.00320,   0.00058,  -0.00005,408646483.94611,   0.00150,276270862.00737,  -0.00156,   0.00041,   0.00121,-67624378.06127,   0.00000
-421845679.12709,-141542561.34681,-99094669.19677,  -0.00320,   0.00059,  -0.00008,409558562.53255,   0.00150,276270862.00737,  -0.00156,   0.00041,   0.00121,-66712299.47482,   0.00000
-420514699.70202,-139307520.42548,-101395003.44839,  -0.00320,   0.00060,  -0.00011,410488949.87262,   0.00150,276270862.00737,  -0.00156,   0.00041,   0.00121,-65781912.13476,   0.00000
-419183720.27696,-137072479.50414,-103705382.82775,  -0.00320,   0.00061,  -0.00014,411472627.71521,   0.00150,276270862.00737,  -0.00156,   0.00041,   0.00121,-64798234.29216,   0.00000
-417837673.16029,-134802280.63572,-106015762.20711,  -0.00320,   0.00061,  -0.00017,412495491.13673,   0.00150,276270862.00737,  -0.00156,   0.00041,   0.00121,-63775370.87065,   0.00000
-416441400.40493,-132481856.12862,-108346231.84195,  -0.00319,   0.00062,  -0.00020,413546454.87914,   0.00150,276270862.00737,  -0.00156,   0.00041,   0.00121,-62724407.12823,   0.00000
-415030059.95797,-130126273.67445,-110676701.47678,  -0.00319,   0.00063,  -0.00023,414637768.84559,   0.00150,276270862.00737,  -0.00156,   0.00041,   0.00121,-61633093.16179,   0.00000
-413618719.51102,-127770691.22027,-113017216.23935,  -0.00319,   0.00064,  -0.00026,415783740.02689,   0.00150,276270862.00737,  -0.00156,   0.00041,   0.00121,-60487121.98048,   0.00000
-412142085.73377,-125329725.18034,-115367776.12966,  -0.00319,   0.00065,  -0.00029,416946226.52545,   0.00150,276270862.00737,  -0.00156,   0.00041,   0.00121,-59324635.48193,   0.00000
-410700609.90361,-122903826.83201,-117728381.14770,  -0.00319,   0.00065,  -0.00032,418190841.80399,   0.00150,276270862.00737,  -0.00156,   0.00041,   0.00121,-58080020.20338,   0.00000
-409173750.48768,-120412635.15339,-120088986.16575,  -0.00319,   0.00066,  -0.00035,419424325.77984,   0.00150,276270862.00737,  -0.00156,   0.00041,   0.00121,-56846536.22754,   0.00000
-407666981.32723,-117901353.21930,-122459636.31153,  -0.00318,   0.00067,  -0.00038,420734709.25364,   0.00150,276270862.00737,  -0.00156,   0.00041,   0.00121,-55536152.75374,   0.00000
-406109986.52809,-115339845.64653,-124840331.58504,  -0.00318,   0.00068,  -0.00041,422070211.17432,   0.00150,276270862.00737,  -0.00156,   0.00041,   0.00121,-54200650.83305,   0.00000
-404552991.72896,-112778338.07376,-127231071.98630,  -0.00318,   0.00069,  -0.00044,423462512.65244,   0.00150,276270862.00737,  -0.00156,   0.00041,   0.00121,-52808349.35494,   0.00000
-402980929.23822,-110181672.55391,-129631857.51529,  -0.00318,   0.00070,  -0.00047,424906781.48774,   0.00150,276270862.00737,  -0.00156,   0.00041,   0.00121,-51364080.51964,   0.00000
-401358641.10879,-107534781.39538,-132032643.04428,  -0.00317,   0.00071,  -0.00050,426368773.19691,   0.00150,276270862.00737,  -0.00156,   0.00041,   0.00121,-49902088.81046,   0.00000
-399756443.23485,-104867799.98138,-134443473.70100,  -0.00317,   0.00071,  -0.00054,427908907.96134,   0.00150,276270862.00737,  -0.00156,   0.00041,   0.00121,-48361954.04604,   0.00000
-398068861.77514,-102135525.23709,-136864349.48546,  -0.00317,   0.00072,  -0.00057,429452049.04938,   0.00150,276270862.00737,  -0.00156,   0.00041,   0.00121,-46818812.95799,   0.00000
-396401370.57090,-99383160.23733,-139295270.39766,  -0.00317,   0.00073,  -0.00060,431074187.65797,   0.00150,276270862.00737,  -0.00156,   0.00041,   0.00121,-45196674.34941,   0.00000
-394698721.41959,-96615727.54596,-141736236.43759,  -0.00317,   0.00074,  -0.00063,432729774.25474,   0.00150,276270862.00737,  -0.00156,   0.00041,   0.00121,-43541087.75263,   0.00000
-392965936.88507,-93777978.96044,-144177202.47753,  -0.00316,   0.00075,  -0.00066,434426268.39456,   0.00150,276270862.00737,  -0.00156,   0.00041,   0.00121,-41844593.61281,   0.00000
-391233152.35055,-90940230.37492,-146628213.64520,  -0.00316,   0.00076,  -0.00069,436181351.16494,   0.00150,276270862.00737,  -0.00156,   0.00041,   0.00121,-40089510.84243,   0.00000
-389450142.17735,-88052256.15072,-149079224.81287,  -0.00316,   0.00077,  -0.00073,437957184.19803,   0.00150,276270862.00737,  -0.00156,   0.00041,   0.00121,-38313677.80934,   0.00000
-387667132.00414,-85164281.92652,-151550326.23601,  -0.00316,   0.00078,  -0.00076,439802082.04993,   0.00150,276270862.00737,  -0.00156,   0.00041,   0.00121,-36468779.95744,   0.00000
-385853986.44773,-82205991.80816,-154021427.65916,  -0.00315,   0.00079,  -0.00079,441689274.07420,   0.00150,276270862.00737,  -0.00156,   0.00041,   0.00121,-34581587.93317,   0.00000
-384025773.19971,-79212543.74273,-156502574.21004,  -0.00315,   0.00080,  -0.00082,443632652.55504,   0.00150,276270862.00737,  -0.00156,   0.00041,   0.00121,-32638209.45234,   0.00000
-382162402.00462,-76204027.98569,-158983720.76092,  -0.00315,   0.00081,  -0.00085,445601067.56010,   0.00150,276270862.00737,  -0.00156,   0.00041,   0.00121,-30669794.44727,   0.00000
-380283963.11792,-73160354.28157,-161474912.43953,  -0.00315,   0.00082,  -0.00089,447626029.86872,   0.00150,276270862.00737,  -0.00156,   0.00041,   0.00121,-28644832.13865,   0.00000
-378390456.53962,-70081522.63038,-163976149.24589,  -0.00314,   0.00083,  -0.00092,449707805.84273,   0.00150,276270862.00737,  -0.00156,   0.00041,   0.00121,-26563056.16465,   0.00000
-376446724.32263,-66952465.34051,-166487431.17997,  -0.00314,   0.00084,  -0.00095,451823999.83663,   0.00150,276270862.00737,  -0.00156,   0.00041,   0.00121,-24446862.17074,   0.00000
-374523082.36112,-63803317.79516,-168998713.11406,  -0.00314,   0.00085,  -0.00098,454009121.53839,   0.00150,276270862.00737,  -0.00156,   0.00041,   0.00121,-22261740.46898,   0.00000
-372529124.50545,-60624034.86660,-171520040.17589,  -0.00314,   0.00086,  -0.00102,456208697.98951,   0.00150,276270862.00737,  -0.00156,   0.00041,   0.00121,-20062164.01787,   0.00000
-370540189.21366,-57389503.73550,-174051412.36545,  -0.00313,   0.00087,  -0.00105,458486806.60156,   0.00150,276270862.00737,  -0.00156,   0.00041,   0.00121,-17784055.40582,   0.00000
-368551253.92186,-54154972.60439,-176582784.55501,  -0.00313,   0.00088,  -0.00108,460812699.66149,   0.00150,276270862.00737,  -0.00156,   0.00041,   0.00121,-15458162.34588,   0.00000
-366512092.99138,-50870215.83460,-179124201.87231,  -0.00313,   0.00090,  -0.00112,463174678.69120,   0.00150,276270862.00737,  -0.00156,   0.00041,   0.00121,-13096183.31618,   0.00000
-364457864.36929,-47550301.11774,-181675664.31734,  -0.00312,   0.00091,  -0.00115,465594916.05576,   0.00150,276270862.00737,  -0.00156,   0.00041,   0.00121,-10675945.95161,   0.00000
-362353410.10853,-44180160.76219,-184227126.76238,  -0.00312,   0.00092,  -0.00118,468040544.41500,   0.00150,276270862.00737,  -0.00156,   0.00041,   0.00121,-8230317.59237,   0.00000
-360269046.10323,-40789930.15117,-186788634.33515,  -0.00312,   0.00093,  -0.00122,470565868.40320,   0.00150,276270862.00737,  -0.00156,   0.00041,   0.00121,-5704993.60417,   0.00000
-358149524.15086,-37384631.84854,-189350141.90792,  -0.00312,   0.00094,  -0.00125,473117145.07348,   0.00150,276270862.00737,  -0.00156,   0.00041,   0.00121,-3153716.93390,   0.00000
-355999866.81528,-33909017.65176,-191931739.73616,  -0.00311,   0.00095,  -0.00128,475738897.96525,   0.00150,276270862.00737,  -0.00156,   0.00041,   0.00121,-531964.04212,   0.00000
-355555815.76071,-33199556.77148,-192454392.93142,  -0.00311,   0.00095,  -0.00129,476270861.25032,   0.00150,276270862.00737,  -0.00156,   0.00041,   0.00121,  -0.75705,   0.00000
-352367158.95923,-30425539.83417,-193628141.03807,  -0.00311,   0.00096,  -0.00132,476270861.25032,   0.00151,276280314.69042,  -0.00157,   0.00041,   0.00120,   0.00000,   2.00000
-348348491.63937,-26941006.69432,-195078606.00792,  -0.00311,   0.00098,  -0.00135,479006412.47263,   0.00152,276292576.03903,  -0.00157,   0.00042,   0.00119,   0.00000,   2.00000
-344284744.70415,-23423468.97792,-196511337.46090,  -0.00310,   0.00099,  -0.00138,479043870.33683,   0.00153,276304963.80977,  -0.00158,   0.00042,   0.00117,   0.00000,   2.00000
-340189766.07859,-19889077.52496,-197922450.38589,  -0.00310,   0.00100,  -0.00142,479114310.76936,   0.00155,276317625.97970,  -0.00159,   0.00043,   0.00116,   0.00000,   2.00000
-336072605.73835,-16338243.06727,-199307010.60164,  -0.00310,   0.00101,  -0.00145,479172711.21260,   0.00156,276330507.12544,  -0.00160,   0.00043,   0.00114,   0.00000,   2.00000
-331903231.01074,-12756352.88980,-200677685.17151,  -0.00309,   0.00102,  -0.00148,479224885.78210,   0.00157,276343578.24134,  -0.00161,   0.00043,   0.00112,   0.00000,   2.00000
-327728668.50315,-9194213.58797,-202021828.36439,  -0.00309,   0.00104,  -0.00152,479283178.48718,   0.00158,276356865.96532,  -0.00162,   0.00044,   0.00111,   0.00000,   2.00000
-323510157.53115,-5583007.50432,-203342865.21646,  -0.00309,   0.00105,  -0.00155,479356790.00988,   0.00160,276370438.69737,  -0.00163,   0.00044,   0.00109,   0.00000,   2.00000
-319280261.13815,-1993510.46118,-204641651.93427,  -0.00308,   0.00106,  -0.00159,479428357.90884,   0.00161,276384285.86062,  -0.00163,   0.00045,   0.00107,   0.00000,   2.00000
-315032000.79084,1609370.43783,-205913119.07892,  -0.00308,   0.00107,  -0.00162,479488615.70283,   0.00162,276398354.96248,  -0.00164,   0.00045,   0.00106,   0.00000,   2.00000
-310742074.05003,5241195.01759,-207165123.18221,  -0.00308,   0.00109,  -0.00166,479531059.69267,   0.00163,276412564.18118,  -0.00165,   0.00046,   0.00104,   0.00000,   2.00000
-306419397.77842,8883292.37278,-208397876.28611,  -0.00307,   0.00110,  -0.00169,479618523.66040,   0.00165,276427117.02747,  -0.00166,   0.00046,   0.00102,   0.00000,   2.00000
-302080565.52967,12536760.57462,-209602742.68412,  -0.00307,   0.00111,  -0.00172,479680255.30863,   0.00166,276441895.07519,  -0.00167,   0.00047,   0.00100,   0.00000,   2.00000
-297742808.49583,16166248.56471,-210780812.62313,  -0.00307,   0.00113,  -0.00176,479739680.52638,   0.00168,276456886.57458,  -0.00168,   0.00047,   0.00098,   0.00000,   2.00000
-293341242.75791,19856163.53777,-211941560.50733,  -0.00306,   0.00114,  -0.00179,479800437.42605,   0.00169,276472096.59393,  -0.00169,   0.00048,   0.00096,   0.00000,   2.00000
-288942342.51993,23520826.92766,-213075329.34970,  -0.00306,   0.00115,  -0.00183,479860497.79828,   0.00170,276487520.67939,  -0.00170,   0.00048,   0.00094,  -0.00000,   2.00000
-284548667.54210,27176476.59664,-214177392.65148,  -0.00306,   0.00117,  -0.00186,479953429.39406,   0.00172,276503307.28466,  -0.00171,   0.00049,   0.00092,   0.00000,   2.00000
-280083655.58270,30872604.52016,-215270134.62504,  -0.00305,   0.00118,  -0.00190,479996983.69645,   0.00173,276519229.78013,  -0.00172,   0.00049,   0.00090,  -0.00000,   2.00000
-275633435.65973,34559518.52201,-216327012.21105,  -0.00305,   0.00119,  -0.00193,480077067.48009,   0.00175,276535453.70257,  -0.00173,   0.00050,   0.00088,  -0.00000,   2.00000
-271172762.30120,38253506.02132,-217355629.72297,  -0.00305,   0.00121,  -0.00197,480140759.05225,   0.00176,276551902.68144,  -0.00174,   0.00050,   0.00086,   0.00000,   2.00000
-266668483.59502,41969187.46766,-218366852.91053,  -0.00304,   0.00122,  -0.00200,480202760.97683,   0.00178,276568567.75225,  -0.00175,   0.00051,   0.00084,   0.00000,   2.00000
-262172284.99730,45656201.82153,-219351389.45682,  -0.00304,   0.00123,  -0.00204,480263364.69622,   0.00180,276585441.14485,  -0.00176,   0.00052,   0.00081,   0.00000,   2.00000
-257643904.88616,49381023.87143,-220309231.28212,  -0.00303,   0.00125,  -0.00207,480345920.28867,   0.00181,276602621.92464,  -0.00177,   0.00052,   0.00079,   0.00000,   2.00000
-253091005.68777,53091124.84596,-221251001.92385,  -0.00303,   0.00126,  -0.00211,480405688.96255,   0.00183,276620004.23265,  -0.00178,   0.00053,   0.00077,   0.00000,   2.00000
-248542226.07654,56822201.48079,-222155186.76527,  -0.00303,   0.00128,  -0.00214,480490484.59881,   0.00184,276637701.18503,  -0.00179,   0.00053,   0.00074,   0.00000,   2.00000
-243977171.02239,60539549.65576,-223039857.50326,  -0.00302,   0.00129,  -0.00218,480536841.06268,   0.00186,276655535.18008,  -0.00180,   0.00054,   0.00072,   0.00000,   2.00000
-239428888.34209,64240052.87933,-223892784.93136,  -0.00302,   0.00131,  -0.00221,480630978.97978,   0.00188,276673723.68063,  -0.00181,   0.00055,   0.00070,   0.00000,   2.00000
-234848333.37112,67960156.70945,-224724036.61899,  -0.00302,   0.00132,  -0.00225,480682660.89039,   0.00190,276692070.44906,  -0.00181,   0.00055,   0.00067,   0.00000,   2.00000
-230246887.70184,71662744.00885,-225539140.73676,  -0.00301,   0.00134,  -0.00228,480744040.59756,   0.00191,276710618.67794,  -0.00182,   0.00056,   0.00065,   0.00000,   2.00000
-225654586.88932,75382897.94561,-226316831.21429,  -0.00301,   0.00135,  -0.00232,480829593.64849,   0.00193,276729477.64318,  -0.00183,   0.00057,   0.00062,   0.00000,   2.00000
-221078297.95943,79069569.05924,-227068995.93448,  -0.00300,   0.00137,  -0.00236,480890453.00767,   0.00195,276748532.32279,  -0.00184,   0.00058,   0.00060,  -0.00000,   2.00000
-216448328.19168,82804789.65187,-227799695.01674,  -0.00300,   0.00138,  -0.00239,480964137.89821,   0.00197,276767840.15056,  -0.00185,   0.00058,   0.00057,  -0.00000,   2.00000
-211829980.97995,86502426.03598,-228508070.89188,  -0.00300,   0.00140,  -0.00243,481039879.17530,   0.00199,276787408.81255,  -0.00186,   0.00059,   0.00054,   0.00000,   2.00000
-207218586.67748,90201782.77881,-229185260.10740,  -0.00299,   0.00141,  -0.00246,481092665.47830,   0.00200,276807131.42296,  -0.00187,   0.00060,   0.00052,   0.00000,   2.00000
-202597181.81667,93893175.26380,-229840629.70092,  -0.00299,   0.00143,  -0.00250,481188939.73605,   0.00202,276827205.94089,  -0.00188,   0.00061,   0.00049,   0.00000,   2.00000
-197984173.75619,97585312.02906,-230465109.39010,  -0.00298,   0.00144,  -0.00253,481241977.92636,   0.00204,276847432.09240,  -0.00189,   0.00061,   0.00046,   0.00000,   2.00000
-193368829.25640,101271231.34290,-231064903.01529,  -0.00298,   0.00146,  -0.00257,481324129.30132,   0.00206,276867941.97579,  -0.00190,   0.00062,   0.00043,   0.00000,   2.00000
-188744723.23972,104938023.68934,-231646039.44871,  -0.00298,   0.00147,  -0.00261,481373341.15823,   0.00208,276888582.77595,  -0.00191,   0.00063,   0.00041,  -0.00000,   2.00000
-184102398.74861,108630639.08145,-232199080.19072,  -0.00297,   0.00149,  -0.00264,481463164.47337,   0.00210,276909539.35624,  -0.00192,   0.00064,   0.00038,   0.00000,   2.00000
-179514369.63674,112267734.35081,-232722864.31130,  -0.00297,   0.00151,  -0.00268,481535198.50942,   0.00212,276930728.05663,  -0.00193,   0.00065,   0.00035,   0.00000,   2.00000
-174896490.24847,115914050.95722,-233227742.12596,  -0.00296,   0.00152,  -0.00271,481606907.97606,   0.00214,276952145.69700,  -0.00194,   0.00065,   0.00032,  -0.00000,   2.00000
-170290945.61927,119558640.06064,-233702723.74455,  -0.00296,   0.00154,  -0.00275,481660491.47364,   0.00216,276973707.55923,  -0.00195,   0.00066,   0.00029,   0.00000,   2.00000
-165656840.18221,123211053.70485,-234158636.54921,  -0.00296,   0.00156,  -0.00279,481733326.73369,   0.00218,276995500.50104,  -0.00196,   0.00067,   0.00026,  -0.00000,   2.00000
-161058162.39339,126835145.03856,-234585511.86285,  -0.00295,   0.00157,  -0.00282,481827048.00723,   0.00220,277017618.33832,  -0.00197,   0.00068,   0.00023,   0.00000,   2.00000
-156468983.04040,130452180.69692,-234985867.63891,  -0.00295,   0.00159,  -0.00286,481895672.34782,   0.00222,277039943.94742,  -0.00198,   0.00069,   0.00020,  -0.00000,   2.00000
-151875699.23049,134046849.97440,-235368705.05528,  -0.00294,   0.00161,  -0.00290,481946278.27165,   0.00224,277062393.22810,  -0.00199,   0.00070,   0.00016,   0.00000,   2.00000
-147307654.38000,137648470.63999,-235716568.27041,  -0.00294,   0.00162,  -0.00293,482033028.09375,   0.00227,277085130.26394,  -0.00200,   0.00071,   0.00013,  -0.00000,   2.00000
-142732107.37352,141222612.33731,-236050006.03584,  -0.00294,   0.00164,  -0.00297,482098746.03846,   0.00229,277108056.76170,  -0.00201,   0.00072,   0.00010,   0.00000,   2.00000
-138168821.37854,144787981.94180,-236357639.12683,  -0.00293,   0.00166,  -0.00300,482167673.86666,   0.00231,277131185.78795,  -0.00202,   0.00073,   0.00007,  -0.00000,   2.00000
-133618435.31688,148344125.79203,-236639709.28718,  -0.00293,   0.00167,  -0.00304,482236628.25702,   0.00233,277154515.77543,  -0.00203,   0.00074,   0.00004,   0.00000,   2.00000
-129077532.43288,151885965.98259,-236899085.57042,  -0.00292,   0.00169,  -0.00308,482320567.36426,   0.00235,277178113.46912,  -0.00204,   0.00075,   0.00000,   0.00000,   2.00000
-124550930.98407,155417645.59863,-237133345.43621,  -0.00292,   0.00171,  -0.00311,482389663.87962,   0.00238,277201909.02425,  -0.00205,   0.00076,  -0.00003,  -0.00000,   2.00000
-120039237.95645,158938733.34209,-237342745.38963,  -0.00292,   0.00173,  -0.00315,482458775.34064,   0.00240,277225900.81109,  -0.00206,   0.00077,  -0.00007,   0.00000,   2.00000
-115527506.63268,162434675.36455,-237536150.03471,  -0.00291,   0.00174,  -0.00319,482510346.54950,   0.00242,277250007.12943,  -0.00207,   0.00078,  -0.00010,   0.00000,   2.00000
-111061360.61707,165897029.95581,-237704060.41553,  -0.00291,   0.00176,  -0.00322,482601836.88907,   0.00244,277274408.75621,  -0.00208,   0.00079,  -0.00013,   0.00000,   2.00000
-106594547.10132,169379291.68886,-237842896.15747,  -0.00290,   0.00178,  -0.00326,482681025.92555,   0.00247,277299047.31561,  -0.00209,   0.00080,  -0.00017,  -0.00000,   2.00000
-102129121.40210,172835384.42192,-237966421.38160,  -0.00290,   0.00180,  -0.00330,482732892.77405,   0.00249,277323796.41113,  -0.00210,   0.00081,  -0.00020,   0.00000,   2.00000
-97681646.14404,176279016.72369,-238066232.81167,  -0.00289,   0.00182,  -0.00333,482802163.83132,   0.00251,277348734.03008,  -0.00211,   0.00082,  -0.00024,  -0.00000,   2.00000
-93300240.44804,179656324.03885,-238147390.30108,  -0.00289,   0.00183,  -0.00337,482881926.01439,   0.00254,277373906.26980,  -0.00211,   0.00084,  -0.00028,  -0.00000,   2.00000
-88886920.23096,183069112.12202,-238203303.11600,  -0.00289,   0.00185,  -0.00341,482955377.06281,   0.00256,277399282.37624,  -0.00212,   0.00085,  -0.00031,   0.00000,   2.00000
-84510403.26106,186437600.61707,-238241842.74420,  -0.00288,   0.00187,  -0.00344,483013473.74872,   0.00259,277424790.82765,  -0.00213,   0.00086,  -0.00035,   0.00000,   2.00000
-80170633.38711,189806108.04096,-238249497.46671,  -0.00288,   0.00189,  -0.00348,483099433.89251,   0.00261,277450556.74819,  -0.00214,   0.00087,  -0.00038,   0.00000,   2.00000
-75831839.59136,193141447.69847,-238245980.75208,  -0.00287,   0.00191,  -0.00352,483166354.11534,   0.00264,277476491.59802,  -0.00215,   0.00088,  -0.00042,   0.00000,   2.00000
-71516754.51200,196468362.49396,-238217986.64366,  -0.00287,   0.00193,  -0.00356,483220275.53380,   0.00266,277502534.82942,  -0.00216,   0.00089,  -0.00046,   0.00000,   2.00000
-67220718.13070,199774899.30348,-238170896.18387,  -0.00286,   0.00195,  -0.00359,483304175.80164,   0.00269,277528821.01552,  -0.00217,   0.00091,  -0.00050,   0.00000,   2.00000
-62946770.42367,203066571.21414,-238102451.72620,  -0.00286,   0.00197,  -0.00363,483373085.46855,   0.00271,277555280.19745,  -0.00218,   0.00092,  -0.00053,   0.00000,   2.00000
-58712094.91291,206313186.02227,-238018982.68563,  -0.00286,   0.00198,  -0.00367,483429733.32080,   0.00274,277581855.32048,  -0.00219,   0.00093,  -0.00057,   0.00000,   2.00000
-54481423.30687,209568460.31064,-237911285.04153,  -0.00285,   0.00200,  -0.00370,483525622.30903,   0.00276,277608722.37722,  -0.00219,   0.00094,  -0.00061,  -0.00000,   2.00000
-50258625.04827,212801093.09922,-237788740.28869,  -0.00285,   0.00202,  -0.00374,483562901.70240,   0.00279,277635614.23762,  -0.00220,   0.00096,  -0.00065,   0.00000,   2.00000
-46092137.45173,215995054.55414,-237646577.54409,  -0.00284,   0.00204,  -0.00378,483650544.35436,   0.00281,277662757.52395,  -0.00221,   0.00097,  -0.00069,   0.00000,   2.00000
-41949781.86774,219173150.42345,-237484649.89790,  -0.00284,   0.00206,  -0.00381,483718981.10235,   0.00284,277690063.45978,  -0.00222,   0.00098,  -0.00073,   0.00000,   2.00000
-37831941.20367,222335099.35134,-237303264.58407,  -0.00283,   0.00208,  -0.00385,483787383.42992,   0.00286,277717530.27469,  -0.00223,   0.00100,  -0.00077,  -0.00000,   2.00000
-33755283.38250,225451596.29494,-237109224.92473,  -0.00283,   0.00210,  -0.00389,483842545.29738,   0.00289,277745096.87003,  -0.00224,   0.00101,  -0.00081,  -0.00000,   2.00000
-29687432.67065,228580834.18726,-236889851.27853,  -0.00283,   0.00212,  -0.00393,483923869.11745,   0.00292,277772879.57495,  -0.00224,   0.00102,  -0.00085,   0.00000,   2.00000
-25626792.14830,231680500.86522,-236659908.50358,  -0.00282,   0.00214,  -0.00396,483975930.04112,   0.00294,277800744.95152,  -0.00225,   0.00104,  -0.00089,  -0.00000,   2.00000
-21625525.57737,234740430.77670,-236412975.38803,  -0.00282,   0.00216,  -0.00400,484061629.38195,   0.00297,277828842.97935,  -0.00226,   0.00105,  -0.00093,   0.00000,   2.00000
