# sigma_xx, sigma_yy, sigma_xy, epsilon_xx, epsilon_yy, epsilon_xy, vonMises, epsPlastic, hardening, epsilonP__xx, epsilonP__yy, epsilonP__xy, yieldValue, iteration
   0.00000,   0.00000,   0.00000,   0.00000,   0.00000,   0.00000,1181185.37500,   0.00000,274640576.00000,   0.00000,   0.00000,   0.00000,-473459392.00000,   0.00000
   0.00000,   0.00000,   0.00000,   0.00000,   0.00000,   0.00000,1181185.37500,   0.00000,274640576.00000,   0.00000,   0.00000,   0.00000,-473459392.00000,   0.00000
1186591.51587,524838.55510,-74161.96974,   0.00000,   0.00000,  -0.00000,1860142.37500,   0.00000,274640576.00000,   0.00000,   0.00000,   0.00000,-472780448.00000,   0.00000
2333249.66342,1032562.80948,-142619.17258,   0.00001,   0.00000,  -0.00000,2888410.00000,   0.00000,274640576.00000,   0.00000,   0.00000,   0.00000,-471752160.00000,   0.00000
3459941.12681,1531729.91352,-216781.14232,   0.00001,   0.00000,  -0.00000,3909100.00000,   0.00000,274640576.00000,   0.00000,   0.00000,   0.00000,-470731488.00000,   0.00000
4575223.05639,2042306.55135,-285238.34516,   0.00002,   0.00000,  -0.00000,4727497.50000,   0.00000,274640576.00000,   0.00000,   0.00000,   0.00000,-469913088.00000,   0.00000
5670538.30180,2544326.03884,-359400.31490,   0.00002,   0.00000,  -0.00000,5523112.00000,   0.00000,274640576.00000,   0.00000,   0.00000,   0.00000,-469117472.00000,   0.00000
6717363.02855,3009264.54145,-427857.51774,   0.00002,   0.00000,  -0.00001,6355908.00000,   0.00000,274640576.00000,   0.00000,   0.00000,   0.00000,-468284672.00000,   0.00000
7752778.22148,3485612.57787,-502019.48748,   0.00003,   0.00000,  -0.00001,7250933.50000,   0.00000,274640576.00000,   0.00000,   0.00000,   0.00000,-467389648.00000,   0.00000
8756817.19645,3964812.99774,-570476.69032,   0.00003,   0.00000,  -0.00001,8157227.50000,   0.00000,274640576.00000,   0.00000,   0.00000,   0.00000,-466483344.00000,   0.00000
9752299.02106,4424046.73345,-638933.89316,   0.00004,   0.00000,  -0.00001,9073656.00000,   0.00000,274640576.00000,   0.00000,   0.00000,   0.00000,-465566912.00000,   0.00000
10716404.62771,4886132.85261,-713095.86290,   0.00004,   0.00000,  -0.00001,9964395.00000,   0.00000,274640576.00000,   0.00000,   0.00000,   0.00000,-464676176.00000,   0.00000
11660543.55019,5339661.82142,-781553.06574,   0.00004,   0.00000,  -0.00001,10827465.00000,   0.00000,274640576.00000,   0.00000,   0.00000,   0.00000,-463813104.00000,   0.00000
12564749.10435,5776076.48951,-850010.26858,   0.00005,   0.00000,  -0.00001,11644289.00000,   0.00000,274640576.00000,   0.00000,   0.00000,   0.00000,-462996288.00000,   0.00000
13448987.97435,6203934.00726,-918467.47142,   0.00005,   0.00000,  -0.00001,12432164.00000,   0.00000,274640576.00000,   0.00000,   0.00000,   0.00000,-462208416.00000,   0.00000
14313260.16019,6623234.37464,-986924.67426,   0.00005,   0.00000,  -0.00001,13192524.00000,   0.00000,274640576.00000,   0.00000,   0.00000,   0.00000,-461448048.00000,   0.00000
15166122.81222,7053944.27584,-1055381.87710,   0.00006,   0.00000,  -0.00001,13932825.00000,   0.00000,274640576.00000,   0.00000,   0.00000,   0.00000,-460707744.00000,   0.00000
15970494.94558,7447573.19216,-1123839.07994,   0.00006,   0.00000,  -0.00001,14626746.00000,   0.00000,274640576.00000,   0.00000,   0.00000,   0.00000,-460013824.00000,   0.00000
16763457.54512,7852611.64229,-1198001.04968,   0.00006,   0.00000,  -0.00002,15306813.00000,   0.00000,274640576.00000,   0.00000,   0.00000,   0.00000,-459333760.00000,   0.00000
17536453.46051,8249092.94206,-1266458.25252,   0.00006,   0.00000,  -0.00002,15965721.00000,   0.00000,274640576.00000,   0.00000,   0.00000,   0.00000,-458674848.00000,   0.00000
18278073.15793,8648426.62529,-1334915.45535,   0.00007,   0.00000,  -0.00002,16596231.00000,   0.00000,274640576.00000,   0.00000,   0.00000,   0.00000,-458044352.00000,   0.00000
18991169.02083,9019236.47400,-1397667.89129,   0.00007,   0.00000,  -0.00002,17202342.00000,   0.00000,274640576.00000,   0.00000,   0.00000,   0.00000,-457438240.00000,   0.00000
19692855.34993,9401455.85651,-1466125.09413,   0.00007,   0.00000,  -0.00002,17800390.00000,   0.00000,274640576.00000,   0.00000,   0.00000,   0.00000,-456840192.00000,   0.00000
20366017.84451,9755151.40451,-1534582.29697,   0.00007,   0.00000,  -0.00002,18377048.00000,   0.00000,274640576.00000,   0.00000,   0.00000,   0.00000,-456263520.00000,   0.00000
21007804.12112,10111699.33597,-1603039.49981,   0.00008,   0.00001,  -0.00002,18928492.00000,   0.00000,274640576.00000,   0.00000,   0.00000,   0.00000,-455712080.00000,   0.00000
21629623.71358,10459690.11706,-1671496.70264,   0.00008,   0.00001,  -0.00002,19465368.00000,   0.00000,274640576.00000,   0.00000,   0.00000,   0.00000,-455175200.00000,   0.00000
22240033.77222,10819090.43196,-1739953.90548,   0.00008,   0.00001,  -0.00002,19994384.00000,   0.00000,274640576.00000,   0.00000,   0.00000,   0.00000,-454646192.00000,   0.00000
22801953.31219,11141409.76200,-1808411.10832,   0.00008,   0.00001,  -0.00002,20485282.00000,   0.00000,274640576.00000,   0.00000,   0.00000,   0.00000,-454155296.00000,   0.00000
23343906.16799,11455171.94167,-1876868.31116,   0.00008,   0.00001,  -0.00002,20961352.00000,   0.00000,274640576.00000,   0.00000,   0.00000,   0.00000,-453679232.00000,   0.00000
23874449.48999,11780343.65516,-1945325.51400,   0.00009,   0.00001,  -0.00003,21429366.00000,   0.00000,274640576.00000,   0.00000,   0.00000,   0.00000,-453211216.00000,   0.00000
24385026.12783,12096958.21829,-2008077.94993,   0.00009,   0.00001,  -0.00003,21880766.00000,   0.00000,274640576.00000,   0.00000,   0.00000,   0.00000,-452759808.00000,   0.00000
24855669.39735,12396458.48071,-2076535.15277,   0.00009,   0.00001,  -0.00003,22301434.00000,   0.00000,274640576.00000,   0.00000,   0.00000,   0.00000,-452339136.00000,   0.00000
25306345.98270,12687401.59277,-2144992.35561,   0.00009,   0.00001,  -0.00003,22706520.00000,   0.00000,274640576.00000,   0.00000,   0.00000,   0.00000,-451934048.00000,   0.00000
25745613.03425,12989754.23864,-2213449.55845,   0.00009,   0.00001,  -0.00003,23103330.00000,   0.00000,274640576.00000,   0.00000,   0.00000,   0.00000,-451537248.00000,   0.00000
26136389.56712,13255025.89964,-2281906.76129,   0.00009,   0.00001,  -0.00003,23459744.00000,   0.00000,274640576.00000,   0.00000,   0.00000,   0.00000,-451180832.00000,   0.00000
26535723.25035,13540264.24480,-2344659.19723,   0.00009,   0.00001,  -0.00003,23823088.00000,   0.00000,274640576.00000,   0.00000,   0.00000,   0.00000,-450817488.00000,   0.00000
26875156.88109,13799831.13890,-2413116.40006,   0.00010,   0.00001,  -0.00003,24137552.00000,   0.00000,274640576.00000,   0.00000,   0.00000,   0.00000,-450503024.00000,   0.00000
27214590.51183,14059398.03300,-2481573.60290,   0.00010,   0.00001,  -0.00003,24453054.00000,   0.00000,274640576.00000,   0.00000,   0.00000,   0.00000,-450187520.00000,   0.00000
27534057.45841,14310407.77674,-2550030.80574,   0.00010,   0.00001,  -0.00003,24752236.00000,   0.00000,274640576.00000,   0.00000,   0.00000,   0.00000,-449888336.00000,   0.00000
27813591.03667,14544303.21977,-2618488.00858,   0.00010,   0.00001,  -0.00003,25017692.00000,   0.00000,274640576.00000,   0.00000,   0.00000,   0.00000,-449622880.00000,   0.00000
28073157.93077,14769641.51245,-2681240.44452,   0.00010,   0.00001,  -0.00003,25264918.00000,   0.00000,274640576.00000,   0.00000,   0.00000,   0.00000,-449375664.00000,   0.00000
28301348.60690,14997832.18858,-2749697.64735,   0.00010,   0.00001,  -0.00004,25488132.00000,   0.00000,274640576.00000,   0.00000,   0.00000,   0.00000,-449152448.00000,   0.00000
28520982.13267,15206056.18054,-2818154.85019,   0.00010,   0.00001,  -0.00004,25704194.00000,   0.00000,274640576.00000,   0.00000,   0.00000,   0.00000,-448936384.00000,   0.00000
28709239.44048,15417132.55596,-2886612.05303,   0.00010,   0.00001,  -0.00004,25894584.00000,   0.00000,274640576.00000,   0.00000,   0.00000,   0.00000,-448745984.00000,   0.00000
28877530.06412,15619651.78103,-2955069.25587,   0.00010,   0.00001,  -0.00004,26068622.00000,   0.00000,274640576.00000,   0.00000,   0.00000,   0.00000,-448571952.00000,   0.00000
29005887.31944,15805056.70538,-3023526.45871,   0.00010,   0.00002,  -0.00004,26209190.00000,   0.00000,274640576.00000,   0.00000,   0.00000,   0.00000,-448431392.00000,   0.00000
29134244.57477,15990461.62974,-3086278.89464,   0.00010,   0.00002,  -0.00004,26348630.00000,   0.00000,274640576.00000,   0.00000,   0.00000,   0.00000,-448291952.00000,   0.00000
29231225.61212,16178718.93754,-3154736.09748,   0.00010,   0.00002,  -0.00004,26465058.00000,   0.00000,274640576.00000,   0.00000,   0.00000,   0.00000,-448175520.00000,   0.00000
29299682.81496,16338452.41083,-3223193.30032,   0.00010,   0.00002,  -0.00004,26557114.00000,   0.00000,274640576.00000,   0.00000,   0.00000,   0.00000,-448083456.00000,   0.00000
29356730.48399,16509595.41793,-3291650.50316,   0.00010,   0.00002,  -0.00004,26641446.00000,   0.00000,274640576.00000,   0.00000,   0.00000,   0.00000,-447999136.00000,   0.00000
29365287.63435,16643657.44016,-3360107.70600,   0.00010,   0.00002,  -0.00004,26684616.00000,   0.00000,274640576.00000,   0.00000,   0.00000,   0.00000,-447955968.00000,   0.00000
29362435.25090,16789128.99619,-3428564.90884,   0.00010,   0.00002,  -0.00004,26720502.00000,   0.00000,274640576.00000,   0.00000,   0.00000,   0.00000,-447920080.00000,   0.00000
29339616.18328,16926043.40187,-3497022.11168,   0.00010,   0.00002,  -0.00005,26740884.00000,   0.00000,274640576.00000,   0.00000,   0.00000,   0.00000,-447899696.00000,   0.00000
29296830.43151,17054400.65719,-3565479.31452,   0.00010,   0.00002,  -0.00005,26745918.00000,   0.00000,274640576.00000,   0.00000,   0.00000,   0.00000,-447894656.00000,   0.00000
29234077.99557,17174200.76216,-3633936.51735,   0.00010,   0.00002,  -0.00005,26735652.00000,   0.00000,274640576.00000,   0.00000,   0.00000,   0.00000,-447904928.00000,   0.00000
29139949.34167,17296853.25058,-3702393.72019,   0.00010,   0.00002,  -0.00005,26702476.00000,   0.00000,274640576.00000,   0.00000,   0.00000,   0.00000,-447938096.00000,   0.00000
29017296.85325,17390981.90448,-3770850.92303,   0.00010,   0.00002,  -0.00005,26645568.00000,   0.00000,274640576.00000,   0.00000,   0.00000,   0.00000,-447995008.00000,   0.00000
28883234.83102,17496520.09219,-3839308.12587,   0.00010,   0.00002,  -0.00005,26583200.00000,   0.00000,274640576.00000,   0.00000,   0.00000,   0.00000,-448057376.00000,   0.00000
28720648.97428,17573534.44538,-3913470.09561,   0.00010,   0.00002,  -0.00005,26499880.00000,   0.00000,274640576.00000,   0.00000,   0.00000,   0.00000,-448140704.00000,   0.00000
28526686.89957,17653401.18203,-3981927.29845,   0.00010,   0.00002,  -0.00005,26392504.00000,   0.00000,274640576.00000,   0.00000,   0.00000,   0.00000,-448248064.00000,   0.00000
28332724.82486,17733267.91867,-4050384.50129,   0.00009,   0.00003,  -0.00005,26287874.00000,   0.00000,274640576.00000,   0.00000,   0.00000,   0.00000,-448352704.00000,   0.00000
28098829.38183,17796020.35461,-4118841.70413,   0.00009,   0.00003,  -0.00005,26153286.00000,   0.00000,274640576.00000,   0.00000,   0.00000,   0.00000,-448487296.00000,   0.00000
27844967.25464,17850215.64019,-4193003.67387,   0.00009,   0.00003,  -0.00005,26008350.00000,   0.00000,274640576.00000,   0.00000,   0.00000,   0.00000,-448632224.00000,   0.00000
27551171.75912,17887296.62506,-4261460.87671,   0.00009,   0.00003,  -0.00006,25831540.00000,   0.00000,274640576.00000,   0.00000,   0.00000,   0.00000,-448809040.00000,   0.00000
27257376.26361,17924377.60993,-4329918.07955,   0.00009,   0.00003,  -0.00006,25658408.00000,   0.00000,274640576.00000,   0.00000,   0.00000,   0.00000,-448982176.00000,   0.00000
26932204.55012,17964310.97825,-4404080.04929,   0.00009,   0.00003,  -0.00006,25469874.00000,   0.00000,274640576.00000,   0.00000,   0.00000,   0.00000,-449170704.00000,   0.00000
26578509.00212,17975720.51206,-4472537.25213,   0.00009,   0.00003,  -0.00006,25256914.00000,   0.00000,274640576.00000,   0.00000,   0.00000,   0.00000,-449383664.00000,   0.00000
26213403.92032,17998539.57967,-4546699.22187,   0.00008,   0.00003,  -0.00006,25045816.00000,   0.00000,274640576.00000,   0.00000,   0.00000,   0.00000,-449594752.00000,   0.00000
25819775.00399,17992834.81277,-4615156.42471,   0.00008,   0.00003,  -0.00006,24810800.00000,   0.00000,274640576.00000,   0.00000,   0.00000,   0.00000,-449829776.00000,   0.00000
25414736.55386,17998539.57967,-4689318.39445,   0.00008,   0.00003,  -0.00006,24578824.00000,   0.00000,274640576.00000,   0.00000,   0.00000,   0.00000,-450061760.00000,   0.00000
24969764.73541,17987130.04587,-4763480.36419,   0.00008,   0.00003,  -0.00006,24321904.00000,   0.00000,274640576.00000,   0.00000,   0.00000,   0.00000,-450318672.00000,   0.00000
24524792.91696,17975720.51206,-4831937.56703,   0.00008,   0.00003,  -0.00006,24067758.00000,   0.00000,274640576.00000,   0.00000,   0.00000,   0.00000,-450572816.00000,   0.00000
24039887.73019,17947196.67754,-4906099.53677,   0.00007,   0.00003,  -0.00006,23793636.00000,   0.00000,274640576.00000,   0.00000,   0.00000,   0.00000,-450846944.00000,   0.00000
23535015.85925,17910115.69267,-4980261.50651,   0.00007,   0.00004,  -0.00006,23511960.00000,   0.00000,274640576.00000,   0.00000,   0.00000,   0.00000,-451128608.00000,   0.00000
23010177.30416,17864477.55745,-5054423.47626,   0.00007,   0.00004,  -0.00007,23223594.00000,   0.00000,274640576.00000,   0.00000,   0.00000,   0.00000,-451416976.00000,   0.00000
22465372.06490,17810282.27187,-5128585.44600,   0.00007,   0.00004,  -0.00007,22929708.00000,   0.00000,274640576.00000,   0.00000,   0.00000,   0.00000,-451710864.00000,   0.00000
21880633.45732,17738972.68558,-5202747.41574,   0.00006,   0.00004,  -0.00007,22617616.00000,   0.00000,274640576.00000,   0.00000,   0.00000,   0.00000,-452022960.00000,   0.00000
21304452.00009,17687629.78345,-5276909.38548,   0.00006,   0.00004,  -0.00007,22329054.00000,   0.00000,274640576.00000,   0.00000,   0.00000,   0.00000,-452311520.00000,   0.00000
20679780.02419,17599205.89645,-5351071.35522,   0.00006,   0.00004,  -0.00007,22016878.00000,   0.00000,274640576.00000,   0.00000,   0.00000,   0.00000,-452623696.00000,   0.00000
20035141.36412,17502224.85909,-5425233.32497,   0.00006,   0.00004,  -0.00007,21709784.00000,   0.00000,274640576.00000,   0.00000,   0.00000,   0.00000,-452930784.00000,   0.00000
19399059.85441,17425210.50590,-5499395.29471,   0.00005,   0.00004,  -0.00007,21436828.00000,   0.00000,274640576.00000,   0.00000,   0.00000,   0.00000,-453203744.00000,   0.00000
18723044.97638,17331081.85200,-5579262.03135,   0.00005,   0.00004,  -0.00007,21168718.00000,   0.00000,274640576.00000,   0.00000,   0.00000,   0.00000,-453471856.00000,   0.00000
18018506.26383,17208429.36358,-5653424.00110,   0.00005,   0.00004,  -0.00007,20897418.00000,   0.00000,274640576.00000,   0.00000,   0.00000,   0.00000,-453743152.00000,   0.00000
17282591.33332,17088629.25861,-5727585.97084,   0.00005,   0.00004,  -0.00007,20639206.00000,   0.00000,274640576.00000,   0.00000,   0.00000,   0.00000,-454001376.00000,   0.00000
16546676.40280,16968829.15364,-5807452.70748,   0.00004,   0.00004,  -0.00008,20403864.00000,   0.00000,274640576.00000,   0.00000,   0.00000,   0.00000,-454236704.00000,   0.00000
15790794.78812,16840471.89832,-5881614.67722,   0.00004,   0.00005,  -0.00008,20164638.00000,   0.00000,274640576.00000,   0.00000,   0.00000,   0.00000,-454475936.00000,   0.00000
14994979.80513,16695000.34229,-5961481.41387,   0.00004,   0.00005,  -0.00008,19918872.00000,   0.00000,274640576.00000,   0.00000,   0.00000,   0.00000,-454721696.00000,   0.00000
14199164.82213,16549528.78625,-6041348.15051,   0.00003,   0.00005,  -0.00008,19684260.00000,   0.00000,274640576.00000,   0.00000,   0.00000,   0.00000,-454956320.00000,   0.00000
13363416.47080,16386942.92951,-6121214.88716,   0.00003,   0.00005,  -0.00008,19445644.00000,   0.00000,274640576.00000,   0.00000,   0.00000,   0.00000,-455194928.00000,   0.00000
12507701.43532,16215799.92242,-6201081.62380,   0.00003,   0.00005,  -0.00008,19220490.00000,   0.00000,274640576.00000,   0.00000,   0.00000,   0.00000,-455420080.00000,   0.00000
11651986.39984,16044656.91532,-6275243.59355,   0.00002,   0.00005,  -0.00008,19018888.00000,   0.00000,274640576.00000,   0.00000,   0.00000,   0.00000,-455621696.00000,   0.00000
10756337.99603,15856399.60751,-6360815.09710,   0.00002,   0.00005,  -0.00008,18846564.00000,   0.00000,274640576.00000,   0.00000,   0.00000,   0.00000,-455794016.00000,   0.00000
9840722.90806,15659585.14935,-6440681.83374,   0.00001,   0.00005,  -0.00008,18700258.00000,   0.00000,274640576.00000,   0.00000,   0.00000,   0.00000,-455940320.00000,   0.00000
8905141.13593,15454213.54083,-6520548.57039,   0.00001,   0.00005,  -0.00008,18589442.00000,   0.00000,274640576.00000,   0.00000,   0.00000,   0.00000,-456051136.00000,   0.00000
7958149.83000,15260251.46613,-6600415.30703,   0.00001,   0.00005,  -0.00009,18529576.00000,   0.00000,274640576.00000,   0.00000,   0.00000,   0.00000,-456111008.00000,   0.00000
6982634.68955,15037765.55690,-6685986.81058,   0.00000,   0.00005,  -0.00009,18503242.00000,   0.00000,274640576.00000,   0.00000,   0.00000,   0.00000,-456137328.00000,   0.00000
5987152.86493,14806722.49732,-6765853.54722,  -0.00000,   0.00006,  -0.00009,18512238.00000,   0.00000,274640576.00000,   0.00000,   0.00000,   0.00000,-456128336.00000,   0.00000
4980261.50651,14587088.97154,-6851425.05077,  -0.00001,   0.00006,  -0.00009,18584538.00000,   0.00000,274640576.00000,   0.00000,   0.00000,   0.00000,-456056032.00000,   0.00000
3944846.31358,14338931.61125,-6931291.78742,  -0.00001,   0.00006,  -0.00009,18682798.00000,   0.00000,274640576.00000,   0.00000,   0.00000,   0.00000,-455957776.00000,   0.00000
2898021.58684,14102183.78477,-7016863.29097,  -0.00001,   0.00006,  -0.00009,18846740.00000,   0.00000,274640576.00000,   0.00000,   0.00000,   0.00000,-455793840.00000,   0.00000
1802706.34142,13828354.97342,-7102434.79451,  -0.00002,   0.00006,  -0.00009,19040494.00000,   0.00000,274640576.00000,   0.00000,   0.00000,   0.00000,-455600080.00000,   0.00000
707391.09600,13554526.16206,-7188006.29806,  -0.00002,   0.00006,  -0.00009,19270604.00000,   0.00000,274640576.00000,   0.00000,   0.00000,   0.00000,-455369968.00000,   0.00000
-399333.68323,13292106.88451,-7273577.80161,  -0.00003,   0.00006,  -0.00009,19541604.00000,   0.00000,274640576.00000,   0.00000,   0.00000,   0.00000,-455098976.00000,   0.00000
-1534582.29697,13001163.77245,-7359149.30516,  -0.00003,   0.00006,  -0.00010,19844438.00000,   0.00000,274640576.00000,   0.00000,   0.00000,   0.00000,-454796144.00000,   0.00000
-2681240.44452,12721630.19419,-7444720.80871,  -0.00004,   0.00006,  -0.00010,20239954.00000,   0.00000,274640576.00000,   0.00000,   0.00000,   0.00000,-454400624.00000,   0.00000
-3847865.27622,12433539.46558,-7530292.31226,  -0.00004,   0.00006,  -0.00010,20492636.00000,   0.00000,274640576.00000,   0.00000,   0.00000,   0.00000,-454147936.00000,   0.00000
-5043013.94245,12116924.90245,-7621568.58271,  -0.00005,   0.00006,  -0.00010,20269336.00000,   0.00000,274640576.00000,   0.00000,   0.00000,   0.00000,-454371232.00000,   0.00000
-6249572.14248,11811719.87313,-7707140.08626,  -0.00005,   0.00007,  -0.00010,20709672.00000,   0.00000,274640576.00000,   0.00000,   0.00000,   0.00000,-453930912.00000,   0.00000
-7484654.17703,11477991.00929,-7798416.35671,  -0.00006,   0.00007,  -0.00010,21483654.00000,   0.00000,274640576.00000,   0.00000,   0.00000,   0.00000,-453156928.00000,   0.00000
-8731145.74538,11155671.67926,-7889692.62716,  -0.00006,   0.00007,  -0.00010,22210264.00000,   0.00000,274640576.00000,   0.00000,   0.00000,   0.00000,-452430304.00000,   0.00000
-10006161.14826,10804828.51471,-7975264.13071,  -0.00007,   0.00007,  -0.00010,22821190.00000,   0.00000,274640576.00000,   0.00000,   0.00000,   0.00000,-451819392.00000,   0.00000
-11292586.08493,10465394.88397,-8066540.40116,  -0.00007,   0.00007,  -0.00010,23527900.00000,   0.00000,274640576.00000,   0.00000,   0.00000,   0.00000,-451112672.00000,   0.00000
-12598977.70577,10117404.10287,-8157816.67161,  -0.00008,   0.00007,  -0.00011,24360444.00000,   0.00000,274640576.00000,   0.00000,   0.00000,   0.00000,-450280128.00000,   0.00000
-13913926.47696,9749446.63761,-8254797.70897,  -0.00008,   0.00007,  -0.00011,25281280.00000,   0.00000,274640576.00000,   0.00000,   0.00000,   0.00000,-449359296.00000,   0.00000
-15260251.46613,9384341.55580,-8346073.97942,  -0.00009,   0.00007,  -0.00011,26286182.00000,   0.00000,274640576.00000,   0.00000,   0.00000,   0.00000,-448354400.00000,   0.00000
-16635100.28980,8990712.63948,-8437350.24987,  -0.00009,   0.00007,  -0.00011,27331546.00000,   0.00000,274640576.00000,   0.00000,   0.00000,   0.00000,-447309024.00000,   0.00000
-18001391.96312,8617050.40732,-8534331.28722,  -0.00010,   0.00007,  -0.00011,28381908.00000,   0.00000,274640576.00000,   0.00000,   0.00000,   0.00000,-446258672.00000,   0.00000
-19396207.47096,8214864.34064,-8625607.55768,  -0.00010,   0.00008,  -0.00011,29389640.00000,   0.00000,274640576.00000,   0.00000,   0.00000,   0.00000,-445250944.00000,   0.00000
-20822399.19677,7815530.65742,-8722588.59503,  -0.00011,   0.00008,  -0.00011,30363060.00000,   0.00000,274640576.00000,   0.00000,   0.00000,   0.00000,-444277520.00000,   0.00000
-22257148.07293,7396230.29003,-8819569.63238,  -0.00012,   0.00008,  -0.00011,31296004.00000,   0.00000,274640576.00000,   0.00000,   0.00000,   0.00000,-443344576.00000,   0.00000
-23703306.48290,6988339.45645,-8916550.66974,  -0.00012,   0.00008,  -0.00012,32289918.00000,   0.00000,274640576.00000,   0.00000,   0.00000,   0.00000,-442350656.00000,   0.00000
-25177988.72738,6551924.78835,-9013531.70709,  -0.00013,   0.00008,  -0.00012,33341036.00000,   0.00000,274640576.00000,   0.00000,   0.00000,   0.00000,-441299536.00000,   0.00000
-26644113.82151,6135476.80442,-9110512.74445,  -0.00013,   0.00008,  -0.00012,34405276.00000,   0.00000,274640576.00000,   0.00000,   0.00000,   0.00000,-440235296.00000,   0.00000
-28158729.43432,5681947.83561,-9213198.54871,  -0.00014,   0.00008,  -0.00012,35490160.00000,   0.00000,274640576.00000,   0.00000,   0.00000,   0.00000,-439150416.00000,   0.00000
-29684754.58093,5239828.40061,-9310179.58606,  -0.00015,   0.00008,  -0.00012,36595672.00000,   0.00000,274640576.00000,   0.00000,   0.00000,   0.00000,-438044896.00000,   0.00000
-31219336.87790,4777742.28145,-9412865.39032,  -0.00015,   0.00008,  -0.00012,37716876.00000,   0.00000,274640576.00000,   0.00000,   0.00000,   0.00000,-436923696.00000,   0.00000
-32773885.85902,4307099.01193,-9509846.42767,  -0.00016,   0.00008,  -0.00012,38863792.00000,   0.00000,274640576.00000,   0.00000,   0.00000,   0.00000,-435776784.00000,   0.00000
-34339844.37396,3847865.27622,-9612532.23193,  -0.00016,   0.00008,  -0.00012,40048232.00000,   0.00000,274640576.00000,   0.00000,   0.00000,   0.00000,-434592352.00000,   0.00000
-35934326.72341,3360107.70600,-9715218.03619,  -0.00017,   0.00009,  -0.00013,41257432.00000,   0.00000,274640576.00000,   0.00000,   0.00000,   0.00000,-433383136.00000,   0.00000
-37548775.75702,2863792.98542,-9817903.84045,  -0.00018,   0.00009,  -0.00013,42494500.00000,   0.00000,274640576.00000,   0.00000,   0.00000,   0.00000,-432146080.00000,   0.00000
-39163224.79064,2367478.26484,-9926294.41161,  -0.00018,   0.00009,  -0.00013,43749572.00000,   0.00000,274640576.00000,   0.00000,   0.00000,   0.00000,-430891008.00000,   0.00000
-40789083.35805,1882573.07806,-10028980.21587,  -0.00019,   0.00009,  -0.00013,45029980.00000,   0.00000,274640576.00000,   0.00000,   0.00000,   0.00000,-429610592.00000,   0.00000
-42443465.75999,1369144.05677,-10137370.78703,  -0.00020,   0.00009,  -0.00013,46338432.00000,   0.00000,274640576.00000,   0.00000,   0.00000,   0.00000,-428302144.00000,   0.00000
-44117814.84609,847157.88513,-10240056.59129,  -0.00020,   0.00009,  -0.00013,47670304.00000,   0.00000,274640576.00000,   0.00000,   0.00000,   0.00000,-426970272.00000,   0.00000
-45812130.61634,316614.56313,-10348447.16245,  -0.00021,   0.00009,  -0.00013,49033548.00000,   0.00000,274640576.00000,   0.00000,   0.00000,   0.00000,-425607024.00000,   0.00000
-47506446.38660,-213928.75887,-10456837.73361,  -0.00022,   0.00009,  -0.00014,50411696.00000,   0.00000,274640576.00000,   0.00000,   0.00000,   0.00000,-424228880.00000,   0.00000
-49220728.84102,-753029.23123,-10565228.30477,  -0.00022,   0.00009,  -0.00014,51821268.00000,   0.00000,274640576.00000,   0.00000,   0.00000,   0.00000,-422819312.00000,   0.00000
-50963535.12995,-1320653.53810,-10673618.87593,  -0.00023,   0.00009,  -0.00014,53263132.00000,   0.00000,274640576.00000,   0.00000,   0.00000,   0.00000,-421377440.00000,   0.00000
-52717750.95270,-1876868.31116,-10787714.21400,  -0.00024,   0.00009,  -0.00014,54739920.00000,   0.00000,274640576.00000,   0.00000,   0.00000,   0.00000,-419900656.00000,   0.00000
-54491933.45960,-2441640.23458,-10896104.78516,  -0.00024,   0.00010,  -0.00014,56237664.00000,   0.00000,274640576.00000,   0.00000,   0.00000,   0.00000,-418402912.00000,   0.00000
-56266115.96650,-3006412.15800,-11010200.12322,  -0.00025,   0.00010,  -0.00014,57738792.00000,   0.00000,274640576.00000,   0.00000,   0.00000,   0.00000,-416901792.00000,   0.00000
-58068822.30792,-3599707.91593,-11124295.46129,  -0.00026,   0.00010,  -0.00014,59251756.00000,   0.00000,274640576.00000,   0.00000,   0.00000,   0.00000,-415388816.00000,   0.00000
-59862971.49898,-4173036.98971,-11238390.79935,  -0.00026,   0.00010,  -0.00015,60763776.00000,   0.00000,274640576.00000,   0.00000,   0.00000,   0.00000,-413876800.00000,   0.00000
-61705611.20873,-4783447.04835,-11352486.13742,  -0.00027,   0.00010,  -0.00015,62307740.00000,   0.00000,274640576.00000,   0.00000,   0.00000,   0.00000,-412332832.00000,   0.00000
-63539693.76811,-5373890.42284,-11466581.47548,  -0.00028,   0.00010,  -0.00015,63856744.00000,   0.00000,274640576.00000,   0.00000,   0.00000,   0.00000,-410783840.00000,   0.00000
-65382333.47785,-5984300.48148,-11586381.58045,  -0.00029,   0.00010,  -0.00015,65414116.00000,   0.00000,274640576.00000,   0.00000,   0.00000,   0.00000,-409226464.00000,   0.00000
-67264906.55592,-6611824.84084,-11700476.91851,  -0.00029,   0.00010,  -0.00015,67005028.00000,   0.00000,274640576.00000,   0.00000,   0.00000,   0.00000,-407635552.00000,   0.00000
-69138922.48363,-7219382.51603,-11820277.02348,  -0.00030,   0.00010,  -0.00015,68604112.00000,   0.00000,274640576.00000,   0.00000,   0.00000,   0.00000,-406036464.00000,   0.00000
-71041462.24585,-7855464.02574,-11940077.12845,  -0.00031,   0.00010,  -0.00016,70223648.00000,   0.00000,274640576.00000,   0.00000,   0.00000,   0.00000,-404416928.00000,   0.00000
-72944002.00808,-8491545.53545,-12059877.23342,  -0.00032,   0.00010,  -0.00016,71847608.00000,   0.00000,274640576.00000,   0.00000,   0.00000,   0.00000,-402792960.00000,   0.00000
-74866508.45446,-9136184.19551,-12179677.33838,  -0.00032,   0.00010,  -0.00016,73491400.00000,   0.00000,274640576.00000,   0.00000,   0.00000,   0.00000,-401149184.00000,   0.00000
-76808981.58501,-9789380.00593,-12305182.21025,  -0.00033,   0.00011,  -0.00016,75157648.00000,   0.00000,274640576.00000,   0.00000,   0.00000,   0.00000,-399482928.00000,   0.00000
-78771421.39972,-10451132.96671,-12424982.31522,  -0.00034,   0.00011,  -0.00016,76840784.00000,   0.00000,274640576.00000,   0.00000,   0.00000,   0.00000,-397799792.00000,   0.00000
-80742418.36479,-11132852.61164,-12550487.18709,  -0.00035,   0.00011,  -0.00016,78531232.00000,   0.00000,274640576.00000,   0.00000,   0.00000,   0.00000,-396109344.00000,   0.00000
-82704858.17949,-11794605.57242,-12675992.05896,  -0.00035,   0.00011,  -0.00016,80224624.00000,   0.00000,274640576.00000,   0.00000,   0.00000,   0.00000,-394415952.00000,   0.00000
-84707231.36253,-12473472.83390,-12801496.93084,  -0.00036,   0.00011,  -0.00017,81953496.00000,   0.00000,274640576.00000,   0.00000,   0.00000,   0.00000,-392687072.00000,   0.00000
-86718161.69591,-13172306.77954,-12927001.80271,  -0.00037,   0.00011,  -0.00017,83687064.00000,   0.00000,274640576.00000,   0.00000,   0.00000,   0.00000,-390953504.00000,   0.00000
-88729092.02930,-13871140.72519,-13058211.44148,  -0.00038,   0.00011,  -0.00017,85426768.00000,   0.00000,274640576.00000,   0.00000,   0.00000,   0.00000,-389213808.00000,   0.00000
-90751431.89649,-14558565.13703,-13183716.31335,  -0.00038,   0.00011,  -0.00017,87182360.00000,   0.00000,274640576.00000,   0.00000,   0.00000,   0.00000,-387458208.00000,   0.00000
-92802295.59820,-15274513.38338,-13314925.95213,  -0.00039,   0.00011,  -0.00017,88960968.00000,   0.00000,274640576.00000,   0.00000,   0.00000,   0.00000,-385679616.00000,   0.00000
-94853159.29991,-15990461.62974,-13446135.59090,  -0.00040,   0.00011,  -0.00017,90742584.00000,   0.00000,274640576.00000,   0.00000,   0.00000,   0.00000,-383897984.00000,   0.00000
-96923989.68578,-16714967.02645,-13577345.22967,  -0.00041,   0.00011,  -0.00018,92543216.00000,   0.00000,274640576.00000,   0.00000,   0.00000,   0.00000,-382097360.00000,   0.00000
-99014786.75581,-17448029.57351,-13708554.86845,  -0.00042,   0.00011,  -0.00018,94362552.00000,   0.00000,274640576.00000,   0.00000,   0.00000,   0.00000,-380278016.00000,   0.00000
-101105583.82584,-18181092.12058,-13845469.27413,  -0.00042,   0.00011,  -0.00018,96186224.00000,   0.00000,274640576.00000,   0.00000,   0.00000,   0.00000,-378454352.00000,   0.00000
-103204938.04623,-18934121.35180,-13976678.91290,  -0.00043,   0.00012,  -0.00018,98010304.00000,   0.00000,274640576.00000,   0.00000,   0.00000,   0.00000,-376630272.00000,   0.00000
-105315701.80042,-19675741.04922,-14113593.31858,  -0.00044,   0.00012,  -0.00018,99852792.00000,   0.00000,274640576.00000,   0.00000,   0.00000,   0.00000,-374787776.00000,   0.00000
-107454989.38913,-20445884.58116,-14250507.72425,  -0.00045,   0.00012,  -0.00019,101713496.00000,   0.00000,274640576.00000,   0.00000,   0.00000,   0.00000,-372927072.00000,   0.00000
-109585719.82749,-21196061.42893,-14387422.12993,  -0.00046,   0.00012,  -0.00019,103572752.00000,   0.00000,274640576.00000,   0.00000,   0.00000,   0.00000,-371067824.00000,   0.00000
-111744974.10036,-21974762.11122,-14530041.30251,  -0.00047,   0.00012,  -0.00019,105451744.00000,   0.00000,274640576.00000,   0.00000,   0.00000,   0.00000,-369188832.00000,   0.00000
-113904228.37323,-22753462.79351,-14666955.70819,  -0.00047,   0.00012,  -0.00019,107327736.00000,   0.00000,274640576.00000,   0.00000,   0.00000,   0.00000,-367312832.00000,   0.00000
-116083449.33026,-23540720.62616,-14809574.88077,  -0.00048,   0.00012,  -0.00019,109221392.00000,   0.00000,274640576.00000,   0.00000,   0.00000,   0.00000,-365419184.00000,   0.00000
-118262670.28729,-24327978.45880,-14952194.05335,  -0.00049,   0.00012,  -0.00019,111113864.00000,   0.00000,274640576.00000,   0.00000,   0.00000,   0.00000,-363526720.00000,   0.00000
-120441891.24432,-25115236.29145,-15094813.22593,  -0.00050,   0.00012,  -0.00020,113005352.00000,   0.00000,274640576.00000,   0.00000,   0.00000,   0.00000,-361635232.00000,   0.00000
-122649636.03587,-25931017.95861,-15237432.39851,  -0.00051,   0.00012,  -0.00020,114913880.00000,   0.00000,274640576.00000,   0.00000,   0.00000,   0.00000,-359726688.00000,   0.00000
-124868790.36123,-26735390.09196,-15385756.33800,  -0.00052,   0.00012,  -0.00020,116838568.00000,   0.00000,274640576.00000,   0.00000,   0.00000,   0.00000,-357802016.00000,   0.00000
-127096501.83693,-27559728.90948,-15528375.51058,  -0.00052,   0.00012,  -0.00020,118762552.00000,   0.00000,274640576.00000,   0.00000,   0.00000,   0.00000,-355878016.00000,   0.00000
-129324213.31264,-28384067.72699,-15676699.45006,  -0.00053,   0.00012,  -0.00020,120688704.00000,   0.00000,274640576.00000,   0.00000,   0.00000,   0.00000,-353951872.00000,   0.00000
-131571891.47251,-29216963.69486,-15825023.38954,  -0.00054,   0.00012,  -0.00021,122631880.00000,   0.00000,274640576.00000,   0.00000,   0.00000,   0.00000,-352008704.00000,   0.00000
-133839536.31655,-30058416.81309,-15979052.09593,  -0.00055,   0.00012,  -0.00021,124594504.00000,   0.00000,274640576.00000,   0.00000,   0.00000,   0.00000,-350046080.00000,   0.00000
-136107181.16058,-30899869.93131,-16127376.03542,  -0.00056,   0.00012,  -0.00021,126556656.00000,   0.00000,274640576.00000,   0.00000,   0.00000,   0.00000,-348083920.00000,   0.00000
-138374826.00461,-31741323.04954,-16281404.74180,  -0.00057,   0.00013,  -0.00021,128522752.00000,   0.00000,274640576.00000,   0.00000,   0.00000,   0.00000,-346117824.00000,   0.00000
-140642470.84864,-32582776.16777,-16435433.44819,  -0.00058,   0.00013,  -0.00021,130491080.00000,   0.00000,274640576.00000,   0.00000,   0.00000,   0.00000,-344149504.00000,   0.00000
-142938639.52719,-33452753.12051,-16589462.15458,  -0.00059,   0.00013,  -0.00022,132480712.00000,   0.00000,274640576.00000,   0.00000,   0.00000,   0.00000,-342159872.00000,   0.00000
-145254774.88990,-34331287.22360,-16743490.86096,  -0.00059,   0.00013,  -0.00022,134489888.00000,   0.00000,274640576.00000,   0.00000,   0.00000,   0.00000,-340150688.00000,   0.00000
-147542386.41809,-35181297.49218,-16903224.33425,  -0.00060,   0.00013,  -0.00022,136485008.00000,   0.00000,274640576.00000,   0.00000,   0.00000,   0.00000,-338155568.00000,   0.00000
-149858521.78080,-36059831.59528,-17057253.04064,  -0.00061,   0.00013,  -0.00022,138499920.00000,   0.00000,274640576.00000,   0.00000,   0.00000,   0.00000,-336140656.00000,   0.00000
-152194623.82767,-36946922.84873,-17216986.51393,  -0.00062,   0.00013,  -0.00022,140536432.00000,   0.00000,274640576.00000,   0.00000,   0.00000,   0.00000,-334104144.00000,   0.00000
-154539283.02490,-37853980.78635,-17376719.98722,  -0.00063,   0.00013,  -0.00023,142578064.00000,   0.00000,274640576.00000,   0.00000,   0.00000,   0.00000,-332062512.00000,   0.00000
-156875385.07177,-38741072.03980,-17542158.22741,  -0.00064,   0.00013,  -0.00023,144621520.00000,   0.00000,274640576.00000,   0.00000,   0.00000,   0.00000,-330019056.00000,   0.00000
-159240010.95315,-39656687.12776,-17701891.70071,  -0.00065,   0.00013,  -0.00023,146684176.00000,   0.00000,274640576.00000,   0.00000,   0.00000,   0.00000,-327956400.00000,   0.00000
-161576113.00002,-40543778.38122,-17867329.94090,  -0.00066,   0.00013,  -0.00023,148730960.00000,   0.00000,274640576.00000,   0.00000,   0.00000,   0.00000,-325909616.00000,   0.00000
-163960705.56557,-41467950.61954,-18032768.18109,  -0.00067,   0.00013,  -0.00023,150814848.00000,   0.00000,274640576.00000,   0.00000,   0.00000,   0.00000,-323825728.00000,   0.00000
-166325331.44696,-42383565.70751,-18198206.42129,  -0.00067,   0.00013,  -0.00024,152882528.00000,   0.00000,274640576.00000,   0.00000,   0.00000,   0.00000,-321758048.00000,   0.00000
-168709924.01250,-43307737.94583,-18363644.66148,  -0.00068,   0.00013,  -0.00024,154966816.00000,   0.00000,274640576.00000,   0.00000,   0.00000,   0.00000,-319673760.00000,   0.00000
-171094516.57805,-44231910.18415,-18534787.66858,  -0.00069,   0.00013,  -0.00024,157052608.00000,   0.00000,274640576.00000,   0.00000,   0.00000,   0.00000,-317587968.00000,   0.00000
-173487666.29396,-45176049.10663,-18705930.67567,  -0.00070,   0.00013,  -0.00024,159140224.00000,   0.00000,274640576.00000,   0.00000,   0.00000,   0.00000,-315500352.00000,   0.00000
-175892225.54366,-46108778.49531,-18877073.68277,  -0.00071,   0.00013,  -0.00025,161240336.00000,   0.00000,274640576.00000,   0.00000,   0.00000,   0.00000,-313400240.00000,   0.00000
-178305341.94373,-47061474.56815,-19048216.68987,  -0.00072,   0.00013,  -0.00025,163341760.00000,   0.00000,274640576.00000,   0.00000,   0.00000,   0.00000,-311298816.00000,   0.00000
-180718458.34379,-48014170.64099,-19219359.69696,  -0.00073,   0.00013,  -0.00025,165441408.00000,   0.00000,274640576.00000,   0.00000,   0.00000,   0.00000,-309199168.00000,   0.00000
-183131574.74386,-48966866.71383,-19396207.47096,  -0.00074,   0.00013,  -0.00025,167541488.00000,   0.00000,274640576.00000,   0.00000,   0.00000,   0.00000,-307099088.00000,   0.00000
-185564657.82808,-49928119.93702,-19573055.24496,  -0.00075,   0.00013,  -0.00025,169656800.00000,   0.00000,274640576.00000,   0.00000,   0.00000,   0.00000,-304983776.00000,   0.00000
-188006298.06266,-50909339.84437,-19749903.01896,  -0.00076,   0.00013,  -0.00026,171774224.00000,   0.00000,274640576.00000,   0.00000,   0.00000,   0.00000,-302866352.00000,   0.00000
-190439381.14689,-51870593.06757,-19926750.79296,  -0.00077,   0.00014,  -0.00026,173887856.00000,   0.00000,274640576.00000,   0.00000,   0.00000,   0.00000,-300752720.00000,   0.00000
-192900988.06563,-52860370.12528,-20109303.33387,  -0.00077,   0.00014,  -0.00026,176023280.00000,   0.00000,274640576.00000,   0.00000,   0.00000,   0.00000,-298617296.00000,   0.00000
-195342628.30021,-53841590.03263,-20286151.10787,  -0.00078,   0.00014,  -0.00026,178140528.00000,   0.00000,274640576.00000,   0.00000,   0.00000,   0.00000,-296500048.00000,   0.00000
-197804235.21895,-54831367.09034,-20468703.64877,  -0.00079,   0.00014,  -0.00027,180277440.00000,   0.00000,274640576.00000,   0.00000,   0.00000,   0.00000,-294363136.00000,   0.00000
-200265842.13769,-55821144.14805,-20656960.95658,  -0.00080,   0.00014,  -0.00027,182417792.00000,   0.00000,274640576.00000,   0.00000,   0.00000,   0.00000,-292222784.00000,   0.00000
-202727449.05643,-56810921.20576,-20839513.49748,  -0.00081,   0.00014,  -0.00027,184558032.00000,   0.00000,274640576.00000,   0.00000,   0.00000,   0.00000,-290082544.00000,   0.00000
-205197613.12553,-57820664.94763,-21027770.80528,  -0.00082,   0.00014,  -0.00027,186705552.00000,   0.00000,274640576.00000,   0.00000,   0.00000,   0.00000,-287935024.00000,   0.00000
-207687743.87879,-58838965.83986,-21216028.11309,  -0.00083,   0.00014,  -0.00028,188872176.00000,   0.00000,274640576.00000,   0.00000,   0.00000,   0.00000,-285768400.00000,   0.00000
-210157907.94788,-59848709.58173,-21404285.42090,  -0.00084,   0.00014,  -0.00028,191024448.00000,   0.00000,274640576.00000,   0.00000,   0.00000,   0.00000,-283616128.00000,   0.00000
-212648038.70114,-60867010.47395,-21592542.72870,  -0.00085,   0.00014,  -0.00028,193195792.00000,   0.00000,274640576.00000,   0.00000,   0.00000,   0.00000,-281444784.00000,   0.00000
-215138169.45440,-61885311.36618,-21786504.80341,  -0.00086,   0.00014,  -0.00028,195371344.00000,   0.00000,274640576.00000,   0.00000,   0.00000,   0.00000,-279269232.00000,   0.00000
-217628300.20765,-62903612.25840,-21980466.87812,  -0.00087,   0.00014,  -0.00029,197548688.00000,   0.00000,274640576.00000,   0.00000,   0.00000,   0.00000,-277091888.00000,   0.00000
-220126988.11127,-63941879.83479,-22174428.95283,  -0.00088,   0.00014,  -0.00029,199730992.00000,   0.00000,274640576.00000,   0.00000,   0.00000,   0.00000,-274909584.00000,   0.00000
-222645642.69904,-64988704.56153,-22368391.02754,  -0.00089,   0.00014,  -0.00029,201930912.00000,   0.00000,274640576.00000,   0.00000,   0.00000,   0.00000,-272709664.00000,   0.00000
-225144330.60265,-66026972.13792,-22568057.86916,  -0.00090,   0.00014,  -0.00029,204116032.00000,   0.00000,274640576.00000,   0.00000,   0.00000,   0.00000,-270524544.00000,   0.00000
-227662985.19043,-67073796.86466,-22762019.94387,  -0.00091,   0.00014,  -0.00030,206317440.00000,   0.00000,274640576.00000,   0.00000,   0.00000,   0.00000,-268323136.00000,   0.00000
-230161673.09404,-68112064.44105,-22961686.78548,  -0.00091,   0.00014,  -0.00030,208522032.00000,   0.00000,274640576.00000,   0.00000,   0.00000,   0.00000,-266118544.00000,   0.00000
-232680327.68181,-69158889.16779,-23167058.39399,  -0.00092,   0.00014,  -0.00030,210791856.00000,   0.00000,274640576.00000,   0.00000,   0.00000,   0.00000,-263848720.00000,   0.00000
-235207539.41994,-70225680.57869,-23366725.23561,  -0.00093,   0.00014,  -0.00030,213073248.00000,   0.00000,274640576.00000,   0.00000,   0.00000,   0.00000,-261567328.00000,   0.00000
-237714784.47391,-71283914.83924,-23572096.84412,  -0.00094,   0.00014,  -0.00031,215299936.00000,   0.00000,274640576.00000,   0.00000,   0.00000,   0.00000,-259340640.00000,   0.00000
-240241996.21203,-72350706.25014,-23777468.45264,  -0.00095,   0.00014,  -0.00031,217514320.00000,   0.00000,274640576.00000,   0.00000,   0.00000,   0.00000,-257126256.00000,   0.00000
-242769207.95016,-73417497.66105,-23982840.06116,  -0.00096,   0.00014,  -0.00031,219764240.00000,   0.00000,274640576.00000,   0.00000,   0.00000,   0.00000,-254876336.00000,   0.00000
-245296419.68829,-74484289.07195,-24188211.66967,  -0.00097,   0.00014,  -0.00031,221987888.00000,   0.00000,274640576.00000,   0.00000,   0.00000,   0.00000,-252652688.00000,   0.00000
-247832188.57677,-75571047.16701,-24399288.04509,  -0.00098,   0.00014,  -0.00032,224177792.00000,   0.00000,274640576.00000,   0.00000,   0.00000,   0.00000,-250462784.00000,   0.00000
-250367957.46526,-76657805.26208,-24610364.42051,  -0.00099,   0.00014,  -0.00032,226351472.00000,   0.00000,274640576.00000,   0.00000,   0.00000,   0.00000,-248289104.00000,   0.00000
-252903726.35374,-77744563.35714,-24821440.79593,  -0.00100,   0.00014,  -0.00032,228526352.00000,   0.00000,274640576.00000,   0.00000,   0.00000,   0.00000,-246114224.00000,   0.00000
-255439495.24222,-78831321.45221,-25038221.93825,  -0.00101,   0.00014,  -0.00033,230711664.00000,   0.00000,274640576.00000,   0.00000,   0.00000,   0.00000,-243928912.00000,   0.00000
-257975264.13071,-79918079.54727,-25249298.31367,  -0.00102,   0.00014,  -0.00033,232905248.00000,   0.00000,274640576.00000,   0.00000,   0.00000,   0.00000,-241735328.00000,   0.00000
-260511033.01919,-81004837.64233,-25466079.45599,  -0.00103,   0.00014,  -0.00033,235110224.00000,   0.00000,274640576.00000,   0.00000,   0.00000,   0.00000,-239530352.00000,   0.00000
-263055359.05803,-82111562.42156,-25682860.59832,  -0.00104,   0.00014,  -0.00033,237326896.00000,   0.00000,274640576.00000,   0.00000,   0.00000,   0.00000,-237313680.00000,   0.00000
-265599685.09687,-83218287.20078,-25905346.50754,  -0.00105,   0.00014,  -0.00034,239548736.00000,   0.00000,274640576.00000,   0.00000,   0.00000,   0.00000,-235091840.00000,   0.00000
-268144011.13571,-84325011.98001,-26122127.64986,  -0.00106,   0.00014,  -0.00034,241763168.00000,   0.00000,274640576.00000,   0.00000,   0.00000,   0.00000,-232877408.00000,   0.00000
-270688337.17454,-85431736.75924,-26344613.55909,  -0.00107,   0.00014,  -0.00034,243975424.00000,   0.00000,274640576.00000,   0.00000,   0.00000,   0.00000,-230665152.00000,   0.00000
-273241220.36374,-86558428.22262,-26567099.46832,  -0.00107,   0.00014,  -0.00035,246199440.00000,   0.00000,274640576.00000,   0.00000,   0.00000,   0.00000,-228441136.00000,   0.00000
-275785546.40257,-87665153.00185,-26795290.14444,  -0.00108,   0.00014,  -0.00035,248428336.00000,   0.00000,274640576.00000,   0.00000,   0.00000,   0.00000,-226212240.00000,   0.00000
-278338429.59177,-88791844.46524,-27017776.05367,  -0.00109,   0.00014,  -0.00035,250655568.00000,   0.00000,274640576.00000,   0.00000,   0.00000,   0.00000,-223985008.00000,   0.00000
-280871346.09680,-89909978.77827,-27245966.72980,  -0.00110,   0.00014,  -0.00035,252857376.00000,   0.00000,274640576.00000,   0.00000,   0.00000,   0.00000,-221783200.00000,   0.00000
-283424229.28599,-91036670.24165,-27474157.40593,  -0.00111,   0.00014,  -0.00036,255065888.00000,   0.00000,274640576.00000,   0.00000,   0.00000,   0.00000,-219574688.00000,   0.00000
-285965702.94138,-92174771.23885,-27708052.84896,  -0.00112,   0.00014,  -0.00036,257256976.00000,   0.00000,274640576.00000,   0.00000,   0.00000,   0.00000,-217383600.00000,   0.00000
-288518586.13057,-93301462.70223,-27936243.52509,  -0.00113,   0.00014,  -0.00036,259456464.00000,   0.00000,274640576.00000,   0.00000,   0.00000,   0.00000,-215184112.00000,   0.00000
-291060059.78596,-94439563.69943,-28170138.96812,  -0.00114,   0.00014,  -0.00037,261644704.00000,   0.00000,274640576.00000,   0.00000,   0.00000,   0.00000,-212995872.00000,   0.00000
-293601533.44134,-95577664.69662,-28404034.41115,  -0.00115,   0.00014,  -0.00037,263833632.00000,   0.00000,274640576.00000,   0.00000,   0.00000,   0.00000,-210806944.00000,   0.00000
-296143007.09673,-96715765.69381,-28643634.62109,  -0.00116,   0.00014,  -0.00037,266025600.00000,   0.00000,274640576.00000,   0.00000,   0.00000,   0.00000,-208614976.00000,   0.00000
-298684480.75212,-97853866.69101,-28877530.06412,  -0.00117,   0.00014,  -0.00038,268217472.00000,   0.00000,274640576.00000,   0.00000,   0.00000,   0.00000,-206423104.00000,   0.00000
-301234511.55786,-99011934.37236,-29117130.27406,  -0.00118,   0.00014,  -0.00038,270417536.00000,   0.00000,274640576.00000,   0.00000,   0.00000,   0.00000,-204223040.00000,   0.00000
-303764575.67944,-100161444.90336,-29356730.48399,  -0.00119,   0.00014,  -0.00038,272604128.00000,   0.00000,274640576.00000,   0.00000,   0.00000,   0.00000,-202036448.00000,   0.00000
-306306049.33482,-101299545.90055,-29602035.46083,  -0.00120,   0.00014,  -0.00038,274809792.00000,   0.00000,274640576.00000,   0.00000,   0.00000,   0.00000,-199830784.00000,   0.00000
-308836113.45640,-102449056.43155,-29841635.67077,  -0.00121,   0.00014,  -0.00039,277006528.00000,   0.00000,274640576.00000,   0.00000,   0.00000,   0.00000,-197634048.00000,   0.00000
-311374734.72834,-103618533.64672,-30086940.64761,  -0.00121,   0.00014,  -0.00039,279215616.00000,   0.00000,274640576.00000,   0.00000,   0.00000,   0.00000,-195424960.00000,   0.00000
-313904798.84992,-104768044.17771,-30332245.62444,  -0.00122,   0.00014,  -0.00039,281427712.00000,   0.00000,274640576.00000,   0.00000,   0.00000,   0.00000,-193212864.00000,   0.00000
-316443420.12185,-105937521.39288,-30583255.36819,  -0.00123,   0.00014,  -0.00040,283653408.00000,   0.00000,274640576.00000,   0.00000,   0.00000,   0.00000,-190987168.00000,   0.00000
-318962074.70963,-107098441.45768,-30828560.34502,  -0.00124,   0.00013,  -0.00040,285867456.00000,   0.00000,274640576.00000,   0.00000,   0.00000,   0.00000,-188773120.00000,   0.00000
-321500695.98156,-108267918.67284,-31079570.08877,  -0.00125,   0.00013,  -0.00040,288107264.00000,   0.00000,274640576.00000,   0.00000,   0.00000,   0.00000,-186533312.00000,   0.00000
-324019350.56934,-109428838.73765,-31330579.83251,  -0.00126,   0.00013,  -0.00041,290336000.00000,   0.00000,274640576.00000,   0.00000,   0.00000,   0.00000,-184304576.00000,   0.00000
-326538005.15711,-110589758.80246,-31587294.34315,  -0.00127,   0.00013,  -0.00041,292571232.00000,   0.00000,274640576.00000,   0.00000,   0.00000,   0.00000,-182069344.00000,   0.00000
-329045250.21108,-111762088.40107,-31838304.08690,  -0.00128,   0.00013,  -0.00041,294794976.00000,   0.00000,274640576.00000,   0.00000,   0.00000,   0.00000,-179845600.00000,   0.00000
-331572461.94920,-112942975.15004,-32095018.59754,  -0.00129,   0.00013,  -0.00042,297039456.00000,   0.00000,274640576.00000,   0.00000,   0.00000,   0.00000,-177601120.00000,   0.00000
-334079707.00317,-114115304.74865,-32357437.87509,  -0.00130,   0.00013,  -0.00042,299268448.00000,   0.00000,274640576.00000,   0.00000,   0.00000,   0.00000,-175372128.00000,   0.00000
-336586952.05714,-115287634.34726,-32614152.38573,  -0.00131,   0.00013,  -0.00042,301493632.00000,   0.00000,274640576.00000,   0.00000,   0.00000,   0.00000,-173146944.00000,   0.00000
-339074230.42694,-116451406.79552,-32876571.66328,  -0.00132,   0.00013,  -0.00043,303700416.00000,   0.00000,274640576.00000,   0.00000,   0.00000,   0.00000,-170940160.00000,   0.00000
-341590032.63127,-117643703.07829,-33138990.94083,  -0.00132,   0.00013,  -0.00043,305924160.00000,   0.00000,274640576.00000,   0.00000,   0.00000,   0.00000,-168716416.00000,   0.00000
-344085868.15143,-118827442.21071,-33401410.21838,  -0.00133,   0.00013,  -0.00043,308125216.00000,   0.00000,274640576.00000,   0.00000,   0.00000,   0.00000,-166515360.00000,   0.00000
-346581703.67159,-120011181.34313,-33663829.49593,  -0.00134,   0.00013,  -0.00044,310320192.00000,   0.00000,274640576.00000,   0.00000,   0.00000,   0.00000,-164320384.00000,   0.00000
-349057572.50759,-121186363.32519,-33931953.54038,  -0.00135,   0.00013,  -0.00044,312493696.00000,   0.00000,274640576.00000,   0.00000,   0.00000,   0.00000,-162146880.00000,   0.00000
-351553408.02775,-122370102.45761,-34200077.58483,  -0.00136,   0.00013,  -0.00044,314678336.00000,   0.00000,274640576.00000,   0.00000,   0.00000,   0.00000,-159962240.00000,   0.00000
-354037834.01410,-123565251.12384,-34468201.62928,  -0.00137,   0.00013,  -0.00045,316845536.00000,   0.00000,274640576.00000,   0.00000,   0.00000,   0.00000,-157795040.00000,   0.00000
-356493736.16594,-124731875.95555,-34742030.44064,  -0.00138,   0.00013,  -0.00045,318989856.00000,   0.00000,274640576.00000,   0.00000,   0.00000,   0.00000,-155650720.00000,   0.00000
-358978162.15229,-125927024.62177,-35015859.25199,  -0.00139,   0.00013,  -0.00046,321154272.00000,   0.00000,274640576.00000,   0.00000,   0.00000,   0.00000,-153486304.00000,   0.00000
-361442621.45449,-127113616.13764,-35289688.06335,  -0.00140,   0.00013,  -0.00046,323303200.00000,   0.00000,274640576.00000,   0.00000,   0.00000,   0.00000,-151337376.00000,   0.00000
-363895671.22287,-128311617.18732,-35563516.87470,  -0.00141,   0.00013,  -0.00046,325444512.00000,   0.00000,274640576.00000,   0.00000,   0.00000,   0.00000,-149196064.00000,   0.00000
-366360130.52507,-129498208.70319,-35837345.68606,  -0.00141,   0.00013,  -0.00047,327606720.00000,   0.00000,274640576.00000,   0.00000,   0.00000,   0.00000,-147033856.00000,   0.00000
-368813180.29345,-130696209.75287,-36116879.26431,  -0.00142,   0.00012,  -0.00047,329769984.00000,   0.00000,274640576.00000,   0.00000,   0.00000,   0.00000,-144870592.00000,   0.00000
-371246263.37768,-131885653.65219,-36396412.84257,  -0.00143,   0.00012,  -0.00047,331929184.00000,   0.00000,274640576.00000,   0.00000,   0.00000,   0.00000,-142711392.00000,   0.00000
-373679346.46190,-133075097.55151,-36675946.42083,  -0.00144,   0.00012,  -0.00048,334099424.00000,   0.00000,274640576.00000,   0.00000,   0.00000,   0.00000,-140541152.00000,   0.00000
-376112429.54613,-134264541.45084,-36961184.76599,  -0.00145,   0.00012,  -0.00048,336274624.00000,   0.00000,274640576.00000,   0.00000,   0.00000,   0.00000,-138365952.00000,   0.00000
-378545512.63035,-135453985.35016,-37246423.11115,  -0.00146,   0.00012,  -0.00048,338440320.00000,   0.00000,274640576.00000,   0.00000,   0.00000,   0.00000,-136200256.00000,   0.00000
-380967186.18077,-136654838.78329,-37531661.45631,  -0.00147,   0.00012,  -0.00049,340572160.00000,   0.00000,274640576.00000,   0.00000,   0.00000,   0.00000,-134068416.00000,   0.00000
-383388859.73119,-137855692.21642,-37816899.80147,  -0.00148,   0.00012,  -0.00049,342706208.00000,   0.00000,274640576.00000,   0.00000,   0.00000,   0.00000,-131934368.00000,   0.00000
-385790566.59745,-139047988.49919,-38102138.14664,  -0.00148,   0.00012,  -0.00050,344893536.00000,   0.00000,274640576.00000,   0.00000,   0.00000,   0.00000,-129747040.00000,   0.00000
-388192273.46371,-140240284.78196,-38393081.25870,  -0.00149,   0.00012,  -0.00050,347072256.00000,   0.00000,274640576.00000,   0.00000,   0.00000,   0.00000,-127568320.00000,   0.00000
-390593980.32996,-141432581.06474,-38684024.37076,  -0.00150,   0.00012,  -0.00050,349164992.00000,   0.00000,274640576.00000,   0.00000,   0.00000,   0.00000,-125475584.00000,   0.00000
-392975720.51206,-142616320.19716,-38980672.24973,  -0.00151,   0.00012,  -0.00051,351231296.00000,   0.00000,274640576.00000,   0.00000,   0.00000,   0.00000,-123409280.00000,   0.00000
-395346051.16035,-143811468.86338,-39271615.36180,  -0.00152,   0.00012,  -0.00051,353297856.00000,   0.00000,274640576.00000,   0.00000,   0.00000,   0.00000,-121342720.00000,   0.00000
-397736348.49280,-145015174.67996,-39568263.24076,  -0.00153,   0.00012,  -0.00051,355391936.00000,   0.00000,274640576.00000,   0.00000,   0.00000,   0.00000,-119248640.00000,   0.00000
-400086712.45693,-146201766.19583,-39864911.11973,  -0.00154,   0.00011,  -0.00052,357456736.00000,   0.00000,274640576.00000,   0.00000,   0.00000,   0.00000,-117183840.00000,   0.00000
-402457043.10522,-147396914.86206,-40161558.99870,  -0.00154,   0.00011,  -0.00052,359541984.00000,   0.00000,274640576.00000,   0.00000,   0.00000,   0.00000,-115098592.00000,   0.00000
-404815964.21970,-148603473.06209,-40463911.64457,  -0.00155,   0.00011,  -0.00053,361622272.00000,   0.00000,274640576.00000,   0.00000,   0.00000,   0.00000,-113018304.00000,   0.00000
-407146361.49967,-149781507.42761,-40766264.29044,  -0.00156,   0.00011,  -0.00053,363687776.00000,   0.00000,274640576.00000,   0.00000,   0.00000,   0.00000,-110952800.00000,   0.00000
-409485315.92999,-150979508.47728,-41068616.93631,  -0.00157,   0.00011,  -0.00053,365767104.00000,   0.00000,274640576.00000,   0.00000,   0.00000,   0.00000,-108873472.00000,   0.00000
-411824270.36031,-152177509.52696,-41370969.58218,  -0.00158,   0.00011,  -0.00054,367855776.00000,   0.00000,274640576.00000,   0.00000,   0.00000,   0.00000,-106784800.00000,   0.00000
-414143258.10647,-153366953.42628,-41679026.99496,  -0.00159,   0.00011,  -0.00054,369937248.00000,   0.00000,274640576.00000,   0.00000,   0.00000,   0.00000,-104703328.00000,   0.00000
-416442279.16847,-154547840.17525,-41981379.64083,  -0.00159,   0.00011,  -0.00055,372003136.00000,   0.00000,274640576.00000,   0.00000,   0.00000,   0.00000,-102637440.00000,   0.00000
-418741300.23047,-155728726.92422,-42289437.05360,  -0.00160,   0.00011,  -0.00055,374069120.00000,   0.00000,274640576.00000,   0.00000,   0.00000,   0.00000,-100571456.00000,   0.00000
-421048878.44283,-156929580.35735,-42603199.23328,  -0.00161,   0.00011,  -0.00055,376133696.00000,   0.00000,274640576.00000,   0.00000,   0.00000,   0.00000,-98506880.00000,   0.00000
-423336489.97102,-158121876.64012,-42911256.64605,  -0.00162,   0.00011,  -0.00056,378166144.00000,   0.00000,274640576.00000,   0.00000,   0.00000,   0.00000,-96474432.00000,   0.00000
-425604134.81505,-159305615.77254,-43225018.82573,  -0.00163,   0.00011,  -0.00056,380168960.00000,   0.00000,274640576.00000,   0.00000,   0.00000,   0.00000,-94471616.00000,   0.00000
-427871779.65908,-160489354.90496,-43538781.00541,  -0.00163,   0.00010,  -0.00057,382158592.00000,   0.00000,274640576.00000,   0.00000,   0.00000,   0.00000,-92481984.00000,   0.00000
-430139424.50311,-161673094.03738,-43852543.18509,  -0.00164,   0.00010,  -0.00057,384138816.00000,   0.00000,274640576.00000,   0.00000,   0.00000,   0.00000,-90501760.00000,   0.00000
-432387102.66299,-162848276.01944,-44172010.13167,  -0.00165,   0.00010,  -0.00057,386099136.00000,   0.00000,274640576.00000,   0.00000,   0.00000,   0.00000,-88541440.00000,   0.00000
-434623371.28905,-164034867.53531,-44485772.31134,  -0.00166,   0.00010,  -0.00058,388044768.00000,   0.00000,274640576.00000,   0.00000,   0.00000,   0.00000,-86595808.00000,   0.00000
-436859639.91511,-165221459.05118,-44805239.25792,  -0.00167,   0.00010,  -0.00058,389994400.00000,   0.00000,274640576.00000,   0.00000,   0.00000,   0.00000,-84646176.00000,   0.00000
-439075941.85702,-166399493.41670,-45130410.97141,  -0.00167,   0.00010,  -0.00059,391932928.00000,   0.00000,274640576.00000,   0.00000,   0.00000,   0.00000,-82707648.00000,   0.00000
-441292243.79892,-167577527.78221,-45449877.91799,  -0.00168,   0.00010,  -0.00059,393874080.00000,   0.00000,274640576.00000,   0.00000,   0.00000,   0.00000,-80766496.00000,   0.00000
-443488579.05666,-168747004.99738,-45775049.63147,  -0.00169,   0.00010,  -0.00060,395804928.00000,   0.00000,274640576.00000,   0.00000,   0.00000,   0.00000,-78835648.00000,   0.00000
-445684914.31440,-169916482.21254,-46100221.34496,  -0.00170,   0.00010,  -0.00060,397740032.00000,   0.00000,274640576.00000,   0.00000,   0.00000,   0.00000,-76900544.00000,   0.00000
-447869840.03834,-171097368.96150,-46425393.05844,  -0.00170,   0.00009,  -0.00060,399666976.00000,   0.00000,274640576.00000,   0.00000,   0.00000,   0.00000,-74973600.00000,   0.00000
-450026241.92775,-172249731.87596,-46750564.77192,  -0.00171,   0.00009,  -0.00061,401575104.00000,   0.00000,274640576.00000,   0.00000,   0.00000,   0.00000,-73065472.00000,   0.00000
-452191200.96753,-173422061.47457,-47081441.25231,  -0.00172,   0.00009,  -0.00061,403492576.00000,   0.00000,274640576.00000,   0.00000,   0.00000,   0.00000,-71148000.00000,   0.00000
-454336193.32314,-174585833.92283,-47412317.73270,  -0.00173,   0.00009,  -0.00062,405395072.00000,   0.00000,274640576.00000,   0.00000,   0.00000,   0.00000,-69245504.00000,   0.00000
-456481185.67875,-175749606.37108,-47743194.21308,  -0.00173,   0.00009,  -0.00062,407298816.00000,   0.00000,274640576.00000,   0.00000,   0.00000,   0.00000,-67341760.00000,   0.00000
-458614768.50056,-176924788.35315,-48074070.69347,  -0.00174,   0.00009,  -0.00062,409191360.00000,   0.00000,274640576.00000,   0.00000,   0.00000,   0.00000,-65449216.00000,   0.00000
-460739794.17201,-178080003.65105,-48410651.94076,  -0.00175,   0.00009,  -0.00063,411081472.00000,   0.00000,274640576.00000,   0.00000,   0.00000,   0.00000,-63559104.00000,   0.00000
-462833443.62549,-179238071.33241,-48747233.18805,  -0.00176,   0.00009,  -0.00063,412942976.00000,   0.00000,274640576.00000,   0.00000,   0.00000,   0.00000,-61697600.00000,   0.00000
-464938502.61278,-180384729.47995,-49083814.43534,  -0.00176,   0.00009,  -0.00064,414816512.00000,   0.00000,274640576.00000,   0.00000,   0.00000,   0.00000,-59824064.00000,   0.00000
-467012185.38211,-181534240.01095,-49420395.68263,  -0.00177,   0.00008,  -0.00064,416661792.00000,   0.00000,274640576.00000,   0.00000,   0.00000,   0.00000,-57978784.00000,   0.00000
-469085868.15143,-182683750.54195,-49756976.92992,  -0.00178,   0.00008,  -0.00065,418507552.00000,   0.00000,274640576.00000,   0.00000,   0.00000,   0.00000,-56133024.00000,   0.00000
-471159550.92075,-183833261.07295,-50099262.94412,  -0.00179,   0.00008,  -0.00065,420356128.00000,   0.00000,274640576.00000,   0.00000,   0.00000,   0.00000,-54284448.00000,   0.00000
-473201857.47210,-184985623.98740,-50441548.95831,  -0.00179,   0.00008,  -0.00066,422177280.00000,   0.00000,274640576.00000,   0.00000,   0.00000,   0.00000,-52463296.00000,   0.00000
-475235606.87310,-186118020.21769,-50783834.97250,  -0.00180,   0.00008,  -0.00066,423994784.00000,   0.00000,274640576.00000,   0.00000,   0.00000,   0.00000,-50645792.00000,   0.00000
-477277913.42446,-187270383.13215,-51126120.98670,  -0.00181,   0.00008,  -0.00066,425819424.00000,   0.00000,274640576.00000,   0.00000,   0.00000,   0.00000,-48821152.00000,   0.00000
-479271729.45713,-188385665.06173,-51474111.76779,  -0.00181,   0.00008,  -0.00067,427609056.00000,   0.00000,274640576.00000,   0.00000,   0.00000,   0.00000,-47031520.00000,   0.00000
-481274102.64017,-189520913.67547,-51822102.54889,  -0.00182,   0.00008,  -0.00067,429406016.00000,   0.00000,274640576.00000,   0.00000,   0.00000,   0.00000,-45234560.00000,   0.00000
-483276475.82320,-190656162.28921,-52170093.32999,  -0.00183,   0.00007,  -0.00068,431205088.00000,   0.00000,274640576.00000,   0.00000,   0.00000,   0.00000,-43435488.00000,   0.00000
-485238915.63791,-191774296.60224,-52518084.11108,  -0.00183,   0.00007,  -0.00068,432971712.00000,   0.00000,274640576.00000,   0.00000,   0.00000,   0.00000,-41668864.00000,   0.00000
-487201355.45262,-192892430.91527,-52866074.89218,  -0.00184,   0.00007,  -0.00069,434739488.00000,   0.00000,274640576.00000,   0.00000,   0.00000,   0.00000,-39901088.00000,   0.00000
-489172352.41768,-194030531.91247,-53219770.44018,  -0.00185,   0.00007,  -0.00069,436515136.00000,   0.00000,274640576.00000,   0.00000,   0.00000,   0.00000,-38125440.00000,   0.00000
-491094858.86407,-195131551.92479,-53573465.98818,  -0.00185,   0.00007,  -0.00070,438251072.00000,   0.00000,274640576.00000,   0.00000,   0.00000,   0.00000,-36389504.00000,   0.00000
-493025922.46081,-196252538.62127,-53927161.53618,  -0.00186,   0.00007,  -0.00070,439991360.00000,   0.00000,274640576.00000,   0.00000,   0.00000,   0.00000,-34649216.00000,   0.00000
-494928462.22303,-197345001.48324,-54280857.08418,  -0.00187,   0.00007,  -0.00071,441707488.00000,   0.00000,274640576.00000,   0.00000,   0.00000,   0.00000,-32933088.00000,   0.00000
-496839559.13561,-198457431.02937,-54640257.39908,  -0.00187,   0.00007,  -0.00071,443428864.00000,   0.00000,274640576.00000,   0.00000,   0.00000,   0.00000,-31211712.00000,   0.00000
-498730689.36403,-199561303.42514,-54993952.94708,  -0.00188,   0.00006,  -0.00071,445128480.00000,   0.00000,274640576.00000,   0.00000,   0.00000,   0.00000,-29512096.00000,   0.00000
-500601852.90829,-200656618.67056,-55353353.26199,  -0.00189,   0.00006,  -0.00072,446810720.00000,   0.00000,274640576.00000,   0.00000,   0.00000,   0.00000,-27829856.00000,   0.00000
-502453049.76839,-201743376.76563,-55712753.57689,  -0.00189,   0.00006,  -0.00072,448473440.00000,   0.00000,274640576.00000,   0.00000,   0.00000,   0.00000,-26167136.00000,   0.00000
-504312803.77884,-202850101.54485,-56072153.89179,  -0.00190,   0.00006,  -0.00073,450139584.00000,   0.00000,274640576.00000,   0.00000,   0.00000,   0.00000,-24500992.00000,   0.00000
-506144033.95477,-203928302.48956,-56437258.97360,  -0.00191,   0.00006,  -0.00073,451784128.00000,   0.00000,274640576.00000,   0.00000,   0.00000,   0.00000,-22856448.00000,   0.00000
-507963854.59690,-205017912.96808,-56802364.05540,  -0.00191,   0.00006,  -0.00074,453416640.00000,   0.00000,274640576.00000,   0.00000,   0.00000,   0.00000,-21223936.00000,   0.00000
-509755151.40451,-206078999.61208,-57161764.37031,  -0.00192,   0.00006,  -0.00074,455025056.00000,   0.00000,274640576.00000,   0.00000,   0.00000,   0.00000,-19615520.00000,   0.00000
-511555005.36248,-207160052.94024,-57526869.45211,  -0.00192,   0.00005,  -0.00075,456642176.00000,   0.00000,274640576.00000,   0.00000,   0.00000,   0.00000,-17998400.00000,   0.00000
-513334892.63629,-208232549.11804,-57897679.30082,  -0.00193,   0.00005,  -0.00075,458246624.00000,   0.00000,274640576.00000,   0.00000,   0.00000,   0.00000,-16393952.00000,   0.00000
-515094813.22593,-209296488.14549,-58262784.38263,  -0.00194,   0.00005,  -0.00076,459834912.00000,   0.00000,274640576.00000,   0.00000,   0.00000,   0.00000,-14805664.00000,   0.00000
-516834767.13142,-210351870.02259,-58633594.23134,  -0.00194,   0.00005,  -0.00076,461411808.00000,   0.00000,274640576.00000,   0.00000,   0.00000,   0.00000,-13228768.00000,   0.00000
-518574721.03690,-211407251.89969,-59004404.08005,  -0.00195,   0.00005,  -0.00077,462992480.00000,   0.00000,274640576.00000,   0.00000,   0.00000,   0.00000,-11648096.00000,   0.00000
-520294708.25822,-212454076.62643,-59375213.92876,  -0.00195,   0.00005,  -0.00077,464559904.00000,   0.00000,274640576.00000,   0.00000,   0.00000,   0.00000,-10080672.00000,   0.00000
-521994728.79538,-213492344.20282,-59746023.77747,  -0.00196,   0.00005,  -0.00078,466113824.00000,   0.00000,274640576.00000,   0.00000,   0.00000,   0.00000,-8526752.00000,   0.00000
-523683339.79874,-214542021.31301,-60116833.62618,  -0.00196,   0.00005,  -0.00078,467659584.00000,   0.00000,274640576.00000,   0.00000,   0.00000,   0.00000,-6980992.00000,   0.00000
-525343426.96757,-215563174.58869,-60493348.24179,  -0.00197,   0.00004,  -0.00079,469187168.00000,   0.00000,274640576.00000,   0.00000,   0.00000,   0.00000,-5453408.00000,   0.00000
-527012071.28677,-216604294.54852,-60864158.09050,  -0.00198,   0.00004,  -0.00079,470719264.00000,   0.00000,274640576.00000,   0.00000,   0.00000,   0.00000,-3921312.00000,   0.00000
-528652191.77144,-217616890.67385,-61240672.70611,  -0.00198,   0.00004,  -0.00080,472230784.00000,   0.00000,274640576.00000,   0.00000,   0.00000,   0.00000,-2409792.00000,   0.00000
-530280902.72232,-218640896.33298,-61617187.32173,  -0.00199,   0.00004,  -0.00080,473729088.00000,   0.00000,274640576.00000,   0.00000,   0.00000,   0.00000,-911488.00000,   0.00000
-531272228.53510,-219266626.81055,-61849199.74600,  -0.00199,   0.00004,  -0.00080,474640288.00000,   0.00000,274640576.00000,   0.00000,   0.00000,   0.00000,-288.00000,   0.00000
-531267703.64747,-219448284.28395,-61911503.62459,  -0.00199,   0.00004,  -0.00081,474640288.00000,   0.00000,274642880.00000,  -0.00000,   0.00000,  -0.00000,   0.00000,   2.00000
-531252202.83132,-219918984.29106,-62078369.88023,  -0.00200,   0.00004,  -0.00081,476119872.00000,   0.00001,274648864.00000,  -0.00001,   0.00000,  -0.00000,  32.00000,   2.00000
-531237094.09134,-220386386.27068,-62241675.12055,  -0.00200,   0.00003,  -0.00082,476107456.00000,   0.00001,274654752.00000,  -0.00001,   0.00000,  -0.00001, 128.00000,   2.00000
-531215813.73624,-220846509.72369,-62414596.11956,  -0.00201,   0.00003,  -0.00082,476082592.00000,   0.00002,274660544.00000,  -0.00002,   0.00000,  -0.00001, -96.00000,   2.00000
-531194194.54809,-221305014.94398,-62586891.73376,  -0.00201,   0.00003,  -0.00083,476088768.00000,   0.00002,274666304.00000,  -0.00003,   0.00000,  -0.00001,  32.00000,   2.00000
-531171912.86950,-221761800.26517,-62758519.41415,  -0.00202,   0.00003,  -0.00083,476095168.00000,   0.00003,274672096.00000,  -0.00003,   0.00000,  -0.00001,   0.00000,   2.00000
-531148338.85495,-222230131.29972,-62933602.77706,  -0.00202,   0.00003,  -0.00084,476073664.00000,   0.00003,274677760.00000,  -0.00004,   0.00000,  -0.00002,  32.00000,   2.00000
-531121818.44319,-222678966.49472,-63108859.35764,  -0.00203,   0.00003,  -0.00084,476074176.00000,   0.00004,274683392.00000,  -0.00005,   0.00000,  -0.00002,   0.00000,   2.00000
-531091670.13296,-223138665.74773,-63292963.21776,  -0.00203,   0.00003,  -0.00085,476054688.00000,   0.00004,274688928.00000,  -0.00005,   0.00001,  -0.00002,   0.00000,   2.00000
-531061285.45994,-223579864.09177,-63471905.06315,  -0.00204,   0.00002,  -0.00085,476052800.00000,   0.00005,274694432.00000,  -0.00006,   0.00001,  -0.00003, 128.00000,   2.00000
-531028312.55982,-224034084.96323,-63657147.22016,  -0.00204,   0.00002,  -0.00086,476050208.00000,   0.00005,274699904.00000,  -0.00006,   0.00001,  -0.00003,  32.00000,   2.00000
-530992661.36248,-224469012.24014,-63842587.46345,  -0.00205,   0.00002,  -0.00086,476050336.00000,   0.00006,274705376.00000,  -0.00007,   0.00001,  -0.00003,   0.00000,   2.00000
-530955768.99242,-224915820.93016,-64031539.54852,  -0.00205,   0.00002,  -0.00087,476028512.00000,   0.00006,274710720.00000,  -0.00007,   0.00001,  -0.00003,  64.00000,   2.00000
-530918134.89241,-225361025.17688,-64219787.75527,  -0.00206,   0.00002,  -0.00087,476034496.00000,   0.00007,274716032.00000,  -0.00008,   0.00001,  -0.00004,  96.00000,   2.00000
-530872414.03824,-225781895.03918,-64418668.73255,  -0.00206,   0.00002,  -0.00088,476003232.00000,   0.00007,274721248.00000,  -0.00009,   0.00001,  -0.00004, -64.00000,   2.00000
-530830784.41694,-226219886.33141,-64610626.57851,  -0.00206,   0.00002,  -0.00088,476012448.00000,   0.00008,274726432.00000,  -0.00009,   0.00001,  -0.00004, -32.00000,   2.00000
-530784541.89333,-226653394.90084,-64809790.43750,  -0.00207,   0.00001,  -0.00089,476003808.00000,   0.00008,274731584.00000,  -0.00010,   0.00001,  -0.00004,  32.00000,   2.00000
-530738800.28230,-227084247.55308,-65005485.00425,  -0.00207,   0.00001,  -0.00089,475990336.00000,   0.00009,274736640.00000,  -0.00010,   0.00001,  -0.00005,  64.00000,   2.00000
-530688451.08154,-227510697.56164,-65208400.29423,  -0.00208,   0.00001,  -0.00090,475981568.00000,   0.00009,274741664.00000,  -0.00011,   0.00001,  -0.00005,   0.00000,   2.00000
-530637641.09475,-227935769.16283,-65410630.75805,  -0.00208,   0.00001,  -0.00090,475987168.00000,   0.00010,274746688.00000,  -0.00011,   0.00001,  -0.00005,  96.00000,   2.00000
-530583091.97859,-228355284.41638,-65617309.72872,  -0.00209,   0.00001,  -0.00091,475959264.00000,   0.00010,274751552.00000,  -0.00012,   0.00001,  -0.00005,  96.00000,   2.00000
-530525369.02226,-228772509.41358,-65828610.52252,  -0.00209,   0.00001,  -0.00091,475966912.00000,   0.00011,274756448.00000,  -0.00012,   0.00001,  -0.00006, -64.00000,   2.00000
-530466889.27733,-229185342.81076,-66039111.06996,  -0.00209,   0.00000,  -0.00092,475936416.00000,   0.00011,274761184.00000,  -0.00013,   0.00001,  -0.00006, 128.00000,   2.00000
-530407074.67011,-229613462.59172,-66253282.31553,  -0.00210,   0.00000,  -0.00092,475950176.00000,   0.00011,274765952.00000,  -0.00013,   0.00001,  -0.00006,  32.00000,   2.00000
-530345796.58191,-230021571.37778,-66464972.59799,  -0.00210,   0.00000,  -0.00093,475930400.00000,   0.00012,274770624.00000,  -0.00014,   0.00001,  -0.00006,   0.00000,   2.00000
-530279902.38027,-230425508.79792,-66683921.41468,  -0.00211,  -0.00000,  -0.00093,475921216.00000,   0.00012,274775264.00000,  -0.00014,   0.00001,  -0.00007, -64.00000,   2.00000
-530211880.74798,-230826196.97873,-66904788.79933,  -0.00211,  -0.00000,  -0.00094,475909696.00000,   0.00013,274779808.00000,  -0.00015,   0.00001,  -0.00007,  32.00000,   2.00000
-530143779.98525,-231241263.86454,-67126651.82285,  -0.00211,  -0.00000,  -0.00094,475904096.00000,   0.00013,274784320.00000,  -0.00015,   0.00001,  -0.00007,  64.00000,   2.00000
-530073070.25414,-231637460.62672,-67348742.15449,  -0.00212,  -0.00001,  -0.00095,475903232.00000,   0.00014,274788800.00000,  -0.00016,   0.00001,  -0.00007,   0.00000,   2.00000
-529998763.85621,-232028610.87265,-67575455.80577,  -0.00212,  -0.00001,  -0.00095,475874816.00000,   0.00014,274793152.00000,  -0.00016,   0.00002,  -0.00007,   0.00000,   2.00000
-529925721.65861,-232436057.47363,-67800487.25731,  -0.00212,  -0.00001,  -0.00096,475885824.00000,   0.00014,274797536.00000,  -0.00017,   0.00002,  -0.00008, -32.00000,   2.00000
-529847297.86685,-232821038.89010,-68031169.80876,  -0.00213,  -0.00001,  -0.00096,475851232.00000,   0.00015,274801760.00000,  -0.00017,   0.00002,  -0.00008,  64.00000,   2.00000
-529765450.37277,-233203820.61080,-68266421.97534,  -0.00213,  -0.00001,  -0.00097,475858624.00000,   0.00015,274806016.00000,  -0.00017,   0.00002,  -0.00008,  32.00000,   2.00000
-529686022.19519,-233602049.03252,-68497378.42346,  -0.00213,  -0.00001,  -0.00097,475850368.00000,   0.00015,274810176.00000,  -0.00018,   0.00002,  -0.00008,  32.00000,   2.00000
-529598409.38396,-233976955.70768,-68739341.91803,  -0.00214,  -0.00001,  -0.00098,475817984.00000,   0.00016,274814208.00000,  -0.00018,   0.00002,  -0.00009,  64.00000,   2.00000
-529514648.71661,-234369169.32713,-68974294.45451,  -0.00214,  -0.00002,  -0.00098,475826400.00000,   0.00016,274818272.00000,  -0.00019,   0.00002,  -0.00009,   0.00000,   2.00000
-529424231.46686,-234739966.11491,-69217570.29935,  -0.00214,  -0.00002,  -0.00099,475810720.00000,   0.00017,274822240.00000,  -0.00019,   0.00002,  -0.00009, -32.00000,   2.00000
-529333417.82217,-235125297.54230,-69461864.90703,  -0.00215,  -0.00002,  -0.00099,475804832.00000,   0.00017,274826176.00000,  -0.00020,   0.00002,  -0.00009, -64.00000,   2.00000
-529240183.35826,-235492047.89126,-69706457.88251,  -0.00215,  -0.00002,  -0.00100,475803232.00000,   0.00017,274830080.00000,  -0.00020,   0.00002,  -0.00009,  32.00000,   2.00000
-529145006.56844,-235871608.51090,-69954851.92648,  -0.00215,  -0.00002,  -0.00101,475780480.00000,   0.00018,274833888.00000,  -0.00020,   0.00002,  -0.00010,   0.00000,   2.00000
-529045754.29557,-236230846.93280,-70206319.71880,  -0.00215,  -0.00002,  -0.00101,475762240.00000,   0.00018,274837600.00000,  -0.00021,   0.00002,  -0.00010, -64.00000,   2.00000
-528944222.39476,-236587267.23240,-70459858.90963,  -0.00216,  -0.00003,  -0.00102,475749888.00000,   0.00018,274841248.00000,  -0.00021,   0.00002,  -0.00010, -96.00000,   2.00000
-528843938.93273,-236960109.12315,-70711687.53747,  -0.00216,  -0.00003,  -0.00102,475760416.00000,   0.00019,274844928.00000,  -0.00022,   0.00002,  -0.00010,   0.00000,   2.00000
-528738037.34540,-237311022.62915,-70969453.89085,  -0.00216,  -0.00003,  -0.00103,475725152.00000,   0.00019,274848448.00000,  -0.00022,   0.00002,  -0.00010,  96.00000,   2.00000
-528630261.03059,-237677214.82509,-71230724.07723,  -0.00216,  -0.00003,  -0.00103,475738272.00000,   0.00019,274852000.00000,  -0.00022,   0.00002,  -0.00011, -64.00000,   2.00000
-528519677.62348,-238022629.63480,-71492722.06005,  -0.00217,  -0.00003,  -0.00104,475700288.00000,   0.00020,274855392.00000,  -0.00023,   0.00002,  -0.00011, -96.00000,   2.00000
-528408608.59071,-238367129.67680,-71754065.95356,  -0.00217,  -0.00003,  -0.00104,475704352.00000,   0.00020,274858784.00000,  -0.00023,   0.00002,  -0.00011, -32.00000,   2.00000
-528293915.48474,-238725198.97685,-72021730.19334,  -0.00217,  -0.00004,  -0.00105,475700832.00000,   0.00020,274862144.00000,  -0.00023,   0.00002,  -0.00011, -64.00000,   2.00000
-528176557.25085,-239062703.73054,-72290247.64802,  -0.00217,  -0.00004,  -0.00105,475662656.00000,   0.00020,274865344.00000,  -0.00024,   0.00002,  -0.00011,  64.00000,   2.00000
-528057184.85787,-239415474.59800,-72562243.67174,  -0.00218,  -0.00004,  -0.00106,475675648.00000,   0.00021,274868576.00000,  -0.00024,   0.00002,  -0.00011,  64.00000,   2.00000
-527936666.60984,-239749372.72349,-72832268.61904,  -0.00218,  -0.00004,  -0.00106,475654112.00000,   0.00021,274871712.00000,  -0.00024,   0.00002,  -0.00012,   0.00000,   2.00000
-527810895.39732,-240079614.75009,-73109751.32715,  -0.00218,  -0.00004,  -0.00107,475644000.00000,   0.00021,274874784.00000,  -0.00025,   0.00002,  -0.00012,   0.00000,   2.00000
-527682725.94973,-240407308.69555,-73389454.38621,  -0.00218,  -0.00004,  -0.00107,475631136.00000,   0.00022,274877792.00000,  -0.00025,   0.00002,  -0.00012,   0.00000,   2.00000
-527554933.27312,-240749260.62309,-73667958.00126,  -0.00218,  -0.00005,  -0.00108,475605312.00000,   0.00022,274880704.00000,  -0.00025,   0.00002,  -0.00012, 128.00000,   2.00000
-527421869.91089,-241071883.16783,-73952149.22726,  -0.00219,  -0.00005,  -0.00108,475605376.00000,   0.00022,274883584.00000,  -0.00026,   0.00002,  -0.00012,  96.00000,   2.00000
-527286324.43873,-241392012.99186,-74238604.15375,  -0.00219,  -0.00005,  -0.00109,475592480.00000,   0.00022,274886400.00000,  -0.00026,   0.00002,  -0.00013,  64.00000,   2.00000
-527148291.12240,-241709676.63586,-74527341.19085,  -0.00219,  -0.00005,  -0.00110,475579552.00000,   0.00023,274889184.00000,  -0.00026,   0.00002,  -0.00013, -32.00000,   2.00000
-527010748.28292,-242026044.46139,-74813166.98649,  -0.00219,  -0.00005,  -0.00110,475563808.00000,   0.00023,274891872.00000,  -0.00026,   0.00002,  -0.00013,   0.00000,   2.00000
-526867750.43890,-242338865.62489,-75106538.12129,  -0.00219,  -0.00005,  -0.00111,475553440.00000,   0.00023,274894496.00000,  -0.00027,   0.00002,  -0.00013, -64.00000,   2.00000
-526723962.20211,-242650829.78024,-75399270.02099,  -0.00219,  -0.00005,  -0.00111,475556960.00000,   0.00023,274897152.00000,  -0.00027,   0.00002,  -0.00013,  32.00000,   2.00000
-526575766.69563,-242958830.30992,-75697312.85735,  -0.00219,  -0.00006,  -0.00112,475527296.00000,   0.00024,274899648.00000,  -0.00027,   0.00002,  -0.00013,  32.00000,   2.00000
-526425016.57514,-243264480.16998,-75997726.90901,  -0.00220,  -0.00006,  -0.00112,475514080.00000,   0.00024,274902112.00000,  -0.00028,   0.00002,  -0.00013, -32.00000,   2.00000
-526274716.51156,-243568971.35311,-76295333.91130,  -0.00220,  -0.00006,  -0.00113,475498080.00000,   0.00024,274904480.00000,  -0.00028,   0.00002,  -0.00014,   0.00000,   2.00000
-526118686.80463,-243869937.66485,-76600532.81034,  -0.00220,  -0.00006,  -0.00113,475487648.00000,   0.00024,274906784.00000,  -0.00028,   0.00002,  -0.00014, -32.00000,   2.00000
-525958439.31255,-244151371.18098,-76909315.60343,  -0.00220,  -0.00006,  -0.00114,475467808.00000,   0.00024,274909024.00000,  -0.00028,   0.00002,  -0.00014, -32.00000,   2.00000
-525799018.72074,-244449298.82799,-77216345.16111,  -0.00220,  -0.00006,  -0.00114,475477280.00000,   0.00025,274911296.00000,  -0.00028,   0.00002,  -0.00014,  64.00000,   2.00000
-525634914.09480,-244743404.38222,-77528844.75701,  -0.00220,  -0.00007,  -0.00115,475447456.00000,   0.00025,274913408.00000,  -0.00029,   0.00002,  -0.00014,  32.00000,   2.00000
-525466656.58810,-245018098.01619,-77845020.09154,  -0.00220,  -0.00007,  -0.00115,475427392.00000,   0.00025,274915456.00000,  -0.00029,   0.00002,  -0.00014,  96.00000,   2.00000
-525300023.83023,-245308889.61263,-78157280.37834,  -0.00220,  -0.00007,  -0.00116,475417632.00000,   0.00025,274917472.00000,  -0.00029,   0.00002,  -0.00014,   0.00000,   2.00000
-525128144.30917,-245580623.68861,-78475385.39631,  -0.00220,  -0.00007,  -0.00116,475416864.00000,   0.00025,274919456.00000,  -0.00029,   0.00002,  -0.00014,  32.00000,   2.00000
-524952920.54549,-245865830.20182,-78797871.30989,  -0.00220,  -0.00007,  -0.00117,475393248.00000,   0.00026,274921344.00000,  -0.00030,   0.00002,  -0.00015,  32.00000,   2.00000
-524773343.45322,-246131671.39236,-79124111.14902,  -0.00220,  -0.00007,  -0.00118,475372960.00000,   0.00026,274923136.00000,  -0.00030,   0.00002,  -0.00015,   0.00000,   2.00000
-524593997.18797,-246396581.23370,-79447752.66640,  -0.00221,  -0.00007,  -0.00118,475356416.00000,   0.00026,274924864.00000,  -0.00030,   0.00002,  -0.00015,-128.00000,   2.00000
-524410746.45427,-246659613.49742,-79776038.12603,  -0.00221,  -0.00008,  -0.00119,475361952.00000,   0.00026,274926592.00000,  -0.00030,   0.00002,  -0.00015,  32.00000,   2.00000
-524222467.55856,-246919026.54324,-80110033.06899,  -0.00221,  -0.00008,  -0.00119,475331712.00000,   0.00026,274928192.00000,  -0.00030,   0.00002,  -0.00015,   0.00000,   2.00000
-524034373.03946,-247177571.68039,-80441500.71273,  -0.00221,  -0.00008,  -0.00120,475314944.00000,   0.00026,274929728.00000,  -0.00030,   0.00002,  -0.00015,   0.00000,   2.00000
-523842227.12700,-247434210.27254,-80777607.81264,  -0.00221,  -0.00008,  -0.00120,475320352.00000,   0.00027,274931296.00000,  -0.00031,   0.00002,  -0.00015, -32.00000,   2.00000
-523648038.83150,-247688532.39846,-81114372.17854,  -0.00221,  -0.00008,  -0.00121,475287168.00000,   0.00027,274932704.00000,  -0.00031,   0.00002,  -0.00015, -32.00000,   2.00000
-523447755.52430,-247939563.30088,-81458980.64598,  -0.00221,  -0.00008,  -0.00121,475275872.00000,   0.00027,274934080.00000,  -0.00031,   0.00002,  -0.00015,  32.00000,   2.00000
-523246096.32572,-248172676.56675,-81802424.03459,  -0.00221,  -0.00008,  -0.00122,475252320.00000,   0.00027,274935328.00000,  -0.00031,   0.00002,  -0.00015, -32.00000,   2.00000
-523041552.97920,-248420932.64711,-82149215.37765,  -0.00221,  -0.00009,  -0.00122,475264288.00000,   0.00027,274936640.00000,  -0.00031,   0.00002,  -0.00016, -32.00000,   2.00000
-522835027.55398,-248667052.43988,-82496849.72444,  -0.00221,  -0.00009,  -0.00123,475230656.00000,   0.00027,274937824.00000,  -0.00031,   0.00002,  -0.00016,  32.00000,   2.00000
-522623964.79537,-248894077.71504,-82848558.74985,  -0.00221,  -0.00009,  -0.00123,475209856.00000,   0.00027,274938880.00000,  -0.00031,   0.00002,  -0.00016,  64.00000,   2.00000
-522411698.44072,-249120422.75900,-83199788.82762,  -0.00221,  -0.00009,  -0.00124,475212128.00000,   0.00027,274939968.00000,  -0.00031,   0.00002,  -0.00016, -32.00000,   2.00000
-522190839.04729,-249342096.10901,-83562201.44525,  -0.00221,  -0.00009,  -0.00124,475184352.00000,   0.00027,274940960.00000,  -0.00032,   0.00002,  -0.00016,   0.00000,   2.00000
-521968836.27808,-249562640.51728,-83922138.98523,  -0.00220,  -0.00009,  -0.00125,475167040.00000,   0.00027,274941856.00000,  -0.00032,   0.00002,  -0.00016,-960.00000,   1.00000
-521744698.78468,-249781680.32041,-84285155.02620,  -0.00220,  -0.00009,  -0.00125,475151584.00000,   0.00028,274942688.00000,  -0.00032,   0.00002,  -0.00016,-864.00000,   1.00000
-521519259.26895,-250000040.80243,-84647722.31954,  -0.00220,  -0.00010,  -0.00126,475153728.00000,   0.00028,274943520.00000,  -0.00032,   0.00002,  -0.00016,-864.00000,   1.00000
-521291691.30751,-250216483.35907,-85011445.18575,  -0.00220,  -0.00010,  -0.00127,475119712.00000,   0.00028,274944224.00000,  -0.00032,   0.00002,  -0.00016,-704.00000,   1.00000
-521057192.42386,-250429542.67784,-85383145.03827,  -0.00220,  -0.00010,  -0.00127,475108448.00000,   0.00028,274944896.00000,  -0.00032,   0.00002,  -0.00016,-768.00000,   1.00000
-520817942.60537,-250623648.80967,-85759167.34772,  -0.00220,  -0.00010,  -0.00128,475087200.00000,   0.00028,274945440.00000,  -0.00032,   0.00002,  -0.00016,-608.00000,   1.00000
-520582044.18184,-250835493.99630,-86128355.85690,  -0.00220,  -0.00010,  -0.00128,475092640.00000,   0.00028,274946048.00000,  -0.00032,   0.00002,  -0.00016,-608.00000,   1.00000
-520335823.92052,-251025754.93353,-86510376.80514,  -0.00220,  -0.00010,  -0.00129,475057952.00000,   0.00028,274946496.00000,  -0.00032,   0.00002,  -0.00016,-480.00000,   1.00000
-520089197.38587,-251215387.88433,-86890327.69463,  -0.00220,  -0.00010,  -0.00129,475040320.00000,   0.00028,274946848.00000,  -0.00032,   0.00002,  -0.00016,-384.00000,   1.00000
-519836871.93671,-251418703.00345,-87276986.52272,  -0.00220,  -0.00011,  -0.00130,475035424.00000,   0.00028,274947232.00000,  -0.00032,   0.00002,  -0.00016,-416.00000,   1.00000
-519585381.40801,-251605846.63965,-87659668.22488,  -0.00220,  -0.00011,  -0.00130,475027136.00000,   0.00028,274947520.00000,  -0.00032,   0.00002,  -0.00016,-256.00000,   1.00000
-519326506.44610,-251772763.62849,-88050261.44289,  -0.00219,  -0.00011,  -0.00131,474989280.00000,   0.00028,274947712.00000,  -0.00032,   0.00002,  -0.00016,-224.00000,   1.00000
-519065162.79375,-251954744.20538,-88442558.81124,  -0.00219,  -0.00011,  -0.00131,474981184.00000,   0.00028,274947840.00000,  -0.00032,   0.00002,  -0.00016,-128.00000,   1.00000
-518799973.51633,-252134796.20976,-88837987.45262,  -0.00219,  -0.00011,  -0.00132,474966336.00000,   0.00028,274947904.00000,  -0.00032,   0.00002,  -0.00016,-160.00000,   1.00000
-518526144.70498,-252294529.68305,-89237321.13585,  -0.00219,  -0.00011,  -0.00132,474944544.00000,   0.00028,274947904.00000,  -0.00032,   0.00002,  -0.00016,-3360.00000,   0.00000
-518240906.35982,-252465672.69014,-89630950.05217,  -0.00219,  -0.00011,  -0.00133,474929856.00000,   0.00028,274947904.00000,  -0.00032,   0.00002,  -0.00016,-18048.00000,   0.00000
-517927144.18014,-252608291.86272,-90030283.73539,  -0.00219,  -0.00011,  -0.00133,474896448.00000,   0.00028,274947904.00000,  -0.00032,   0.00002,  -0.00016,-51456.00000,   0.00000
-517613382.00046,-252750911.03530,-90423912.65172,  -0.00218,  -0.00012,  -0.00134,474861152.00000,   0.00028,274947904.00000,  -0.00032,   0.00002,  -0.00016,-86752.00000,   0.00000
-517259686.45246,-252876415.90718,-90817541.56804,  -0.00218,  -0.00012,  -0.00134,474794592.00000,   0.00028,274947904.00000,  -0.00032,   0.00002,  -0.00016,-153312.00000,   0.00000
-516886024.22030,-252993363.62869,-91216875.25126,  -0.00218,  -0.00012,  -0.00135,474716256.00000,   0.00028,274947904.00000,  -0.00032,   0.00002,  -0.00016,-231648.00000,   0.00000
-516492395.30398,-253101754.19985,-91610504.16759,  -0.00218,  -0.00012,  -0.00135,474619712.00000,   0.00028,274947904.00000,  -0.00032,   0.00002,  -0.00016,-328192.00000,   0.00000
-516070242.55314,-253181620.93650,-91998428.31701,  -0.00218,  -0.00012,  -0.00136,474498080.00000,   0.00028,274947904.00000,  -0.00032,   0.00002,  -0.00016,-449824.00000,   0.00000
-515636680.26850,-253272897.20695,-92392057.23333,  -0.00217,  -0.00012,  -0.00136,474371712.00000,   0.00028,274947904.00000,  -0.00032,   0.00002,  -0.00016,-576192.00000,   0.00000
-515174594.14934,-253335649.64288,-92785686.14965,  -0.00217,  -0.00012,  -0.00137,474223616.00000,   0.00028,274947904.00000,  -0.00032,   0.00002,  -0.00016,-724288.00000,   0.00000
-514692541.34601,-253389844.92847,-93173610.29907,  -0.00217,  -0.00012,  -0.00137,474057344.00000,   0.00028,274947904.00000,  -0.00032,   0.00002,  -0.00016,-890560.00000,   0.00000
-514190521.85853,-253435483.06369,-93567239.21539,  -0.00217,  -0.00013,  -0.00138,473879584.00000,   0.00028,274947904.00000,  -0.00032,   0.00002,  -0.00016,-1068320.00000,   0.00000
-513668535.68688,-253472564.04856,-93955163.36481,  -0.00217,  -0.00013,  -0.00138,473683680.00000,   0.00028,274947904.00000,  -0.00032,   0.00002,  -0.00016,-1264224.00000,   0.00000
-513118025.68072,-253481121.19892,-94343087.51423,  -0.00216,  -0.00013,  -0.00139,473465984.00000,   0.00028,274947904.00000,  -0.00032,   0.00002,  -0.00016,-1481920.00000,   0.00000
-512556106.14075,-253501087.88308,-94731011.66365,  -0.00216,  -0.00013,  -0.00139,473240448.00000,   0.00028,274947904.00000,  -0.00032,   0.00002,  -0.00016,-1707456.00000,   0.00000
-511965662.76627,-253492530.73272,-95113231.04617,  -0.00216,  -0.00013,  -0.00140,472989984.00000,   0.00028,274947904.00000,  -0.00032,   0.00002,  -0.00016,-1957920.00000,   0.00000
-511363809.85798,-253495383.11618,-95501155.19559,  -0.00215,  -0.00013,  -0.00140,472735072.00000,   0.00028,274947904.00000,  -0.00032,   0.00002,  -0.00016,-2212832.00000,   0.00000
-510733433.11517,-253469711.66511,-95883374.57810,  -0.00215,  -0.00013,  -0.00141,472455200.00000,   0.00028,274947904.00000,  -0.00032,   0.00002,  -0.00016,-2492704.00000,   0.00000
-510074532.53785,-253415516.37953,-96265593.96062,  -0.00215,  -0.00013,  -0.00141,472153760.00000,   0.00028,274947904.00000,  -0.00032,   0.00002,  -0.00016,-2794144.00000,   0.00000
-509404222.42672,-253372730.62776,-96647813.34313,  -0.00215,  -0.00013,  -0.00142,471844640.00000,   0.00028,274947904.00000,  -0.00032,   0.00002,  -0.00016,-3103264.00000,   0.00000
-508713945.63143,-253321387.72563,-97030032.72565,  -0.00214,  -0.00014,  -0.00142,471521056.00000,   0.00028,274947904.00000,  -0.00032,   0.00002,  -0.00016,-3426848.00000,   0.00000
-507995145.00163,-253241520.98898,-97412252.10817,  -0.00214,  -0.00014,  -0.00143,471176128.00000,   0.00028,274947904.00000,  -0.00032,   0.00002,  -0.00016,-3771776.00000,   0.00000
-507236411.00350,-253144539.95163,-97788766.72378,  -0.00214,  -0.00014,  -0.00143,470796960.00000,   0.00028,274947904.00000,  -0.00032,   0.00002,  -0.00016,-4150944.00000,   0.00000
-506486234.15572,-253067525.59843,-98170986.10630,  -0.00213,  -0.00014,  -0.00144,470430048.00000,   0.00028,274947904.00000,  -0.00032,   0.00002,  -0.00016,-4517856.00000,   0.00000
-505698976.32308,-252942020.72656,-98547500.72191,  -0.00213,  -0.00014,  -0.00144,470031456.00000,   0.00028,274947904.00000,  -0.00032,   0.00002,  -0.00016,-4916448.00000,   0.00000
-504900308.95663,-252827925.38850,-98924015.33752,  -0.00213,  -0.00014,  -0.00145,469625568.00000,   0.00028,274947904.00000,  -0.00032,   0.00002,  -0.00016,-5322336.00000,   0.00000
-504081674.90602,-252705272.90008,-99294825.18623,  -0.00212,  -0.00014,  -0.00145,469201664.00000,   0.00028,274947904.00000,  -0.00032,   0.00002,  -0.00016,-5746240.00000,   0.00000
-503234517.02089,-252554096.57714,-99671339.80184,  -0.00212,  -0.00014,  -0.00146,468760384.00000,   0.00028,274947904.00000,  -0.00032,   0.00002,  -0.00016,-6187520.00000,   0.00000
-502367392.45160,-252394363.10385,-100042149.65055,  -0.00212,  -0.00014,  -0.00146,468301248.00000,   0.00028,274947904.00000,  -0.00032,   0.00002,  -0.00016,-6646656.00000,   0.00000
-501460334.51398,-252217515.32985,-100412959.49926,  -0.00211,  -0.00015,  -0.00147,467811904.00000,   0.00028,274947904.00000,  -0.00032,   0.00002,  -0.00016,-7136000.00000,   0.00000
-500553276.57637,-252040667.55585,-100783769.34797,  -0.00211,  -0.00015,  -0.00147,467324640.00000,   0.00028,274947904.00000,  -0.00032,   0.00002,  -0.00016,-7623264.00000,   0.00000
-499626251.95460,-251855262.63150,-101154579.19668,  -0.00210,  -0.00015,  -0.00148,466823264.00000,   0.00028,274947904.00000,  -0.00032,   0.00002,  -0.00016,-8124640.00000,   0.00000
-498670703.49831,-251641333.87263,-101519684.27849,  -0.00210,  -0.00015,  -0.00148,466297312.00000,   0.00028,274947904.00000,  -0.00032,   0.00002,  -0.00016,-8650592.00000,   0.00000
-497703745.50821,-251438814.64756,-101890494.12720,  -0.00210,  -0.00015,  -0.00149,465768128.00000,   0.00028,274947904.00000,  -0.00032,   0.00002,  -0.00016,-9179776.00000,   0.00000
-496708263.68360,-251207771.58798,-102255599.20900,  -0.00209,  -0.00015,  -0.00149,465214272.00000,   0.00028,274947904.00000,  -0.00032,   0.00002,  -0.00016,-9733632.00000,   0.00000
-495692815.17482,-250968171.37805,-102614999.52391,  -0.00209,  -0.00015,  -0.00150,464642784.00000,   0.00028,274947904.00000,  -0.00032,   0.00002,  -0.00016,-10305120.00000,   0.00000
-494637433.29773,-250711456.86740,-102980104.60571,  -0.00208,  -0.00015,  -0.00150,464045216.00000,   0.00028,274947904.00000,  -0.00032,   0.00002,  -0.00016,-10902688.00000,   0.00000
-493573494.27028,-250434775.67260,-103339504.92062,  -0.00208,  -0.00015,  -0.00151,463439008.00000,   0.00028,274947904.00000,  -0.00032,   0.00002,  -0.00016,-11508896.00000,   0.00000
-492498145.70902,-250169504.01160,-103704610.00242,  -0.00208,  -0.00015,  -0.00151,462829600.00000,   0.00028,274947904.00000,  -0.00032,   0.00002,  -0.00016,-12118304.00000,   0.00000
-491394273.31324,-249875708.51608,-104064010.31733,  -0.00207,  -0.00015,  -0.00152,462195648.00000,   0.00028,274947904.00000,  -0.00032,   0.00002,  -0.00016,-12752256.00000,   0.00000
-490270434.23331,-249573355.87021,-104417705.86533,  -0.00207,  -0.00015,  -0.00152,461543808.00000,   0.00028,274947904.00000,  -0.00032,   0.00002,  -0.00016,-13404096.00000,   0.00000
-489126628.46921,-249262446.07398,-104777106.18023,  -0.00206,  -0.00016,  -0.00152,460882048.00000,   0.00028,274947904.00000,  -0.00032,   0.00002,  -0.00016,-14065856.00000,   0.00000
-487934332.18644,-248914455.29289,-105130801.72823,  -0.00206,  -0.00016,  -0.00153,460179744.00000,   0.00028,274947904.00000,  -0.00032,   0.00002,  -0.00016,-14768160.00000,   0.00000
-486750593.05402,-248586431.19595,-105484497.27623,  -0.00205,  -0.00016,  -0.00153,459486368.00000,   0.00028,274947904.00000,  -0.00032,   0.00002,  -0.00016,-15461536.00000,   0.00000
-485538330.08708,-248229883.26450,-105838192.82423,  -0.00205,  -0.00016,  -0.00154,458772256.00000,   0.00028,274947904.00000,  -0.00032,   0.00002,  -0.00016,-16175648.00000,   0.00000
-484306100.43599,-247864778.18269,-106186183.60533,  -0.00204,  -0.00016,  -0.00154,458040096.00000,   0.00028,274947904.00000,  -0.00032,   0.00002,  -0.00016,-16907808.00000,   0.00000
-483053904.10073,-247491115.95053,-106534174.38642,  -0.00204,  -0.00016,  -0.00155,457294208.00000,   0.00028,274947904.00000,  -0.00032,   0.00002,  -0.00016,-17653696.00000,   0.00000
-481773183.93096,-247088929.88385,-106882165.16752,  -0.00203,  -0.00016,  -0.00155,456527392.00000,   0.00028,274947904.00000,  -0.00032,   0.00002,  -0.00016,-18420512.00000,   0.00000
-480481054.22738,-246698153.35098,-107230155.94862,  -0.00203,  -0.00016,  -0.00156,455753888.00000,   0.00028,274947904.00000,  -0.00032,   0.00002,  -0.00016,-19194016.00000,   0.00000
-479160400.68928,-246278852.98360,-107578146.72971,  -0.00202,  -0.00016,  -0.00156,454959648.00000,   0.00028,274947904.00000,  -0.00032,   0.00002,  -0.00016,-19988256.00000,   0.00000
-477819780.46702,-245850995.46585,-107920432.74391,  -0.00202,  -0.00016,  -0.00157,454147648.00000,   0.00028,274947904.00000,  -0.00032,   0.00002,  -0.00016,-20800256.00000,   0.00000
-476450636.41025,-245394614.11360,-108262718.75810,  -0.00201,  -0.00016,  -0.00157,453315072.00000,   0.00028,274947904.00000,  -0.00032,   0.00002,  -0.00016,-21632832.00000,   0.00000
-475070082.81967,-244949642.29515,-108605004.77229,  -0.00201,  -0.00016,  -0.00157,452476128.00000,   0.00028,274947904.00000,  -0.00032,   0.00002,  -0.00016,-22471776.00000,   0.00000
-473661005.39457,-244476146.64218,-108941586.01958,  -0.00200,  -0.00016,  -0.00158,451612672.00000,   0.00028,274947904.00000,  -0.00032,   0.00002,  -0.00016,-23335232.00000,   0.00000
-472231961.28531,-243994093.83885,-109278167.26687,  -0.00200,  -0.00016,  -0.00158,450736128.00000,   0.00028,274947904.00000,  -0.00032,   0.00002,  -0.00016,-24211776.00000,   0.00000
-470782950.49189,-243503483.88518,-109614748.51416,  -0.00199,  -0.00017,  -0.00159,449846560.00000,   0.00028,274947904.00000,  -0.00032,   0.00002,  -0.00016,-25101344.00000,   0.00000
-469313973.01431,-243004316.78115,-109951329.76145,  -0.00198,  -0.00017,  -0.00159,448944160.00000,   0.00028,274947904.00000,  -0.00032,   0.00002,  -0.00016,-26003744.00000,   0.00000
-467825028.85257,-242496592.52676,-110282206.24184,  -0.00198,  -0.00017,  -0.00160,448024960.00000,   0.00028,274947904.00000,  -0.00032,   0.00002,  -0.00016,-26922944.00000,   0.00000
-466307560.85632,-241960344.43786,-110613082.72223,  -0.00197,  -0.00017,  -0.00160,447086272.00000,   0.00028,274947904.00000,  -0.00032,   0.00002,  -0.00016,-27861632.00000,   0.00000
-464770126.17590,-241415539.19860,-110943959.20261,  -0.00197,  -0.00017,  -0.00160,446135232.00000,   0.00028,274947904.00000,  -0.00032,   0.00002,  -0.00016,-28812672.00000,   0.00000
-463232691.49548,-240870733.95934,-111269130.91610,  -0.00196,  -0.00017,  -0.00161,445183424.00000,   0.00028,274947904.00000,  -0.00032,   0.00002,  -0.00016,-29764480.00000,   0.00000
-461646766.29638,-240288847.73521,-111600007.39649,  -0.00195,  -0.00017,  -0.00161,444201216.00000,   0.00028,274947904.00000,  -0.00032,   0.00002,  -0.00016,-30746688.00000,   0.00000
-460049431.56348,-239718371.04489,-111925179.10997,  -0.00195,  -0.00017,  -0.00162,443209888.00000,   0.00028,274947904.00000,  -0.00032,   0.00002,  -0.00016,-31738016.00000,   0.00000
-458423572.99606,-239119370.52005,-112244646.05655,  -0.00194,  -0.00017,  -0.00162,442195232.00000,   0.00028,274947904.00000,  -0.00032,   0.00002,  -0.00016,-32752672.00000,   0.00000
-456797714.42864,-238520369.99521,-112569817.77003,  -0.00194,  -0.00017,  -0.00163,441188544.00000,   0.00028,274947904.00000,  -0.00032,   0.00002,  -0.00016,-33759360.00000,   0.00000
-455131922.49290,-237904255.16966,-112889284.71661,  -0.00193,  -0.00017,  -0.00163,440150080.00000,   0.00028,274947904.00000,  -0.00032,   0.00002,  -0.00016,-34797824.00000,   0.00000
-453457573.40680,-237268173.65995,-113203046.89629,  -0.00192,  -0.00017,  -0.00163,439103616.00000,   0.00028,274947904.00000,  -0.00032,   0.00002,  -0.00016,-35844288.00000,   0.00000
-451743290.95238,-236614977.84953,-113522513.84287,  -0.00192,  -0.00017,  -0.00164,438034304.00000,   0.00028,274947904.00000,  -0.00032,   0.00002,  -0.00016,-36913600.00000,   0.00000
-450029008.49796,-235961782.03912,-113836276.02255,  -0.00191,  -0.00017,  -0.00164,436963552.00000,   0.00028,274947904.00000,  -0.00032,   0.00002,  -0.00016,-37984352.00000,   0.00000
-448274792.67522,-235291471.92799,-114150038.20223,  -0.00190,  -0.00017,  -0.00165,435865280.00000,   0.00028,274947904.00000,  -0.00032,   0.00002,  -0.00016,-39082624.00000,   0.00000
-446520576.85248,-234621161.81686,-114458095.61500,  -0.00190,  -0.00017,  -0.00165,434765504.00000,   0.00028,274947904.00000,  -0.00032,   0.00002,  -0.00016,-40182400.00000,   0.00000
-444717870.51106,-233913770.72086,-114771857.79468,  -0.00189,  -0.00017,  -0.00165,433635456.00000,   0.00028,274947904.00000,  -0.00032,   0.00002,  -0.00016,-41312448.00000,   0.00000
-442915164.16964,-233206379.62486,-115079915.20745,  -0.00188,  -0.00017,  -0.00166,432503712.00000,   0.00028,274947904.00000,  -0.00032,   0.00002,  -0.00016,-42444192.00000,   0.00000
-441092491.14406,-232490431.37850,-115382267.85332,  -0.00188,  -0.00017,  -0.00166,431355136.00000,   0.00028,274947904.00000,  -0.00032,   0.00002,  -0.00016,-43592768.00000,   0.00000
-439249851.43432,-231765925.98179,-115690325.26610,  -0.00187,  -0.00017,  -0.00167,430198592.00000,   0.00028,274947904.00000,  -0.00032,   0.00002,  -0.00016,-44749312.00000,   0.00000
-437378687.89006,-231012896.75057,-115992677.91197,  -0.00186,  -0.00017,  -0.00167,429018080.00000,   0.00028,274947904.00000,  -0.00032,   0.00002,  -0.00016,-45929824.00000,   0.00000
-435487557.66165,-230251310.36899,-116295030.55784,  -0.00185,  -0.00017,  -0.00167,427825408.00000,   0.00028,274947904.00000,  -0.00032,   0.00002,  -0.00016,-47122496.00000,   0.00000
-433556494.06490,-229472609.68670,-116591678.43681,  -0.00185,  -0.00017,  -0.00168,426600960.00000,   0.00028,274947904.00000,  -0.00032,   0.00002,  -0.00016,-48346944.00000,   0.00000
-431645397.15232,-228702466.15476,-116888326.31577,  -0.00184,  -0.00017,  -0.00168,425395008.00000,   0.00028,274947904.00000,  -0.00032,   0.00002,  -0.00016,-49552896.00000,   0.00000
-429694366.87142,-227915208.32212,-117184974.19474,  -0.00183,  -0.00017,  -0.00169,424162400.00000,   0.00028,274947904.00000,  -0.00032,   0.00002,  -0.00016,-50785504.00000,   0.00000
-427714812.75600,-227099426.65496,-117475917.30681,  -0.00183,  -0.00017,  -0.00169,422906752.00000,   0.00028,274947904.00000,  -0.00032,   0.00002,  -0.00016,-52041152.00000,   0.00000
-425715291.95642,-226275087.83744,-117766860.41887,  -0.00182,  -0.00017,  -0.00169,421639968.00000,   0.00028,274947904.00000,  -0.00032,   0.00002,  -0.00016,-53307936.00000,   0.00000
-423695804.47268,-225442191.86957,-118057803.53094,  -0.00181,  -0.00017,  -0.00170,420362496.00000,   0.00028,274947904.00000,  -0.00032,   0.00002,  -0.00016,-54585408.00000,   0.00000
-421667759.83858,-224589329.21754,-118348746.64300,  -0.00180,  -0.00017,  -0.00170,419082528.00000,   0.00028,274947904.00000,  -0.00032,   0.00002,  -0.00016,-55865376.00000,   0.00000
-419599781.83617,-223719352.26480,-118633984.98816,  -0.00180,  -0.00018,  -0.00170,417772288.00000,   0.00028,274947904.00000,  -0.00032,   0.00002,  -0.00016,-57175616.00000,   0.00000
-417531803.83375,-222849375.31205,-118919223.33332,  -0.00179,  -0.00018,  -0.00171,416466976.00000,   0.00028,274947904.00000,  -0.00032,   0.00002,  -0.00016,-58480928.00000,   0.00000
-415423892.46301,-221962284.05860,-119198756.91158,  -0.00178,  -0.00018,  -0.00171,415131680.00000,   0.00028,274947904.00000,  -0.00032,   0.00002,  -0.00016,-59816224.00000,   0.00000
-413315981.09226,-221075192.80515,-119478290.48984,  -0.00177,  -0.00018,  -0.00172,413801248.00000,   0.00028,274947904.00000,  -0.00032,   0.00002,  -0.00016,-61146656.00000,   0.00000
-411179545.88701,-220159577.71718,-119757824.06810,  -0.00176,  -0.00018,  -0.00172,412453984.00000,   0.00028,274947904.00000,  -0.00032,   0.00002,  -0.00016,-62493920.00000,   0.00000
-409023143.99759,-219235405.47886,-120037357.64635,  -0.00176,  -0.00018,  -0.00172,411096704.00000,   0.00028,274947904.00000,  -0.00032,   0.00002,  -0.00016,-63851200.00000,   0.00000
-406846775.42401,-218302676.09018,-120311186.45771,  -0.00175,  -0.00018,  -0.00173,409724256.00000,   0.00028,274947904.00000,  -0.00032,   0.00002,  -0.00016,-65223648.00000,   0.00000
-404641883.01591,-217341422.86699,-120585015.26906,  -0.00174,  -0.00018,  -0.00173,408334848.00000,   0.00028,274947904.00000,  -0.00032,   0.00002,  -0.00016,-66613056.00000,   0.00000
-402425581.07401,-216391579.17760,-120853139.31352,  -0.00173,  -0.00018,  -0.00173,406936896.00000,   0.00028,274947904.00000,  -0.00032,   0.00002,  -0.00016,-68011008.00000,   0.00000
-400180755.29759,-215413211.65370,-121126968.12487,  -0.00172,  -0.00018,  -0.00174,405526784.00000,   0.00028,274947904.00000,  -0.00032,   0.00002,  -0.00016,-69421120.00000,   0.00000
-397907405.68666,-214406320.29528,-121395092.16932,  -0.00171,  -0.00017,  -0.00174,404094112.00000,   0.00028,274947904.00000,  -0.00032,   0.00002,  -0.00016,-70853792.00000,   0.00000
-395642613.22608,-213419395.62102,-121657511.44687,  -0.00171,  -0.00017,  -0.00174,402667360.00000,   0.00028,274947904.00000,  -0.00032,   0.00002,  -0.00016,-72280544.00000,   0.00000
-393329330.24682,-212395389.96190,-121919930.72442,  -0.00170,  -0.00017,  -0.00175,401208576.00000,   0.00028,274947904.00000,  -0.00032,   0.00002,  -0.00016,-73739328.00000,   0.00000
-391016047.26756,-211371384.30277,-122182350.00197,  -0.00169,  -0.00017,  -0.00175,399754112.00000,   0.00028,274947904.00000,  -0.00032,   0.00002,  -0.00016,-75193792.00000,   0.00000
-388682797.60414,-210338821.49328,-122444769.27951,  -0.00168,  -0.00017,  -0.00175,398289728.00000,   0.00028,274947904.00000,  -0.00032,   0.00002,  -0.00016,-76658176.00000,   0.00000
-386329581.25656,-209297701.53344,-122701483.79016,  -0.00167,  -0.00017,  -0.00176,396810688.00000,   0.00028,274947904.00000,  -0.00032,   0.00002,  -0.00016,-78137216.00000,   0.00000
-383947841.07447,-208228057.73909,-122958198.30080,  -0.00166,  -0.00017,  -0.00176,395315776.00000,   0.00028,274947904.00000,  -0.00032,   0.00002,  -0.00016,-79632128.00000,   0.00000
-381546134.20821,-207149856.79438,-123209208.04455,  -0.00165,  -0.00017,  -0.00176,393807296.00000,   0.00028,274947904.00000,  -0.00032,   0.00002,  -0.00016,-81140608.00000,   0.00000
-379124460.65779,-206063098.69932,-123460217.78829,  -0.00165,  -0.00017,  -0.00177,392290944.00000,   0.00028,274947904.00000,  -0.00032,   0.00002,  -0.00016,-82656960.00000,   0.00000
-376674263.27285,-204947816.76974,-123711227.53203,  -0.00164,  -0.00017,  -0.00177,390760448.00000,   0.00028,274947904.00000,  -0.00032,   0.00002,  -0.00016,-84187456.00000,   0.00000
-374224065.88792,-203832534.84016,-123956532.50887,  -0.00163,  -0.00017,  -0.00177,389231456.00000,   0.00028,274947904.00000,  -0.00032,   0.00002,  -0.00016,-85716448.00000,   0.00000
-371733935.13466,-202700138.60987,-124207542.25261,  -0.00162,  -0.00017,  -0.00178,387685920.00000,   0.00028,274947904.00000,  -0.00032,   0.00002,  -0.00016,-87261984.00000,   0.00000
-369243804.38140,-201567742.37958,-124447142.46255,  -0.00161,  -0.00017,  -0.00178,386135200.00000,   0.00028,274947904.00000,  -0.00032,   0.00002,  -0.00016,-88812704.00000,   0.00000
-366733706.94399,-200426788.99893,-124692447.43939,  -0.00160,  -0.00017,  -0.00178,384580768.00000,   0.00028,274947904.00000,  -0.00032,   0.00002,  -0.00016,-90367136.00000,   0.00000
-364195085.67205,-199257311.78377,-124932047.64932,  -0.00159,  -0.00017,  -0.00179,383004288.00000,   0.00028,274947904.00000,  -0.00032,   0.00002,  -0.00016,-91943616.00000,   0.00000
-361636497.71596,-198079277.41825,-125171647.85926,  -0.00158,  -0.00017,  -0.00179,381418880.00000,   0.00028,274947904.00000,  -0.00032,   0.00002,  -0.00016,-93529024.00000,   0.00000
-359057943.07570,-196892685.90238,-125405543.30229,  -0.00157,  -0.00017,  -0.00179,379821024.00000,   0.00028,274947904.00000,  -0.00032,   0.00002,  -0.00016,-95126880.00000,   0.00000
-356450864.60092,-195677570.55200,-125639438.74532,  -0.00156,  -0.00017,  -0.00180,378212000.00000,   0.00028,274947904.00000,  -0.00032,   0.00002,  -0.00016,-96735904.00000,   0.00000
-353843786.12615,-194462455.20161,-125873334.18835,  -0.00155,  -0.00017,  -0.00180,376614208.00000,   0.00028,274947904.00000,  -0.00032,   0.00002,  -0.00016,-98333696.00000,   0.00000
-351196774.28305,-193230225.55051,-126101524.86448,  -0.00154,  -0.00017,  -0.00180,374993056.00000,   0.00028,274947904.00000,  -0.00032,   0.00002,  -0.00016,-99954848.00000,   0.00000
-348549762.43996,-191997995.89942,-126329715.54061,  -0.00153,  -0.00017,  -0.00180,373378368.00000,   0.00028,274947904.00000,  -0.00032,   0.00002,  -0.00016,-101569536.00000,   0.00000
-345874226.76235,-190737242.41380,-126557906.21674,  -0.00152,  -0.00017,  -0.00181,371744064.00000,   0.00028,274947904.00000,  -0.00032,   0.00002,  -0.00016,-103203840.00000,   0.00000
-343178724.40057,-189467931.77784,-126780392.12597,  -0.00151,  -0.00017,  -0.00181,370086880.00000,   0.00028,274947904.00000,  -0.00032,   0.00002,  -0.00016,-104861024.00000,   0.00000
-340483222.03880,-188198621.14187,-127002878.03519,  -0.00150,  -0.00017,  -0.00181,368426784.00000,   0.00028,274947904.00000,  -0.00032,   0.00002,  -0.00016,-106521120.00000,   0.00000
-337747786.30870,-186912196.20519,-127219659.17751,  -0.00149,  -0.00017,  -0.00182,366735680.00000,   0.00028,274947904.00000,  -0.00032,   0.00002,  -0.00016,-108212224.00000,   0.00000
-335003793.42825,-185605804.58435,-127442145.08674,  -0.00148,  -0.00017,  -0.00182,365055456.00000,   0.00028,274947904.00000,  -0.00032,   0.00002,  -0.00016,-109892448.00000,   0.00000
-332219867.17948,-184282298.66281,-127658926.22906,  -0.00147,  -0.00017,  -0.00182,363364576.00000,   0.00028,274947904.00000,  -0.00032,   0.00002,  -0.00016,-111583328.00000,   0.00000
-329435940.93071,-182958792.74126,-127870002.60448,  -0.00146,  -0.00017,  -0.00182,361693376.00000,   0.00028,274947904.00000,  -0.00032,   0.00002,  -0.00016,-113254528.00000,   0.00000
-326623490.84742,-181606762.98519,-128081078.97990,  -0.00145,  -0.00016,  -0.00183,360008960.00000,   0.00028,274947904.00000,  -0.00032,   0.00002,  -0.00016,-114938944.00000,   0.00000
-323819597.91448,-180274699.91329,-128292155.35532,  -0.00144,  -0.00016,  -0.00183,358322048.00000,   0.00028,274947904.00000,  -0.00032,   0.00002,  -0.00016,-116625856.00000,   0.00000
-320967214.46287,-178905555.85652,-128503231.73074,  -0.00143,  -0.00016,  -0.00183,356592800.00000,   0.00028,274947904.00000,  -0.00032,   0.00002,  -0.00016,-118355104.00000,   0.00000
-318106273.86090,-177516445.11558,-128708603.33926,  -0.00142,  -0.00016,  -0.00184,354814080.00000,   0.00028,274947904.00000,  -0.00032,   0.00002,  -0.00016,-120133824.00000,   0.00000
-315213957.04097,-176130186.75810,-128913974.94777,  -0.00141,  -0.00016,  -0.00184,353036224.00000,   0.00028,274947904.00000,  -0.00032,   0.00002,  -0.00016,-121911680.00000,   0.00000
-312313083.07068,-174723961.71645,-129113641.78938,  -0.00140,  -0.00016,  -0.00184,351357152.00000,   0.00028,274947904.00000,  -0.00032,   0.00002,  -0.00016,-123590752.00000,   0.00000
-309392242.41623,-173309179.52445,-129313308.63100,  -0.00139,  -0.00016,  -0.00184,349690816.00000,   0.00028,274947904.00000,  -0.00032,   0.00002,  -0.00016,-125257088.00000,   0.00000
-306471401.76178,-171894397.33245,-129512975.47261,  -0.00138,  -0.00016,  -0.00185,348009664.00000,   0.00028,274947904.00000,  -0.00032,   0.00002,  -0.00016,-126938240.00000,   0.00000
-303502070.58865,-170442534.15558,-129712642.31422,  -0.00137,  -0.00016,  -0.00185,346289952.00000,   0.00028,274947904.00000,  -0.00032,   0.00002,  -0.00016,-128657952.00000,   0.00000
-300532739.41552,-168990670.97871,-129906604.38893,  -0.00136,  -0.00016,  -0.00185,344562592.00000,   0.00028,274947904.00000,  -0.00032,   0.00002,  -0.00016,-130385312.00000,   0.00000
-297543441.55823,-167530250.65149,-130100566.46364,  -0.00135,  -0.00016,  -0.00185,342817056.00000,   0.00028,274947904.00000,  -0.00032,   0.00002,  -0.00016,-132130848.00000,   0.00000
-294534177.01678,-166061273.17391,-130288823.77145,  -0.00134,  -0.00016,  -0.00186,341039488.00000,   0.00028,274947904.00000,  -0.00032,   0.00002,  -0.00016,-133908416.00000,   0.00000
-291516355.32497,-164572329.01217,-130477081.07925,  -0.00133,  -0.00016,  -0.00186,339239744.00000,   0.00028,274947904.00000,  -0.00032,   0.00002,  -0.00016,-135708160.00000,   0.00000
-288458600.26484,-163066270.54971,-130665338.38706,  -0.00132,  -0.00015,  -0.00186,337405280.00000,   0.00028,274947904.00000,  -0.00032,   0.00002,  -0.00016,-137542624.00000,   0.00000
-285400845.20472,-161560212.08726,-130847890.92796,  -0.00131,  -0.00015,  -0.00186,335576064.00000,   0.00028,274947904.00000,  -0.00032,   0.00002,  -0.00016,-139371840.00000,   0.00000
-282314566.31007,-160025629.79030,-131030443.46887,  -0.00129,  -0.00015,  -0.00187,333758080.00000,   0.00028,274947904.00000,  -0.00032,   0.00002,  -0.00016,-141189824.00000,   0.00000
-279216877.88162,-158502457.02714,-131212996.00977,  -0.00128,  -0.00015,  -0.00187,331967552.00000,   0.00028,274947904.00000,  -0.00032,   0.00002,  -0.00016,-142980352.00000,   0.00000
-276110632.30282,-156959317.57981,-131389843.78377,  -0.00127,  -0.00015,  -0.00187,330189696.00000,   0.00028,274947904.00000,  -0.00032,   0.00002,  -0.00016,-144758208.00000,   0.00000
-272955896.20533,-155379097.14762,-131566691.55777,  -0.00126,  -0.00015,  -0.00187,328398432.00000,   0.00028,274947904.00000,  -0.00032,   0.00002,  -0.00016,-146549472.00000,   0.00000
-269809717.25820,-153818843.39959,-131743539.33177,  -0.00125,  -0.00015,  -0.00188,326627904.00000,   0.00028,274947904.00000,  -0.00032,   0.00002,  -0.00016,-148320000.00000,   0.00000
-266635014.47656,-152230065.81704,-131920387.10577,  -0.00124,  -0.00015,  -0.00188,324853376.00000,   0.00028,274947904.00000,  -0.00032,   0.00002,  -0.00016,-150094528.00000,   0.00000
-263460311.69492,-150641288.23449,-132091530.11287,  -0.00123,  -0.00015,  -0.00188,323088224.00000,   0.00028,274947904.00000,  -0.00032,   0.00002,  -0.00016,-151859680.00000,   0.00000
-260237118.39459,-149015429.66707,-132256968.35306,  -0.00122,  -0.00015,  -0.00188,321303968.00000,   0.00028,274947904.00000,  -0.00032,   0.00002,  -0.00016,-153643936.00000,   0.00000
-257022482.24463,-147409537.78382,-132428111.36016,  -0.00120,  -0.00014,  -0.00188,319554368.00000,   0.00028,274947904.00000,  -0.00032,   0.00002,  -0.00016,-155393536.00000,   0.00000
-253779322.26014,-145775122.06604,-132593549.60035,  -0.00119,  -0.00014,  -0.00189,317804064.00000,   0.00028,274947904.00000,  -0.00032,   0.00002,  -0.00016,-157143840.00000,   0.00000
-250507638.44115,-144112182.51375,-132758987.84054,  -0.00118,  -0.00014,  -0.00189,316063520.00000,   0.00028,274947904.00000,  -0.00032,   0.00002,  -0.00016,-158884384.00000,   0.00000
-247244511.77250,-142469209.64562,-132918721.31383,  -0.00117,  -0.00014,  -0.00189,314352096.00000,   0.00028,274947904.00000,  -0.00032,   0.00002,  -0.00016,-160595808.00000,   0.00000
-243952861.26934,-140797712.94298,-133078454.78712,  -0.00116,  -0.00014,  -0.00189,312655136.00000,   0.00028,274947904.00000,  -0.00032,   0.00002,  -0.00016,-162292768.00000,   0.00000
-240641244.08202,-139117659.08998,-133238188.26042,  -0.00115,  -0.00014,  -0.00189,310979232.00000,   0.00028,274947904.00000,  -0.00032,   0.00002,  -0.00016,-163968672.00000,   0.00000
-237309660.21054,-137429048.08662,-133392216.96680,  -0.00113,  -0.00014,  -0.00190,309315136.00000,   0.00028,274947904.00000,  -0.00032,   0.00002,  -0.00016,-165632768.00000,   0.00000
-233969519.18870,-135720470.39911,-133551950.44009,  -0.00112,  -0.00014,  -0.00190,307678816.00000,   0.00028,274947904.00000,  -0.00032,   0.00002,  -0.00016,-167269088.00000,   0.00000
-230609411.48270,-134003335.56124,-133700274.37958,  -0.00111,  -0.00014,  -0.00190,306037440.00000,   0.00028,274947904.00000,  -0.00032,   0.00002,  -0.00016,-168910464.00000,   0.00000
-227229337.09254,-132277643.57301,-133854303.08596,  -0.00110,  -0.00013,  -0.00190,304406592.00000,   0.00028,274947904.00000,  -0.00032,   0.00002,  -0.00016,-170541312.00000,   0.00000
-223829296.01822,-130543394.43443,-134002627.02545,  -0.00109,  -0.00013,  -0.00190,302765408.00000,   0.00028,274947904.00000,  -0.00032,   0.00002,  -0.00016,-172182496.00000,   0.00000
-220420697.79354,-128789178.61169,-134150950.96493,  -0.00107,  -0.00013,  -0.00191,301122144.00000,   0.00028,274947904.00000,  -0.00032,   0.00002,  -0.00016,-173825760.00000,   0.00000
-216992132.88470,-127026405.63859,-134299274.90441,  -0.00106,  -0.00013,  -0.00191,299470752.00000,   0.00028,274947904.00000,  -0.00032,   0.00002,  -0.00016,-175477152.00000,   0.00000
-213563567.97586,-125263632.66550,-134441894.07700,  -0.00105,  -0.00013,  -0.00191,297817856.00000,   0.00028,274947904.00000,  -0.00032,   0.00002,  -0.00016,-177130048.00000,   0.00000
-210086512.54835,-123463778.70753,-134584513.24958,  -0.00104,  -0.00013,  -0.00191,296151136.00000,   0.00028,274947904.00000,  -0.00032,   0.00002,  -0.00016,-178796768.00000,   0.00000
-206609457.12083,-121663924.74956,-134721427.65525,  -0.00103,  -0.00013,  -0.00191,294497472.00000,   0.00028,274947904.00000,  -0.00032,   0.00002,  -0.00016,-180450432.00000,   0.00000
-203112435.00916,-119855513.64124,-134864046.82783,  -0.00101,  -0.00012,  -0.00192,292867104.00000,   0.00028,274947904.00000,  -0.00032,   0.00002,  -0.00016,-182080800.00000,   0.00000
-199615412.89748,-118047102.53292,-135000961.23351,  -0.00100,  -0.00012,  -0.00192,291255808.00000,   0.00028,274947904.00000,  -0.00032,   0.00002,  -0.00016,-183692096.00000,   0.00000
-196069900.26713,-116201610.43973,-135137875.63919,  -0.00099,  -0.00012,  -0.00192,289643712.00000,   0.00028,274947904.00000,  -0.00032,   0.00002,  -0.00016,-185304192.00000,   0.00000
-192544354.32093,-114364675.49689,-135269085.27796,  -0.00098,  -0.00012,  -0.00192,288055616.00000,   0.00028,274947904.00000,  -0.00032,   0.00002,  -0.00016,-186892288.00000,   0.00000
-188978875.00642,-112510626.25334,-135400294.91674,  -0.00096,  -0.00012,  -0.00192,286468224.00000,   0.00028,274947904.00000,  -0.00032,   0.00002,  -0.00016,-188479680.00000,   0.00000
-185413395.69190,-110656577.00979,-135531504.55551,  -0.00095,  -0.00012,  -0.00192,284901120.00000,   0.00028,274947904.00000,  -0.00032,   0.00002,  -0.00016,-190046784.00000,   0.00000
-181819392.54287,-108774003.93173,-135662714.19429,  -0.00094,  -0.00012,  -0.00193,283339872.00000,   0.00028,274947904.00000,  -0.00032,   0.00002,  -0.00016,-191608032.00000,   0.00000
-178205422.70968,-106882873.70331,-135788219.06616,  -0.00092,  -0.00011,  -0.00193,281782272.00000,   0.00028,274947904.00000,  -0.00032,   0.00002,  -0.00016,-193165632.00000,   0.00000
-174591452.87649,-104991743.47489,-135913723.93803,  -0.00091,  -0.00011,  -0.00193,280246176.00000,   0.00028,274947904.00000,  -0.00032,   0.00002,  -0.00016,-194701728.00000,   0.00000
-170948959.20878,-103072089.41196,-136039228.80990,  -0.00090,  -0.00011,  -0.00193,278718432.00000,   0.00028,274947904.00000,  -0.00032,   0.00002,  -0.00016,-196229472.00000,   0.00000
-167286498.85691,-101143878.19867,-136159028.91487,  -0.00089,  -0.00011,  -0.00193,277196384.00000,   0.00028,274947904.00000,  -0.00032,   0.00002,  -0.00016,-197751520.00000,   0.00000
-163624038.50504,-99215666.98538,-136284533.78674,  -0.00087,  -0.00011,  -0.00193,275708224.00000,   0.00028,274947904.00000,  -0.00032,   0.00002,  -0.00016,-199239680.00000,   0.00000
-159941611.46901,-97278898.62173,-136398629.12480,  -0.00086,  -0.00011,  -0.00194,274225888.00000,   0.00028,274947904.00000,  -0.00032,   0.00002,  -0.00016,-200722016.00000,   0.00000
-156230660.59846,-95313606.42357,-136518429.22977,  -0.00085,  -0.00010,  -0.00194,272815264.00000,   0.00028,274947904.00000,  -0.00032,   0.00002,  -0.00016,-202132640.00000,   0.00000
-152519709.72791,-93348314.22541,-136632524.56783,  -0.00083,  -0.00010,  -0.00194,271272736.00000,   0.00028,274947904.00000,  -0.00032,   0.00002,  -0.00016,-203675168.00000,   0.00000
-148788792.17320,-91374464.87689,-136752324.67280,  -0.00082,  -0.00010,  -0.00194,269770240.00000,   0.00028,274947904.00000,  -0.00032,   0.00002,  -0.00016,-205177664.00000,   0.00000
-145049317.46814,-89380648.84422,-136860715.24396,  -0.00081,  -0.00010,  -0.00194,268460768.00000,   0.00028,274947904.00000,  -0.00032,   0.00002,  -0.00016,-206487136.00000,   0.00000
-141289876.07892,-87378275.66119,-136974810.58203,  -0.00079,  -0.00010,  -0.00194,267235808.00000,   0.00028,274947904.00000,  -0.00032,   0.00002,  -0.00016,-207712096.00000,   0.00000
-137510468.00553,-85367345.32780,-137083201.15319,  -0.00078,  -0.00010,  -0.00194,266012320.00000,   0.00028,274947904.00000,  -0.00032,   0.00002,  -0.00016,-208935584.00000,   0.00000
-133711093.24798,-83347857.84406,-137191591.72435,  -0.00077,  -0.00009,  -0.00195,264749088.00000,   0.00028,274947904.00000,  -0.00032,   0.00002,  -0.00016,-210198816.00000,   0.00000
-129903161.34008,-81308403.67616,-137299982.29551,  -0.00075,  -0.00009,  -0.00195,263422080.00000,   0.00028,274947904.00000,  -0.00032,   0.00002,  -0.00016,-211525824.00000,   0.00000
-126095229.43218,-79268949.50825,-137408372.86667,  -0.00074,  -0.00009,  -0.00195,262080736.00000,   0.00028,274947904.00000,  -0.00032,   0.00002,  -0.00016,-212867168.00000,   0.00000
-122247364.15595,-77212381.03964,-137511058.67093,  -0.00073,  -0.00009,  -0.00195,260779904.00000,   0.00028,274947904.00000,  -0.00032,   0.00002,  -0.00016,-214168000.00000,   0.00000
-118399498.87973,-75155812.57103,-137613744.47519,  -0.00071,  -0.00009,  -0.00195,259555008.00000,   0.00028,274947904.00000,  -0.00032,   0.00002,  -0.00016,-215392896.00000,   0.00000
-114543076.45315,-73079277.41825,-137716430.27945,  -0.00070,  -0.00008,  -0.00195,258380480.00000,   0.00028,274947904.00000,  -0.00032,   0.00002,  -0.00016,-216567424.00000,   0.00000
-110666687.34241,-70994185.11513,-137819116.08370,  -0.00069,  -0.00008,  -0.00195,257244640.00000,   0.00028,274947904.00000,  -0.00032,   0.00002,  -0.00016,-217703264.00000,   0.00000
-106761774.39715,-68880568.97748,-137916097.12106,  -0.00067,  -0.00008,  -0.00196,256151072.00000,   0.00028,274947904.00000,  -0.00032,   0.00002,  -0.00016,-218796832.00000,   0.00000
-102865418.60225,-66786919.52400,-138013078.15841,  -0.00066,  -0.00008,  -0.00196,255129568.00000,   0.00028,274947904.00000,  -0.00032,   0.00002,  -0.00016,-219818336.00000,   0.00000
-98940538.97283,-64664746.23600,-138110059.19577,  -0.00065,  -0.00008,  -0.00196,254128544.00000,   0.00028,274947904.00000,  -0.00032,   0.00002,  -0.00016,-220819360.00000,   0.00000
-94995692.65925,-62534015.79764,-138207040.23312,  -0.00063,  -0.00007,  -0.00196,253135984.00000,   0.00028,274947904.00000,  -0.00032,   0.00002,  -0.00016,-221811920.00000,   0.00000
-91042289.19532,-60383318.67513,-138298316.50358,  -0.00062,  -0.00007,  -0.00196,252160944.00000,   0.00028,274947904.00000,  -0.00032,   0.00002,  -0.00016,-222786960.00000,   0.00000
-87088885.73138,-58232621.55261,-138395297.54093,  -0.00061,  -0.00007,  -0.00196,251237072.00000,   0.00028,274947904.00000,  -0.00032,   0.00002,  -0.00016,-223710832.00000,   0.00000
-83095548.89912,-56064810.12939,-138486573.81138,  -0.00059,  -0.00007,  -0.00196,250341264.00000,   0.00028,274947904.00000,  -0.00032,   0.00002,  -0.00016,-224606640.00000,   0.00000
-79122178.75103,-53905555.85652,-138577850.08183,  -0.00058,  -0.00007,  -0.00196,249502800.00000,   0.00028,274947904.00000,  -0.00032,   0.00002,  -0.00016,-225445104.00000,   0.00000
-75108875.23461,-51729187.28294,-138663421.58538,  -0.00056,  -0.00006,  -0.00197,248701376.00000,   0.00028,274947904.00000,  -0.00032,   0.00002,  -0.00016,-226246528.00000,   0.00000
-71087014.56784,-49532852.02520,-138754697.85583,  -0.00055,  -0.00006,  -0.00197,247964384.00000,   0.00028,274947904.00000,  -0.00032,   0.00002,  -0.00016,-226983520.00000,   0.00000
-67065153.90106,-47336516.76745,-138840269.35938,  -0.00054,  -0.00006,  -0.00197,247273072.00000,   0.00028,274947904.00000,  -0.00032,   0.00002,  -0.00016,-227674832.00000,   0.00000
-63014769.39977,-45111657.67520,-138925840.86293,  -0.00052,  -0.00006,  -0.00197,246626512.00000,   0.00028,274947904.00000,  -0.00032,   0.00002,  -0.00016,-228321392.00000,   0.00000
-58944418.21432,-42878241.43258,-139011412.36648,  -0.00051,  -0.00006,  -0.00197,246023296.00000,   0.00028,274947904.00000,  -0.00032,   0.00002,  -0.00016,-228924608.00000,   0.00000
-54874067.02887,-40644825.18997,-139096983.87003,  -0.00049,  -0.00005,  -0.00197,245465792.00000,   0.00028,274947904.00000,  -0.00032,   0.00002,  -0.00016,-229482112.00000,   0.00000
-50783749.15926,-38402851.79700,-139176850.60667,  -0.00048,  -0.00005,  -0.00197,244945072.00000,   0.00028,274947904.00000,  -0.00032,   0.00002,  -0.00016,-230002832.00000,   0.00000
-46684874.13929,-36140911.71988,-139256717.34332,  -0.00046,  -0.00005,  -0.00197,244482192.00000,   0.00028,274947904.00000,  -0.00032,   0.00002,  -0.00016,-230465712.00000,   0.00000
-42574589.58552,-33890381.17655,-139342288.84687,  -0.00045,  -0.00005,  -0.00197,244101424.00000,   0.00028,274947904.00000,  -0.00032,   0.00002,  -0.00016,-230846480.00000,   0.00000
-38447190.73104,-31599917.26491,-139422155.58351,  -0.00044,  -0.00004,  -0.00198,243787264.00000,   0.00028,274947904.00000,  -0.00032,   0.00002,  -0.00016,-231160640.00000,   0.00000
-34308382.34275,-29320862.88707,-139496317.55325,  -0.00042,  -0.00004,  -0.00198,243537264.00000,   0.00028,274947904.00000,  -0.00032,   0.00002,  -0.00016,-231410640.00000,   0.00000
-30161016.80411,-27021841.82507,-139576184.28990,  -0.00041,  -0.00004,  -0.00198,243354688.00000,   0.00028,274947904.00000,  -0.00032,   0.00002,  -0.00016,-231593216.00000,   0.00000
-25993684.58130,-24714263.61272,-139656051.02654,  -0.00039,  -0.00004,  -0.00198,243213136.00000,   0.00028,274947904.00000,  -0.00032,   0.00002,  -0.00016,-231734768.00000,   0.00000
-21826352.35849,-22406685.40036,-139730212.99628,  -0.00038,  -0.00003,  -0.00198,243092704.00000,   0.00028,274947904.00000,  -0.00032,   0.00002,  -0.00016,-231855200.00000,   0.00000
-17639053.45153,-20090550.03765,-139804374.96603,  -0.00036,  -0.00003,  -0.00198,242996640.00000,   0.00028,274947904.00000,  -0.00032,   0.00002,  -0.00016,-231951264.00000,   0.00000
-13423230.71004,-17745890.84043,-139878536.93577,  -0.00035,  -0.00003,  -0.00198,242922544.00000,   0.00028,274947904.00000,  -0.00032,   0.00002,  -0.00016,-232025360.00000,   0.00000
-9207407.96856,-15401231.64320,-139952698.90551,  -0.00033,  -0.00003,  -0.00198,242874256.00000,   0.00028,274947904.00000,  -0.00032,   0.00002,  -0.00016,-232073648.00000,   0.00000
-4983028.07672,-13036605.76182,-140026860.87525,  -0.00032,  -0.00002,  -0.00198,242854656.00000,   0.00028,274947904.00000,  -0.00032,   0.00002,  -0.00016,-232093248.00000,   0.00000
-738681.50073,-10663422.73008,-140095318.07809,  -0.00030,  -0.00002,  -0.00198,242860304.00000,   0.00028,274947904.00000,  -0.00032,   0.00002,  -0.00016,-232087600.00000,   0.00000
3497107.92492,-8310206.38250,-140169480.04783,  -0.00029,  -0.00002,  -0.00198,242918768.00000,   0.00028,274947904.00000,  -0.00032,   0.00002,  -0.00016,-232029136.00000,   0.00000
7769978.33543,-5908499.51624,-140237937.25067,  -0.00028,  -0.00002,  -0.00199,243014416.00000,   0.00028,274947904.00000,  -0.00032,   0.00002,  -0.00016,-231933488.00000,   0.00000
12034291.59559,-3526759.33414,-140306394.45351,  -0.00026,  -0.00001,  -0.00199,243165936.00000,   0.00028,274947904.00000,  -0.00032,   0.00002,  -0.00016,-231781968.00000,   0.00000
16327128.69027,-1116495.31753,-140374851.65635,  -0.00025,  -0.00001,  -0.00199,243377360.00000,   0.00028,274947904.00000,  -0.00032,   0.00002,  -0.00016,-231570544.00000,   0.00000
20619965.78495,1293768.69908,-140443308.85919,  -0.00023,  -0.00001,  -0.00199,243652416.00000,   0.00028,274947904.00000,  -0.00032,   0.00002,  -0.00016,-231295488.00000,   0.00000
24941326.71414,3732556.55021,-140511766.06203,  -0.00022,  -0.00001,  -0.00199,243994160.00000,   0.00028,274947904.00000,  -0.00032,   0.00002,  -0.00016,-230953744.00000,   0.00000
29254130.49298,6151377.71718,-140580223.26486,  -0.00020,  -0.00000,  -0.00199,244402096.00000,   0.00028,274947904.00000,  -0.00032,   0.00002,  -0.00016,-230545808.00000,   0.00000
33595458.10633,8598722.71866,-140648680.46770,  -0.00019,  -0.00000,  -0.00199,244877104.00000,   0.00028,274947904.00000,  -0.00032,   0.00002,  -0.00016,-230070800.00000,   0.00000
37945342.87004,11066034.40430,-140711432.90364,  -0.00017,   0.00000,  -0.00199,245406752.00000,   0.00028,274947904.00000,  -0.00032,   0.00002,  -0.00016,-229541152.00000,   0.00000
42286670.48339,13513379.40579,-140779890.10648,  -0.00016,   0.00000,  -0.00199,246006400.00000,   0.00028,274947904.00000,  -0.00032,   0.00002,  -0.00016,-228941504.00000,   0.00000
46656521.93126,15989248.24179,-140842642.54241,  -0.00014,   0.00001,  -0.00199,246658288.00000,   0.00028,274947904.00000,  -0.00032,   0.00002,  -0.00016,-228289616.00000,   0.00000
51026373.37913,18465117.07779,-140911099.74525,  -0.00013,   0.00001,  -0.00199,247375216.00000,   0.00028,274947904.00000,  -0.00032,   0.00002,  -0.00016,-227572688.00000,   0.00000
55416191.51116,20949543.06414,-140973852.18119,  -0.00011,   0.00001,  -0.00200,248140352.00000,   0.00028,274947904.00000,  -0.00032,   0.00002,  -0.00016,-226807552.00000,   0.00000
59814566.79355,23453935.73466,-141036604.61712,  -0.00010,   0.00001,  -0.00200,248959296.00000,   0.00028,274947904.00000,  -0.00032,   0.00002,  -0.00016,-225988608.00000,   0.00000
64232908.76010,25966885.55553,-141099357.05306,  -0.00008,   0.00002,  -0.00200,249834672.00000,   0.00028,274947904.00000,  -0.00032,   0.00002,  -0.00016,-225113232.00000,   0.00000
68651250.72664,28479835.37640,-141162109.48899,  -0.00007,   0.00002,  -0.00200,250763984.00000,   0.00028,274947904.00000,  -0.00032,   0.00002,  -0.00016,-224183920.00000,   0.00000
73078149.84355,31012751.88143,-141224861.92493,  -0.00005,   0.00002,  -0.00200,251749104.00000,   0.00028,274947904.00000,  -0.00032,   0.00002,  -0.00016,-223198800.00000,   0.00000
77525015.64461,33554225.53682,-141287614.36086,  -0.00004,   0.00003,  -0.00200,252795600.00000,   0.00028,274947904.00000,  -0.00032,   0.00002,  -0.00016,-222152304.00000,   0.00000
81971881.44567,36095699.19220,-141350366.79680,  -0.00002,   0.00003,  -0.00200,253899888.00000,   0.00028,274947904.00000,  -0.00032,   0.00002,  -0.00016,-221048016.00000,   0.00000
86438713.93090,38645729.99794,-141413119.23274,  -0.00000,   0.00003,  -0.00200,255066752.00000,   0.00028,274947904.00000,  -0.00032,   0.00002,  -0.00016,-219881152.00000,   0.00000
90914103.56648,41215727.48785,-141475871.66867,   0.00001,   0.00003,  -0.00200,256291552.00000,   0.00028,274947904.00000,  -0.00032,   0.00002,  -0.00016,-218656352.00000,   0.00000
95389493.20206,43785724.97775,-141538624.10461,   0.00003,   0.00004,  -0.00200,257573648.00000,   0.00028,274947904.00000,  -0.00032,   0.00002,  -0.00016,-217374256.00000,   0.00000
99884849.52180,46364279.61801,-141601376.54054,   0.00004,   0.00004,  -0.00200,258927552.00000,   0.00028,274947904.00000,  -0.00032,   0.00002,  -0.00016,-216020352.00000,   0.00000
104388762.99189,48962800.94242,-141658424.20957,   0.00006,   0.00004,  -0.00200,260365968.00000,   0.00028,274947904.00000,  -0.00032,   0.00002,  -0.00016,-214581936.00000,   0.00000
108912643.14615,51569879.41720,-141721176.64551,   0.00007,   0.00005,  -0.00200,261946624.00000,   0.00028,274947904.00000,  -0.00032,   0.00002,  -0.00016,-213001280.00000,   0.00000
113416556.61624,54168400.74162,-141783929.08145,   0.00009,   0.00005,  -0.00201,263662464.00000,   0.00028,274947904.00000,  -0.00032,   0.00002,  -0.00016,-211285440.00000,   0.00000
117960403.45466,56784036.36674,-141840976.75048,   0.00010,   0.00005,  -0.00201,265507920.00000,   0.00028,274947904.00000,  -0.00032,   0.00002,  -0.00016,-209439984.00000,   0.00000
122492840.75927,59411081.52568,-141903729.18641,   0.00012,   0.00006,  -0.00201,267446704.00000,   0.00028,274947904.00000,  -0.00032,   0.00002,  -0.00016,-207501200.00000,   0.00000
127045244.74805,62046683.83497,-141966481.62235,   0.00013,   0.00006,  -0.00201,269452512.00000,   0.00028,274947904.00000,  -0.00032,   0.00002,  -0.00016,-205495392.00000,   0.00000
131597648.73682,64682286.14426,-142029234.05828,   0.00015,   0.00006,  -0.00201,271498400.00000,   0.00028,274947904.00000,  -0.00032,   0.00002,  -0.00016,-203449504.00000,   0.00000
136178576.56011,67346412.28806,-142086281.72732,   0.00017,   0.00007,  -0.00201,273574944.00000,   0.00028,274947904.00000,  -0.00032,   0.00002,  -0.00016,-201372960.00000,   0.00000
140759504.38340,70010538.43187,-142149034.16325,   0.00018,   0.00007,  -0.00201,275675648.00000,   0.00028,274947904.00000,  -0.00032,   0.00002,  -0.00016,-199272256.00000,   0.00000
145340432.20669,72674664.57568,-142211786.59919,   0.00020,   0.00007,  -0.00201,277779808.00000,   0.00028,274947904.00000,  -0.00032,   0.00002,  -0.00016,-197168096.00000,   0.00000
149941326.71414,75347347.86984,-142268834.26822,   0.00021,   0.00008,  -0.00201,279874720.00000,   0.00028,274947904.00000,  -0.00032,   0.00002,  -0.00016,-195073184.00000,   0.00000
154550778.37194,78039997.84816,-142331586.70415,   0.00023,   0.00008,  -0.00201,281955008.00000,   0.00028,274947904.00000,  -0.00032,   0.00002,  -0.00016,-192992896.00000,   0.00000
159160230.02975,80732647.82648,-142394339.14009,   0.00024,   0.00008,  -0.00201,283990752.00000,   0.00028,274947904.00000,  -0.00032,   0.00002,  -0.00016,-190957152.00000,   0.00000
163769681.68755,83425297.80480,-142457091.57603,   0.00026,   0.00008,  -0.00201,285981728.00000,   0.00028,274947904.00000,  -0.00032,   0.00002,  -0.00016,-188966176.00000,   0.00000
168407657.17988,86146471.61764,-142519844.01196,   0.00028,   0.00009,  -0.00202,287987456.00000,   0.00028,274947904.00000,  -0.00032,   0.00002,  -0.00016,-186960448.00000,   0.00000
173045632.67220,88867645.43048,-142582596.44790,   0.00029,   0.00009,  -0.00202,290064128.00000,   0.00028,274947904.00000,  -0.00032,   0.00002,  -0.00016,-184883776.00000,   0.00000
177703574.84868,91597376.39367,-142645348.88383,   0.00031,   0.00009,  -0.00202,292205984.00000,   0.00028,274947904.00000,  -0.00032,   0.00002,  -0.00016,-182741920.00000,   0.00000
182350107.49136,94338516.89067,-142708101.31977,   0.00032,   0.00010,  -0.00202,294343680.00000,   0.00028,274947904.00000,  -0.00032,   0.00002,  -0.00016,-180604224.00000,   0.00000
187008049.66784,97068247.85386,-142770853.75570,   0.00034,   0.00010,  -0.00202,296496800.00000,   0.00028,274947904.00000,  -0.00032,   0.00002,  -0.00016,-178451104.00000,   0.00000
191683106.14503,99837912.18538,-142839310.95854,   0.00036,   0.00011,  -0.00202,298692544.00000,   0.00028,274947904.00000,  -0.00032,   0.00002,  -0.00016,-176255360.00000,   0.00000
196369572.15603,102596166.98309,-142902063.39448,   0.00037,   0.00011,  -0.00202,300927264.00000,   0.00028,274947904.00000,  -0.00032,   0.00002,  -0.00016,-174020640.00000,   0.00000
201064595.31738,105374388.46496,-142964815.83041,   0.00039,   0.00011,  -0.00202,303216544.00000,   0.00028,274947904.00000,  -0.00032,   0.00002,  -0.00016,-171731360.00000,   0.00000
205759618.47874,108152609.94683,-143033273.03325,   0.00040,   0.00012,  -0.00202,305576896.00000,   0.00028,274947904.00000,  -0.00032,   0.00002,  -0.00016,-169371008.00000,   0.00000
210454641.64009,110930831.42870,-143101730.23609,   0.00042,   0.00012,  -0.00202,308012352.00000,   0.00028,274947904.00000,  -0.00032,   0.00002,  -0.00016,-166935552.00000,   0.00000
215149664.80144,113709052.91057,-143164482.67203,   0.00043,   0.00012,  -0.00202,310522912.00000,   0.00028,274947904.00000,  -0.00032,   0.00002,  -0.00016,-164424992.00000,   0.00000
219873211.79731,116515798.22696,-143232939.87486,   0.00045,   0.00013,  -0.00202,313135968.00000,   0.00028,274947904.00000,  -0.00032,   0.00002,  -0.00016,-161811936.00000,   0.00000
224596758.79318,119322543.54334,-143301397.07770,   0.00047,   0.00013,  -0.00203,315807232.00000,   0.00028,274947904.00000,  -0.00032,   0.00002,  -0.00016,-159140672.00000,   0.00000
229328862.93941,122149255.54389,-143369854.28054,   0.00048,   0.00013,  -0.00203,318491744.00000,   0.00028,274947904.00000,  -0.00032,   0.00002,  -0.00016,-156456160.00000,   0.00000
234072376.61944,124964558.01063,-143438311.48338,   0.00050,   0.00014,  -0.00203,321108096.00000,   0.00028,274947904.00000,  -0.00032,   0.00002,  -0.00016,-153839808.00000,   0.00000
238804480.76566,127791270.01118,-143506768.68622,   0.00051,   0.00014,  -0.00203,323549248.00000,   0.00028,274947904.00000,  -0.00032,   0.00002,  -0.00016,-151398656.00000,   0.00000
243565108.74640,130646505.84624,-143580930.65596,   0.00053,   0.00014,  -0.00203,325817632.00000,   0.00028,274947904.00000,  -0.00032,   0.00002,  -0.00016,-149130272.00000,   0.00000
248317179.57679,133481774.99714,-143655092.62570,   0.00055,   0.00015,  -0.00203,328026912.00000,   0.00028,274947904.00000,  -0.00032,   0.00002,  -0.00016,-146920992.00000,   0.00000
253097774.24169,136345567.98256,-143723549.82854,   0.00056,   0.00015,  -0.00203,330434464.00000,   0.00028,274947904.00000,  -0.00032,   0.00002,  -0.00016,-144513440.00000,   0.00000
257858402.22243,139200803.81763,-143797711.79828,   0.00058,   0.00016,  -0.00203,333269888.00000,   0.00028,274947904.00000,  -0.00032,   0.00002,  -0.00016,-141678016.00000,   0.00000
262647554.03769,142084563.48721,-143871873.76803,   0.00060,   0.00016,  -0.00203,336564032.00000,   0.00028,274947904.00000,  -0.00032,   0.00002,  -0.00016,-138383872.00000,   0.00000
267436705.85295,144968323.15679,-143946035.73777,   0.00061,   0.00016,  -0.00203,339817056.00000,   0.00028,274947904.00000,  -0.00032,   0.00002,  -0.00016,-135130848.00000,   0.00000
272225857.66820,147852082.82637,-144025902.47441,   0.00063,   0.00017,  -0.00203,342830752.00000,   0.00028,274947904.00000,  -0.00032,   0.00002,  -0.00016,-132117152.00000,   0.00000
277015009.48346,150735842.49595,-144100064.44415,   0.00064,   0.00017,  -0.00204,345764608.00000,   0.00028,274947904.00000,  -0.00032,   0.00002,  -0.00016,-129183296.00000,   0.00000
281812718.44907,153639568.84969,-144179931.18080,   0.00066,   0.00017,  -0.00204,348741504.00000,   0.00028,274947904.00000,  -0.00032,   0.00002,  -0.00016,-126206400.00000,   0.00000
286630394.09885,156551852.35378,-144259797.91744,   0.00068,   0.00018,  -0.00204,351797152.00000,   0.00028,274947904.00000,  -0.00032,   0.00002,  -0.00016,-123150752.00000,   0.00000
291448069.74862,159464135.85788,-144339664.65409,   0.00069,   0.00018,  -0.00204,354928672.00000,   0.00028,274947904.00000,  -0.00032,   0.00002,  -0.00016,-120019232.00000,   0.00000
296254335.86458,162387828.89578,-144419531.39073,   0.00071,   0.00019,  -0.00204,358121792.00000,   0.00028,274947904.00000,  -0.00032,   0.00002,  -0.00016,-116826112.00000,   0.00000
301080568.66471,165320079.08404,-144505102.89428,   0.00073,   0.00019,  -0.00204,361380224.00000,   0.00028,274947904.00000,  -0.00032,   0.00002,  -0.00016,-113567680.00000,   0.00000
305926768.14900,168260886.42265,-144584969.63093,   0.00074,   0.00019,  -0.00204,364663296.00000,   0.00028,274947904.00000,  -0.00032,   0.00002,  -0.00016,-110284608.00000,   0.00000
310753000.94913,171193136.61091,-144670541.13448,   0.00076,   0.00020,  -0.00204,367930368.00000,   0.00028,274947904.00000,  -0.00032,   0.00002,  -0.00016,-107017536.00000,   0.00000
315587790.89961,174145353.48333,-144756112.63803,   0.00077,   0.00020,  -0.00204,371165760.00000,   0.00028,274947904.00000,  -0.00032,   0.00002,  -0.00016,-103782144.00000,   0.00000
320442547.53426,177106127.50610,-144847388.90848,   0.00079,   0.00021,  -0.00205,374380992.00000,   0.00028,274947904.00000,  -0.00032,   0.00002,  -0.00016,-100566912.00000,   0.00000
325277337.48474,180058344.37852,-144932960.41202,   0.00081,   0.00021,  -0.00205,377578880.00000,   0.00028,274947904.00000,  -0.00032,   0.00002,  -0.00016,-97369024.00000,   0.00000
330140651.26974,183039085.08545,-145024236.68248,   0.00082,   0.00021,  -0.00205,380843584.00000,   0.00028,274947904.00000,  -0.00032,   0.00002,  -0.00016,-94104320.00000,   0.00000
335003965.05474,186019825.79239,-145115512.95293,   0.00084,   0.00022,  -0.00205,384136736.00000,   0.00028,274947904.00000,  -0.00032,   0.00002,  -0.00016,-90811168.00000,   0.00000
339867278.83973,189000566.49932,-145206789.22338,   0.00086,   0.00022,  -0.00205,387417536.00000,   0.00028,274947904.00000,  -0.00032,   0.00002,  -0.00016,-87530368.00000,   0.00000
344739149.77509,192001273.89042,-145303770.26073,   0.00087,   0.00023,  -0.00205,390684608.00000,   0.00028,274947904.00000,  -0.00032,   0.00002,  -0.00016,-84263296.00000,   0.00000
349611020.71044,195001981.28152,-145395046.53119,   0.00089,   0.00023,  -0.00205,393934336.00000,   0.00028,274947904.00000,  -0.00032,   0.00002,  -0.00016,-81013568.00000,   0.00000
354482891.64580,198002688.67261,-145492027.56854,   0.00090,   0.00023,  -0.00205,397200992.00000,   0.00028,274947904.00000,  -0.00032,   0.00002,  -0.00016,-77746912.00000,   0.00000
359374729.26531,201011953.21406,-145594713.37280,   0.00092,   0.00024,  -0.00206,400515968.00000,   0.00028,274947904.00000,  -0.00032,   0.00002,  -0.00016,-74431936.00000,   0.00000
364255157.35102,204032627.28932,-145691694.41015,   0.00094,   0.00024,  -0.00206,403859616.00000,   0.00028,274947904.00000,  -0.00032,   0.00002,  -0.00016,-71088288.00000,   0.00000
369135585.43673,207053301.36458,-145794380.21441,   0.00095,   0.00025,  -0.00206,407256320.00000,   0.00028,274947904.00000,  -0.00032,   0.00002,  -0.00016,-67691584.00000,   0.00000
374035980.20660,210082532.59019,-145897066.01867,   0.00097,   0.00025,  -0.00206,410711456.00000,   0.00028,274947904.00000,  -0.00032,   0.00002,  -0.00016,-64236448.00000,   0.00000
378944932.12682,213131730.49996,-146005456.58983,   0.00099,   0.00026,  -0.00206,414216672.00000,   0.00028,274947904.00000,  -0.00032,   0.00002,  -0.00016,-60731232.00000,   0.00000
383833917.36288,216172371.25938,-146108142.39409,   0.00100,   0.00026,  -0.00206,417727264.00000,   0.00028,274947904.00000,  -0.00032,   0.00002,  -0.00016,-57220640.00000,   0.00000
388742869.28311,219221569.16915,-146216532.96525,   0.00102,   0.00026,  -0.00206,421268640.00000,   0.00028,274947904.00000,  -0.00032,   0.00002,  -0.00016,-53679264.00000,   0.00000
393640411.66953,222282176.61273,-146330628.30331,   0.00104,   0.00027,  -0.00206,424807776.00000,   0.00028,274947904.00000,  -0.00032,   0.00002,  -0.00016,-50140128.00000,   0.00000
398557920.74011,225351341.20667,-146439018.87448,   0.00105,   0.00027,  -0.00207,428344000.00000,   0.00028,274947904.00000,  -0.00032,   0.00002,  -0.00016,-46603904.00000,   0.00000
403475429.81069,228420505.80060,-146553114.21254,   0.00107,   0.00028,  -0.00207,431874528.00000,   0.00028,274947904.00000,  -0.00032,   0.00002,  -0.00016,-43073376.00000,   0.00000
408392938.88127,231489670.39454,-146667209.55061,   0.00108,   0.00028,  -0.00207,435420384.00000,   0.00028,274947904.00000,  -0.00032,   0.00002,  -0.00016,-39527520.00000,   0.00000
413299038.41804,234570244.52228,-146787009.65557,   0.00110,   0.00029,  -0.00207,439097824.00000,   0.00028,274947904.00000,  -0.00032,   0.00002,  -0.00016,-35850080.00000,   0.00000
418225104.63897,237659375.80038,-146906809.76054,   0.00112,   0.00029,  -0.00207,443000960.00000,   0.00028,274947904.00000,  -0.00032,   0.00002,  -0.00016,-31946944.00000,   0.00000
423159728.01026,240768473.76263,-147026609.86551,   0.00113,   0.00030,  -0.00207,446725088.00000,   0.00028,274947904.00000,  -0.00032,   0.00002,  -0.00016,-28222816.00000,   0.00000
428085794.23120,243857605.04073,-147152114.73738,   0.00115,   0.00030,  -0.00208,450370496.00000,   0.00028,274947904.00000,  -0.00032,   0.00002,  -0.00016,-24577408.00000,   0.00000
433000450.91832,246958145.85263,-147271914.84235,   0.00117,   0.00030,  -0.00208,454054560.00000,   0.00028,274947904.00000,  -0.00032,   0.00002,  -0.00016,-20893344.00000,   0.00000
437943631.43997,250087210.49905,-147403124.48112,   0.00118,   0.00031,  -0.00208,457823776.00000,   0.00028,274947904.00000,  -0.00032,   0.00002,  -0.00016,-17124128.00000,   0.00000
442878254.81126,253196308.46131,-147528629.35299,   0.00120,   0.00031,  -0.00208,461626272.00000,   0.00028,274947904.00000,  -0.00032,   0.00002,  -0.00016,-13321632.00000,   0.00000
447801468.64874,256316815.95737,-147659838.99177,   0.00122,   0.00032,  -0.00208,465454688.00000,   0.00028,274947904.00000,  -0.00032,   0.00002,  -0.00016,-9493216.00000,   0.00000
452744649.17038,259445880.60379,-147796753.39744,   0.00123,   0.00032,  -0.00208,469305280.00000,   0.00028,274947904.00000,  -0.00032,   0.00002,  -0.00016,-5642624.00000,   0.00000
457676420.15822,262586354.78401,-147927963.03622,   0.00125,   0.00033,  -0.00209,473119104.00000,   0.00028,274947904.00000,  -0.00032,   0.00002,  -0.00016,-1828800.00000,   0.00000
460057993.20847,264100903.54408,-147993812.98231,   0.00126,   0.00033,  -0.00209,474947776.00000,   0.00028,274947904.00000,  -0.00032,   0.00002,  -0.00016,-128.00000,   0.00000
460804595.13590,264803644.34566,-147393369.52957,   0.00126,   0.00033,  -0.00209,474947776.00000,   0.00029,274955936.00000,  -0.00032,   0.00003,  -0.00017, 192.00000,   2.00000
462211637.18027,266138417.42382,-146249795.29897,   0.00128,   0.00034,  -0.00209,478711968.00000,   0.00030,274971328.00000,  -0.00030,   0.00003,  -0.00019,  64.00000,   2.00000
463599803.68165,267456297.35223,-145107442.83622,   0.00130,   0.00034,  -0.00209,478748288.00000,   0.00032,274986816.00000,  -0.00029,   0.00003,  -0.00020, 128.00000,   2.00000
464958471.81227,268770697.30080,-143973746.02975,   0.00131,   0.00035,  -0.00209,478763840.00000,   0.00033,275002304.00000,  -0.00028,   0.00003,  -0.00022, 160.00000,   2.00000
466288064.87447,270064706.20815,-142850267.80014,   0.00133,   0.00035,  -0.00209,478791552.00000,   0.00034,275017824.00000,  -0.00027,   0.00003,  -0.00024, 128.00000,   2.00000
467595587.40536,271357565.11469,-141730632.68305,   0.00135,   0.00036,  -0.00210,478821696.00000,   0.00036,275033376.00000,  -0.00025,   0.00003,  -0.00025,  96.00000,   2.00000
468884984.44732,272618883.90053,-140615081.90131,   0.00136,   0.00036,  -0.00210,478851712.00000,   0.00037,275048960.00000,  -0.00024,   0.00003,  -0.00027,  96.00000,   2.00000
470137128.06061,273875372.18753,-139517048.79577,   0.00138,   0.00036,  -0.00210,478858464.00000,   0.00039,275064512.00000,  -0.00023,   0.00004,  -0.00029, 288.00000,   2.00000
471374974.96667,275133610.21098,-138418078.23463,   0.00139,   0.00037,  -0.00210,478904096.00000,   0.00040,275080160.00000,  -0.00021,   0.00004,  -0.00030, 192.00000,   2.00000
472586372.08794,276358525.28543,-137332037.47162,   0.00141,   0.00037,  -0.00210,478925408.00000,   0.00042,275095776.00000,  -0.00020,   0.00004,  -0.00032, 128.00000,   2.00000
473779013.72721,277585216.91686,-136249892.62334,   0.00143,   0.00038,  -0.00211,478957248.00000,   0.00043,275111456.00000,  -0.00019,   0.00004,  -0.00034, 128.00000,   2.00000
474941903.80592,278794540.93718,-135182805.26911,   0.00144,   0.00038,  -0.00211,478972160.00000,   0.00044,275127104.00000,  -0.00017,   0.00004,  -0.00035,  64.00000,   2.00000
476092763.11597,280007401.87230,-134114968.45466,   0.00146,   0.00039,  -0.00211,479019520.00000,   0.00046,275142848.00000,  -0.00016,   0.00004,  -0.00037, 128.00000,   2.00000
477219637.91402,281206051.14447,-133057982.87907,   0.00148,   0.00039,  -0.00211,479030688.00000,   0.00047,275158528.00000,  -0.00015,   0.00005,  -0.00038, 256.00000,   2.00000
478323660.58884,282389136.13180,-132011323.66886,   0.00149,   0.00040,  -0.00212,479061504.00000,   0.00049,275174208.00000,  -0.00013,   0.00005,  -0.00040, 192.00000,   2.00000
479405482.87369,283556972.54908,-130975068.79606,   0.00151,   0.00040,  -0.00212,479092256.00000,   0.00050,275189952.00000,  -0.00012,   0.00005,  -0.00042,  64.00000,   2.00000
480470826.97770,284727845.15525,-129942580.55804,   0.00153,   0.00041,  -0.00212,479126528.00000,   0.00052,275205696.00000,  -0.00011,   0.00005,  -0.00043, 224.00000,   2.00000
481518668.04710,285885696.13564,-128916140.21361,   0.00154,   0.00041,  -0.00212,479153408.00000,   0.00053,275221472.00000,  -0.00009,   0.00005,  -0.00045,  64.00000,   2.00000
482539913.01783,287027630.49066,-127904585.35904,   0.00156,   0.00042,  -0.00212,479169792.00000,   0.00055,275237184.00000,  -0.00008,   0.00005,  -0.00046, 160.00000,   2.00000
483544937.45582,288172239.64632,-126896633.14496,   0.00157,   0.00042,  -0.00213,479204256.00000,   0.00056,275252960.00000,  -0.00006,   0.00006,  -0.00048,  96.00000,   2.00000
484533723.86185,289301858.52042,-125894557.48676,   0.00159,   0.00043,  -0.00213,479250272.00000,   0.00057,275268800.00000,  -0.00005,   0.00006,  -0.00049,  32.00000,   2.00000
485501181.97580,290417861.15500,-124902955.44796,   0.00161,   0.00043,  -0.00213,479261440.00000,   0.00059,275284576.00000,  -0.00004,   0.00006,  -0.00051,  96.00000,   2.00000
486448068.58480,291535755.76027,-123919367.67452,   0.00162,   0.00044,  -0.00213,479280224.00000,   0.00060,275300320.00000,  -0.00002,   0.00006,  -0.00052,  96.00000,   2.00000
487374916.49167,292635974.11849,-122946094.41075,   0.00164,   0.00045,  -0.00214,479329536.00000,   0.00062,275316192.00000,  -0.00001,   0.00006,  -0.00054,  32.00000,   2.00000
488285777.61954,293724950.38873,-121978791.23923,   0.00165,   0.00045,  -0.00214,479334944.00000,   0.00063,275331968.00000,   0.00001,   0.00007,  -0.00055, 160.00000,   2.00000
489181584.10720,294813854.84169,-121015163.97823,   0.00167,   0.00046,  -0.00214,479387264.00000,   0.00065,275347872.00000,   0.00002,   0.00007,  -0.00057,  96.00000,   2.00000
490052958.27793,295871431.45443,-120068751.26913,   0.00169,   0.00046,  -0.00214,479392064.00000,   0.00066,275363680.00000,   0.00003,   0.00007,  -0.00058, 128.00000,   2.00000
490905099.70508,296946117.77939,-119128007.71482,   0.00170,   0.00047,  -0.00215,479416928.00000,   0.00068,275379488.00000,   0.00005,   0.00007,  -0.00060, 128.00000,   2.00000
491742532.42434,297989911.66957,-118195957.12315,   0.00172,   0.00047,  -0.00215,479451264.00000,   0.00069,275395360.00000,   0.00006,   0.00007,  -0.00061, 128.00000,   2.00000
492560834.49682,299035425.65587,-117272070.89599,   0.00173,   0.00048,  -0.00215,479467104.00000,   0.00071,275411200.00000,   0.00008,   0.00008,  -0.00063,   0.00000,   2.00000
493360385.70920,300065191.50971,-116359034.56388,   0.00175,   0.00048,  -0.00216,479493696.00000,   0.00072,275427072.00000,   0.00009,   0.00008,  -0.00064,  32.00000,   2.00000
494145535.33629,301081562.76366,-115452444.55372,   0.00177,   0.00049,  -0.00216,479516064.00000,   0.00073,275442912.00000,   0.00011,   0.00008,  -0.00066,  96.00000,   2.00000
494907866.95541,302097422.84762,-114558831.86760,   0.00178,   0.00049,  -0.00216,479535296.00000,   0.00075,275458752.00000,   0.00012,   0.00008,  -0.00067,  64.00000,   2.00000
495660286.49599,303099792.62596,-113667716.82794,   0.00180,   0.00050,  -0.00216,479572864.00000,   0.00076,275474656.00000,   0.00013,   0.00009,  -0.00069,  96.00000,   2.00000
496390168.12917,304086609.05353,-112792075.07287,   0.00181,   0.00050,  -0.00217,479583488.00000,   0.00078,275490528.00000,   0.00015,   0.00009,  -0.00070, -64.00000,   2.00000
497097820.53769,305073188.99805,-111929684.88333,   0.00183,   0.00051,  -0.00217,479602336.00000,   0.00079,275506368.00000,   0.00016,   0.00009,  -0.00072, -32.00000,   2.00000
497795874.74854,306046400.16642,-111070084.66800,   0.00185,   0.00051,  -0.00217,479639648.00000,   0.00081,275522240.00000,   0.00018,   0.00009,  -0.00073, 160.00000,   2.00000
498476094.87897,307006779.66463,-110221447.90650,   0.00186,   0.00052,  -0.00218,479646016.00000,   0.00082,275538080.00000,   0.00019,   0.00010,  -0.00074,  64.00000,   2.00000
499138536.61268,307967005.33285,-109382133.88357,   0.00188,   0.00053,  -0.00218,479680160.00000,   0.00084,275553952.00000,   0.00021,   0.00010,  -0.00076, -64.00000,   2.00000
499780015.99496,308912769.17246,-108558422.46140,   0.00189,   0.00053,  -0.00218,479689856.00000,   0.00085,275569760.00000,   0.00022,   0.00010,  -0.00077,  96.00000,   2.00000
500412476.67402,309845738.76615,-107737556.19287,   0.00191,   0.00054,  -0.00219,479726976.00000,   0.00087,275585664.00000,   0.00024,   0.00010,  -0.00079,   0.00000,   2.00000
501024719.75821,310764982.92498,-106932184.97972,   0.00193,   0.00054,  -0.00219,479736448.00000,   0.00088,275601472.00000,   0.00025,   0.00011,  -0.00080,  96.00000,   2.00000
501620376.27289,311687714.04538,-106135173.57250,   0.00194,   0.00055,  -0.00219,479750560.00000,   0.00090,275617280.00000,   0.00027,   0.00011,  -0.00081,   0.00000,   2.00000
502204122.41809,312596259.57680,-105345559.30283,   0.00196,   0.00055,  -0.00220,479790560.00000,   0.00091,275633120.00000,   0.00028,   0.00011,  -0.00083,  32.00000,   2.00000
502768366.95619,313506800.74500,-104568874.91263,   0.00197,   0.00056,  -0.00220,479808064.00000,   0.00092,275648992.00000,   0.00030,   0.00011,  -0.00084, -32.00000,   2.00000
503318484.37354,314392353.61970,-103804514.76757,   0.00199,   0.00056,  -0.00220,479803744.00000,   0.00094,275664736.00000,   0.00031,   0.00012,  -0.00085, -64.00000,   2.00000
503857527.59447,315282203.75501,-103044172.95607,   0.00200,   0.00057,  -0.00221,479832416.00000,   0.00095,275680480.00000,   0.00033,   0.00012,  -0.00087,  96.00000,   2.00000
504377990.16585,316172033.53314,-102297265.38111,   0.00202,   0.00058,  -0.00221,479868288.00000,   0.00097,275696320.00000,   0.00034,   0.00012,  -0.00088, -32.00000,   2.00000
504889449.54830,317037237.20480,-101558479.26200,   0.00204,   0.00058,  -0.00221,479878720.00000,   0.00098,275712096.00000,   0.00036,   0.00012,  -0.00089, -96.00000,   2.00000
505387270.03895,317908083.44585,-100827199.38915,   0.00205,   0.00059,  -0.00222,479891200.00000,   0.00100,275727840.00000,   0.00037,   0.00013,  -0.00091,  32.00000,   2.00000
505871381.88030,318781628.03154,-100104360.35135,   0.00207,   0.00059,  -0.00222,479922848.00000,   0.00101,275743648.00000,   0.00039,   0.00013,  -0.00092, 128.00000,   2.00000
506340275.02270,319629743.36547,-99397886.30680,   0.00208,   0.00060,  -0.00222,479920640.00000,   0.00103,275759360.00000,   0.00040,   0.00013,  -0.00093, -32.00000,   2.00000
506803228.58544,320482126.75225,-98691225.06588,   0.00210,   0.00061,  -0.00223,479964288.00000,   0.00104,275775136.00000,   0.00042,   0.00014,  -0.00094, 128.00000,   2.00000
507247402.37379,321324795.36779,-98002421.10378,   0.00211,   0.00061,  -0.00223,479955072.00000,   0.00106,275790816.00000,   0.00043,   0.00014,  -0.00096, 128.00000,   2.00000
507685755.33570,322171488.44987,-97313391.44685,   0.00213,   0.00062,  -0.00224,479998784.00000,   0.00107,275806560.00000,   0.00045,   0.00014,  -0.00097,   0.00000,   2.00000
508102353.12623,323006525.85758,-96646993.06999,   0.00214,   0.00062,  -0.00224,479992992.00000,   0.00109,275822240.00000,   0.00046,   0.00014,  -0.00098,  64.00000,   2.00000
508518099.38414,323833172.36862,-95977607.40772,   0.00216,   0.00063,  -0.00224,480024160.00000,   0.00110,275837920.00000,   0.00048,   0.00015,  -0.00100,   0.00000,   2.00000
508915672.21053,324647189.70715,-95327146.15463,   0.00217,   0.00064,  -0.00225,480034336.00000,   0.00111,275853568.00000,   0.00049,   0.00015,  -0.00101,  96.00000,   2.00000
509304791.52112,325466037.44606,-94680144.96573,   0.00219,   0.00064,  -0.00225,480062560.00000,   0.00113,275869248.00000,   0.00051,   0.00015,  -0.00102, 160.00000,   2.00000
509683103.61354,326276190.72498,-94042180.05652,   0.00221,   0.00065,  -0.00226,480066016.00000,   0.00114,275884864.00000,   0.00052,   0.00016,  -0.00103,   0.00000,   2.00000
510044008.31073,327073740.33415,-93423044.87592,   0.00222,   0.00065,  -0.00226,480076064.00000,   0.00116,275900416.00000,   0.00054,   0.00016,  -0.00104,  32.00000,   2.00000
510399934.05945,327874628.25517,-92803756.23867,   0.00224,   0.00066,  -0.00226,480120288.00000,   0.00117,275916064.00000,   0.00055,   0.00016,  -0.00106, 128.00000,   2.00000
510745657.09274,328666783.10955,-92193353.70574,   0.00225,   0.00067,  -0.00227,480123712.00000,   0.00119,275931648.00000,   0.00057,   0.00017,  -0.00107,  96.00000,   2.00000
511077982.17845,329448260.10142,-91596686.46692,   0.00227,   0.00067,  -0.00227,480130368.00000,   0.00120,275947168.00000,   0.00058,   0.00017,  -0.00108, 128.00000,   2.00000
511398752.87916,330231766.18167,-91008129.31047,   0.00228,   0.00068,  -0.00228,480162016.00000,   0.00122,275962752.00000,   0.00060,   0.00017,  -0.00109, -64.00000,   2.00000
511708286.81785,330990728.52696,-90435183.15964,   0.00230,   0.00068,  -0.00228,480158976.00000,   0.00123,275978208.00000,   0.00061,   0.00018,  -0.00111, 128.00000,   2.00000
512008652.38477,331767644.11396,-89863197.73012,   0.00231,   0.00069,  -0.00229,480196736.00000,   0.00124,275993728.00000,   0.00063,   0.00018,  -0.00112,  64.00000,   2.00000
512301073.05480,332518452.72685,-89303198.57620,   0.00233,   0.00070,  -0.00229,480209312.00000,   0.00126,276009248.00000,   0.00064,   0.00018,  -0.00113, 160.00000,   2.00000
512582993.89503,333274406.95781,-88749420.08006,   0.00234,   0.00070,  -0.00229,480221536.00000,   0.00127,276024704.00000,   0.00066,   0.00019,  -0.00114,   0.00000,   2.00000
512856075.04879,334018217.62491,-88205470.62641,   0.00236,   0.00071,  -0.00230,480243104.00000,   0.00129,276040160.00000,   0.00067,   0.00019,  -0.00115, 128.00000,   2.00000
513117142.22275,334751131.65077,-87674509.38516,   0.00237,   0.00071,  -0.00230,480248672.00000,   0.00130,276055552.00000,   0.00069,   0.00019,  -0.00116,  64.00000,   2.00000
513365247.01455,335487168.92438,-87154489.88962,   0.00239,   0.00072,  -0.00231,480263360.00000,   0.00132,276070944.00000,   0.00070,   0.00020,  -0.00117,  64.00000,   2.00000
513608354.54562,336212785.28783,-86638957.71955,   0.00240,   0.00073,  -0.00231,480281248.00000,   0.00133,276086304.00000,   0.00072,   0.00020,  -0.00119, 192.00000,   2.00000
513843245.27596,336926012.68604,-86132880.97052,   0.00242,   0.00073,  -0.00232,480301888.00000,   0.00134,276101664.00000,   0.00074,   0.00020,  -0.00120,  96.00000,   2.00000
514065818.36418,337645844.52481,-85635737.43596,   0.00243,   0.00074,  -0.00232,480297088.00000,   0.00136,276116928.00000,   0.00075,   0.00021,  -0.00121, 256.00000,   2.00000
514280242.42657,338349827.19026,-85149696.13122,   0.00245,   0.00075,  -0.00233,480336224.00000,   0.00137,276132288.00000,   0.00077,   0.00021,  -0.00122, 256.00000,   2.00000
514490498.80125,339047482.92998,-84666074.72557,   0.00246,   0.00075,  -0.00233,480334208.00000,   0.00139,276147520.00000,   0.00078,   0.00021,  -0.00123, 256.00000,   2.00000
514685124.39289,339746865.80339,-84197965.06790,   0.00247,   0.00076,  -0.00234,480350720.00000,   0.00140,276162784.00000,   0.00080,   0.00022,  -0.00124,  96.00000,   2.00000
514877463.90497,340423571.39887,-83735866.95002,   0.00249,   0.00077,  -0.00234,480357280.00000,   0.00142,276177984.00000,   0.00081,   0.00022,  -0.00125, 160.00000,   2.00000
515057814.77537,341105144.58045,-83284014.96530,   0.00250,   0.00077,  -0.00235,480369920.00000,   0.00143,276193152.00000,   0.00083,   0.00022,  -0.00126, 160.00000,   2.00000
515229042.07028,341790143.72829,-82839021.94375,   0.00252,   0.00078,  -0.00235,480398336.00000,   0.00144,276208384.00000,   0.00084,   0.00023,  -0.00127, 192.00000,   2.00000
515393511.96444,342469401.54092,-82400761.87372,   0.00253,   0.00079,  -0.00236,480397504.00000,   0.00146,276223520.00000,   0.00086,   0.00023,  -0.00129,  96.00000,   2.00000
515548328.56198,343141690.88237,-81974039.77002,   0.00255,   0.00079,  -0.00236,480399104.00000,   0.00147,276238624.00000,   0.00087,   0.00024,  -0.00130,  64.00000,   2.00000
515696837.19830,343805921.85647,-81555376.38420,   0.00256,   0.00080,  -0.00237,480415968.00000,   0.00149,276253728.00000,   0.00089,   0.00024,  -0.00131, 224.00000,   2.00000
515839342.79000,344466364.35683,-81142448.39089,   0.00258,   0.00080,  -0.00237,480413440.00000,   0.00150,276268736.00000,   0.00090,   0.00024,  -0.00132, 256.00000,   2.00000
515973814.29527,345133123.85991,-80734907.49660,   0.00259,   0.00081,  -0.00238,480438592.00000,   0.00151,276283808.00000,   0.00092,   0.00025,  -0.00133,  96.00000,   2.00000
516099912.03998,345795230.25989,-80337683.72677,   0.00260,   0.00082,  -0.00238,480437472.00000,   0.00153,276298848.00000,   0.00093,   0.00025,  -0.00134,  96.00000,   2.00000
516221622.53107,346466390.33543,-79940484.24655,   0.00262,   0.00082,  -0.00239,480458400.00000,   0.00154,276313888.00000,   0.00095,   0.00025,  -0.00135, 160.00000,   2.00000
516329434.96437,347133704.74569,-79561727.89323,   0.00263,   0.00083,  -0.00239,480443264.00000,   0.00156,276328832.00000,   0.00096,   0.00026,  -0.00136,  32.00000,   2.00000
516438522.80543,347796466.61414,-79181226.04397,   0.00265,   0.00084,  -0.00240,480469056.00000,   0.00157,276343840.00000,   0.00098,   0.00026,  -0.00137, 128.00000,   2.00000
516541148.98902,348462383.88544,-78806980.45885,   0.00266,   0.00084,  -0.00241,480447264.00000,   0.00158,276358720.00000,   0.00099,   0.00027,  -0.00138, 192.00000,   2.00000
516639535.04319,349143538.38658,-78432223.01235,   0.00268,   0.00085,  -0.00241,480468096.00000,   0.00160,276373664.00000,   0.00101,   0.00027,  -0.00139, 256.00000,   2.00000
516734994.10520,349829436.06508,-78060103.93550,   0.00269,   0.00086,  -0.00242,480479392.00000,   0.00161,276388640.00000,   0.00102,   0.00027,  -0.00140, 480.00000,   2.00000
516830780.45617,350529992.97142,-77680761.55129,   0.00270,   0.00086,  -0.00242,480448960.00000,   0.00163,276403520.00000,   0.00103,   0.00028,  -0.00141, 704.00000,   2.00000
516922024.33821,351233964.36033,-77305244.23057,   0.00272,   0.00087,  -0.00243,480454208.00000,   0.00164,276418464.00000,   0.00105,   0.00028,  -0.00142, 768.00000,   2.00000
517007213.16005,351947793.62981,-76930642.90342,   0.00273,   0.00088,  -0.00243,480461696.00000,   0.00165,276433408.00000,   0.00106,   0.00029,  -0.00143, 896.00000,   2.00000
517074404.31736,352646460.73449,-76581573.46732,   0.00274,   0.00089,  -0.00244,480434176.00000,   0.00167,276448224.00000,   0.00108,   0.00029,  -0.00144, 832.00000,   2.00000
517129641.50423,353319919.69541,-76253331.62372,   0.00276,   0.00089,  -0.00245,480437152.00000,   0.00168,276462976.00000,   0.00109,   0.00029,  -0.00145, 608.00000,   2.00000
517165562.01949,353975630.91045,-75955784.33909,   0.00277,   0.00090,  -0.00245,480458944.00000,   0.00170,276477728.00000,   0.00111,   0.00030,  -0.00146, 448.00000,   2.00000
517188534.16511,354612349.38009,-75682237.65794,   0.00279,   0.00091,  -0.00246,480440512.00000,   0.00171,276492320.00000,   0.00112,   0.00030,  -0.00147, 384.00000,   2.00000
517206029.13507,355228919.95122,-75423740.83807,   0.00280,   0.00091,  -0.00246,480455840.00000,   0.00172,276506880.00000,   0.00114,   0.00030,  -0.00148, 128.00000,   2.00000
517209414.16343,355841079.40240,-75187759.35997,   0.00281,   0.00092,  -0.00247,480473760.00000,   0.00174,276521376.00000,   0.00115,   0.00031,  -0.00149, 224.00000,   2.00000
517213361.21968,356427574.61475,-74961043.89845,   0.00283,   0.00093,  -0.00248,480484992.00000,   0.00175,276535808.00000,   0.00117,   0.00031,  -0.00150,  96.00000,   2.00000
517208107.20890,357017027.06382,-74745672.21754,   0.00284,   0.00093,  -0.00248,480504480.00000,   0.00176,276550240.00000,   0.00118,   0.00032,  -0.00151, 160.00000,   2.00000
517194015.65423,357611007.53572,-74539661.20628,   0.00285,   0.00094,  -0.00249,480525024.00000,   0.00178,276564608.00000,   0.00120,   0.00032,  -0.00152, 224.00000,   2.00000
517179313.80618,358187332.16245,-74339441.84689,   0.00287,   0.00095,  -0.00250,480523328.00000,   0.00179,276578880.00000,   0.00121,   0.00033,  -0.00153, 192.00000,   2.00000
517158720.98266,358767736.95522,-74143445.05799,   0.00288,   0.00095,  -0.00250,480559136.00000,   0.00180,276593216.00000,   0.00123,   0.00033,  -0.00154, 160.00000,   2.00000
517132513.80535,359343066.09103,-73955114.02791,   0.00289,   0.00096,  -0.00251,480568704.00000,   0.00182,276607488.00000,   0.00124,   0.00033,  -0.00155,  96.00000,   2.00000
517098088.24641,359926361.21693,-73772261.33719,   0.00291,   0.00097,  -0.00252,480587328.00000,   0.00183,276621760.00000,   0.00125,   0.00034,  -0.00156,   0.00000,   2.00000
517064038.80456,360494904.34196,-73592733.55294,   0.00292,   0.00098,  -0.00252,480582368.00000,   0.00184,276635904.00000,   0.00127,   0.00034,  -0.00157,  96.00000,   2.00000
517024856.39918,361069544.42007,-73415574.62635,   0.00293,   0.00098,  -0.00253,480614816.00000,   0.00186,276650112.00000,   0.00128,   0.00035,  -0.00157, 192.00000,   2.00000
516977978.03077,361653083.61027,-73243316.48065,   0.00294,   0.00099,  -0.00254,480630912.00000,   0.00187,276664288.00000,   0.00130,   0.00035,  -0.00158,  64.00000,   2.00000
516931905.15528,362222550.72892,-73074200.31324,   0.00296,   0.00100,  -0.00254,480623392.00000,   0.00188,276678400.00000,   0.00131,   0.00036,  -0.00159, 256.00000,   2.00000
516878249.10822,362801107.64851,-72910045.91124,   0.00297,   0.00100,  -0.00255,480638080.00000,   0.00190,276692480.00000,   0.00133,   0.00036,  -0.00160, 224.00000,   2.00000
516822691.23553,363373609.97780,-72750045.06058,   0.00298,   0.00101,  -0.00256,480657696.00000,   0.00191,276706560.00000,   0.00134,   0.00037,  -0.00161, 192.00000,   2.00000
516762355.05117,363942684.45901,-72596968.45078,   0.00300,   0.00102,  -0.00256,480661344.00000,   0.00192,276720608.00000,   0.00135,   0.00037,  -0.00162, 160.00000,   2.00000
516697498.60796,364522691.15200,-72443909.99567,   0.00301,   0.00103,  -0.00257,480672224.00000,   0.00194,276734624.00000,   0.00137,   0.00038,  -0.00163, 128.00000,   2.00000
516627831.00745,365099052.68925,-72298003.61660,   0.00302,   0.00103,  -0.00258,480675136.00000,   0.00195,276748576.00000,   0.00138,   0.00038,  -0.00164,  96.00000,   2.00000
516553514.71170,365671827.10337,-72159407.21968,   0.00303,   0.00104,  -0.00258,480677888.00000,   0.00196,276762496.00000,   0.00140,   0.00038,  -0.00165, 160.00000,   2.00000
516479865.61564,366239881.62759,-72020224.21946,   0.00305,   0.00105,  -0.00259,480693536.00000,   0.00197,276776384.00000,   0.00141,   0.00039,  -0.00165,  64.00000,   2.00000
516393129.44243,366817488.95345,-71894738.36972,   0.00306,   0.00106,  -0.00260,480692960.00000,   0.00199,276790240.00000,   0.00142,   0.00039,  -0.00166,  96.00000,   2.00000
516307164.06907,367390178.59858,-71768875.06895,   0.00307,   0.00106,  -0.00261,480708224.00000,   0.00200,276804096.00000,   0.00144,   0.00040,  -0.00167,  96.00000,   2.00000
516221827.30795,367957839.50365,-71642714.96593,   0.00308,   0.00107,  -0.00261,480723616.00000,   0.00201,276817920.00000,   0.00145,   0.00040,  -0.00168, 192.00000,   2.00000
516126007.58708,368522435.41916,-71532300.09805,   0.00310,   0.00108,  -0.00262,480712256.00000,   0.00203,276831648.00000,   0.00147,   0.00041,  -0.00169, 224.00000,   2.00000
516025243.07745,369097026.96137,-71422633.13740,   0.00311,   0.00108,  -0.00263,480722112.00000,   0.00204,276845376.00000,   0.00148,   0.00041,  -0.00170, 192.00000,   2.00000
515922211.99954,369664358.05088,-71318089.43091,   0.00312,   0.00109,  -0.00264,480739552.00000,   0.00205,276859072.00000,   0.00149,   0.00042,  -0.00171, 160.00000,   2.00000
515814223.24637,370227394.61582,-71221454.59379,   0.00313,   0.00110,  -0.00264,480741120.00000,   0.00207,276872736.00000,   0.00151,   0.00042,  -0.00172,  96.00000,   2.00000
515701278.61037,370790934.32271,-71130246.05583,   0.00314,   0.00111,  -0.00265,480724544.00000,   0.00208,276886272.00000,   0.00152,   0.00043,  -0.00173, 288.00000,   2.00000
515583112.91672,371359201.64775,-71042405.47618,   0.00316,   0.00111,  -0.00266,480752128.00000,   0.00209,276899872.00000,   0.00153,   0.00043,  -0.00173,  64.00000,   2.00000
515463027.19629,371920198.24312,-70959847.02530,   0.00317,   0.00112,  -0.00267,480769056.00000,   0.00210,276913472.00000,   0.00155,   0.00043,  -0.00174, 224.00000,   2.00000
515337505.13068,372481338.82494,-70882697.07151,   0.00318,   0.00113,  -0.00267,480752544.00000,   0.00212,276926944.00000,   0.00156,   0.00044,  -0.00175, 128.00000,   2.00000
515207307.58132,373038227.36796,-70813572.73690,   0.00319,   0.00114,  -0.00268,480753536.00000,   0.00213,276940352.00000,   0.00157,   0.00044,  -0.00176, 192.00000,   2.00000
515071833.48435,373599554.08275,-70747804.81169,   0.00320,   0.00114,  -0.00269,480780928.00000,   0.00214,276953824.00000,   0.00159,   0.00045,  -0.00177,  64.00000,   2.00000
514928519.96547,374159360.88205,-70692703.17564,   0.00321,   0.00115,  -0.00270,480766368.00000,   0.00215,276967168.00000,   0.00160,   0.00045,  -0.00178, 160.00000,   2.00000
514785956.10537,374713520.79908,-70637556.46613,   0.00323,   0.00116,  -0.00271,480780512.00000,   0.00217,276980512.00000,   0.00161,   0.00046,  -0.00179,  96.00000,   2.00000
514635803.69943,375261396.16765,-70595562.73941,   0.00324,   0.00117,  -0.00271,480783840.00000,   0.00218,276993824.00000,   0.00163,   0.00046,  -0.00180, 128.00000,   2.00000
514483047.42984,375820405.45747,-70549064.14840,   0.00325,   0.00117,  -0.00272,480790688.00000,   0.00219,277007104.00000,   0.00164,   0.00047,  -0.00180,  96.00000,   2.00000
514325672.07717,376361113.51551,-70517512.04222,   0.00326,   0.00118,  -0.00273,480783232.00000,   0.00220,277020288.00000,   0.00165,   0.00047,  -0.00181, 192.00000,   2.00000
514163044.66926,376911183.92252,-70486630.99818,   0.00327,   0.00119,  -0.00274,480792192.00000,   0.00222,277033472.00000,   0.00167,   0.00048,  -0.00182,  32.00000,   2.00000
513992560.33038,377468695.10044,-70461652.61879,   0.00328,   0.00120,  -0.00275,480803520.00000,   0.00223,277046624.00000,   0.00168,   0.00048,  -0.00183, 224.00000,   2.00000
513820188.24955,378009799.34940,-70446239.45414,   0.00329,   0.00121,  -0.00275,480793696.00000,   0.00224,277059680.00000,   0.00169,   0.00049,  -0.00184, 192.00000,   2.00000
513645674.27702,378557140.08335,-70428677.95139,   0.00331,   0.00121,  -0.00276,480817952.00000,   0.00225,277072800.00000,   0.00171,   0.00049,  -0.00185, 128.00000,   2.00000
513463207.07802,379103163.97508,-70421475.52677,   0.00332,   0.00122,  -0.00277,480803104.00000,   0.00227,277085792.00000,   0.00172,   0.00050,  -0.00186, 160.00000,   2.00000
513275882.82639,379644794.36597,-70421860.59443,   0.00333,   0.00123,  -0.00278,480803584.00000,   0.00228,277098720.00000,   0.00173,   0.00050,  -0.00186, 128.00000,   2.00000
513089567.68165,380180867.21544,-70421859.58005,   0.00334,   0.00124,  -0.00279,480817056.00000,   0.00229,277111680.00000,   0.00174,   0.00051,  -0.00187, 160.00000,   2.00000
512889490.08649,380725656.74824,-70435459.91174,   0.00335,   0.00124,  -0.00280,480815360.00000,   0.00230,277124544.00000,   0.00176,   0.00051,  -0.00188, 224.00000,   2.00000
512693168.42031,381266735.30231,-70443359.42338,   0.00336,   0.00125,  -0.00280,480826208.00000,   0.00231,277137440.00000,   0.00177,   0.00052,  -0.00189, 256.00000,   2.00000
512488995.64565,381801430.19248,-70463953.80330,   0.00337,   0.00126,  -0.00281,480829248.00000,   0.00233,277150272.00000,   0.00178,   0.00052,  -0.00190,   0.00000,   2.00000
512279916.87899,382337307.10318,-70489535.50142,   0.00338,   0.00127,  -0.00282,480811328.00000,   0.00234,277162976.00000,   0.00180,   0.00053,  -0.00191, 160.00000,   2.00000
512069089.69636,382865733.34650,-70519841.14905,   0.00339,   0.00128,  -0.00283,480827104.00000,   0.00235,277175680.00000,   0.00181,   0.00053,  -0.00191, 192.00000,   2.00000
511850003.97229,383401475.76780,-70555652.01381,   0.00340,   0.00128,  -0.00284,480838176.00000,   0.00236,277188384.00000,   0.00182,   0.00054,  -0.00192, 160.00000,   2.00000
511625672.43874,383938334.36024,-70596403.35173,   0.00341,   0.00129,  -0.00285,480820448.00000,   0.00237,277200992.00000,   0.00183,   0.00054,  -0.00193, 192.00000,   2.00000
511399656.05061,384467800.94990,-70641899.28301,   0.00342,   0.00130,  -0.00286,480835968.00000,   0.00239,277213600.00000,   0.00185,   0.00055,  -0.00194,  64.00000,   2.00000
511168611.42467,384993175.32812,-70694863.09927,   0.00343,   0.00131,  -0.00287,480836160.00000,   0.00240,277226144.00000,   0.00186,   0.00055,  -0.00195, 192.00000,   2.00000
510928858.93431,385531301.78470,-70750883.44918,   0.00344,   0.00131,  -0.00288,480829184.00000,   0.00241,277238624.00000,   0.00187,   0.00056,  -0.00196,  96.00000,   2.00000
510687794.46813,386048621.14443,-70818872.45446,   0.00345,   0.00132,  -0.00288,480836096.00000,   0.00242,277251072.00000,   0.00188,   0.00056,  -0.00196, 128.00000,   2.00000
510443895.81389,386577418.59878,-70882005.00565,   0.00346,   0.00133,  -0.00289,480841952.00000,   0.00243,277263520.00000,   0.00189,   0.00057,  -0.00197, 128.00000,   2.00000
510188892.28328,387103729.09904,-70960717.75469,   0.00347,   0.00134,  -0.00290,480828896.00000,   0.00245,277275840.00000,   0.00191,   0.00057,  -0.00198,  96.00000,   2.00000
509934863.26031,387624824.72420,-71039100.57070,   0.00348,   0.00135,  -0.00291,480841632.00000,   0.00246,277288160.00000,   0.00192,   0.00058,  -0.00199, 224.00000,   2.00000
509672305.50369,388153419.11750,-71123194.24343,   0.00349,   0.00135,  -0.00292,480852448.00000,   0.00247,277300480.00000,   0.00193,   0.00058,  -0.00200, 224.00000,   2.00000
509407198.42458,388672245.32480,-71214394.54889,   0.00350,   0.00136,  -0.00293,480823392.00000,   0.00248,277312672.00000,   0.00194,   0.00059,  -0.00200, 160.00000,   2.00000
509137072.56539,389195374.81712,-71308637.89027,   0.00351,   0.00137,  -0.00294,480849440.00000,   0.00249,277324864.00000,   0.00195,   0.00059,  -0.00201, 192.00000,   2.00000
508861780.53339,389714855.41568,-71410583.20002,   0.00352,   0.00138,  -0.00295,480849280.00000,   0.00250,277337024.00000,   0.00197,   0.00060,  -0.00202, 256.00000,   2.00000
508580494.52971,390236053.75978,-71517660.84288,   0.00353,   0.00139,  -0.00296,480831232.00000,   0.00251,277349088.00000,   0.00198,   0.00060,  -0.00203, 192.00000,   2.00000
508287956.23968,390762878.03943,-71635645.32000,   0.00354,   0.00139,  -0.00297,480844544.00000,   0.00253,277361152.00000,   0.00199,   0.00061,  -0.00204, 224.00000,   2.00000
508002583.39825,391275461.50625,-71749953.26885,   0.00355,   0.00140,  -0.00298,480843520.00000,   0.00254,277373152.00000,   0.00200,   0.00061,  -0.00204, 224.00000,   2.00000
507702470.06523,391797153.27355,-71877733.75055,   0.00356,   0.00141,  -0.00299,480841728.00000,   0.00255,277385088.00000,   0.00201,   0.00062,  -0.00205,  32.00000,   2.00000
507399989.45479,392317267.26373,-72007635.70861,   0.00357,   0.00142,  -0.00300,480839072.00000,   0.00256,277396992.00000,   0.00202,   0.00062,  -0.00206,   0.00000,   2.00000
507098913.23814,392832508.01784,-72136859.53971,   0.00358,   0.00143,  -0.00301,480851776.00000,   0.00257,277408896.00000,   0.00204,   0.00063,  -0.00207, 192.00000,   2.00000
506786384.90811,393345599.49806,-72281143.12195,   0.00359,   0.00143,  -0.00302,480839200.00000,   0.00258,277420672.00000,   0.00205,   0.00063,  -0.00208,  32.00000,   2.00000
506471799.96587,393857317.71792,-72427178.40918,   0.00359,   0.00144,  -0.00303,480836736.00000,   0.00259,277432448.00000,   0.00206,   0.00064,  -0.00208,  96.00000,   2.00000
506151362.86799,394378375.47969,-72572752.87451,   0.00360,   0.00145,  -0.00304,480845728.00000,   0.00261,277444160.00000,   0.00207,   0.00064,  -0.00209, -64.00000,   2.00000
505827074.77494,394883060.02906,-72732293.16259,   0.00361,   0.00146,  -0.00305,480837280.00000,   0.00262,277455808.00000,   0.00208,   0.00065,  -0.00210, 224.00000,   2.00000
505499655.90480,395399043.05229,-72885824.24322,   0.00362,   0.00147,  -0.00306,480843936.00000,   0.00263,277467456.00000,   0.00209,   0.00065,  -0.00211, 160.00000,   2.00000
505164643.88281,395909360.19397,-73050965.36014,   0.00363,   0.00148,  -0.00307,480846976.00000,   0.00264,277479040.00000,   0.00210,   0.00066,  -0.00212, 128.00000,   2.00000
504823920.74193,396421716.97034,-73219881.46406,   0.00364,   0.00148,  -0.00308,480829664.00000,   0.00265,277490560.00000,   0.00211,   0.00066,  -0.00212, 128.00000,   2.00000
504482067.54422,396926878.70407,-73392177.37550,   0.00365,   0.00149,  -0.00309,480845312.00000,   0.00266,277502048.00000,   0.00213,   0.00067,  -0.00213, 224.00000,   2.00000
504130683.23035,397444755.13374,-73565958.50448,   0.00365,   0.00150,  -0.00310,480839392.00000,   0.00267,277513504.00000,   0.00214,   0.00067,  -0.00214, 160.00000,   2.00000
503781679.67833,397944522.97096,-73745003.16862,   0.00366,   0.00151,  -0.00311,480843680.00000,   0.00268,277524896.00000,   0.00215,   0.00068,  -0.00215, 192.00000,   2.00000
503420499.54141,398455090.29906,-73930621.94145,   0.00367,   0.00152,  -0.00312,480840192.00000,   0.00269,277536256.00000,   0.00216,   0.00068,  -0.00216,  64.00000,   2.00000
503057145.79582,398964053.98164,-74116850.44812,   0.00368,   0.00152,  -0.00313,480837888.00000,   0.00270,277547552.00000,   0.00217,   0.00069,  -0.00216, 192.00000,   2.00000
502688839.35868,399469361.02997,-74308866.66525,   0.00369,   0.00153,  -0.00314,480838400.00000,   0.00271,277558816.00000,   0.00218,   0.00070,  -0.00217, 160.00000,   2.00000
502318273.77558,399973119.80782,-74501439.48730,   0.00370,   0.00154,  -0.00315,480836032.00000,   0.00272,277570048.00000,   0.00219,   0.00070,  -0.00218, 128.00000,   2.00000
501942738.97793,400473326.68759,-74699774.37044,   0.00370,   0.00155,  -0.00316,480836160.00000,   0.00274,277581216.00000,   0.00220,   0.00071,  -0.00219,  96.00000,   2.00000
501558233.10448,400973609.05880,-74906623.87049,   0.00371,   0.00156,  -0.00317,480821344.00000,   0.00275,277592288.00000,   0.00221,   0.00071,  -0.00219, 160.00000,   2.00000
501171510.61656,401479197.37402,-75109008.39084,   0.00372,   0.00157,  -0.00318,480845440.00000,   0.00276,277603424.00000,   0.00222,   0.00072,  -0.00220,  64.00000,   2.00000
500779498.32903,401974443.97314,-75322104.63035,   0.00373,   0.00157,  -0.00319,480818688.00000,   0.00277,277614432.00000,   0.00223,   0.00072,  -0.00221,  64.00000,   2.00000
500385445.61052,402475153.77588,-75530756.21969,   0.00373,   0.00158,  -0.00320,480842624.00000,   0.00278,277625472.00000,   0.00224,   0.00073,  -0.00222, 160.00000,   2.00000
499982050.32364,402975893.37509,-75747943.23983,   0.00374,   0.00159,  -0.00321,480827616.00000,   0.00279,277636416.00000,   0.00225,   0.00073,  -0.00223, -32.00000,   2.00000
499576190.15825,403475219.69853,-75965675.02219,   0.00375,   0.00160,  -0.00322,480824800.00000,   0.00280,277647296.00000,   0.00226,   0.00074,  -0.00223,  64.00000,   2.00000
499164782.93610,403964410.51172,-76194200.16135,   0.00376,   0.00161,  -0.00323,480797856.00000,   0.00281,277658080.00000,   0.00227,   0.00074,  -0.00224,  32.00000,   2.00000
498744831.36698,404467210.88162,-76421194.00297,   0.00376,   0.00162,  -0.00324,480836032.00000,   0.00282,277668928.00000,   0.00228,   0.00075,  -0.00225, 224.00000,   2.00000
498325897.82897,404958122.66659,-76650939.08812,   0.00377,   0.00162,  -0.00325,480821664.00000,   0.00283,277679712.00000,   0.00229,   0.00075,  -0.00226,  96.00000,   2.00000
497897420.25057,405449250.34295,-76889278.64737,   0.00378,   0.00163,  -0.00326,480806496.00000,   0.00284,277690368.00000,   0.00230,   0.00076,  -0.00226, 192.00000,   2.00000
497466292.23536,405939016.22801,-77128171.12315,   0.00378,   0.00164,  -0.00327,480803616.00000,   0.00285,277701024.00000,   0.00231,   0.00076,  -0.00227,  64.00000,   2.00000
497026135.77220,406435605.42884,-77370571.35600,   0.00379,   0.00165,  -0.00329,480815008.00000,   0.00286,277711648.00000,   0.00232,   0.00077,  -0.00228, 224.00000,   2.00000
496586981.63323,406920510.82640,-77615791.57173,   0.00380,   0.00166,  -0.00330,480800544.00000,   0.00287,277722208.00000,   0.00233,   0.00077,  -0.00229,  64.00000,   2.00000
496138607.31911,407412086.07705,-77864481.82551,   0.00380,   0.00167,  -0.00331,480812160.00000,   0.00288,277732768.00000,   0.00234,   0.00078,  -0.00230, 160.00000,   2.00000
495682930.40456,407905797.22926,-78116586.37667,   0.00381,   0.00167,  -0.00332,480794528.00000,   0.00289,277743200.00000,   0.00235,   0.00078,  -0.00230, -96.00000,   2.00000
495226470.41632,408392403.51752,-78371595.59781,   0.00382,   0.00168,  -0.00333,480808992.00000,   0.00290,277753696.00000,   0.00236,   0.00079,  -0.00231, 128.00000,   2.00000
494763353.11823,408868696.83728,-78637448.24837,   0.00382,   0.00169,  -0.00334,480782656.00000,   0.00291,277764032.00000,   0.00237,   0.00079,  -0.00232, -64.00000,   2.00000
494293960.31152,409353943.87665,-78901582.08341,   0.00383,   0.00170,  -0.00335,480791552.00000,   0.00292,277774368.00000,   0.00238,   0.00080,  -0.00233,  96.00000,   2.00000
493821593.62271,409837632.93307,-79166252.90783,   0.00384,   0.00171,  -0.00336,480788896.00000,   0.00293,277784640.00000,   0.00239,   0.00081,  -0.00233,  96.00000,   2.00000
493338925.36152,410321302.48921,-79439534.85029,   0.00384,   0.00172,  -0.00337,480774272.00000,   0.00294,277794848.00000,   0.00240,   0.00081,  -0.00234,  96.00000,   2.00000
492851435.33112,410807497.88870,-79713230.71971,   0.00385,   0.00172,  -0.00339,480800992.00000,   0.00295,277805120.00000,   0.00241,   0.00082,  -0.00235,   0.00000,   2.00000
492359979.79990,411285779.24221,-79992722.31312,   0.00385,   0.00173,  -0.00340,480771968.00000,   0.00296,277815232.00000,   0.00242,   0.00082,  -0.00236,   0.00000,   2.00000
491865714.52140,411762693.89220,-80272788.11293,   0.00386,   0.00174,  -0.00341,480769408.00000,   0.00297,277825312.00000,   0.00242,   0.00083,  -0.00236,   0.00000,   2.00000
491365489.24585,412235714.82331,-80558511.22502,   0.00387,   0.00175,  -0.00342,480769824.00000,   0.00298,277835360.00000,   0.00243,   0.00083,  -0.00237,  96.00000,   2.00000
490855730.12495,412714865.31158,-80847513.33588,   0.00387,   0.00176,  -0.00343,480782144.00000,   0.00299,277845408.00000,   0.00244,   0.00084,  -0.00238, 192.00000,   2.00000
490341693.02095,413186173.15170,-81142365.83123,   0.00388,   0.00177,  -0.00344,480753344.00000,   0.00300,277855296.00000,   0.00245,   0.00084,  -0.00239, 256.00000,   2.00000
489824454.47639,413655879.08341,-81437733.55420,   0.00388,   0.00177,  -0.00345,480751072.00000,   0.00301,277865184.00000,   0.00246,   0.00085,  -0.00239, 128.00000,   2.00000
489297554.30670,414131573.58242,-81736342.65234,   0.00389,   0.00178,  -0.00346,480763552.00000,   0.00301,277875040.00000,   0.00247,   0.00085,  -0.00240, 192.00000,   2.00000
488771019.22452,414595710.32049,-82037890.81153,   0.00389,   0.00179,  -0.00348,480749472.00000,   0.00302,277884832.00000,   0.00248,   0.00086,  -0.00241,   0.00000,   2.00000
488234680.32051,415065721.01179,-82342643.78209,   0.00390,   0.00180,  -0.00349,480762272.00000,   0.00303,277894624.00000,   0.00249,   0.00086,  -0.00242,   0.00000,   2.00000
487693802.45076,415528155.34689,-82653383.28645,   0.00390,   0.00181,  -0.00350,480733568.00000,   0.00304,277904288.00000,   0.00249,   0.00087,  -0.00243,  96.00000,   2.00000
487147994.73881,415992545.71806,-82964285.54490,   0.00391,   0.00182,  -0.00351,480761088.00000,   0.00305,277914016.00000,   0.00250,   0.00087,  -0.00243,  96.00000,   2.00000
486593548.70265,416458929.15101,-83278690.82723,   0.00391,   0.00182,  -0.00352,480744768.00000,   0.00306,277923648.00000,   0.00251,   0.00088,  -0.00244,  32.00000,   2.00000
486031459.65756,416915468.64436,-83604248.46053,   0.00392,   0.00183,  -0.00353,480718944.00000,   0.00307,277933152.00000,   0.00252,   0.00088,  -0.00245, 128.00000,   2.00000
485467250.63454,417376227.98358,-83924794.60520,   0.00392,   0.00184,  -0.00355,480743936.00000,   0.00308,277942720.00000,   0.00253,   0.00089,  -0.00246,  96.00000,   2.00000
484897976.78672,417829547.77827,-84251432.59279,   0.00393,   0.00185,  -0.00356,480715328.00000,   0.00309,277952128.00000,   0.00254,   0.00089,  -0.00246, 160.00000,   2.00000
484318403.37479,418288396.58233,-84581155.50055,   0.00393,   0.00186,  -0.00357,480728672.00000,   0.00310,277961568.00000,   0.00254,   0.00090,  -0.00247, 192.00000,   2.00000
483732027.79237,418742985.53904,-84916441.19982,   0.00394,   0.00187,  -0.00358,480729888.00000,   0.00311,277970976.00000,   0.00255,   0.00091,  -0.00248, 160.00000,   2.00000
483148802.12413,419189181.77564,-85249804.27219,   0.00394,   0.00188,  -0.00359,480712896.00000,   0.00312,277980288.00000,   0.00256,   0.00091,  -0.00249,  64.00000,   2.00000
482549532.17453,419644487.94158,-85589222.06504,   0.00395,   0.00188,  -0.00361,480711872.00000,   0.00312,277989536.00000,   0.00257,   0.00092,  -0.00249,  64.00000,   2.00000
481952614.72481,420082550.09514,-85933766.28417,   0.00395,   0.00189,  -0.00362,480715296.00000,   0.00313,277998784.00000,   0.00258,   0.00092,  -0.00250,  96.00000,   2.00000
481342613.50593,420532416.52040,-86279291.60674,   0.00395,   0.00190,  -0.00363,480711360.00000,   0.00314,278008000.00000,   0.00258,   0.00093,  -0.00251,  96.00000,   2.00000
480726580.55460,420975005.61389,-86630933.56486,   0.00396,   0.00191,  -0.00364,480682880.00000,   0.00315,278017056.00000,   0.00259,   0.00093,  -0.00251,   0.00000,   2.00000
480105515.16942,421419406.48181,-86982441.26822,   0.00396,   0.00192,  -0.00365,480710656.00000,   0.00316,278026208.00000,   0.00260,   0.00094,  -0.00252,  64.00000,   2.00000
479478241.33406,421856725.37358,-87340040.74482,   0.00397,   0.00193,  -0.00367,480682112.00000,   0.00317,278035200.00000,   0.00261,   0.00094,  -0.00253,  32.00000,   2.00000
478843164.97062,422302193.90074,-87695408.35937,   0.00397,   0.00193,  -0.00368,480692352.00000,   0.00318,278044192.00000,   0.00261,   0.00095,  -0.00254, 192.00000,   2.00000
478204319.47476,422734370.70502,-88058736.04197,   0.00397,   0.00194,  -0.00369,480681120.00000,   0.00318,278053152.00000,   0.00262,   0.00095,  -0.00254, 128.00000,   2.00000
477557336.65210,423174619.83524,-88419605.31677,   0.00398,   0.00195,  -0.00370,480691136.00000,   0.00319,278062080.00000,   0.00263,   0.00096,  -0.00255, -64.00000,   2.00000
476900797.11059,423605670.24166,-88791356.23439,   0.00398,   0.00196,  -0.00371,480665152.00000,   0.00320,278070912.00000,   0.00264,   0.00096,  -0.00256,  64.00000,   2.00000
476239587.01669,424035668.56467,-89163007.42122,   0.00398,   0.00197,  -0.00373,480662592.00000,   0.00321,278079680.00000,   0.00264,   0.00097,  -0.00257, -64.00000,   2.00000
475570254.96337,424474156.24653,-89531783.70730,   0.00399,   0.00198,  -0.00374,480672256.00000,   0.00322,278088480.00000,   0.00265,   0.00097,  -0.00257, 160.00000,   2.00000
474896788.92933,424899984.63918,-89907820.19539,   0.00399,   0.00198,  -0.00375,480660128.00000,   0.00323,278097216.00000,   0.00266,   0.00098,  -0.00258, 128.00000,   2.00000
474212549.92258,425328976.02116,-90286258.92405,   0.00399,   0.00199,  -0.00376,480642752.00000,   0.00324,278105856.00000,   0.00267,   0.00098,  -0.00259,  32.00000,   2.00000
473523493.22137,425757600.96705,-90663748.44436,   0.00400,   0.00200,  -0.00377,480639424.00000,   0.00324,278114464.00000,   0.00267,   0.00099,  -0.00260, -32.00000,   2.00000
472826574.75319,426183410.44244,-91044988.78388,   0.00400,   0.00201,  -0.00379,480638912.00000,   0.00325,278123040.00000,   0.00268,   0.00099,  -0.00260,  32.00000,   2.00000
