# sigma_xx, sigma_yy, sigma_xy, epsilon_xx, epsilon_yy, epsilon_xy, vonMises, epsPlastic, hardening, epsilonP__xx, epsilonP__yy, epsilonP__xy, yieldValue, iteration
   0.00000,   0.00000,   0.00000,   0.00000,   0.00000,   0.00000,   0.00000,   0.00000,274640135.82653,   0.00000,   0.00000,   0.00000,-474640135.82653,   0.00000
   0.00000,   0.00000,   0.00000,   0.00000,   0.00000,   0.00000,   0.00000,   0.00000,274640135.82653,   0.00000,   0.00000,   0.00000,-474640135.82653,   0.00000
121276.12058,-32537.49577,-70990.89985,   0.00000,  -0.00000,  -0.00000,186632.60943,   0.00000,274640135.82653,   0.00000,   0.00000,   0.00000,-474453503.21710,   0.00000
251426.10365,-44369.31241,-147897.70803,   0.00000,  -0.00000,  -0.00000,376776.48672,   0.00000,274640135.82653,   0.00000,   0.00000,   0.00000,-474263359.33981,   0.00000
402281.76584,-47327.26657,-224804.51620,   0.00000,  -0.00000,  -0.00000,578550.42751,   0.00000,274640135.82653,   0.00000,   0.00000,   0.00000,-474061585.39902,   0.00000
532431.74891,-59159.08321,-301711.32438,   0.00000,  -0.00000,  -0.00000,769136.33920,   0.00000,274640135.82653,   0.00000,   0.00000,   0.00000,-473870999.48733,   0.00000
703993.09022,-53243.17489,-378618.13255,   0.00000,  -0.00000,  -0.00000,982842.30926,   0.00000,274640135.82653,   0.00000,   0.00000,   0.00000,-473657293.51727,   0.00000
872596.47737,-14789.77080,-455524.94073,   0.00000,  -0.00000,  -0.00001,1181971.98208,   0.00000,274640135.82653,   0.00000,   0.00000,   0.00000,-473458163.84445,   0.00000
1053031.68117,11831.81664,-532431.74891,   0.00000,  -0.00000,  -0.00001,1395351.97616,   0.00000,274640135.82653,   0.00000,   0.00000,   0.00000,-473244783.85037,   0.00000
1263046.42657,68032.94569,-609338.55708,   0.00001,  -0.00000,  -0.00001,1621069.52962,   0.00000,274640135.82653,   0.00000,   0.00000,   0.00000,-473019066.29691,   0.00000
1473061.17197,124234.07474,-692161.27358,   0.00001,  -0.00000,  -0.00001,1854616.02923,   0.00000,274640135.82653,   0.00000,   0.00000,   0.00000,-472785519.79730,   0.00000
1691949.77985,201140.88292,-774983.99007,   0.00001,  -0.00000,  -0.00001,2089170.16884,   0.00000,274640135.82653,   0.00000,   0.00000,   0.00000,-472550965.65769,   0.00000
1910838.38774,278047.69109,-851890.79825,   0.00001,  -0.00000,  -0.00001,2318288.90720,   0.00000,274640135.82653,   0.00000,   0.00000,   0.00000,-472321846.91933,   0.00000
2150432.67474,363828.36175,-934713.51474,   0.00001,  -0.00000,  -0.00001,2568153.31167,   0.00000,274640135.82653,   0.00000,   0.00000,   0.00000,-472071982.51486,   0.00000
2398900.82423,470314.71153,-1023452.13956,   0.00001,  -0.00000,  -0.00001,2826666.86915,   0.00000,274640135.82653,   0.00000,   0.00000,   0.00000,-471813468.95738,   0.00000
2668074.65285,585674.92380,-1106274.85606,   0.00001,  -0.00000,  -0.00001,3093629.78102,   0.00000,274640135.82653,   0.00000,   0.00000,   0.00000,-471546506.04551,   0.00000
2937248.48146,701035.13606,-1189097.57255,   0.00001,  -0.00000,  -0.00002,3361788.75395,   0.00000,274640135.82653,   0.00000,   0.00000,   0.00000,-471278347.07258,   0.00000
3215296.17256,837101.02745,-1277836.19737,   0.00001,  -0.00000,  -0.00002,3639496.65747,   0.00000,274640135.82653,   0.00000,   0.00000,   0.00000,-471000639.16906,   0.00000
3514049.54277,982040.78131,-1366574.82219,   0.00001,  -0.00000,  -0.00002,3932504.10815,   0.00000,274640135.82653,   0.00000,   0.00000,   0.00000,-470707631.71838,   0.00000
3812802.91299,1126980.53518,-1455313.44701,   0.00002,  -0.00000,  -0.00002,4226630.83315,   0.00000,274640135.82653,   0.00000,   0.00000,   0.00000,-470413504.99338,   0.00000
4120430.14569,1292625.96818,-1544052.07183,   0.00002,  -0.00000,  -0.00002,4524924.51587,   0.00000,274640135.82653,   0.00000,   0.00000,   0.00000,-470115211.31066,   0.00000
4428057.37839,1458271.40117,-1632790.69664,   0.00002,  -0.00000,  -0.00002,4824412.35440,   0.00000,274640135.82653,   0.00000,   0.00000,   0.00000,-469815723.47213,   0.00000
4765264.15270,1653496.37577,-1721529.32146,   0.00002,  -0.00000,  -0.00002,5143290.32017,   0.00000,274640135.82653,   0.00000,   0.00000,   0.00000,-469496845.50636,   0.00000
5123176.60613,1857595.21285,-1816183.85460,   0.00002,  -0.00000,  -0.00002,5484193.79266,   0.00000,274640135.82653,   0.00000,   0.00000,   0.00000,-469155942.03387,   0.00000
5460383.38044,2052820.18745,-1910838.38774,   0.00002,  -0.00000,  -0.00002,5811590.33148,   0.00000,274640135.82653,   0.00000,   0.00000,   0.00000,-468828545.49505,   0.00000
5818295.83387,2256919.02453,-2005492.92088,   0.00002,  -0.00000,  -0.00003,6154740.68527,   0.00000,274640135.82653,   0.00000,   0.00000,   0.00000,-468485395.14126,   0.00000
6205787.82891,2490597.40321,-2100147.45401,   0.00002,  -0.00000,  -0.00003,6518482.71736,   0.00000,274640135.82653,   0.00000,   0.00000,   0.00000,-468121653.10917,   0.00000
6572574.14482,2715401.91942,-2194801.98715,   0.00002,  -0.00000,  -0.00003,6868509.68647,   0.00000,274640135.82653,   0.00000,   0.00000,   0.00000,-467771626.14005,   0.00000
6968940.00234,2969785.97723,-2295372.42861,   0.00003,  -0.00000,  -0.00003,7245391.42971,   0.00000,274640135.82653,   0.00000,   0.00000,   0.00000,-467394744.39682,   0.00000
7377137.67650,3212338.21839,-2390026.96175,   0.00003,   0.00000,  -0.00003,7627588.24665,   0.00000,274640135.82653,   0.00000,   0.00000,   0.00000,-467012547.57988,   0.00000
7773503.53402,3466722.27620,-2490597.40321,   0.00003,   0.00000,  -0.00003,8006632.80929,   0.00000,274640135.82653,   0.00000,   0.00000,   0.00000,-466633503.01724,   0.00000
8199448.93314,3750685.87562,-2591167.84467,   0.00003,   0.00000,  -0.00003,8407586.00557,   0.00000,274640135.82653,   0.00000,   0.00000,   0.00000,-466232549.82095,   0.00000
8637226.14891,4022817.65839,-2691738.28613,   0.00003,   0.00000,  -0.00003,8819020.16053,   0.00000,274640135.82653,   0.00000,   0.00000,   0.00000,-465821115.66600,   0.00000
9063171.54803,4306781.25781,-2798224.63591,   0.00003,   0.00000,  -0.00004,9227487.70204,   0.00000,274640135.82653,   0.00000,   0.00000,   0.00000,-465412648.12449,   0.00000
9518696.48876,4620324.39883,-2898795.07737,   0.00003,   0.00000,  -0.00004,9653111.07702,   0.00000,274640135.82653,   0.00000,   0.00000,   0.00000,-464987024.74951,   0.00000
9965347.56701,4913161.86073,-3005281.42715,   0.00004,   0.00000,  -0.00004,10078744.73211,   0.00000,274640135.82653,   0.00000,   0.00000,   0.00000,-464561391.09442,   0.00000
10441578.18686,5235578.86423,-3111767.77693,   0.00004,   0.00000,  -0.00004,10527080.84439,   0.00000,274640135.82653,   0.00000,   0.00000,   0.00000,-464113054.98214,   0.00000
10917808.80672,5557995.86774,-3218254.12672,   0.00004,   0.00000,  -0.00004,10976347.74621,   0.00000,274640135.82653,   0.00000,   0.00000,   0.00000,-463663788.08032,   0.00000
11394039.42657,5880412.87124,-3330656.38482,   0.00004,   0.00000,  -0.00004,11431603.11384,   0.00000,274640135.82653,   0.00000,   0.00000,   0.00000,-463208532.71269,   0.00000
11879143.90891,6223535.55387,-3437142.73460,   0.00004,   0.00001,  -0.00004,11889408.34803,   0.00000,274640135.82653,   0.00000,   0.00000,   0.00000,-462750727.47850,   0.00000
12384954.07037,6575532.09898,-3549544.99270,   0.00004,   0.00001,  -0.00005,12368704.68729,   0.00000,274640135.82653,   0.00000,   0.00000,   0.00000,-462271431.13924,   0.00000
12890764.23183,6927528.64409,-3661947.25080,   0.00005,   0.00001,  -0.00005,12848769.98541,   0.00000,274640135.82653,   0.00000,   0.00000,   0.00000,-461791365.84112,   0.00000
13405448.25577,7300230.86832,-3774349.50891,   0.00005,   0.00001,  -0.00005,13336929.52499,   0.00000,274640135.82653,   0.00000,   0.00000,   0.00000,-461303206.30154,   0.00000
13931964.09635,7661101.27591,-3886751.76701,   0.00005,   0.00001,  -0.00005,13833959.17018,   0.00000,274640135.82653,   0.00000,   0.00000,   0.00000,-460806176.65635,   0.00000
14467353.79942,8042677.36263,-4005069.93343,   0.00005,   0.00001,  -0.00005,14344144.51029,   0.00000,274640135.82653,   0.00000,   0.00000,   0.00000,-460295991.31624,   0.00000
15011617.36497,8444959.12847,-4117472.19153,   0.00005,   0.00001,  -0.00005,14857800.21532,   0.00000,274640135.82653,   0.00000,   0.00000,   0.00000,-459782335.61121,   0.00000
15547007.06803,8826535.21518,-4235790.35796,   0.00005,   0.00001,  -0.00006,15369343.09498,   0.00000,274640135.82653,   0.00000,   0.00000,   0.00000,-459270792.73155,   0.00000
16111976.31270,9237690.84350,-4360024.43270,   0.00006,   0.00001,  -0.00006,15909830.16653,   0.00000,274640135.82653,   0.00000,   0.00000,   0.00000,-458730305.66000,   0.00000
16676945.55737,9648846.47183,-4478342.59912,   0.00006,   0.00001,  -0.00006,16446097.45088,   0.00000,274640135.82653,   0.00000,   0.00000,   0.00000,-458194038.37565,   0.00000
17241914.80205,10060002.10015,-4596660.76555,   0.00006,   0.00001,  -0.00006,16982974.99726,   0.00000,274640135.82653,   0.00000,   0.00000,   0.00000,-457657160.82927,   0.00000
17836463.58832,10500737.27007,-4720894.84029,   0.00006,   0.00001,  -0.00006,17549058.17598,   0.00000,274640135.82653,   0.00000,   0.00000,   0.00000,-457091077.65055,   0.00000
18422138.51212,10920766.76088,-4845128.91504,   0.00006,   0.00001,  -0.00006,18107464.72281,   0.00000,274640135.82653,   0.00000,   0.00000,   0.00000,-456532671.10372,   0.00000
19016687.29840,11361501.93080,-4969362.98978,   0.00006,   0.00001,  -0.00006,18674680.66777,   0.00000,274640135.82653,   0.00000,   0.00000,   0.00000,-455965455.15876,   0.00000
19611236.08467,11802237.10073,-5093597.06453,   0.00007,   0.00002,  -0.00007,19242430.10662,   0.00000,274640135.82653,   0.00000,   0.00000,   0.00000,-455397705.71991,   0.00000
20235364.41256,12272551.81226,-5223747.04759,   0.00007,   0.00002,  -0.00007,19839570.11511,   0.00000,274640135.82653,   0.00000,   0.00000,   0.00000,-454800565.71142,   0.00000
20850618.87796,12722160.84467,-5353897.03066,   0.00007,   0.00002,  -0.00007,20428641.59262,   0.00000,274640135.82653,   0.00000,   0.00000,   0.00000,-454211494.23390,   0.00000
21474747.20584,13192475.55621,-5484047.01372,   0.00007,   0.00002,  -0.00007,21026778.55054,   0.00000,274640135.82653,   0.00000,   0.00000,   0.00000,-453613357.27599,   0.00000
22119581.21285,13671664.13022,-5614196.99679,   0.00007,   0.00002,  -0.00007,21641081.57728,   0.00000,274640135.82653,   0.00000,   0.00000,   0.00000,-452999054.24925,   0.00000
22743709.54073,14141978.84175,-5744346.97985,   0.00008,   0.00002,  -0.00007,22240130.32338,   0.00000,274640135.82653,   0.00000,   0.00000,   0.00000,-452400005.50315,   0.00000
23397417.41022,14641873.09489,-5880412.87124,   0.00008,   0.00002,  -0.00008,22868741.53370,   0.00000,274640135.82653,   0.00000,   0.00000,   0.00000,-451771394.29283,   0.00000
24042251.41723,15121061.66891,-6016478.76263,   0.00008,   0.00002,  -0.00008,23488849.33257,   0.00000,274640135.82653,   0.00000,   0.00000,   0.00000,-451151286.49396,   0.00000
24716664.96584,15629829.78453,-6152544.65402,   0.00008,   0.00002,  -0.00008,24133985.51895,   0.00000,274640135.82653,   0.00000,   0.00000,   0.00000,-450506150.30758,   0.00000
25391078.51446,16138597.90015,-6288610.54540,   0.00008,   0.00002,  -0.00008,24779521.21590,   0.00000,274640135.82653,   0.00000,   0.00000,   0.00000,-449860614.61063,   0.00000
26044786.38395,16638492.15329,-6424676.43679,   0.00009,   0.00002,  -0.00008,25409717.57004,   0.00000,274640135.82653,   0.00000,   0.00000,   0.00000,-449230418.25649,   0.00000
26748779.47416,17176839.81051,-6566658.23650,   0.00009,   0.00003,  -0.00009,26085331.70699,   0.00000,274640135.82653,   0.00000,   0.00000,   0.00000,-448554804.11954,   0.00000
27423193.02278,17685607.92613,-6708640.03621,   0.00009,   0.00003,  -0.00009,26736378.90224,   0.00000,274640135.82653,   0.00000,   0.00000,   0.00000,-447903756.92429,   0.00000
28127186.11300,18223955.58336,-6850621.83591,   0.00009,   0.00003,  -0.00009,27412690.92861,   0.00000,274640135.82653,   0.00000,   0.00000,   0.00000,-447227444.89792,   0.00000
28810473.52409,18753429.37810,-6992603.63562,   0.00009,   0.00003,  -0.00009,28073632.36834,   0.00000,274640135.82653,   0.00000,   0.00000,   0.00000,-446566503.45819,   0.00000
29514466.61431,19291777.03533,-7134585.43533,   0.00010,   0.00003,  -0.00009,28750596.85416,   0.00000,274640135.82653,   0.00000,   0.00000,   0.00000,-445889538.97237,   0.00000
30239165.38365,19838998.55504,-7282483.14336,   0.00010,   0.00003,  -0.00009,29447952.57085,   0.00000,274640135.82653,   0.00000,   0.00000,   0.00000,-445192183.25568,   0.00000
30943158.47387,20377346.21227,-7430380.85139,   0.00010,   0.00003,  -0.00010,30129844.35175,   0.00000,274640135.82653,   0.00000,   0.00000,   0.00000,-444510291.47478,   0.00000
31676731.10570,20945273.41110,-7578278.55942,   0.00010,   0.00003,  -0.00010,30837199.86967,   0.00000,274640135.82653,   0.00000,   0.00000,   0.00000,-443802935.95686,   0.00000
32410303.73752,21513200.60993,-7726176.26745,   0.00011,   0.00003,  -0.00010,31544850.95629,   0.00000,274640135.82653,   0.00000,   0.00000,   0.00000,-443095284.87024,   0.00000
33135002.50687,22060422.12964,-7879989.88380,   0.00011,   0.00004,  -0.00010,32247499.04731,   0.00000,274640135.82653,   0.00000,   0.00000,   0.00000,-442392636.77922,   0.00000
33868575.13869,22628349.32847,-8033803.50015,   0.00011,   0.00004,  -0.00010,32959954.82093,   0.00000,274640135.82653,   0.00000,   0.00000,   0.00000,-441680181.00560,   0.00000
34631727.31212,23225856.06891,-8187617.11650,   0.00011,   0.00004,  -0.00011,33698021.23159,   0.00000,274640135.82653,   0.00000,   0.00000,   0.00000,-440942114.59494,   0.00000
35386005.62307,23802657.13022,-8341430.73285,   0.00011,   0.00004,  -0.00011,34426636.80021,   0.00000,274640135.82653,   0.00000,   0.00000,   0.00000,-440213499.02632,   0.00000
36140283.93402,24379458.19154,-8495244.34920,   0.00012,   0.00004,  -0.00011,35155441.86897,   0.00000,274640135.82653,   0.00000,   0.00000,   0.00000,-439484693.95756,   0.00000
36903436.10745,24976964.93197,-8654973.87387,   0.00012,   0.00004,  -0.00011,35898499.44631,   0.00000,274640135.82653,   0.00000,   0.00000,   0.00000,-438741636.38022,   0.00000
37657714.41840,25553765.99329,-8808787.49022,   0.00012,   0.00004,  -0.00011,36627669.87827,   0.00000,274640135.82653,   0.00000,   0.00000,   0.00000,-438012465.94826,   0.00000
38441572.27095,26160146.59621,-8968517.01489,   0.00012,   0.00004,  -0.00012,37386808.83601,   0.00000,274640135.82653,   0.00000,   0.00000,   0.00000,-437253326.99052,   0.00000
39225430.12351,26766527.19913,-9128246.53956,   0.00013,   0.00005,  -0.00012,38146132.95000,   0.00000,274640135.82653,   0.00000,   0.00000,   0.00000,-436494002.87653,   0.00000
39988582.29694,27364033.93957,-9293891.97256,   0.00013,   0.00005,  -0.00012,38894182.44916,   0.00000,274640135.82653,   0.00000,   0.00000,   0.00000,-435745953.37736,   0.00000
40793145.82862,27979288.40497,-9453621.49723,   0.00013,   0.00005,  -0.00012,39669522.46243,   0.00000,274640135.82653,   0.00000,   0.00000,   0.00000,-434970613.36410,   0.00000
41577003.68117,28585669.00789,-9619266.93022,   0.00013,   0.00005,  -0.00013,40433552.04515,   0.00000,274640135.82653,   0.00000,   0.00000,   0.00000,-434206583.78138,   0.00000
42369735.39621,29212755.28993,-9784912.36321,   0.00014,   0.00005,  -0.00013,41207722.17938,   0.00000,274640135.82653,   0.00000,   0.00000,   0.00000,-433432413.64715,   0.00000
43174298.92789,29828009.75533,-9950557.79621,   0.00014,   0.00005,  -0.00013,41987708.26855,   0.00000,274640135.82653,   0.00000,   0.00000,   0.00000,-432652427.55798,   0.00000
43987736.32205,30463969.89986,-10122119.13752,   0.00014,   0.00005,  -0.00013,42782066.58195,   0.00000,274640135.82653,   0.00000,   0.00000,   0.00000,-431858069.24458,   0.00000
44792299.85373,31079224.36526,-10287764.57051,   0.00014,   0.00005,  -0.00013,43562285.01717,   0.00000,274640135.82653,   0.00000,   0.00000,   0.00000,-431077850.80936,   0.00000
45605737.24789,31715184.50979,-10459325.91183,   0.00015,   0.00006,  -0.00014,44356897.12413,   0.00000,274640135.82653,   0.00000,   0.00000,   0.00000,-430283238.70239,   0.00000
46419174.64205,32351144.65431,-10630887.25314,   0.00015,   0.00006,  -0.00014,45151635.54825,   0.00000,274640135.82653,   0.00000,   0.00000,   0.00000,-429488500.27828,   0.00000
47232612.03621,32987104.79884,-10802448.59445,   0.00015,   0.00006,  -0.00014,45946493.73477,   0.00000,274640135.82653,   0.00000,   0.00000,   0.00000,-428693642.09176,   0.00000
48066755.10950,33631938.80584,-10974009.93577,   0.00015,   0.00006,  -0.00014,46757125.34330,   0.00000,274640135.82653,   0.00000,   0.00000,   0.00000,-427883010.48323,   0.00000
48900898.18278,34276772.81285,-11151487.18540,   0.00016,   0.00006,  -0.00014,47572019.29212,   0.00000,274640135.82653,   0.00000,   0.00000,   0.00000,-427068116.53441,   0.00000
49735041.25607,34921606.81986,-11328964.43504,   0.00016,   0.00006,  -0.00015,48386999.29961,   0.00000,274640135.82653,   0.00000,   0.00000,   0.00000,-426253136.52692,   0.00000
50569184.32935,35566440.82687,-11506441.68467,   0.00016,   0.00006,  -0.00015,49202061.08937,   0.00000,274640135.82653,   0.00000,   0.00000,   0.00000,-425438074.73716,   0.00000
51403327.40264,36211274.83387,-11683918.93431,   0.00016,   0.00006,  -0.00015,50017200.66332,   0.00000,274640135.82653,   0.00000,   0.00000,   0.00000,-424622935.16321,   0.00000
52237470.47592,36856108.84088,-11861396.18394,   0.00017,   0.00007,  -0.00015,50832414.27945,   0.00000,274640135.82653,   0.00000,   0.00000,   0.00000,-423807721.54708,   0.00000
53101193.09081,37530522.38949,-12044789.34190,   0.00017,   0.00007,  -0.00016,51677772.33168,   0.00000,274640135.82653,   0.00000,   0.00000,   0.00000,-422962363.49485,   0.00000
53935336.16410,38175356.39650,-12222266.59153,   0.00017,   0.00007,  -0.00016,52493133.30911,   0.00000,274640135.82653,   0.00000,   0.00000,   0.00000,-422147002.51742,   0.00000
54790184.91650,38829064.26599,-12405659.74949,   0.00017,   0.00007,  -0.00016,53328324.22971,   0.00000,274640135.82653,   0.00000,   0.00000,   0.00000,-421311811.59682,   0.00000
55653907.53140,39503477.81460,-12589052.90745,   0.00018,   0.00007,  -0.00016,54173905.53411,   0.00000,274640135.82653,   0.00000,   0.00000,   0.00000,-420466230.29242,   0.00000
56508756.28380,40157185.68409,-12778361.97372,   0.00018,   0.00007,  -0.00017,55013326.42313,   0.00000,274640135.82653,   0.00000,   0.00000,   0.00000,-419626809.40340,   0.00000
57372478.89869,40831599.23271,-12961755.13168,   0.00018,   0.00007,  -0.00017,55859037.35103,   0.00000,274640135.82653,   0.00000,   0.00000,   0.00000,-418781098.47550,   0.00000
58236201.51359,41506012.78132,-13151064.19796,   0.00018,   0.00008,  -0.00017,56708934.11088,   0.00000,274640135.82653,   0.00000,   0.00000,   0.00000,-417931201.71565,   0.00000
59091050.26599,42159720.65081,-13334457.35591,   0.00019,   0.00008,  -0.00017,57544377.25482,   0.00000,274640135.82653,   0.00000,   0.00000,   0.00000,-417095758.57171,   0.00000
59975478.56001,42843008.06190,-13523766.42219,   0.00019,   0.00008,  -0.00018,58410001.12616,   0.00000,274640135.82653,   0.00000,   0.00000,   0.00000,-416230134.70037,   0.00000
60839201.17490,43517421.61052,-13718991.39679,   0.00019,   0.00008,  -0.00018,59264166.15534,   0.00000,274640135.82653,   0.00000,   0.00000,   0.00000,-415375969.67119,   0.00000
61714755.60643,44180003.34249,-13908300.46307,   0.00019,   0.00008,  -0.00018,60119448.69378,   0.00000,274640135.82653,   0.00000,   0.00000,   0.00000,-414520687.13275,   0.00000
62599183.90045,44863290.75358,-14097609.52935,   0.00020,   0.00008,  -0.00018,60985203.75719,   0.00000,274640135.82653,   0.00000,   0.00000,   0.00000,-413654932.06934,   0.00000
63462906.51534,45537704.30220,-14292834.50394,   0.00020,   0.00008,  -0.00019,61839496.27792,   0.00000,274640135.82653,   0.00000,   0.00000,   0.00000,-412800639.54861,   0.00000
64338460.94687,46200286.03417,-14488059.47854,   0.00020,   0.00008,  -0.00019,62698965.62359,   0.00000,274640135.82653,   0.00000,   0.00000,   0.00000,-411941170.20293,   0.00000
65222889.24089,46883573.44526,-14683284.45314,   0.00021,   0.00009,  -0.00019,63568932.26164,   0.00000,274640135.82653,   0.00000,   0.00000,   0.00000,-411071203.56489,   0.00000
66107317.53490,47566860.85636,-14878509.42774,   0.00021,   0.00009,  -0.00019,64438934.17021,   0.00000,274640135.82653,   0.00000,   0.00000,   0.00000,-410201201.65632,   0.00000
67012451.50804,48259022.12993,-15073734.40234,   0.00021,   0.00009,  -0.00020,65324565.82515,   0.00000,274640135.82653,   0.00000,   0.00000,   0.00000,-409315570.00138,   0.00000
67888005.93957,48921603.86190,-15274875.28526,   0.00021,   0.00009,  -0.00020,66188216.37016,   0.00000,274640135.82653,   0.00000,   0.00000,   0.00000,-408451919.45637,   0.00000
68772434.23359,49604891.27300,-15470100.25986,   0.00022,   0.00009,  -0.00020,67058301.73836,   0.00000,274640135.82653,   0.00000,   0.00000,   0.00000,-407581834.08817,   0.00000
69677568.20673,50297052.54658,-15671241.14278,   0.00022,   0.00009,  -0.00020,67948098.52770,   0.00000,274640135.82653,   0.00000,   0.00000,   0.00000,-406692037.29883,   0.00000
70553122.63826,50959634.27855,-15872382.02570,   0.00022,   0.00009,  -0.00021,68811798.74459,   0.00000,274640135.82653,   0.00000,   0.00000,   0.00000,-405828337.08194,   0.00000
71458256.61140,51651795.55212,-16073522.90862,   0.00022,   0.00010,  -0.00021,69701632.52591,   0.00000,274640135.82653,   0.00000,   0.00000,   0.00000,-404938503.30062,   0.00000
72342684.90541,52335082.96322,-16274663.79154,   0.00023,   0.00010,  -0.00021,70575906.62802,   0.00000,274640135.82653,   0.00000,   0.00000,   0.00000,-404064229.19851,   0.00000
73238945.01607,53006538.55767,-16481720.58278,   0.00023,   0.00010,  -0.00021,71459321.11433,   0.00000,274640135.82653,   0.00000,   0.00000,   0.00000,-403180814.71220,   0.00000
74144078.98921,53698699.83125,-16682861.46570,   0.00023,   0.00010,  -0.00022,72349207.11984,   0.00000,274640135.82653,   0.00000,   0.00000,   0.00000,-402290928.70669,   0.00000
75028507.28322,54381987.24234,-16889918.25694,   0.00024,   0.00010,  -0.00022,73227632.29727,   0.00000,274640135.82653,   0.00000,   0.00000,   0.00000,-401412503.52926,   0.00000
75924767.39388,55053442.83680,-17096975.04818,   0.00024,   0.00010,  -0.00022,74111076.75494,   0.00000,274640135.82653,   0.00000,   0.00000,   0.00000,-400529059.07159,   0.00000
76829901.36702,55745604.11037,-17304031.83942,   0.00024,   0.00010,  -0.00022,75005102.55943,   0.00000,274640135.82653,   0.00000,   0.00000,   0.00000,-399635033.26710,   0.00000
77726161.47768,56417059.70483,-17511088.63066,   0.00024,   0.00011,  -0.00023,75888562.94707,   0.00000,274640135.82653,   0.00000,   0.00000,   0.00000,-398751572.87946,   0.00000
78622421.58833,57088515.29928,-17718145.42190,   0.00025,   0.00011,  -0.00023,76772029.21216,   0.00000,274640135.82653,   0.00000,   0.00000,   0.00000,-397868106.61437,   0.00000
79527555.56147,57780676.57286,-17931118.12146,   0.00025,   0.00011,  -0.00023,77670185.42227,   0.00000,274640135.82653,   0.00000,   0.00000,   0.00000,-396969950.40426,   0.00000
80423815.67213,58452132.16731,-18138174.91270,   0.00025,   0.00011,  -0.00024,78553666.66550,   0.00000,274640135.82653,   0.00000,   0.00000,   0.00000,-396086469.16103,   0.00000
81320075.78279,59123587.76176,-18351147.61227,   0.00025,   0.00011,  -0.00024,79441252.34326,   0.00000,274640135.82653,   0.00000,   0.00000,   0.00000,-395198883.48327,   0.00000
82225209.75592,59815749.03534,-18558204.40351,   0.00026,   0.00011,  -0.00024,80335342.73888,   0.00000,274640135.82653,   0.00000,   0.00000,   0.00000,-394304793.08765,   0.00000
83121469.86658,60487204.62979,-18771177.10307,   0.00026,   0.00011,  -0.00024,81222943.73675,   0.00000,274640135.82653,   0.00000,   0.00000,   0.00000,-393417192.08978,   0.00000
84038435.65636,61167534.08672,-18984149.80263,   0.00026,   0.00011,  -0.00025,82126097.23711,   0.00000,274640135.82653,   0.00000,   0.00000,   0.00000,-392514038.58942,   0.00000
84934695.76702,61838989.68118,-19197122.50219,   0.00027,   0.00012,  -0.00025,83013709.42084,   0.00000,274640135.82653,   0.00000,   0.00000,   0.00000,-391626426.40569,   0.00000
85830955.87768,62510445.27563,-19416011.11008,   0.00027,   0.00012,  -0.00025,83905434.55204,   0.00000,274640135.82653,   0.00000,   0.00000,   0.00000,-390734701.27449,   0.00000
86727215.98833,63181900.87008,-19628983.80964,   0.00027,   0.00012,  -0.00026,84793061.29353,   0.00000,274640135.82653,   0.00000,   0.00000,   0.00000,-389847074.53300,   0.00000
87623476.09899,63853356.46453,-19841956.50920,   0.00027,   0.00012,  -0.00026,85680694.18361,   0.00000,274640135.82653,   0.00000,   0.00000,   0.00000,-388959441.64292,   0.00000
88531568.02629,64512980.24235,-20060845.11708,   0.00028,   0.00012,  -0.00026,86577366.43300,   0.00000,274640135.82653,   0.00000,   0.00000,   0.00000,-388062769.39353,   0.00000
89427828.13695,65184435.83680,-20273817.81665,   0.00028,   0.00012,  -0.00026,87465008.21485,   0.00000,274640135.82653,   0.00000,   0.00000,   0.00000,-387175127.61168,   0.00000
90315214.38512,65835185.75213,-20492706.42453,   0.00028,   0.00012,  -0.00027,88346158.75614,   0.00000,274640135.82653,   0.00000,   0.00000,   0.00000,-386293977.07039,   0.00000
91211474.49578,66506641.34658,-20711595.03241,   0.00029,   0.00012,  -0.00027,89237929.76237,   0.00000,274640135.82653,   0.00000,   0.00000,   0.00000,-385402206.06416,   0.00000
92098860.74396,67157391.26191,-20930483.64030,   0.00029,   0.00013,  -0.00027,90119096.54414,   0.00000,274640135.82653,   0.00000,   0.00000,   0.00000,-384521039.28239,   0.00000
93015826.53374,67837720.71884,-21149372.24818,   0.00029,   0.00013,  -0.00027,91026405.59052,   0.00000,274640135.82653,   0.00000,   0.00000,   0.00000,-383613730.23601,   0.00000
93903212.78191,68488470.63417,-21368260.85606,   0.00029,   0.00013,  -0.00028,91907585.46248,   0.00000,274640135.82653,   0.00000,   0.00000,   0.00000,-382732550.36405,   0.00000
94790599.03009,69139220.54950,-21587149.46394,   0.00030,   0.00013,  -0.00028,92788773.11534,   0.00000,274640135.82653,   0.00000,   0.00000,   0.00000,-381851362.71119,   0.00000
95677985.27826,69789970.46483,-21806038.07183,   0.00030,   0.00013,  -0.00028,93669968.32953,   0.00000,274640135.82653,   0.00000,   0.00000,   0.00000,-380970167.49700,   0.00000
96565371.52644,70440720.38016,-22030842.58803,   0.00030,   0.00013,  -0.00029,94555305.54670,   0.00000,274640135.82653,   0.00000,   0.00000,   0.00000,-380084830.27983,   0.00000
97443883.91213,71070764.61636,-22249731.19592,   0.00030,   0.00013,  -0.00029,95425910.38645,   0.00000,274640135.82653,   0.00000,   0.00000,   0.00000,-379214225.44008,   0.00000
98331270.16031,71721514.53169,-22468619.80380,   0.00031,   0.00013,  -0.00029,96307130.28639,   0.00000,274640135.82653,   0.00000,   0.00000,   0.00000,-378333005.54014,   0.00000
99218656.40848,72372264.44702,-22693424.32000,   0.00031,   0.00014,  -0.00030,97192500.34403,   0.00000,274640135.82653,   0.00000,   0.00000,   0.00000,-377447635.48250,   0.00000
100097168.79418,73002308.68322,-22912312.92789,   0.00031,   0.00014,  -0.00030,98063133.28758,   0.00000,274640135.82653,   0.00000,   0.00000,   0.00000,-376577002.53895,   0.00000
100975681.17987,73632352.91943,-23137117.44409,   0.00032,   0.00014,  -0.00030,98937926.01495,   0.00000,274640135.82653,   0.00000,   0.00000,   0.00000,-375702209.81158,   0.00000
101863067.42804,74283102.83476,-23361921.96030,   0.00032,   0.00014,  -0.00030,99823330.70392,   0.00000,274640135.82653,   0.00000,   0.00000,   0.00000,-374816805.12261,   0.00000
102741579.81374,74913147.07096,-23580810.56818,   0.00032,   0.00014,  -0.00031,100693994.99953,   0.00000,274640135.82653,   0.00000,   0.00000,   0.00000,-373946140.82700,   0.00000
103620092.19943,75543191.30716,-23805615.08438,   0.00032,   0.00014,  -0.00031,101568827.60296,   0.00000,274640135.82653,   0.00000,   0.00000,   0.00000,-373071308.22357,   0.00000
104489730.72264,76152529.86424,-24030419.60059,   0.00033,   0.00014,  -0.00031,102433087.86907,   0.00000,274640135.82653,   0.00000,   0.00000,   0.00000,-372207047.95746,   0.00000
105347537.42921,76773700.23797,-24255224.11679,   0.00033,   0.00014,  -0.00032,103292459.17344,   0.00000,274640135.82653,   0.00000,   0.00000,   0.00000,-371347676.65309,   0.00000
106226049.81491,77403744.47417,-24480028.63300,   0.00033,   0.00015,  -0.00032,104167339.92545,   0.00000,274640135.82653,   0.00000,   0.00000,   0.00000,-370472795.90108,   0.00000
107095688.33812,78013083.03125,-24704833.14920,   0.00034,   0.00015,  -0.00032,105031657.61253,   0.00000,274640135.82653,   0.00000,   0.00000,   0.00000,-369608478.21400,   0.00000
107944621.18221,78613547.72585,-24929637.66541,   0.00034,   0.00015,  -0.00032,105880508.12847,   0.00000,274640135.82653,   0.00000,   0.00000,   0.00000,-368759627.69806,   0.00000
108823133.56790,79243591.96206,-25154442.18161,   0.00034,   0.00015,  -0.00033,106755436.20117,   0.00000,274640135.82653,   0.00000,   0.00000,   0.00000,-367884699.62536,   0.00000
109663192.54951,79823350.97753,-25379246.69781,   0.00034,   0.00015,  -0.00033,107593764.42007,   0.00000,274640135.82653,   0.00000,   0.00000,   0.00000,-367046371.40646,   0.00000
110512125.39359,80423815.67213,-25604051.21402,   0.00035,   0.00015,  -0.00033,108442683.01640,   0.00000,274640135.82653,   0.00000,   0.00000,   0.00000,-366197452.81013,   0.00000
111361058.23768,81024280.36673,-25828855.73022,   0.00035,   0.00015,  -0.00034,109291623.92963,   0.00000,274640135.82653,   0.00000,   0.00000,   0.00000,-365348511.89690,   0.00000
112230696.76089,81633618.92381,-26053660.24643,   0.00035,   0.00015,  -0.00034,110156065.37912,   0.00000,274640135.82653,   0.00000,   0.00000,   0.00000,-364484070.44741,   0.00000
113070755.74250,82213377.93928,-26278464.76263,   0.00035,   0.00015,  -0.00034,110994502.88853,   0.00000,274640135.82653,   0.00000,   0.00000,   0.00000,-363645632.93800,   0.00000
113910814.72410,82793136.95476,-26503269.27884,   0.00036,   0.00015,  -0.00034,111832970.99352,   0.00000,274640135.82653,   0.00000,   0.00000,   0.00000,-362807164.83301,   0.00000
114730168.02659,83364022.10775,-26728073.79504,   0.00036,   0.00016,  -0.00035,112655994.78046,   0.00000,274640135.82653,   0.00000,   0.00000,   0.00000,-361984141.04607,   0.00000
115570227.00819,83943781.12322,-26952878.31124,   0.00036,   0.00016,  -0.00035,113494523.51296,   0.00000,274640135.82653,   0.00000,   0.00000,   0.00000,-361145612.31357,   0.00000
116410285.98980,84523540.13870,-27177682.82745,   0.00036,   0.00016,  -0.00035,114333080.83401,   0.00000,274640135.82653,   0.00000,   0.00000,   0.00000,-360307054.99252,   0.00000
117241471.10892,85082593.47505,-27402487.34365,   0.00037,   0.00016,  -0.00036,115161151.31981,   0.00000,274640135.82653,   0.00000,   0.00000,   0.00000,-359478984.50672,   0.00000
118060824.41140,85653478.62804,-27627291.85986,   0.00037,   0.00016,  -0.00036,115984301.21263,   0.00000,274640135.82653,   0.00000,   0.00000,   0.00000,-358655834.61390,   0.00000
118871303.85140,86203658.10191,-27852096.37606,   0.00037,   0.00016,  -0.00036,116796978.26474,   0.00000,274640135.82653,   0.00000,   0.00000,   0.00000,-357843157.56179,   0.00000
119702488.97053,86762711.43826,-28076900.89227,   0.00038,   0.00016,  -0.00036,117625161.18590,   0.00000,274640135.82653,   0.00000,   0.00000,   0.00000,-357014974.64063,   0.00000
120512968.41053,87312890.91213,-28301705.40847,   0.00038,   0.00016,  -0.00037,118437917.90347,   0.00000,274640135.82653,   0.00000,   0.00000,   0.00000,-356202217.92306,   0.00000
121323447.85053,87863070.38600,-28526509.92468,   0.00038,   0.00016,  -0.00037,119250714.05857,   0.00000,274640135.82653,   0.00000,   0.00000,   0.00000,-355389421.76796,   0.00000
122125053.42805,88392544.18074,-28751314.44088,   0.00038,   0.00016,  -0.00037,120053074.12586,   0.00000,274640135.82653,   0.00000,   0.00000,   0.00000,-354587061.70067,   0.00000
122914827.18892,88933849.79213,-28976118.95708,   0.00039,   0.00016,  -0.00038,120850494.46623,   0.00000,274640135.82653,   0.00000,   0.00000,   0.00000,-353789641.36030,   0.00000
123716432.76644,89463323.58687,-29200923.47329,   0.00039,   0.00017,  -0.00038,121652951.22250,   0.00000,274640135.82653,   0.00000,   0.00000,   0.00000,-352987184.60403,   0.00000
124497332.66484,89983923.51914,-29425727.98949,   0.00039,   0.00017,  -0.00038,122440002.75581,   0.00000,274640135.82653,   0.00000,   0.00000,   0.00000,-352200133.07072,   0.00000
125290064.37987,90492691.63476,-29644616.59738,   0.00039,   0.00017,  -0.00039,123227846.65166,   0.00000,274640135.82653,   0.00000,   0.00000,   0.00000,-351412289.17487,   0.00000
126070964.27827,91013291.56702,-29869421.11358,   0.00040,   0.00017,  -0.00039,124015002.31385,   0.00000,274640135.82653,   0.00000,   0.00000,   0.00000,-350625133.51268,   0.00000
126842990.31418,91513185.82016,-30094225.62979,   0.00040,   0.00017,  -0.00039,124791780.48638,   0.00000,274640135.82653,   0.00000,   0.00000,   0.00000,-349848355.34015,   0.00000
127623890.21257,92033785.75242,-30313114.23767,   0.00040,   0.00017,  -0.00039,125574758.56460,   0.00000,274640135.82653,   0.00000,   0.00000,   0.00000,-349065377.26193,   0.00000
128395916.24849,92533680.00556,-30532002.84555,   0.00040,   0.00017,  -0.00040,126347363.28782,   0.00000,274640135.82653,   0.00000,   0.00000,   0.00000,-348292772.53871,   0.00000
129138362.74279,93003994.71709,-30756807.36176,   0.00041,   0.00017,  -0.00040,127098464.80657,   0.00000,274640135.82653,   0.00000,   0.00000,   0.00000,-347541671.01996,   0.00000
129910388.77871,93503888.97023,-30975695.96964,   0.00041,   0.00017,  -0.00040,127871189.16769,   0.00000,274640135.82653,   0.00000,   0.00000,   0.00000,-346768946.65884,   0.00000
130661709.13549,93994909.36089,-31194584.57752,   0.00041,   0.00017,  -0.00041,128628519.51932,   0.00000,274640135.82653,   0.00000,   0.00000,   0.00000,-346011616.30721,   0.00000
131404155.62980,94465224.07242,-31413473.18541,   0.00041,   0.00017,  -0.00041,129375525.36291,   0.00000,274640135.82653,   0.00000,   0.00000,   0.00000,-345264610.46362,   0.00000
132146602.12411,94935538.78396,-31632361.79329,   0.00042,   0.00017,  -0.00041,130122600.05045,   0.00000,274640135.82653,   0.00000,   0.00000,   0.00000,-344517535.77608,   0.00000
132889048.61841,95405853.49549,-31851250.40117,   0.00042,   0.00017,  -0.00041,130869742.40298,   0.00000,274640135.82653,   0.00000,   0.00000,   0.00000,-343770393.42355,   0.00000
133622621.25024,95855462.52790,-32070139.00906,   0.00042,   0.00018,  -0.00042,131606602.76092,   0.00000,274640135.82653,   0.00000,   0.00000,   0.00000,-343033533.06561,   0.00000
134335488.20294,96296197.69782,-32289027.61694,   0.00042,   0.00018,  -0.00042,132328108.37195,   0.00000,274640135.82653,   0.00000,   0.00000,   0.00000,-342312027.45458,   0.00000
135077934.69725,96766512.40936,-32502000.31650,   0.00043,   0.00018,  -0.00042,133071130.58644,   0.00000,274640135.82653,   0.00000,   0.00000,   0.00000,-341569005.24009,   0.00000
135790801.64995,97207247.57928,-32720888.92438,   0.00043,   0.00018,  -0.00043,133792789.17679,   0.00000,274640135.82653,   0.00000,   0.00000,   0.00000,-340847346.64974,   0.00000
136494794.74017,97627277.07009,-32933861.62395,   0.00043,   0.00018,  -0.00043,134499876.57598,   0.00000,274640135.82653,   0.00000,   0.00000,   0.00000,-340140259.25055,   0.00000
137207661.69287,98068012.24001,-33152750.23183,   0.00043,   0.00018,  -0.00043,135221704.43170,   0.00000,274640135.82653,   0.00000,   0.00000,   0.00000,-339418431.39483,   0.00000
137890949.10396,98479167.86834,-33365722.93139,   0.00044,   0.00018,  -0.00043,135913534.36910,   0.00000,274640135.82653,   0.00000,   0.00000,   0.00000,-338726601.45743,   0.00000
138594942.19418,98899197.35914,-33578695.63095,   0.00044,   0.00018,  -0.00044,136620888.22679,   0.00000,274640135.82653,   0.00000,   0.00000,   0.00000,-338019247.59974,   0.00000
139278229.60528,99310352.98746,-33785752.42219,   0.00044,   0.00018,  -0.00044,137308530.35084,   0.00000,274640135.82653,   0.00000,   0.00000,   0.00000,-337331605.47569,   0.00000
139961517.01637,99721508.61578,-33998725.12176,   0.00044,   0.00018,  -0.00044,138000622.57403,   0.00000,274640135.82653,   0.00000,   0.00000,   0.00000,-336639513.25250,   0.00000
140635930.56498,100111958.56498,-34211697.82132,   0.00044,   0.00018,  -0.00044,138682556.81079,   0.00000,274640135.82653,   0.00000,   0.00000,   0.00000,-335957579.01574,   0.00000
141289638.43447,100493534.65169,-34418754.61256,   0.00045,   0.00018,  -0.00045,139344785.57533,   0.00000,274640135.82653,   0.00000,   0.00000,   0.00000,-335295350.25120,   0.00000
141943346.30396,100875110.73841,-34625811.40380,   0.00045,   0.00018,  -0.00045,140007111.23216,   0.00000,274640135.82653,   0.00000,   0.00000,   0.00000,-334633024.59437,   0.00000
142617759.85258,101265560.68761,-34832868.19504,   0.00045,   0.00018,  -0.00045,140684959.79080,   0.00000,274640135.82653,   0.00000,   0.00000,   0.00000,-333955176.03573,   0.00000
143262593.85958,101626431.09520,-35039924.98628,   0.00045,   0.00018,  -0.00046,141337274.63859,   0.00000,274640135.82653,   0.00000,   0.00000,   0.00000,-333302861.18793,   0.00000
143895596.04995,101999133.31943,-35246981.77752,   0.00046,   0.00018,  -0.00046,141984466.92573,   0.00000,274640135.82653,   0.00000,   0.00000,   0.00000,-332655668.90080,   0.00000
144540430.05696,102360003.72702,-35448122.66044,   0.00046,   0.00018,  -0.00046,142632589.28155,   0.00000,274640135.82653,   0.00000,   0.00000,   0.00000,-332007546.54498,   0.00000
145164558.38484,102712000.27213,-35655179.45168,   0.00046,   0.00018,  -0.00046,143269806.01591,   0.00000,274640135.82653,   0.00000,   0.00000,   0.00000,-331370329.81062,   0.00000
145779812.85024,103043291.13812,-35856320.33460,   0.00046,   0.00018,  -0.00047,143892560.99414,   0.00000,274640135.82653,   0.00000,   0.00000,   0.00000,-330747574.83239,   0.00000
146395067.31564,103374582.00410,-36057461.21752,   0.00046,   0.00018,  -0.00047,144515440.61455,   0.00000,274640135.82653,   0.00000,   0.00000,   0.00000,-330124695.21198,   0.00000
147019195.64353,103726578.54921,-36258602.10044,   0.00047,   0.00019,  -0.00047,145148570.50233,   0.00000,274640135.82653,   0.00000,   0.00000,   0.00000,-329491565.32420,   0.00000
147604870.56732,104028289.87359,-36453827.07504,   0.00047,   0.00019,  -0.00047,145741707.04482,   0.00000,274640135.82653,   0.00000,   0.00000,   0.00000,-328898428.78170,   0.00000
148199419.35360,104350706.87710,-36654967.95796,   0.00047,   0.00019,  -0.00048,146349526.07428,   0.00000,274640135.82653,   0.00000,   0.00000,   0.00000,-328290609.75224,   0.00000
148785094.27739,104652418.20148,-36850192.93256,   0.00047,   0.00019,  -0.00048,146942924.85039,   0.00000,274640135.82653,   0.00000,   0.00000,   0.00000,-327697210.97614,   0.00000
149370769.20119,104954129.52585,-37045417.90716,   0.00047,   0.00019,  -0.00048,147536456.17919,   0.00000,274640135.82653,   0.00000,   0.00000,   0.00000,-327103679.64734,   0.00000
149935738.44586,105246966.98775,-37240642.88176,   0.00048,   0.00019,  -0.00048,148114700.33616,   0.00000,274640135.82653,   0.00000,   0.00000,   0.00000,-326525435.49037,   0.00000
150500707.69053,105539804.44965,-37429951.94803,   0.00048,   0.00019,  -0.00049,148688607.45842,   0.00000,274640135.82653,   0.00000,   0.00000,   0.00000,-325951528.36810,   0.00000
151056803.07272,105811936.23242,-37619261.01431,   0.00048,   0.00019,  -0.00049,149252595.24507,   0.00000,274640135.82653,   0.00000,   0.00000,   0.00000,-325387540.58146,   0.00000
151612898.45491,106084068.01520,-37808570.08059,   0.00048,   0.00019,  -0.00049,149816725.86029,   0.00000,274640135.82653,   0.00000,   0.00000,   0.00000,-324823409.96624,   0.00000
152148288.15798,106347325.93549,-37997879.14687,   0.00048,   0.00019,  -0.00049,150365581.80232,   0.00000,274640135.82653,   0.00000,   0.00000,   0.00000,-324274554.02421,   0.00000
152683677.86104,106610583.85578,-38187188.21314,   0.00049,   0.00019,  -0.00050,150914578.69971,   0.00000,274640135.82653,   0.00000,   0.00000,   0.00000,-323725557.12682,   0.00000
153210193.70163,106853136.09695,-38370581.37110,   0.00049,   0.00019,  -0.00050,151449235.76259,   0.00000,274640135.82653,   0.00000,   0.00000,   0.00000,-323190900.06394,   0.00000
153745583.40469,107116394.01724,-38553974.52906,   0.00049,   0.00019,  -0.00050,151994015.17586,   0.00000,274640135.82653,   0.00000,   0.00000,   0.00000,-322646120.65067,   0.00000
154242519.70367,107329366.71680,-38737367.68701,   0.00049,   0.00019,  -0.00050,152503596.18621,   0.00000,274640135.82653,   0.00000,   0.00000,   0.00000,-322136539.64032,   0.00000
154748329.86513,107563045.09549,-38914844.93665,   0.00049,   0.00019,  -0.00051,153018783.65697,   0.00000,274640135.82653,   0.00000,   0.00000,   0.00000,-321621352.16956,   0.00000
155245266.16411,107776017.79505,-39092322.18628,   0.00050,   0.00019,  -0.00051,153524183.99449,   0.00000,274640135.82653,   0.00000,   0.00000,   0.00000,-321115951.83204,   0.00000
155730370.64645,108000822.31126,-39269799.43592,   0.00050,   0.00019,  -0.00051,154024249.11729,   0.00000,274640135.82653,   0.00000,   0.00000,   0.00000,-320615886.70924,   0.00000
156197727.40382,108184215.46921,-39447276.68555,   0.00050,   0.00019,  -0.00051,154504656.36760,   0.00000,274640135.82653,   0.00000,   0.00000,   0.00000,-320135479.45893,   0.00000
156673958.02367,108388314.30629,-39618838.02687,   0.00050,   0.00019,  -0.00052,154990601.56951,   0.00000,274640135.82653,   0.00000,   0.00000,   0.00000,-319649534.25702,   0.00000
157141314.78104,108571707.46425,-39790399.36818,   0.00050,   0.00019,  -0.00052,155466830.09408,   0.00000,274640135.82653,   0.00000,   0.00000,   0.00000,-319173305.73245,   0.00000
157587965.85929,108746226.75972,-39961960.70949,   0.00050,   0.00019,  -0.00052,155927826.44368,   0.00000,274640135.82653,   0.00000,   0.00000,   0.00000,-318712309.38285,   0.00000
158034616.93754,108920746.05520,-40133522.05081,   0.00051,   0.00019,  -0.00052,156389000.47331,   0.00000,274640135.82653,   0.00000,   0.00000,   0.00000,-318251135.35322,   0.00000
158481268.01579,109095265.35067,-40299167.48380,   0.00051,   0.00019,  -0.00052,156845790.33623,   0.00000,274640135.82653,   0.00000,   0.00000,   0.00000,-317794345.49030,   0.00000
158898339.55243,109240205.10454,-40464812.91679,   0.00051,   0.00019,  -0.00053,157277527.87190,   0.00000,274640135.82653,   0.00000,   0.00000,   0.00000,-317362607.95463,   0.00000
159315411.08907,109385144.85841,-40624542.44147,   0.00051,   0.00019,  -0.00053,157704886.26468,   0.00000,274640135.82653,   0.00000,   0.00000,   0.00000,-316935249.56185,   0.00000
159732482.62572,109530084.61228,-40784271.96614,   0.00051,   0.00019,  -0.00053,158132424.32546,   0.00000,274640135.82653,   0.00000,   0.00000,   0.00000,-316507711.50107,   0.00000
160149554.16236,109675024.36615,-40944001.49081,   0.00051,   0.00019,  -0.00053,158560140.60088,   0.00000,274640135.82653,   0.00000,   0.00000,   0.00000,-316079995.22565,   0.00000
160537046.15740,109790384.57841,-41103731.01548,   0.00052,   0.00019,  -0.00053,158962881.85703,   0.00000,274640135.82653,   0.00000,   0.00000,   0.00000,-315677253.96949,   0.00000
160924538.15243,109905744.79067,-41257544.63183,   0.00052,   0.00019,  -0.00054,159361235.76319,   0.00000,274640135.82653,   0.00000,   0.00000,   0.00000,-315278900.06334,   0.00000
161291324.46834,110012231.14045,-41411358.24818,   0.00052,   0.00019,  -0.00054,159744375.97853,   0.00000,274640135.82653,   0.00000,   0.00000,   0.00000,-314895759.84800,   0.00000
161669942.60090,110106885.67359,-41565171.86453,   0.00052,   0.00019,  -0.00054,160133423.31595,   0.00000,274640135.82653,   0.00000,   0.00000,   0.00000,-314506712.51058,   0.00000
162007149.37521,110183792.48177,-41713069.57256,   0.00052,   0.00019,  -0.00054,160487267.30343,   0.00000,274640135.82653,   0.00000,   0.00000,   0.00000,-314152868.52310,   0.00000
162365061.82864,110269573.15242,-41855051.37227,   0.00052,   0.00019,  -0.00054,160852112.13798,   0.00000,274640135.82653,   0.00000,   0.00000,   0.00000,-313788023.68855,   0.00000
162702268.60294,110346479.96060,-42002949.08030,   0.00053,   0.00018,  -0.00055,161206372.14647,   0.00000,274640135.82653,   0.00000,   0.00000,   0.00000,-313433763.68006,   0.00000
163039475.37725,110423386.76878,-42144930.88001,   0.00053,   0.00018,  -0.00055,161556211.34842,   0.00000,274640135.82653,   0.00000,   0.00000,   0.00000,-313083924.47811,   0.00000
163367808.28908,110479587.89783,-42286912.67971,   0.00053,   0.00018,  -0.00055,161896636.60387,   0.00000,274640135.82653,   0.00000,   0.00000,   0.00000,-312743499.22266,   0.00000
163675435.52178,110526915.16440,-42422978.57110,   0.00053,   0.00018,  -0.00055,162217241.76277,   0.00000,274640135.82653,   0.00000,   0.00000,   0.00000,-312422894.06376,   0.00000
163974188.89199,110553536.75184,-42559044.46249,   0.00053,   0.00018,  -0.00055,162528487.93299,   0.00000,274640135.82653,   0.00000,   0.00000,   0.00000,-312111647.89354,   0.00000
164281816.12470,110600864.01841,-42689194.44555,   0.00053,   0.00018,  -0.00055,162844887.52237,   0.00000,274640135.82653,   0.00000,   0.00000,   0.00000,-311795248.30416,   0.00000
164559863.81579,110618611.74337,-42825260.33694,   0.00053,   0.00018,  -0.00056,163141199.97077,   0.00000,274640135.82653,   0.00000,   0.00000,   0.00000,-311498935.85576,   0.00000
164837911.50689,110636359.46834,-42949494.41169,   0.00053,   0.00018,  -0.00056,163428430.46891,   0.00000,274640135.82653,   0.00000,   0.00000,   0.00000,-311211705.35762,   0.00000
165086379.65637,110624527.65169,-43079644.39475,   0.00054,   0.00018,  -0.00056,163695642.51540,   0.00000,274640135.82653,   0.00000,   0.00000,   0.00000,-310944493.31113,   0.00000
165343721.66835,110633401.51418,-43203878.46950,   0.00054,   0.00018,  -0.00056,163967932.30072,   0.00000,274640135.82653,   0.00000,   0.00000,   0.00000,-310672203.52581,   0.00000
165592189.81783,110621569.69753,-43322196.63592,   0.00054,   0.00018,  -0.00056,164226292.68115,   0.00000,274640135.82653,   0.00000,   0.00000,   0.00000,-310413843.14538,   0.00000
165831784.10484,110589032.20177,-43440514.80234,   0.00054,   0.00018,  -0.00056,164475448.40841,   0.00000,274640135.82653,   0.00000,   0.00000,   0.00000,-310164687.41811,   0.00000
166059546.57521,110568326.52264,-43558832.96877,   0.00054,   0.00018,  -0.00057,164718904.37850,   0.00000,274640135.82653,   0.00000,   0.00000,   0.00000,-309921231.44803,   0.00000
166257729.50397,110518041.30191,-43671235.22687,   0.00054,   0.00018,  -0.00057,164933082.84169,   0.00000,274640135.82653,   0.00000,   0.00000,   0.00000,-309707052.98484,   0.00000
166476618.11185,110476629.94367,-43783637.48497,   0.00054,   0.00018,  -0.00057,165162935.13527,   0.00000,274640135.82653,   0.00000,   0.00000,   0.00000,-309477200.69126,   0.00000
166674801.04061,110426344.72294,-43890123.83475,   0.00054,   0.00018,  -0.00057,165372932.44406,   0.00000,274640135.82653,   0.00000,   0.00000,   0.00000,-309267203.38247,   0.00000
166843404.42776,110346479.96060,-43996610.18453,   0.00054,   0.00018,  -0.00057,165558418.63428,   0.00000,274640135.82653,   0.00000,   0.00000,   0.00000,-309081717.19225,   0.00000
167041587.35652,110296194.73987,-44103096.53431,   0.00054,   0.00018,  -0.00057,165768936.78761,   0.00000,274640135.82653,   0.00000,   0.00000,   0.00000,-308871199.03892,   0.00000
167210190.74367,110216329.97753,-44203666.97577,   0.00055,   0.00018,  -0.00057,165950252.32267,   0.00000,274640135.82653,   0.00000,   0.00000,   0.00000,-308689883.50386,   0.00000
167349214.58922,110106885.67359,-44298321.50891,   0.00055,   0.00017,  -0.00058,166102404.93005,   0.00000,274640135.82653,   0.00000,   0.00000,   0.00000,-308537730.89648,   0.00000
167497112.29725,110018147.04878,-44392976.04205,   0.00055,   0.00017,  -0.00058,166264134.26416,   0.00000,274640135.82653,   0.00000,   0.00000,   0.00000,-308376001.56237,   0.00000
167636136.14280,109908702.74483,-44487630.57519,   0.00055,   0.00017,  -0.00058,166416870.07606,   0.00000,274640135.82653,   0.00000,   0.00000,   0.00000,-308223265.75047,   0.00000
167754454.30922,109790384.57841,-44576369.20001,   0.00055,   0.00017,  -0.00058,166549744.84002,   0.00000,274640135.82653,   0.00000,   0.00000,   0.00000,-308090390.98651,   0.00000
167863898.61316,109651360.73286,-44665107.82482,   0.00055,   0.00017,  -0.00058,166673693.30021,   0.00000,274640135.82653,   0.00000,   0.00000,   0.00000,-307966442.52632,   0.00000
167982216.77959,109533042.56644,-44747930.54132,   0.00055,   0.00017,  -0.00058,166802401.45248,   0.00000,274640135.82653,   0.00000,   0.00000,   0.00000,-307837734.37405,   0.00000
168070955.40440,109385144.85841,-44824837.34950,   0.00055,   0.00017,  -0.00058,166902032.02199,   0.00000,274640135.82653,   0.00000,   0.00000,   0.00000,-307738103.80454,   0.00000
168159694.02922,109237247.15038,-44907660.06599,   0.00055,   0.00017,  -0.00058,167006738.19161,   0.00000,274640135.82653,   0.00000,   0.00000,   0.00000,-307633397.63492,   0.00000
168218853.11243,109059769.90075,-44978650.96585,   0.00055,   0.00017,  -0.00058,167077657.59664,   0.00000,274640135.82653,   0.00000,   0.00000,   0.00000,-307562478.22989,   0.00000
168278012.19565,108882292.65111,-45049641.86570,   0.00055,   0.00017,  -0.00059,167148909.56129,   0.00000,274640135.82653,   0.00000,   0.00000,   0.00000,-307491226.26523,   0.00000
168337171.27886,108704815.40148,-45120632.76555,   0.00055,   0.00017,  -0.00059,167220493.66048,   0.00000,274640135.82653,   0.00000,   0.00000,   0.00000,-307419642.16605,   0.00000
168375624.68294,108518464.28936,-45185707.75709,   0.00055,   0.00017,  -0.00059,167272198.59040,   0.00000,274640135.82653,   0.00000,   0.00000,   0.00000,-307367937.23613,   0.00000
168414078.08703,108332113.17724,-45250782.74862,   0.00056,   0.00016,  -0.00059,167324222.67405,   0.00000,274640135.82653,   0.00000,   0.00000,   0.00000,-307315913.15248,   0.00000
168422951.94951,108116182.52352,-45309941.83183,   0.00056,   0.00016,  -0.00059,167347320.08352,   0.00000,274640135.82653,   0.00000,   0.00000,   0.00000,-307292815.74301,   0.00000
168431825.81200,107900251.86980,-45363185.00672,   0.00056,   0.00016,  -0.00059,167365956.91414,   0.00000,274640135.82653,   0.00000,   0.00000,   0.00000,-307274178.91239,   0.00000
168419993.99535,107675447.35359,-45416428.18161,   0.00056,   0.00016,  -0.00059,167369513.32241,   0.00000,274640135.82653,   0.00000,   0.00000,   0.00000,-307270622.50412,   0.00000
168399288.31623,107429937.15826,-45469671.35650,   0.00056,   0.00016,  -0.00059,167364451.96558,   0.00000,274640135.82653,   0.00000,   0.00000,   0.00000,-307275683.86095,   0.00000
168378582.63711,107184426.96294,-45516998.62307,   0.00056,   0.00016,  -0.00059,167354946.36378,   0.00000,274640135.82653,   0.00000,   0.00000,   0.00000,-307285189.46275,   0.00000
168337171.27886,106930042.90513,-45558409.98132,   0.00056,   0.00016,  -0.00059,167325558.48573,   0.00000,274640135.82653,   0.00000,   0.00000,   0.00000,-307314577.34080,   0.00000
168295759.92061,106675658.84731,-45599821.33957,   0.00056,   0.00016,  -0.00059,167296530.28567,   0.00000,274640135.82653,   0.00000,   0.00000,   0.00000,-307343605.54086,   0.00000
168254348.56236,106421274.78950,-45635316.78950,   0.00056,   0.00016,  -0.00059,167263019.49480,   0.00000,274640135.82653,   0.00000,   0.00000,   0.00000,-307377116.33173,   0.00000
168183357.66251,106137311.19009,-45670812.23942,   0.00056,   0.00015,  -0.00059,167205593.57839,   0.00000,274640135.82653,   0.00000,   0.00000,   0.00000,-307434542.24814,   0.00000
168091661.08353,105844473.72819,-45700391.78103,   0.00056,   0.00015,  -0.00059,167128283.56072,   0.00000,274640135.82653,   0.00000,   0.00000,   0.00000,-307511852.26581,   0.00000
167991090.64207,105530930.58717,-45729971.32263,   0.00056,   0.00015,  -0.00059,167042565.08867,   0.00000,274640135.82653,   0.00000,   0.00000,   0.00000,-307597570.73786,   0.00000
167899394.06309,105238093.12527,-45753634.95592,   0.00056,   0.00015,  -0.00059,166961181.23189,   0.00000,274640135.82653,   0.00000,   0.00000,   0.00000,-307678954.59464,   0.00000
167778117.94251,104915676.12177,-45771382.68088,   0.00056,   0.00015,  -0.00060,166851130.32761,   0.00000,274640135.82653,   0.00000,   0.00000,   0.00000,-307789005.49892,   0.00000
167656841.82192,104593259.11826,-45789130.40585,   0.00056,   0.00015,  -0.00060,166741489.59699,   0.00000,274640135.82653,   0.00000,   0.00000,   0.00000,-307898646.22954,   0.00000
167505986.15973,104241262.57315,-45800962.22249,   0.00056,   0.00015,  -0.00060,166603256.74444,   0.00000,274640135.82653,   0.00000,   0.00000,   0.00000,-308036879.08208,   0.00000
167364004.36002,103909971.70717,-45812794.03913,   0.00056,   0.00015,  -0.00060,166474140.66687,   0.00000,274640135.82653,   0.00000,   0.00000,   0.00000,-308165995.15966,   0.00000
167213148.69783,103557975.16206,-45818709.94745,   0.00056,   0.00015,  -0.00060,166331893.39762,   0.00000,274640135.82653,   0.00000,   0.00000,   0.00000,-308308242.42891,   0.00000
167041587.35652,103197104.75447,-45818709.94745,   0.00056,   0.00014,  -0.00060,166169758.65438,   0.00000,274640135.82653,   0.00000,   0.00000,   0.00000,-308470377.17215,   0.00000
166849320.33608,102827360.48439,-45818709.94745,   0.00056,   0.00014,  -0.00060,165992617.59419,   0.00000,274640135.82653,   0.00000,   0.00000,   0.00000,-308647518.23234,   0.00000
166648179.45316,102436910.53520,-45812794.03913,   0.00056,   0.00014,  -0.00060,165802436.64846,   0.00000,274640135.82653,   0.00000,   0.00000,   0.00000,-308837699.17807,   0.00000
166447038.57024,102046460.58600,-45806878.13081,   0.00056,   0.00014,  -0.00060,165612728.55095,   0.00000,274640135.82653,   0.00000,   0.00000,   0.00000,-309027407.27558,   0.00000
166225192.00820,101647136.77432,-45795046.31417,   0.00056,   0.00014,  -0.00060,165403140.37507,   0.00000,274640135.82653,   0.00000,   0.00000,   0.00000,-309236995.45146,   0.00000
166003345.44616,101247812.96264,-45777298.58920,   0.00056,   0.00014,  -0.00060,165189097.26887,   0.00000,274640135.82653,   0.00000,   0.00000,   0.00000,-309451038.55766,   0.00000
165751919.34251,100818909.60936,-45753634.95592,   0.00056,   0.00014,  -0.00059,164946684.90701,   0.00000,274640135.82653,   0.00000,   0.00000,   0.00000,-309693450.91952,   0.00000
165500493.23886,100390006.25607,-45729971.32263,   0.00056,   0.00013,  -0.00059,164704771.93535,   0.00000,274640135.82653,   0.00000,   0.00000,   0.00000,-309935363.89118,   0.00000
165228361.45608,99952229.04031,-45706307.68935,   0.00056,   0.00013,  -0.00059,164447913.27091,   0.00000,274640135.82653,   0.00000,   0.00000,   0.00000,-310192222.55562,   0.00000
164956229.67331,99514451.82454,-45676728.14774,   0.00056,   0.00013,  -0.00059,164186618.03521,   0.00000,274640135.82653,   0.00000,   0.00000,   0.00000,-310453517.79132,   0.00000
164684097.89054,99076674.60877,-45641232.69782,   0.00056,   0.00013,  -0.00059,163920874.61986,   0.00000,274640135.82653,   0.00000,   0.00000,   0.00000,-310719261.20667,   0.00000
164382386.56616,98609317.85140,-45599821.33957,   0.00056,   0.00013,  -0.00059,163626900.88378,   0.00000,274640135.82653,   0.00000,   0.00000,   0.00000,-311013234.94275,   0.00000
164059969.56265,98133087.23155,-45558409.98132,   0.00056,   0.00013,  -0.00059,163318006.59534,   0.00000,274640135.82653,   0.00000,   0.00000,   0.00000,-311322129.23119,   0.00000
163737552.55915,97656856.61169,-45511082.71475,   0.00055,   0.00013,  -0.00059,163004690.17401,   0.00000,274640135.82653,   0.00000,   0.00000,   0.00000,-311635445.65252,   0.00000
163406261.69316,97159920.31271,-45457839.53986,   0.00055,   0.00012,  -0.00059,162678709.84827,   0.00000,274640135.82653,   0.00000,   0.00000,   0.00000,-311961425.97826,   0.00000
163054265.14805,96654110.15125,-45404596.36497,   0.00055,   0.00012,  -0.00059,162337850.17995,   0.00000,274640135.82653,   0.00000,   0.00000,   0.00000,-312302285.64658,   0.00000
162681562.92382,96139426.12731,-45345437.28176,   0.00055,   0.00012,  -0.00059,161977140.72442,   0.00000,274640135.82653,   0.00000,   0.00000,   0.00000,-312662995.10211,   0.00000
162308860.69959,95624742.10337,-45286278.19855,   0.00055,   0.00012,  -0.00059,161617002.81119,   0.00000,274640135.82653,   0.00000,   0.00000,   0.00000,-313023133.01534,   0.00000
161936158.47535,95110058.07943,-45215287.29869,   0.00055,   0.00012,  -0.00059,161247486.02191,   0.00000,274640135.82653,   0.00000,   0.00000,   0.00000,-313392649.80462,   0.00000
161533876.70951,94565794.51388,-45144296.39884,   0.00055,   0.00012,  -0.00059,160854984.12216,   0.00000,274640135.82653,   0.00000,   0.00000,   0.00000,-313785151.70436,   0.00000
161131594.94367,94021530.94833,-45073305.49898,   0.00055,   0.00011,  -0.00059,160463106.46383,   0.00000,274640135.82653,   0.00000,   0.00000,   0.00000,-314177029.36269,   0.00000
160708607.49871,93468393.52031,-44990482.78249,   0.00055,   0.00011,  -0.00058,160046406.91579,   0.00000,274640135.82653,   0.00000,   0.00000,   0.00000,-314593728.91074,   0.00000
160285620.05375,92915256.09228,-44907660.06599,   0.00055,   0.00011,  -0.00058,159630320.34458,   0.00000,274640135.82653,   0.00000,   0.00000,   0.00000,-315009815.48195,   0.00000
159833053.06718,92332539.12264,-44824837.34950,   0.00055,   0.00011,  -0.00058,159191422.94238,   0.00000,274640135.82653,   0.00000,   0.00000,   0.00000,-315448712.88415,   0.00000
159389359.94309,91770527.83213,-44730182.81636,   0.00055,   0.00011,  -0.00058,158751125.70690,   0.00000,274640135.82653,   0.00000,   0.00000,   0.00000,-315889010.11963,   0.00000
158916087.27740,91178937.00001,-44635528.28322,   0.00055,   0.00010,  -0.00058,158288068.38553,   0.00000,274640135.82653,   0.00000,   0.00000,   0.00000,-316352067.44100,   0.00000
158422108.93258,90578472.30541,-44534957.84176,   0.00054,   0.00010,  -0.00058,157805193.34678,   0.00000,274640135.82653,   0.00000,   0.00000,   0.00000,-316834942.47975,   0.00000
157939962.40440,89966175.79417,-44428471.49198,   0.00054,   0.00010,  -0.00058,157325641.03182,   0.00000,274640135.82653,   0.00000,   0.00000,   0.00000,-317314494.79471,   0.00000
157425278.38046,89356837.23709,-44321985.14220,   0.00054,   0.00010,  -0.00058,156823635.83902,   0.00000,274640135.82653,   0.00000,   0.00000,   0.00000,-317816499.98751,   0.00000
156922426.17316,88735666.86337,-44209582.88409,   0.00054,   0.00010,  -0.00057,156325020.17854,   0.00000,274640135.82653,   0.00000,   0.00000,   0.00000,-318315115.64799,   0.00000
156378162.60761,88096748.76468,-44091264.71767,   0.00054,   0.00010,  -0.00057,155791135.99023,   0.00000,274640135.82653,   0.00000,   0.00000,   0.00000,-318848999.83630,   0.00000
155825025.17958,87437124.98687,-43972946.55125,   0.00054,   0.00009,  -0.00057,155250304.92941,   0.00000,274640135.82653,   0.00000,   0.00000,   0.00000,-319389830.89712,   0.00000
155280761.61404,86798206.88819,-43842796.56818,   0.00054,   0.00009,  -0.00057,154707867.95398,   0.00000,274640135.82653,   0.00000,   0.00000,   0.00000,-319932267.87255,   0.00000
154706918.50688,86129709.24790,-43712646.58512,   0.00054,   0.00009,  -0.00057,154143056.78107,   0.00000,274640135.82653,   0.00000,   0.00000,   0.00000,-320497079.04546,   0.00000
154133075.39973,85461211.60760,-43576580.69373,   0.00053,   0.00009,  -0.00057,153574019.30021,   0.00000,274640135.82653,   0.00000,   0.00000,   0.00000,-321066116.52631,   0.00000
153538526.61345,84783840.10483,-43440514.80234,   0.00053,   0.00009,  -0.00056,152990286.57435,   0.00000,274640135.82653,   0.00000,   0.00000,   0.00000,-321649849.25218,   0.00000
152943977.82718,84106468.60206,-43298533.00263,   0.00053,   0.00008,  -0.00056,152402327.49487,   0.00000,274640135.82653,   0.00000,   0.00000,   0.00000,-322237808.33166,   0.00000
152319849.49929,83399517.55768,-43150635.29460,   0.00053,   0.00008,  -0.00056,151787173.68943,   0.00000,274640135.82653,   0.00000,   0.00000,   0.00000,-322852962.13710,   0.00000
151704595.03389,82713272.19242,-42996821.67825,   0.00053,   0.00008,  -0.00056,151175282.74354,   0.00000,274640135.82653,   0.00000,   0.00000,   0.00000,-323464853.08299,   0.00000
151059761.02688,81997447.28556,-42837092.15358,   0.00053,   0.00008,  -0.00056,150536265.94147,   0.00000,274640135.82653,   0.00000,   0.00000,   0.00000,-324103869.88506,   0.00000
150394221.34075,81272748.51622,-42677362.62891,   0.00053,   0.00008,  -0.00055,149882626.00325,   0.00000,274640135.82653,   0.00000,   0.00000,   0.00000,-324757509.82328,   0.00000
149740513.47126,80536217.93023,-42511717.19592,   0.00052,   0.00007,  -0.00055,149233064.17840,   0.00000,274640135.82653,   0.00000,   0.00000,   0.00000,-325407071.64813,   0.00000
149054268.10601,79802645.29841,-42340155.85460,   0.00052,   0.00007,  -0.00055,148555641.23499,   0.00000,274640135.82653,   0.00000,   0.00000,   0.00000,-326084494.59154,   0.00000
148359148.87827,79048366.98746,-42162678.60497,   0.00052,   0.00007,  -0.00055,147866856.78079,   0.00000,274640135.82653,   0.00000,   0.00000,   0.00000,-326773279.04574,   0.00000
147664029.65053,78294088.67651,-41985201.35533,   0.00052,   0.00007,  -0.00055,147179077.11721,   0.00000,274640135.82653,   0.00000,   0.00000,   0.00000,-327461058.70932,   0.00000
146948204.74367,77530936.50308,-41801808.19738,   0.00052,   0.00007,  -0.00054,146471712.51447,   0.00000,274640135.82653,   0.00000,   0.00000,   0.00000,-328168423.31206,   0.00000
146211674.15769,76758910.46716,-41612499.13110,   0.00052,   0.00006,  -0.00054,145744761.28487,   0.00000,274640135.82653,   0.00000,   0.00000,   0.00000,-328895374.54166,   0.00000
145466269.70922,75966178.75213,-41417274.15650,   0.00051,   0.00006,  -0.00054,145006727.72614,   0.00000,274640135.82653,   0.00000,   0.00000,   0.00000,-329633408.10038,   0.00000
144729739.12323,75194152.71622,-41216133.27358,   0.00051,   0.00006,  -0.00054,144271746.39982,   0.00000,274640135.82653,   0.00000,   0.00000,   0.00000,-330368389.42670,   0.00000
143963628.99564,74392547.13870,-41014992.39066,   0.00051,   0.00006,  -0.00053,143515313.78038,   0.00000,274640135.82653,   0.00000,   0.00000,   0.00000,-331124822.04615,   0.00000
143176813.18893,73582067.69870,-40807935.59942,   0.00051,   0.00006,  -0.00053,142739403.75545,   0.00000,274640135.82653,   0.00000,   0.00000,   0.00000,-331900732.07108,   0.00000
142389997.38221,72771588.25870,-40594962.89986,   0.00051,   0.00005,  -0.00053,141959579.41987,   0.00000,274640135.82653,   0.00000,   0.00000,   0.00000,-332680556.40666,   0.00000
141573602.03389,71931529.27709,-40376074.29198,   0.00050,   0.00005,  -0.00052,141153484.27552,   0.00000,274640135.82653,   0.00000,   0.00000,   0.00000,-333486651.55100,   0.00000
140766080.54805,71112175.97461,-40151269.77577,   0.00050,   0.00005,  -0.00052,140350354.85290,   0.00000,274640135.82653,   0.00000,   0.00000,   0.00000,-334289780.97363,   0.00000
139949685.19973,70272116.99300,-39926465.25957,   0.00050,   0.00005,  -0.00052,139541721.52823,   0.00000,274640135.82653,   0.00000,   0.00000,   0.00000,-335098414.29830,   0.00000
139091878.49316,69414310.28643,-39695744.83504,   0.00050,   0.00004,  -0.00052,138698185.99130,   0.00000,274640135.82653,   0.00000,   0.00000,   0.00000,-335941949.83523,   0.00000
138254777.46571,68565377.44235,-39459108.50220,   0.00050,   0.00004,  -0.00051,137866483.26234,   0.00000,274640135.82653,   0.00000,   0.00000,   0.00000,-336773652.56419,   0.00000
137376265.08002,67698696.87329,-39216556.26103,   0.00049,   0.00004,  -0.00051,136999899.61078,   0.00000,274640135.82653,   0.00000,   0.00000,   0.00000,-337640236.21575,   0.00000
136518458.37345,66840890.16673,-38968088.11154,   0.00049,   0.00004,  -0.00051,136145196.26590,   0.00000,274640135.82653,   0.00000,   0.00000,   0.00000,-338494939.56063,   0.00000
135610366.44615,65944630.05607,-38719619.96205,   0.00049,   0.00004,  -0.00050,135254268.63448,   0.00000,274640135.82653,   0.00000,   0.00000,   0.00000,-339385867.19205,   0.00000
134702274.51885,65048369.94541,-38459319.99592,   0.00049,   0.00003,  -0.00050,134354708.48229,   0.00000,274640135.82653,   0.00000,   0.00000,   0.00000,-340285427.34424,   0.00000
133803056.45403,64172815.51388,-38199020.02979,   0.00048,   0.00003,  -0.00050,133463046.21171,   0.00000,274640135.82653,   0.00000,   0.00000,   0.00000,-341177089.61482,   0.00000
132874258.84761,63267681.54074,-37932804.15533,   0.00048,   0.00003,  -0.00049,132545896.92394,   0.00000,274640135.82653,   0.00000,   0.00000,   0.00000,-342094238.90259,   0.00000
131936587.37871,62341841.88848,-37666588.28088,   0.00048,   0.00003,  -0.00049,131624139.45657,   0.00000,274640135.82653,   0.00000,   0.00000,   0.00000,-343015996.36996,   0.00000
130987084.09316,61427834.05286,-37388540.58979,   0.00048,   0.00002,  -0.00049,130684547.79818,   0.00000,274640135.82653,   0.00000,   0.00000,   0.00000,-343955588.02835,   0.00000
130016875.12849,60504952.35475,-37104576.99037,   0.00047,   0.00002,  -0.00048,129725946.30053,   0.00000,274640135.82653,   0.00000,   0.00000,   0.00000,-344914189.52600,   0.00000
129037792.30133,59561364.97753,-36820613.39095,   0.00047,   0.00002,  -0.00048,128763013.74344,   0.00000,274640135.82653,   0.00000,   0.00000,   0.00000,-345877122.08309,   0.00000
128038003.79506,58608903.73782,-36530733.88322,   0.00047,   0.00002,  -0.00047,127781260.47314,   0.00000,274640135.82653,   0.00000,   0.00000,   0.00000,-346858875.35339,   0.00000
127038215.28878,57656442.49811,-36234938.46716,   0.00047,   0.00001,  -0.00047,126796349.50420,   0.00000,274640135.82653,   0.00000,   0.00000,   0.00000,-347843786.32233,   0.00000
126038426.78250,56703981.25840,-35933227.14278,   0.00046,   0.00001,  -0.00047,125808331.85815,   0.00000,274640135.82653,   0.00000,   0.00000,   0.00000,-348831803.96838,   0.00000
124997226.91797,55733772.29373,-35625599.91008,   0.00046,   0.00001,  -0.00046,124785989.74139,   0.00000,274640135.82653,   0.00000,   0.00000,   0.00000,-349854146.08514,   0.00000
123976732.73257,54772437.19154,-35317972.67738,   0.00046,   0.00001,  -0.00046,123781339.10351,   0.00000,274640135.82653,   0.00000,   0.00000,   0.00000,-350858796.72302,   0.00000
122905953.32644,53772648.68526,-35004429.53636,   0.00045,   0.00000,  -0.00046,122736802.63742,   0.00000,274640135.82653,   0.00000,   0.00000,   0.00000,-351903333.18911,   0.00000
121835173.92031,52772860.17899,-34679054.57869,   0.00045,   0.00000,  -0.00045,121684445.41888,   0.00000,274640135.82653,   0.00000,   0.00000,   0.00000,-352955690.40765,   0.00000
120773268.37666,51793777.35183,-34353679.62103,   0.00045,   0.00000,  -0.00045,120639959.65231,   0.00000,274640135.82653,   0.00000,   0.00000,   0.00000,-354000176.17422,   0.00000
119681783.29140,50785114.98307,-34022388.75504,   0.00045,  -0.00000,  -0.00044,119571622.21706,   0.00000,274640135.82653,   0.00000,   0.00000,   0.00000,-355068513.60947,   0.00000
118590298.20615,49776452.61431,-33685181.98073,   0.00044,  -0.00000,  -0.00044,118500734.84809,   0.00000,274640135.82653,   0.00000,   0.00000,   0.00000,-356139400.97844,   0.00000
117478107.44177,48758916.38307,-33347975.20643,   0.00044,  -0.00001,  -0.00043,117416756.84698,   0.00000,274640135.82653,   0.00000,   0.00000,   0.00000,-357223378.97955,   0.00000
116336337.13578,47711800.61023,-32998936.61548,   0.00044,  -0.00001,  -0.00043,116304482.23414,   0.00000,274640135.82653,   0.00000,   0.00000,   0.00000,-358335653.59239,   0.00000
115203440.69228,46685390.51650,-32649898.02453,   0.00043,  -0.00001,  -0.00042,115200209.81097,   0.00000,274640135.82653,   0.00000,   0.00000,   0.00000,-359439926.01556,   0.00000
114061670.38629,45638274.74366,-32294943.52526,   0.00043,  -0.00001,  -0.00042,114088689.42177,   0.00000,274640135.82653,   0.00000,   0.00000,   0.00000,-360551446.40475,   0.00000
112887362.58454,44594116.92497,-31934073.11767,   0.00043,  -0.00002,  -0.00042,112948814.63220,   0.00000,274640135.82653,   0.00000,   0.00000,   0.00000,-361691321.19433,   0.00000
111724886.59943,43538127.28964,-31567286.80176,   0.00042,  -0.00002,  -0.00041,111817741.29105,   0.00000,274640135.82653,   0.00000,   0.00000,   0.00000,-362822394.53548,   0.00000
110520999.25607,42464389.92935,-31194584.57752,   0.00042,  -0.00002,  -0.00041,110653581.96522,   0.00000,274640135.82653,   0.00000,   0.00000,   0.00000,-363986553.86131,   0.00000
109337817.59184,41399526.43154,-30815966.44497,   0.00042,  -0.00002,  -0.00040,109503500.57854,   0.00000,274640135.82653,   0.00000,   0.00000,   0.00000,-365136635.24799,   0.00000
108113224.56936,40316915.20877,-30431432.40409,   0.00041,  -0.00003,  -0.00040,108320577.47871,   0.00000,274640135.82653,   0.00000,   0.00000,   0.00000,-366319558.34782,   0.00000
106909337.22600,39243177.84847,-30046898.36322,   0.00041,  -0.00003,  -0.00039,107156985.60092,   0.00000,274640135.82653,   0.00000,   0.00000,   0.00000,-367483150.22561,   0.00000
105664038.52439,38151692.76322,-29656448.41402,   0.00041,  -0.00003,  -0.00039,105960811.44310,   0.00000,274640135.82653,   0.00000,   0.00000,   0.00000,-368679324.38343,   0.00000
104409865.96031,37039501.99884,-29254166.64818,   0.00040,  -0.00004,  -0.00038,104754351.59493,   0.00000,274640135.82653,   0.00000,   0.00000,   0.00000,-369885784.23160,   0.00000
103164567.25870,35948016.91358,-28851884.88234,   0.00040,  -0.00004,  -0.00038,103556361.62394,   0.00000,274640135.82653,   0.00000,   0.00000,   0.00000,-371083774.20259,   0.00000
101889689.01549,34826952.28672,-28443687.20818,   0.00040,  -0.00004,  -0.00037,102337910.96849,   0.00000,274640135.82653,   0.00000,   0.00000,   0.00000,-372302224.85804,   0.00000
100594105.09315,33697013.79738,-28029573.62570,   0.00039,  -0.00004,  -0.00036,101103475.52883,   0.00000,274640135.82653,   0.00000,   0.00000,   0.00000,-373536660.29770,   0.00000
99307395.03330,32587780.98716,-27615460.04322,   0.00039,  -0.00005,  -0.00036,99877702.40855,   0.00000,274640135.82653,   0.00000,   0.00000,   0.00000,-374762433.41798,   0.00000
98011811.11096,31457842.49781,-27189514.64409,   0.00038,  -0.00005,  -0.00035,98643195.27853,   0.00000,274640135.82653,   0.00000,   0.00000,   0.00000,-375996940.54800,   0.00000
96695521.50950,30319030.14599,-26763569.24497,   0.00038,  -0.00005,  -0.00035,97398249.23247,   0.00000,274640135.82653,   0.00000,   0.00000,   0.00000,-377241886.59406,   0.00000
95358526.22892,29171343.93168,-26325792.02920,   0.00038,  -0.00005,  -0.00034,96133352.40063,   0.00000,274640135.82653,   0.00000,   0.00000,   0.00000,-378506783.42590,   0.00000
94021530.94833,28023657.71738,-25888014.81343,   0.00037,  -0.00006,  -0.00034,94874203.05495,   0.00000,274640135.82653,   0.00000,   0.00000,   0.00000,-379765932.77158,   0.00000
92654956.12614,26846391.96146,-25444321.68935,   0.00037,  -0.00006,  -0.00033,93597323.17457,   0.00000,274640135.82653,   0.00000,   0.00000,   0.00000,-381042812.65196,   0.00000
91297255.16644,25689831.88468,-24994712.65694,   0.00037,  -0.00006,  -0.00032,92325251.73992,   0.00000,274640135.82653,   0.00000,   0.00000,   0.00000,-382314884.08661,   0.00000
89918848.52760,24524397.94541,-24539187.71621,   0.00036,  -0.00006,  -0.00032,91039304.65653,   0.00000,274640135.82653,   0.00000,   0.00000,   0.00000,-383600831.17000,   0.00000
88510862.34717,23329384.46453,-24077746.86716,   0.00036,  -0.00007,  -0.00031,89737075.27296,   0.00000,274640135.82653,   0.00000,   0.00000,   0.00000,-384903060.55357,   0.00000
87132455.70833,22163950.52526,-23616306.01811,   0.00035,  -0.00007,  -0.00031,88460702.19600,   0.00000,274640135.82653,   0.00000,   0.00000,   0.00000,-386179433.63053,   0.00000
85703763.84877,20960063.18190,-23143033.35241,   0.00035,  -0.00007,  -0.00030,87148741.00921,   0.00000,274640135.82653,   0.00000,   0.00000,   0.00000,-387491394.81732,   0.00000
84275071.98921,19756175.83854,-22669760.68672,   0.00034,  -0.00007,  -0.00029,85845181.87006,   0.00000,274640135.82653,   0.00000,   0.00000,   0.00000,-388794953.95646,   0.00000
82855253.99213,18572994.17431,-22190572.11270,   0.00034,  -0.00008,  -0.00029,84547877.25934,   0.00000,274640135.82653,   0.00000,   0.00000,   0.00000,-390092258.56719,   0.00000
81405856.45344,17360232.96847,-21699551.72205,   0.00034,  -0.00008,  -0.00028,83232674.80636,   0.00000,274640135.82653,   0.00000,   0.00000,   0.00000,-391407461.02017,   0.00000
79935753.23563,16138597.90015,-21208531.33139,   0.00033,  -0.00008,  -0.00028,81911741.59984,   0.00000,274640135.82653,   0.00000,   0.00000,   0.00000,-392728394.22669,   0.00000
78465650.01782,14916962.83183,-20711595.03241,   0.00033,  -0.00009,  -0.00027,80596621.10979,   0.00000,274640135.82653,   0.00000,   0.00000,   0.00000,-394043514.71674,   0.00000
76995546.80001,13695327.76351,-20214658.73343,   0.00032,  -0.00009,  -0.00026,79292460.31593,   0.00000,274640135.82653,   0.00000,   0.00000,   0.00000,-395347675.51060,   0.00000
75484032.22395,12455944.97022,-19705890.61781,   0.00032,  -0.00009,  -0.00026,77959804.44755,   0.00000,274640135.82653,   0.00000,   0.00000,   0.00000,-396680331.37898,   0.00000
73993223.32702,11225436.03942,-19191206.59387,   0.00031,  -0.00009,  -0.00025,76650561.30502,   0.00000,274640135.82653,   0.00000,   0.00000,   0.00000,-397989574.52151,   0.00000
72481708.75096,9986053.24613,-18676522.56993,   0.00031,  -0.00010,  -0.00024,75338905.26050,   0.00000,274640135.82653,   0.00000,   0.00000,   0.00000,-399301230.56603,   0.00000
70949488.49578,8737796.59037,-18150006.72935,   0.00031,  -0.00010,  -0.00024,74016924.01894,   0.00000,274640135.82653,   0.00000,   0.00000,   0.00000,-400623211.80758,   0.00000
69417268.24059,7489539.93460,-17623490.88876,   0.00030,  -0.00010,  -0.00023,72709760.20521,   0.00000,274640135.82653,   0.00000,   0.00000,   0.00000,-401930375.62132,   0.00000
67855468.44381,6211703.73723,-17091059.13986,   0.00030,  -0.00010,  -0.00022,71398632.35168,   0.00000,274640135.82653,   0.00000,   0.00000,   0.00000,-403241503.47485,   0.00000
66302542.50950,4954573.21898,-16552711.48263,   0.00029,  -0.00011,  -0.00022,70100291.79554,   0.00000,274640135.82653,   0.00000,   0.00000,   0.00000,-404539844.03099,   0.00000
64728910.89607,3688568.83825,-16008447.91708,   0.00029,  -0.00011,  -0.00021,68800375.11774,   0.00000,274640135.82653,   0.00000,   0.00000,   0.00000,-405839760.70878,   0.00000
63146405.42016,2401858.77839,-15458268.44321,   0.00028,  -0.00011,  -0.00020,67516241.63624,   0.00000,274640135.82653,   0.00000,   0.00000,   0.00000,-407123894.19029,   0.00000
61552068.12760,1126980.53518,-14908088.96935,   0.00028,  -0.00011,  -0.00019,66236791.46354,   0.00000,274640135.82653,   0.00000,   0.00000,   0.00000,-408403344.36298,   0.00000
59957730.83505,-147897.70803,-14346077.67883,   0.00027,  -0.00012,  -0.00019,64971138.25300,   0.00000,274640135.82653,   0.00000,   0.00000,   0.00000,-409668997.57353,   0.00000
58333814.00088,-1452355.49285,-13784066.38832,   0.00027,  -0.00012,  -0.00018,63715508.99226,   0.00000,274640135.82653,   0.00000,   0.00000,   0.00000,-410924626.83426,   0.00000
56718771.02921,-2736107.59854,-13216139.18949,   0.00026,  -0.00012,  -0.00017,62479540.15096,   0.00000,274640135.82653,   0.00000,   0.00000,   0.00000,-412160595.67557,   0.00000
55074148.51592,-4049439.24584,-12636380.17402,   0.00026,  -0.00013,  -0.00016,61250416.51367,   0.00000,274640135.82653,   0.00000,   0.00000,   0.00000,-413389719.31286,   0.00000
53417694.18599,-5350939.07650,-12056621.15854,   0.00025,  -0.00013,  -0.00016,60033355.47532,   0.00000,274640135.82653,   0.00000,   0.00000,   0.00000,-414606780.35120,   0.00000
51752365.99358,-6673144.58628,-11470946.23475,   0.00025,  -0.00013,  -0.00015,58846725.38147,   0.00000,274640135.82653,   0.00000,   0.00000,   0.00000,-415793410.44506,   0.00000
50095911.66366,-7974644.41694,-10885271.31095,   0.00024,  -0.00013,  -0.00014,57690205.37135,   0.00000,274640135.82653,   0.00000,   0.00000,   0.00000,-416949930.45518,   0.00000
48409877.79212,-9305723.78920,-10287764.57051,   0.00024,  -0.00014,  -0.00013,56551887.80285,   0.00000,274640135.82653,   0.00000,   0.00000,   0.00000,-418088248.02368,   0.00000
46723843.92059,-10636803.16146,-9690257.83007,   0.00023,  -0.00014,  -0.00013,55452274.91620,   0.00000,274640135.82653,   0.00000,   0.00000,   0.00000,-419187860.91033,   0.00000
45025978.23242,-11956050.71708,-9080919.27299,   0.00023,  -0.00014,  -0.00012,54369182.70856,   0.00000,274640135.82653,   0.00000,   0.00000,   0.00000,-420270953.11797,   0.00000
43319238.68176,-13296003.95183,-8471580.71591,   0.00022,  -0.00014,  -0.00011,53334941.35401,   0.00000,274640135.82653,   0.00000,   0.00000,   0.00000,-421305194.47252,   0.00000
41600667.31446,-14624125.36993,-7856326.25051,   0.00022,  -0.00015,  -0.00010,52326088.37460,   0.00000,274640135.82653,   0.00000,   0.00000,   0.00000,-422314047.45193,   0.00000
39852516.40555,-15981826.32964,-7235155.87679,   0.00021,  -0.00015,  -0.00009,51357572.70707,   0.00000,274640135.82653,   0.00000,   0.00000,   0.00000,-423282563.11945,   0.00000
38133945.03825,-17309947.74774,-6608069.59475,   0.00021,  -0.00015,  -0.00009,50447283.40104,   0.00000,274640135.82653,   0.00000,   0.00000,   0.00000,-424192852.42549,   0.00000
36365088.45022,-18676522.56993,-5975067.40438,   0.00020,  -0.00016,  -0.00008,49573277.47846,   0.00000,274640135.82653,   0.00000,   0.00000,   0.00000,-425066858.34807,   0.00000
34596231.86219,-20043097.39212,-5342065.21402,   0.00020,  -0.00016,  -0.00007,48761189.88498,   0.00000,274640135.82653,   0.00000,   0.00000,   0.00000,-425878945.94155,   0.00000
32836249.13665,-21388966.53519,-4697231.20701,   0.00019,  -0.00016,  -0.00006,48002422.06148,   0.00000,274640135.82653,   0.00000,   0.00000,   0.00000,-426637713.76505,   0.00000
31046686.86949,-22764415.21986,-4052397.20000,   0.00019,  -0.00016,  -0.00005,47308992.86787,   0.00000,274640135.82653,   0.00000,   0.00000,   0.00000,-427331142.95866,   0.00000
29265998.46482,-24119158.22540,-3401647.28467,   0.00018,  -0.00017,  -0.00004,46677803.29011,   0.00000,274640135.82653,   0.00000,   0.00000,   0.00000,-427962332.53642,   0.00000
27455730.51854,-25503480.77256,-2744981.46102,   0.00017,  -0.00017,  -0.00004,46120127.22081,   0.00000,274640135.82653,   0.00000,   0.00000,   0.00000,-428520008.60572,   0.00000
25654336.43475,-26867097.64059,-2082399.72905,   0.00017,  -0.00017,  -0.00003,45631706.53534,   0.00000,274640135.82653,   0.00000,   0.00000,   0.00000,-429008429.29119,   0.00000
23823362.80935,-28260294.05022,-1413902.08876,   0.00016,  -0.00018,  -0.00002,45226645.14374,   0.00000,274640135.82653,   0.00000,   0.00000,   0.00000,-429413490.68279,   0.00000
22001263.04643,-29632784.78073,-745404.44847,   0.00016,  -0.00018,  -0.00001,44897473.04285,   0.00000,274640135.82653,   0.00000,   0.00000,   0.00000,-429742662.78368,   0.00000
20158457.60438,-31014149.37373,-65074.99153,   0.00015,  -0.00018,  -0.00000,44648079.39781,   0.00000,274640135.82653,   0.00000,   0.00000,   0.00000,-429992056.42872,   0.00000
18306778.29986,-32416219.64584,615254.46540,   0.00015,  -0.00018,   0.00001,44503051.45038,   0.00000,274640135.82653,   0.00000,   0.00000,   0.00000,-430137084.37615,   0.00000
16443267.17869,-33806458.10132,1301499.83066,   0.00014,  -0.00019,   0.00002,44432285.25767,   0.00000,274640135.82653,   0.00000,   0.00000,   0.00000,-430207850.56886,   0.00000
14579756.05752,-35196696.55679,1993661.10423,   0.00013,  -0.00019,   0.00003,44457395.77204,   0.00000,274640135.82653,   0.00000,   0.00000,   0.00000,-430182740.05449,   0.00000
12707371.07387,-36607640.69139,2691738.28613,   0.00013,  -0.00019,   0.00003,44592823.14461,   0.00000,274640135.82653,   0.00000,   0.00000,   0.00000,-430047312.68192,   0.00000
10823154.27358,-38006753.00935,3389815.46803,   0.00012,  -0.00019,   0.00004,44804904.20393,   0.00000,274640135.82653,   0.00000,   0.00000,   0.00000,-429835231.62260,   0.00000
8918231.79416,-39414739.18979,4099724.46657,   0.00012,  -0.00020,   0.00005,45110858.18336,   0.00000,274640135.82653,   0.00000,   0.00000,   0.00000,-429529277.64316,   0.00000
7013309.31475,-40822725.37022,4809633.46511,   0.00011,  -0.00020,   0.00006,45512432.76837,   0.00000,274640135.82653,   0.00000,   0.00000,   0.00000,-429127703.05816,   0.00000
5108386.83533,-42230711.55066,5525458.37197,   0.00011,  -0.00020,   0.00007,46009254.45742,   0.00000,274640135.82653,   0.00000,   0.00000,   0.00000,-428630881.36911,   0.00000
3182758.67679,-43647571.59358,6247199.18715,   0.00010,  -0.00020,   0.00008,46596594.71543,   0.00000,274640135.82653,   0.00000,   0.00000,   0.00000,-428043541.11110,   0.00000
1257130.51825,-45064431.63650,6974855.91066,   0.00009,  -0.00021,   0.00009,47275586.64979,   0.00000,274640135.82653,   0.00000,   0.00000,   0.00000,-427364549.17674,   0.00000
-689203.31942,-46490165.54190,7702512.63416,   0.00009,  -0.00021,   0.00010,48039103.02614,   0.00000,274640135.82653,   0.00000,   0.00000,   0.00000,-426601032.80039,   0.00000
-2635537.15708,-47915899.44731,8442001.17431,   0.00008,  -0.00021,   0.00011,48891691.46208,   0.00000,274640135.82653,   0.00000,   0.00000,   0.00000,-425748444.36445,   0.00000
-4602576.67387,-49350507.21519,9181489.71445,   0.00008,  -0.00022,   0.00012,49823850.12434,   0.00000,274640135.82653,   0.00000,   0.00000,   0.00000,-424816285.70219,   0.00000
-6569616.19066,-50785114.98307,9926894.16292,   0.00007,  -0.00022,   0.00013,50835801.65852,   0.00000,274640135.82653,   0.00000,   0.00000,   0.00000,-423804334.16801,   0.00000
-8548487.52409,-52207890.93431,10672298.61139,   0.00006,  -0.00022,   0.00014,51905066.06681,   0.00000,274640135.82653,   0.00000,   0.00000,   0.00000,-422735069.75972,   0.00000
-10536232.72000,-53651372.56468,11429534.87650,   0.00006,  -0.00022,   0.00015,53066952.36580,   0.00000,274640135.82653,   0.00000,   0.00000,   0.00000,-421573183.46073,   0.00000
-12523977.91591,-55094854.19504,12186771.14161,   0.00005,  -0.00023,   0.00016,54293999.82471,   0.00000,274640135.82653,   0.00000,   0.00000,   0.00000,-420346136.00182,   0.00000
-14523554.92847,-56526504.00877,12955839.22336,   0.00004,  -0.00023,   0.00017,55576747.18146,   0.00000,274640135.82653,   0.00000,   0.00000,   0.00000,-419063388.64507,   0.00000
-16532005.80351,-57978859.50161,13724907.30511,   0.00004,  -0.00023,   0.00018,56933889.42304,   0.00000,274640135.82653,   0.00000,   0.00000,   0.00000,-417706246.40349,   0.00000
-18552288.49519,-59419383.17782,14493975.38686,   0.00003,  -0.00023,   0.00019,58332760.38613,   0.00000,274640135.82653,   0.00000,   0.00000,   0.00000,-416307375.44040,   0.00000
-20572571.18686,-60859906.85402,15274875.28526,   0.00003,  -0.00024,   0.00020,59791969.58020,   0.00000,274640135.82653,   0.00000,   0.00000,   0.00000,-414848166.24633,   0.00000
-22592853.87854,-62300430.53023,16055775.18365,   0.00002,  -0.00024,   0.00021,61299265.22670,   0.00000,274640135.82653,   0.00000,   0.00000,   0.00000,-413340870.59983,   0.00000
-24633842.24935,-63749828.06891,16842590.99037,   0.00001,  -0.00024,   0.00022,62860815.84354,   0.00000,274640135.82653,   0.00000,   0.00000,   0.00000,-411779319.98299,   0.00000
-26695536.29927,-65208099.47008,17635322.70540,   0.00001,  -0.00024,   0.00023,64474774.36306,   0.00000,274640135.82653,   0.00000,   0.00000,   0.00000,-410165361.46347,   0.00000
-28736524.67008,-66657497.00877,18433970.32876,  -0.00000,  -0.00025,   0.00024,66128199.25414,   0.00000,274640135.82653,   0.00000,   0.00000,   0.00000,-408511936.57239,   0.00000
-30798218.72000,-68115768.40994,19232617.95212,  -0.00001,  -0.00025,   0.00025,67824218.59858,   0.00000,274640135.82653,   0.00000,   0.00000,   0.00000,-406815917.22795,   0.00000
-32880618.44906,-69582913.67359,20043097.39212,  -0.00001,  -0.00025,   0.00026,69571294.14517,   0.00000,274640135.82653,   0.00000,   0.00000,   0.00000,-405068841.68136,   0.00000
-34954144.31563,-71029353.25811,20853576.83212,  -0.00002,  -0.00026,   0.00027,71335867.30918,   0.00000,274640135.82653,   0.00000,   0.00000,   0.00000,-403304268.51735,   0.00000
-37036544.04468,-72496498.52176,21664056.27212,  -0.00003,  -0.00026,   0.00028,73146579.78735,   0.00000,274640135.82653,   0.00000,   0.00000,   0.00000,-401493556.03917,   0.00000
-39130775.59037,-73951811.96877,22486367.52876,  -0.00003,  -0.00026,   0.00029,74988042.42699,   0.00000,274640135.82653,   0.00000,   0.00000,   0.00000,-399652093.39953,   0.00000
-41233880.99855,-75427831.09490,23308678.78540,  -0.00004,  -0.00026,   0.00030,76871919.15583,   0.00000,274640135.82653,   0.00000,   0.00000,   0.00000,-397768216.67069,   0.00000
-43348818.22336,-76892018.40439,24136905.95037,  -0.00005,  -0.00027,   0.00031,78778773.11557,   0.00000,274640135.82653,   0.00000,   0.00000,   0.00000,-395861362.71096,   0.00000
-45443049.76906,-78347331.85140,24971049.02365,  -0.00005,  -0.00027,   0.00032,80707455.34320,   0.00000,274640135.82653,   0.00000,   0.00000,   0.00000,-393932680.48333,   0.00000
-47578692.67300,-79820393.02337,25805192.09694,  -0.00006,  -0.00027,   0.00034,82674064.90345,   0.00000,274640135.82653,   0.00000,   0.00000,   0.00000,-391966070.92308,   0.00000
-49693629.89782,-81284580.33286,26651166.98687,  -0.00007,  -0.00027,   0.00035,84665034.73179,   0.00000,274640135.82653,   0.00000,   0.00000,   0.00000,-389975101.09474,   0.00000
-51829272.80176,-82757641.50483,27497141.87679,  -0.00007,  -0.00028,   0.00036,86683970.85272,   0.00000,274640135.82653,   0.00000,   0.00000,   0.00000,-387956164.97381,   0.00000
-53976747.52234,-84218870.86016,28343116.76672,  -0.00008,  -0.00028,   0.00037,88715520.38494,   0.00000,274640135.82653,   0.00000,   0.00000,   0.00000,-385924615.44159,   0.00000
-56112390.42629,-85691932.03213,29200923.47329,  -0.00009,  -0.00028,   0.00038,90782213.14366,   0.00000,274640135.82653,   0.00000,   0.00000,   0.00000,-383857922.68287,   0.00000
-58259865.14687,-87153161.38746,30058730.17986,  -0.00010,  -0.00028,   0.00039,92859764.03847,   0.00000,274640135.82653,   0.00000,   0.00000,   0.00000,-381780371.78806,   0.00000
-60436919.40906,-88643970.28439,30922452.79475,  -0.00010,  -0.00029,   0.00040,94982106.03999,   0.00000,274640135.82653,   0.00000,   0.00000,   0.00000,-379658029.78654,   0.00000
-62605099.80877,-90114073.50220,31786175.40964,  -0.00011,  -0.00029,   0.00041,97105236.93892,   0.00000,274640135.82653,   0.00000,   0.00000,   0.00000,-377534898.88761,   0.00000
-64773280.20848,-91584176.72001,32655813.93285,  -0.00012,  -0.00029,   0.00042,99248366.55558,   0.00000,274640135.82653,   0.00000,   0.00000,   0.00000,-375391769.27095,   0.00000
-66941460.60819,-93054279.93782,33531368.36438,  -0.00012,  -0.00029,   0.00044,101410683.56632,   0.00000,274640135.82653,   0.00000,   0.00000,   0.00000,-373229452.26021,   0.00000
-69130346.68702,-94533257.01812,34412838.70424,  -0.00013,  -0.00030,   0.00045,103600941.53750,   0.00000,274640135.82653,   0.00000,   0.00000,   0.00000,-371039194.28903,   0.00000
-71310358.90337,-95991528.41928,35294309.04409,  -0.00014,  -0.00030,   0.00046,105789485.41625,   0.00000,274640135.82653,   0.00000,   0.00000,   0.00000,-368850650.41028,   0.00000
-73519950.66132,-97479379.36206,36181695.29227,  -0.00014,  -0.00030,   0.00047,108018880.79187,   0.00000,274640135.82653,   0.00000,   0.00000,   0.00000,-366621255.03466,   0.00000
-75720668.55680,-98946524.62571,37074997.44876,  -0.00015,  -0.00030,   0.00048,110251547.35260,   0.00000,274640135.82653,   0.00000,   0.00000,   0.00000,-364388588.47393,   0.00000
-77921386.45227,-100413669.88936,37968299.60526,  -0.00016,  -0.00030,   0.00049,112494668.83145,   0.00000,274640135.82653,   0.00000,   0.00000,   0.00000,-362145466.99508,   0.00000
-80122104.34775,-101880815.15301,38867517.67008,  -0.00017,  -0.00031,   0.00051,114753643.02771,   0.00000,274640135.82653,   0.00000,   0.00000,   0.00000,-359886492.79882,   0.00000
-82343527.92235,-103356834.27914,39772651.64322,  -0.00017,  -0.00031,   0.00052,117038100.07716,   0.00000,274640135.82653,   0.00000,   0.00000,   0.00000,-357602035.74937,   0.00000
-84564951.49695,-104832853.40527,40683701.52468,  -0.00018,  -0.00031,   0.00053,119337603.96671,   0.00000,274640135.82653,   0.00000,   0.00000,   0.00000,-355302531.85982,   0.00000
-86786375.07155,-106308872.53140,41594751.40614,  -0.00019,  -0.00031,   0.00054,121645631.34625,   0.00000,274640135.82653,   0.00000,   0.00000,   0.00000,-352994504.48028,   0.00000
-89019630.46279,-107773059.84089,42505801.28760,  -0.00019,  -0.00032,   0.00055,123959019.45249,   0.00000,274640135.82653,   0.00000,   0.00000,   0.00000,-350681116.37404,   0.00000
-91252885.85403,-109237247.15038,43428682.98570,  -0.00020,  -0.00032,   0.00056,126292528.73419,   0.00000,274640135.82653,   0.00000,   0.00000,   0.00000,-348347607.09234,   0.00000
-93495015.10775,-110722140.13899,44351564.68380,  -0.00021,  -0.00032,   0.00058,128646515.19417,   0.00000,274640135.82653,   0.00000,   0.00000,   0.00000,-345993620.63236,   0.00000
-95748976.17812,-112195201.31097,45274446.38190,  -0.00022,  -0.00032,   0.00059,131005268.84178,   0.00000,274640135.82653,   0.00000,   0.00000,   0.00000,-343634866.98475,   0.00000
-98002937.24848,-113668262.48294,46203243.98833,  -0.00022,  -0.00033,   0.00060,133377079.27187,   0.00000,274640135.82653,   0.00000,   0.00000,   0.00000,-341263056.55466,   0.00000
-100248024.45637,-115120617.97578,47137957.50307,  -0.00023,  -0.00033,   0.00061,135748921.45776,   0.00000,274640135.82653,   0.00000,   0.00000,   0.00000,-338891214.36876,   0.00000
-102522691.20585,-116602553.01024,48078586.92614,  -0.00024,  -0.00033,   0.00063,138156800.79879,   0.00000,274640135.82653,   0.00000,   0.00000,   0.00000,-336483335.02774,   0.00000
-104767778.41374,-118054908.50308,49019216.34920,  -0.00025,  -0.00033,   0.00064,140547319.55888,   0.00000,274640135.82653,   0.00000,   0.00000,   0.00000,-334092816.26765,   0.00000
-107033571.30075,-119516137.85841,49965761.68059,  -0.00025,  -0.00034,   0.00065,142960783.26551,   0.00000,274640135.82653,   0.00000,   0.00000,   0.00000,-331679352.56101,   0.00000
-109320069.86688,-120986241.07622,50912307.01198,  -0.00026,  -0.00034,   0.00066,145390896.87431,   0.00000,274640135.82653,   0.00000,   0.00000,   0.00000,-329249238.95222,   0.00000
-111585862.75388,-122447470.43155,51864768.25169,  -0.00027,  -0.00034,   0.00067,147821661.83913,   0.00000,274640135.82653,   0.00000,   0.00000,   0.00000,-326818473.98740,   0.00000
-113872361.32002,-123917573.64936,52817229.49139,  -0.00028,  -0.00034,   0.00069,150268666.74288,   0.00000,274640135.82653,   0.00000,   0.00000,   0.00000,-324371469.08365,   0.00000
-116149986.02367,-125366971.18805,53775606.63942,  -0.00028,  -0.00034,   0.00070,152714676.35809,   0.00000,274640135.82653,   0.00000,   0.00000,   0.00000,-321925459.46844,   0.00000
-118436484.58980,-126837074.40586,54739899.69577,  -0.00029,  -0.00035,   0.00071,155184010.04502,   0.00000,274640135.82653,   0.00000,   0.00000,   0.00000,-319456125.78151,   0.00000
-120734814.97257,-128295345.80703,55704192.75212,  -0.00030,  -0.00035,   0.00072,157657057.35821,   0.00000,274640135.82653,   0.00000,   0.00000,   0.00000,-316983078.46832,   0.00000
-123012439.67622,-129744743.34571,56674401.71680,  -0.00031,  -0.00035,   0.00074,160129649.83628,   0.00000,274640135.82653,   0.00000,   0.00000,   0.00000,-314510485.99025,   0.00000
-125301896.19651,-131182309.06776,57644610.68147,  -0.00031,  -0.00035,   0.00075,162605887.81166,   0.00000,274640135.82653,   0.00000,   0.00000,   0.00000,-312034248.01487,   0.00000
-127620932.25841,-132649454.33141,58620735.55446,  -0.00032,  -0.00035,   0.00076,165116034.86767,   0.00000,274640135.82653,   0.00000,   0.00000,   0.00000,-309524100.95886,   0.00000
-129910388.77871,-134087020.05345,59602776.33578,  -0.00033,  -0.00036,   0.00077,167613287.04767,   0.00000,274640135.82653,   0.00000,   0.00000,   0.00000,-307026848.77886,   0.00000
-132229424.84060,-135554165.31710,60584817.11709,  -0.00034,  -0.00036,   0.00079,170137777.72499,   0.00000,274640135.82653,   0.00000,   0.00000,   0.00000,-304502358.10154,   0.00000
-134539587.04002,-137000604.90163,61566857.89840,  -0.00035,  -0.00036,   0.00080,172654265.48759,   0.00000,274640135.82653,   0.00000,   0.00000,   0.00000,-301985870.33894,   0.00000
-136840875.37695,-138426338.80703,62560730.49636,  -0.00035,  -0.00036,   0.00081,175175426.56601,   0.00000,274640135.82653,   0.00000,   0.00000,   0.00000,-299464709.26052,   0.00000
-139151037.57637,-139872778.39155,63548687.18599,  -0.00036,  -0.00037,   0.00083,177705571.32760,   0.00000,274640135.82653,   0.00000,   0.00000,   0.00000,-296934564.49893,   0.00000
-141452325.91331,-141298512.29695,64542559.78395,  -0.00037,  -0.00037,   0.00084,180233883.99942,   0.00000,274640135.82653,   0.00000,   0.00000,   0.00000,-294406251.82711,   0.00000
-143783193.79185,-142753825.74396,65542348.29023,  -0.00038,  -0.00037,   0.00085,182795128.07578,   0.00000,274640135.82653,   0.00000,   0.00000,   0.00000,-291845007.75074,   0.00000
-146105187.80790,-144188433.51185,66542136.79651,  -0.00038,  -0.00037,   0.00087,185348104.96291,   0.00000,274640135.82653,   0.00000,   0.00000,   0.00000,-289292030.86362,   0.00000
-148418307.96148,-145602335.60061,67547841.21110,  -0.00039,  -0.00037,   0.00088,187899213.78830,   0.00000,274640135.82653,   0.00000,   0.00000,   0.00000,-286740922.03823,   0.00000
-150740301.97754,-147036943.36849,68553545.62570,  -0.00040,  -0.00038,   0.00089,190464889.05773,   0.00000,274640135.82653,   0.00000,   0.00000,   0.00000,-284175246.76880,   0.00000
-153074127.81024,-148459719.31973,69565165.94862,  -0.00041,  -0.00038,   0.00090,193040337.12133,   0.00000,274640135.82653,   0.00000,   0.00000,   0.00000,-281599798.70520,   0.00000
-155396121.82630,-149894327.08761,70576786.27154,  -0.00041,  -0.00038,   0.00092,195618289.37955,   0.00000,274640135.82653,   0.00000,   0.00000,   0.00000,-279021846.44698,   0.00000
-157729947.65900,-151317103.03885,71588406.59446,  -0.00042,  -0.00038,   0.00093,198199553.97163,   0.00000,274640135.82653,   0.00000,   0.00000,   0.00000,-276440581.85490,   0.00000
-160054899.62922,-152719173.31097,72611858.73403,  -0.00043,  -0.00038,   0.00094,200785235.81875,   0.00000,274640135.82653,   0.00000,   0.00000,   0.00000,-273854900.00778,   0.00000
-162388725.46192,-154141949.26221,73629394.96527,  -0.00044,  -0.00038,   0.00096,203378433.97826,   0.00000,274640135.82653,   0.00000,   0.00000,   0.00000,-271261701.84827,   0.00000
-164713677.43214,-155544019.53433,74652847.10483,  -0.00045,  -0.00039,   0.00097,205969543.44905,   0.00000,274640135.82653,   0.00000,   0.00000,   0.00000,-268670592.37748,   0.00000
-167038629.40236,-156946089.80645,75682215.15271,  -0.00045,  -0.00039,   0.00098,208569681.78066,   0.00000,274640135.82653,   0.00000,   0.00000,   0.00000,-266070454.04586,   0.00000
-169384287.05170,-158357033.94104,76705667.29227,  -0.00046,  -0.00039,   0.00100,211177820.30590,   0.00000,274640135.82653,   0.00000,   0.00000,   0.00000,-263462315.52063,   0.00000
-171709239.02192,-159759104.21316,77740951.24848,  -0.00047,  -0.00039,   0.00101,213789350.61473,   0.00000,274640135.82653,   0.00000,   0.00000,   0.00000,-260850785.21180,   0.00000
-174046022.80878,-161149342.66864,78776235.20468,  -0.00048,  -0.00039,   0.00102,216404279.59593,   0.00000,274640135.82653,   0.00000,   0.00000,   0.00000,-258235856.23060,   0.00000
-176391680.45813,-162560286.80324,79811519.16089,  -0.00049,  -0.00040,   0.00104,219032475.64624,   0.00000,274640135.82653,   0.00000,   0.00000,   0.00000,-255607660.18029,   0.00000
-178728464.24499,-163950525.25871,80846803.11709,  -0.00049,  -0.00040,   0.00105,221652046.67472,   0.00000,274640135.82653,   0.00000,   0.00000,   0.00000,-252988089.15181,   0.00000
-181056374.16937,-165320058.03506,81888002.98162,  -0.00050,  -0.00040,   0.00106,224269518.72185,   0.00000,274640135.82653,   0.00000,   0.00000,   0.00000,-250370617.10468,   0.00000
-183393157.95623,-166710296.49054,82935118.75446,  -0.00051,  -0.00040,   0.00108,226906472.74230,   0.00000,274640135.82653,   0.00000,   0.00000,   0.00000,-247733663.08423,   0.00000
-185721067.88061,-168079829.26689,83982234.52731,  -0.00052,  -0.00040,   0.00109,229534803.08891,   0.00000,274640135.82653,   0.00000,   0.00000,   0.00000,-245105332.73762,   0.00000
-188069683.48412,-169458235.90572,85029350.30016,  -0.00053,  -0.00040,   0.00111,232177333.10754,   0.00000,274640135.82653,   0.00000,   0.00000,   0.00000,-242462802.71899,   0.00000
-190397593.40850,-170827768.68207,86076466.07301,  -0.00053,  -0.00041,   0.00112,234809812.65502,   0.00000,274640135.82653,   0.00000,   0.00000,   0.00000,-239830323.17151,   0.00000
-192746209.01200,-172206175.32090,87129497.75417,  -0.00054,  -0.00041,   0.00113,237462899.38067,   0.00000,274640135.82653,   0.00000,   0.00000,   0.00000,-237177236.44586,   0.00000
-195065245.07390,-173555002.41813,88188445.34366,  -0.00055,  -0.00041,   0.00115,240101739.46892,   0.00000,274640135.82653,   0.00000,   0.00000,   0.00000,-234538396.35761,   0.00000
-197413860.67740,-174933409.05696,89241477.02483,  -0.00056,  -0.00041,   0.00116,242758674.43445,   0.00000,274640135.82653,   0.00000,   0.00000,   0.00000,-231881461.39208,   0.00000
-199744728.55594,-176270404.33754,90300424.61432,  -0.00057,  -0.00041,   0.00117,245402991.05948,   0.00000,274640135.82653,   0.00000,   0.00000,   0.00000,-229237144.76705,   0.00000
-202084470.29696,-177628105.29725,91365288.11213,  -0.00057,  -0.00041,   0.00119,248066206.83456,   0.00000,274640135.82653,   0.00000,   0.00000,   0.00000,-226573928.99197,   0.00000
-204424212.03799,-178985806.25696,92424235.70162,  -0.00058,  -0.00042,   0.00120,250724675.55833,   0.00000,274640135.82653,   0.00000,   0.00000,   0.00000,-223915460.26820,   0.00000
-206755079.91653,-180322801.53754,93489099.19943,  -0.00059,  -0.00042,   0.00122,253381048.20671,   0.00000,274640135.82653,   0.00000,   0.00000,   0.00000,-221259087.61981,   0.00000
-209085947.79507,-181659796.81813,94559878.60556,  -0.00060,  -0.00042,   0.00123,256045731.22215,   0.00000,274640135.82653,   0.00000,   0.00000,   0.00000,-218594404.60438,   0.00000
-211407941.81113,-182976086.41959,95630658.01169,  -0.00061,  -0.00042,   0.00124,258701829.30716,   0.00000,274640135.82653,   0.00000,   0.00000,   0.00000,-215938306.51936,   0.00000
-213738809.68967,-184313081.70017,96695521.50950,  -0.00061,  -0.00042,   0.00126,261363355.88702,   0.00000,274640135.82653,   0.00000,   0.00000,   0.00000,-213276779.93951,   0.00000
-216060803.70573,-185629371.30163,97772216.82396,  -0.00062,  -0.00042,   0.00127,264029396.81217,   0.00000,274640135.82653,   0.00000,   0.00000,   0.00000,-210610739.01436,   0.00000
-218382797.72178,-186945660.90309,98842996.23009,  -0.00063,  -0.00042,   0.00128,266690501.76665,   0.00000,274640135.82653,   0.00000,   0.00000,   0.00000,-207949634.05988,   0.00000
-220704791.73784,-188261950.50455,99919691.54454,  -0.00064,  -0.00043,   0.00130,269359772.05333,   0.00000,274640135.82653,   0.00000,   0.00000,   0.00000,-205280363.77320,   0.00000
-223017911.89142,-189557534.42689,100996386.85899,  -0.00065,  -0.00043,   0.00131,272020464.02238,   0.00000,274640135.82653,   0.00000,   0.00000,   0.00000,-202619671.80414,   0.00000
-225339905.90748,-190873824.02835,102078998.08177,  -0.00065,  -0.00043,   0.00133,274699410.07396,   0.00000,274640135.82653,   0.00000,   0.00000,   0.00000,-199940725.75257,   0.00000
-227653026.06106,-192169407.95068,103161609.30454,  -0.00066,  -0.00043,   0.00134,277369766.36513,   0.00000,274640135.82653,   0.00000,   0.00000,   0.00000,-197270369.46140,   0.00000
-229957272.35215,-193444286.19390,104238304.61899,  -0.00067,  -0.00043,   0.00136,280024982.83720,   0.00000,274640135.82653,   0.00000,   0.00000,   0.00000,-194615152.98933,   0.00000
-232270392.50573,-194739870.11623,105326831.75009,  -0.00068,  -0.00043,   0.00137,282704917.96001,   0.00000,274640135.82653,   0.00000,   0.00000,   0.00000,-191935217.86652,   0.00000
-234595344.47595,-196023622.22193,106409442.97286,  -0.00069,  -0.00043,   0.00138,285382051.99277,   0.00000,274640135.82653,   0.00000,   0.00000,   0.00000,-189258083.83376,   0.00000
-236899590.76704,-197298500.46514,107497970.10396,  -0.00069,  -0.00044,   0.00140,288054892.51470,   0.00000,274640135.82653,   0.00000,   0.00000,   0.00000,-186585243.31183,   0.00000
-239203837.05814,-198573378.70835,108586497.23505,  -0.00070,  -0.00044,   0.00141,290729135.82179,   0.00000,274640135.82653,   0.00000,   0.00000,   0.00000,-183911000.00474,   0.00000
-241499209.48675,-199827551.27244,109675024.36615,  -0.00071,  -0.00044,   0.00143,293394880.10775,   0.00000,274640135.82653,   0.00000,   0.00000,   0.00000,-181245255.71878,   0.00000
-243773876.23624,-201072849.97404,110763551.49724,  -0.00072,  -0.00044,   0.00144,296049622.03781,   0.00000,274640135.82653,   0.00000,   0.00000,   0.00000,-178590513.78872,   0.00000
-246069248.66485,-202327022.53813,111857994.53666,  -0.00073,  -0.00044,   0.00145,298724745.53067,   0.00000,274640135.82653,   0.00000,   0.00000,   0.00000,-175915390.29586,   0.00000
-248364621.09347,-203581195.10222,112946521.66775,  -0.00073,  -0.00044,   0.00147,301394545.23492,   0.00000,274640135.82653,   0.00000,   0.00000,   0.00000,-173245590.59161,   0.00000
-250651119.65960,-204814661.98718,114040964.70717,  -0.00074,  -0.00044,   0.00148,304062543.06601,   0.00000,274640135.82653,   0.00000,   0.00000,   0.00000,-170577592.76052,   0.00000
-252937618.22573,-206048128.87215,115135407.74659,  -0.00075,  -0.00044,   0.00150,306731859.31616,   0.00000,274640135.82653,   0.00000,   0.00000,   0.00000,-167908276.51037,   0.00000
-255203411.11274,-207272721.89463,116235766.69432,  -0.00076,  -0.00045,   0.00151,309396698.43763,   0.00000,274640135.82653,   0.00000,   0.00000,   0.00000,-165243437.38890,   0.00000
-257489909.67887,-208506188.77959,117330209.73374,  -0.00076,  -0.00045,   0.00153,312068548.52415,   0.00000,274640135.82653,   0.00000,   0.00000,   0.00000,-162571587.30238,   0.00000
-259746828.70340,-209710076.12295,118430568.68148,  -0.00077,  -0.00045,   0.00154,314726234.40625,   0.00000,274640135.82653,   0.00000,   0.00000,   0.00000,-159913901.42028,   0.00000
-262024453.40705,-210922837.32879,119525011.72089,  -0.00078,  -0.00045,   0.00155,317390928.68037,   0.00000,274640135.82653,   0.00000,   0.00000,   0.00000,-157249207.14616,   0.00000
-264281372.43157,-212126724.67215,120625370.66863,  -0.00079,  -0.00045,   0.00157,320051073.04228,   0.00000,274640135.82653,   0.00000,   0.00000,   0.00000,-154589062.78425,   0.00000
-266538291.45610,-213330612.01551,121725729.61637,  -0.00080,  -0.00045,   0.00158,322712400.97843,   0.00000,274640135.82653,   0.00000,   0.00000,   0.00000,-151927734.84810,   0.00000
-268786336.61814,-214513793.67974,122826088.56411,  -0.00080,  -0.00045,   0.00160,325365378.87444,   0.00000,274640135.82653,   0.00000,   0.00000,   0.00000,-149274756.95209,   0.00000
-271034381.78019,-215696975.34397,123932363.42016,  -0.00081,  -0.00045,   0.00161,328026244.41349,   0.00000,274640135.82653,   0.00000,   0.00000,   0.00000,-146613891.41304,   0.00000
-273282426.94223,-216880157.00821,125032722.36790,  -0.00082,  -0.00045,   0.00163,330681563.90206,   0.00000,274640135.82653,   0.00000,   0.00000,   0.00000,-143958571.92447,   0.00000
-275500892.56267,-218033759.13083,126133081.31564,  -0.00083,  -0.00045,   0.00164,333316110.14282,   0.00000,274640135.82653,   0.00000,   0.00000,   0.00000,-141324025.68370,   0.00000
-277740063.86223,-219196235.11594,127239356.17170,  -0.00084,  -0.00046,   0.00165,335971006.93468,   0.00000,274640135.82653,   0.00000,   0.00000,   0.00000,-138669128.89185,   0.00000
-279958529.48267,-220349837.23857,128345631.02776,  -0.00084,  -0.00046,   0.00167,338614553.15424,   0.00000,274640135.82653,   0.00000,   0.00000,   0.00000,-136025582.67229,   0.00000
-282197700.78223,-221512313.22368,129445989.97549,  -0.00085,  -0.00046,   0.00168,341264962.61998,   0.00000,274640135.82653,   0.00000,   0.00000,   0.00000,-133375173.20655,   0.00000
-284407292.54019,-222645209.66719,130552264.83155,  -0.00086,  -0.00046,   0.00170,343901377.89378,   0.00000,274640135.82653,   0.00000,   0.00000,   0.00000,-130738757.93275,   0.00000
-286616884.29814,-223778106.11069,131658539.68761,  -0.00087,  -0.00046,   0.00171,346538899.41780,   0.00000,274640135.82653,   0.00000,   0.00000,   0.00000,-128101236.40873,   0.00000
-288805770.37698,-224902128.69171,132764814.54367,  -0.00088,  -0.00046,   0.00173,349164998.10164,   0.00000,274640135.82653,   0.00000,   0.00000,   0.00000,-125475137.72489,   0.00000
-291015362.13493,-226035025.13522,133871089.39973,  -0.00088,  -0.00046,   0.00174,351804654.06630,   0.00000,274640135.82653,   0.00000,   0.00000,   0.00000,-122835481.76023,   0.00000
-293195374.35128,-227138342.03711,134977364.25579,  -0.00089,  -0.00046,   0.00175,354423629.75058,   0.00000,274640135.82653,   0.00000,   0.00000,   0.00000,-120216506.07595,   0.00000
-295396092.24676,-228250532.80149,136083639.11184,  -0.00090,  -0.00046,   0.00177,357056174.98902,   0.00000,274640135.82653,   0.00000,   0.00000,   0.00000,-117583960.83751,   0.00000
-297576104.46311,-229353849.70339,137189913.96790,  -0.00091,  -0.00046,   0.00178,359677242.35266,   0.00000,274640135.82653,   0.00000,   0.00000,   0.00000,-114962893.47387,   0.00000
-299726537.13785,-230427587.06368,138296188.82396,  -0.00091,  -0.00046,   0.00180,362277676.29639,   0.00000,274640135.82653,   0.00000,   0.00000,   0.00000,-112362459.53014,   0.00000
-301897675.49172,-231510198.28646,139402463.68002,  -0.00092,  -0.00046,   0.00181,364891666.52968,   0.00000,274640135.82653,   0.00000,   0.00000,   0.00000,-109748469.29685,   0.00000
-304048108.16647,-232583935.64675,140508738.53608,  -0.00093,  -0.00047,   0.00183,367494150.14696,   0.00000,274640135.82653,   0.00000,   0.00000,   0.00000,-107145985.67957,   0.00000
-306219246.52034,-233666546.86952,141615013.39214,  -0.00094,  -0.00047,   0.00184,370110151.44168,   0.00000,274640135.82653,   0.00000,   0.00000,   0.00000,-104529984.38485,   0.00000
-308360805.33260,-234719578.55069,142721288.24820,  -0.00095,  -0.00047,   0.00186,372705576.70746,   0.00000,274640135.82653,   0.00000,   0.00000,   0.00000,-101934559.11907,   0.00000
-310490532.32822,-235784442.04850,143827563.10425,  -0.00095,  -0.00047,   0.00187,375298468.65762,   0.00000,274640135.82653,   0.00000,   0.00000,   0.00000,-99341667.16890,   0.00000
-312623217.27800,-236816768.05055,144927922.05199,  -0.00096,  -0.00047,   0.00188,377880067.54622,   0.00000,274640135.82653,   0.00000,   0.00000,   0.00000,-96760068.28030,   0.00000
-314744070.41114,-237860925.86923,146034196.90805,  -0.00097,  -0.00047,   0.00190,380465890.60550,   0.00000,274640135.82653,   0.00000,   0.00000,   0.00000,-94174245.22103,   0.00000
-316856049.68180,-238884378.00879,147140471.76411,  -0.00098,  -0.00047,   0.00191,383043727.55984,   0.00000,274640135.82653,   0.00000,   0.00000,   0.00000,-91596408.26669,   0.00000
-318968028.95246,-239907830.14836,148246746.62017,  -0.00098,  -0.00047,   0.00193,385622530.97818,   0.00000,274640135.82653,   0.00000,   0.00000,   0.00000,-89017604.84835,   0.00000
-321059302.54399,-240922408.42544,149353021.47623,  -0.00099,  -0.00047,   0.00194,388189743.92363,   0.00000,274640135.82653,   0.00000,   0.00000,   0.00000,-86450391.90290,   0.00000
-323141702.27304,-241916281.02339,150453380.42396,  -0.00100,  -0.00047,   0.00196,390742200.12387,   0.00000,274640135.82653,   0.00000,   0.00000,   0.00000,-83897935.70266,   0.00000
-325224102.00209,-242910153.62135,151559655.28002,  -0.00101,  -0.00047,   0.00197,393302440.88045,   0.00000,274640135.82653,   0.00000,   0.00000,   0.00000,-81337694.94608,   0.00000
-327306501.73114,-243904026.21931,152660014.22776,  -0.00101,  -0.00047,   0.00198,395856775.02544,   0.00000,274640135.82653,   0.00000,   0.00000,   0.00000,-78783360.80109,   0.00000
-329368195.78107,-244889024.95478,153760373.17550,  -0.00102,  -0.00047,   0.00200,398399477.53058,   0.00000,274640135.82653,   0.00000,   0.00000,   0.00000,-76240658.29594,   0.00000
-331421015.96852,-245853318.01113,154866648.03156,  -0.00103,  -0.00047,   0.00201,400941171.97638,   0.00000,274640135.82653,   0.00000,   0.00000,   0.00000,-73698963.85015,   0.00000
-333473836.15596,-246817611.06748,155967006.97929,  -0.00104,  -0.00047,   0.00203,403476937.05879,   0.00000,274640135.82653,   0.00000,   0.00000,   0.00000,-71163198.76774,   0.00000
-335526656.34341,-247781904.12383,157067365.92703,  -0.00104,  -0.00047,   0.00204,406013605.25592,   0.00000,274640135.82653,   0.00000,   0.00000,   0.00000,-68626530.57061,   0.00000
-337558770.85173,-248737323.31770,158161808.96645,  -0.00105,  -0.00047,   0.00206,408531746.76239,   0.00000,274640135.82653,   0.00000,   0.00000,   0.00000,-66108389.06414,   0.00000
-339582011.49757,-249672036.83245,159262167.91418,  -0.00106,  -0.00047,   0.00207,411048963.52225,   0.00000,274640135.82653,   0.00000,   0.00000,   0.00000,-63591172.30428,   0.00000
-341584546.46428,-250597876.48471,160362526.86192,  -0.00107,  -0.00047,   0.00208,413554538.31694,   0.00000,274640135.82653,   0.00000,   0.00000,   0.00000,-61085597.50959,   0.00000
-343578207.56852,-251503010.45785,161456969.90134,  -0.00107,  -0.00047,   0.00210,416045496.12191,   0.00000,274640135.82653,   0.00000,   0.00000,   0.00000,-58594639.70462,   0.00000
-345580742.53523,-252428850.11011,162551412.94075,  -0.00108,  -0.00047,   0.00211,418545947.37956,   0.00000,274640135.82653,   0.00000,   0.00000,   0.00000,-56094188.44697,   0.00000
-347574403.63947,-253333984.08325,163645855.98017,  -0.00109,  -0.00047,   0.00213,421038672.39949,   0.00000,274640135.82653,   0.00000,   0.00000,   0.00000,-53601463.42704,   0.00000
-349547359.06458,-254230244.19391,164740299.01959,  -0.00109,  -0.00048,   0.00214,423519729.41385,   0.00000,274640135.82653,   0.00000,   0.00000,   0.00000,-51120406.41268,   0.00000
-351490734.94808,-255096924.76296,165834742.05900,  -0.00110,  -0.00048,   0.00216,425980583.16226,   0.00000,274640135.82653,   0.00000,   0.00000,   0.00000,-48659552.66427,   0.00000
-353463690.37319,-255993184.87361,166923269.19010,  -0.00111,  -0.00048,   0.00217,428456448.97642,   0.00000,274640135.82653,   0.00000,   0.00000,   0.00000,-46183686.85011,   0.00000
-355407066.25669,-256859865.44267,168011796.32119,  -0.00112,  -0.00048,   0.00218,430912117.62211,   0.00000,274640135.82653,   0.00000,   0.00000,   0.00000,-43728018.20442,   0.00000
-357329736.46107,-257717672.14923,169100323.45229,  -0.00112,  -0.00048,   0.00220,433356099.99389,   0.00000,274640135.82653,   0.00000,   0.00000,   0.00000,-41284035.83264,   0.00000
-359264238.48210,-258563647.03916,170188850.58338,  -0.00113,  -0.00048,   0.00221,435805020.00128,   0.00000,274640135.82653,   0.00000,   0.00000,   0.00000,-38835115.82525,   0.00000
-361178034.82399,-259400748.06661,171277377.71448,  -0.00114,  -0.00048,   0.00223,438242271.88681,   0.00000,274640135.82653,   0.00000,   0.00000,   0.00000,-36397863.93972,   0.00000
-363071125.48677,-260228975.23157,172359988.93725,  -0.00114,  -0.00048,   0.00224,440660903.81387,   0.00000,274640135.82653,   0.00000,   0.00000,   0.00000,-33979232.01266,   0.00000
-364964216.14954,-261057202.39653,173442600.16003,  -0.00115,  -0.00048,   0.00225,443080366.75159,   0.00000,274640135.82653,   0.00000,   0.00000,   0.00000,-31559769.07494,   0.00000
-366848432.94983,-261864723.88237,174525211.38280,  -0.00116,  -0.00048,   0.00227,445492301.83616,   0.00000,274640135.82653,   0.00000,   0.00000,   0.00000,-29147833.99037,   0.00000
-368711944.07100,-262663371.50573,175601906.69725,  -0.00117,  -0.00048,   0.00228,447885600.34275,   0.00000,274640135.82653,   0.00000,   0.00000,   0.00000,-26754535.48378,   0.00000
-370575455.19217,-263462019.12909,176684517.92003,  -0.00117,  -0.00048,   0.00230,450286689.19672,   0.00000,274640135.82653,   0.00000,   0.00000,   0.00000,-24353446.62981,   0.00000
-372418260.63421,-264251792.88997,177761213.23448,  -0.00118,  -0.00048,   0.00231,452669111.61863,   0.00000,274640135.82653,   0.00000,   0.00000,   0.00000,-21971024.20790,   0.00000
-374252192.21378,-265020860.97172,178831992.64061,  -0.00119,  -0.00048,   0.00232,455037104.75234,   0.00000,274640135.82653,   0.00000,   0.00000,   0.00000,-19603031.07419,   0.00000
-376086123.79334,-265789929.05347,179908687.95506,  -0.00119,  -0.00048,   0.00234,457412901.80783,   0.00000,274640135.82653,   0.00000,   0.00000,   0.00000,-17227234.01870,   0.00000
-377899349.69378,-266550123.27274,180979467.36119,  -0.00120,  -0.00048,   0.00235,459770019.99821,   0.00000,274640135.82653,   0.00000,   0.00000,   0.00000,-14870115.82832,   0.00000
-379691869.91509,-267301443.62953,182044330.85900,  -0.00121,  -0.00048,   0.00237,462108437.57397,   0.00000,274640135.82653,   0.00000,   0.00000,   0.00000,-12531698.25256,   0.00000
-381475516.27392,-268032058.30719,183115110.26514,  -0.00121,  -0.00048,   0.00238,464446462.79026,   0.00000,274640135.82653,   0.00000,   0.00000,   0.00000,-10193673.03627,   0.00000
-383259162.63276,-268762672.98486,184179973.76295,  -0.00122,  -0.00048,   0.00239,466778310.70302,   0.00000,274640135.82653,   0.00000,   0.00000,   0.00000,-7861825.12351,   0.00000
-385022103.31247,-269484413.80004,185244837.26076,  -0.00123,  -0.00048,   0.00241,469098457.36730,   0.00000,274640135.82653,   0.00000,   0.00000,   0.00000,-5541678.45923,   0.00000
-386776170.12969,-270185448.93610,186303784.85025,  -0.00123,  -0.00048,   0.00242,471404274.67440,   0.00000,274640135.82653,   0.00000,   0.00000,   0.00000,-3235861.15213,   0.00000
-388518405.13028,-270898315.88880,187362732.43974,  -0.00124,  -0.00047,   0.00244,473706499.38186,   0.00000,274640135.82653,   0.00000,   0.00000,   0.00000,-933636.44467,   0.00000
-389222527.13112,-271172476.59925,187795109.24300,  -0.00124,  -0.00047,   0.00244,474640137.60713,   0.00000,274640135.82653,   0.00000,   0.00000,   0.00000,  -2.58108,   0.00000
-389213766.14158,-270905111.35059,187843003.74342,  -0.00125,  -0.00047,   0.00245,474649258.52704,   0.00001,274649266.85941,  -0.00000,  -0.00000,   0.00001,  -8.33236,   1.00000
-389195884.00734,-270473019.24835,187922322.94230,  -0.00125,  -0.00047,   0.00246,474664621.41513,   0.00002,274664627.28951,  -0.00001,  -0.00000,   0.00002,  -5.87438,   1.00000
-389177745.86033,-270042861.53362,188001146.08280,  -0.00126,  -0.00047,   0.00248,474679982.28933,   0.00004,274679991.66387,  -0.00001,  -0.00000,   0.00003,  -9.37454,   1.00000
-389145449.90592,-269595160.36009,188088231.27426,  -0.00127,  -0.00047,   0.00249,474695217.93770,   0.00005,274695221.72377,  -0.00002,  -0.00001,   0.00005,  -3.78608,   1.00000
-389118262.67966,-269152841.44848,188171885.96324,  -0.00127,  -0.00047,   0.00250,474710400.50940,   0.00006,274710408.69552,  -0.00003,  -0.00001,   0.00006,  -8.18612,   1.00000
-389079700.51226,-268709683.02233,188260355.22791,  -0.00128,  -0.00047,   0.00252,474725508.22261,   0.00008,274725515.75807,  -0.00003,  -0.00001,   0.00007,  -7.53546,   1.00000
-389043496.23602,-268255107.86685,188348809.62616,  -0.00128,  -0.00047,   0.00253,474740520.78508,   0.00009,274740525.91005,  -0.00004,  -0.00001,   0.00008,  -5.12497,   1.00000
-388995929.95303,-267799683.21898,188442051.52170,  -0.00129,  -0.00047,   0.00254,474755450.08186,   0.00011,274755456.60478,  -0.00004,  -0.00001,   0.00010,  -6.52292,   1.00000
-388953546.90624,-267349606.62192,188531849.92424,  -0.00130,  -0.00047,   0.00256,474770335.38315,   0.00012,274770344.43703,  -0.00005,  -0.00001,   0.00011,  -9.05389,   1.00000
-388899840.54062,-266898622.66791,188626443.36705,  -0.00130,  -0.00047,   0.00257,474785145.48203,   0.00013,274785152.73182,  -0.00005,  -0.00002,   0.00012,  -7.24979,   1.00000
-388832001.99616,-266429882.94847,188729194.21874,  -0.00131,  -0.00047,   0.00259,474799820.74259,   0.00015,274799828.45971,  -0.00006,  -0.00002,   0.00013,  -7.71713,   1.00000
-388769430.88697,-265966486.84182,188828466.86975,  -0.00132,  -0.00047,   0.00260,474814461.12328,   0.00016,274814461.78133,  -0.00006,  -0.00002,   0.00014,  -0.65804,   1.00000
-388695585.77307,-265502142.79646,188932486.26106,  -0.00132,  -0.00047,   0.00261,474829009.64986,   0.00017,274829016.27078,  -0.00007,  -0.00002,   0.00016,  -6.62092,   1.00000
-388627044.80731,-265043095.46429,189033034.17177,  -0.00133,  -0.00047,   0.00263,474843523.17016,   0.00019,274843528.27171,  -0.00008,  -0.00002,   0.00017,  -5.10155,   1.00000
-388547268.13985,-264583045.43373,189138340.02625,  -0.00133,  -0.00047,   0.00264,474857960.88323,   0.00020,274857961.30971,  -0.00008,  -0.00002,   0.00018,  -0.42647,   1.00000
-388469897.86660,-264111336.71483,189243530.86841,  -0.00134,  -0.00047,   0.00265,474872296.15697,   0.00021,274872299.11338,  -0.00009,  -0.00002,   0.00019,  -2.95642,   1.00000
-388381299.75196,-263638614.97173,189353457.32450,  -0.00134,  -0.00047,   0.00267,474886555.66980,   0.00022,274886558.34521,  -0.00009,  -0.00003,   0.00020,  -2.67540,   1.00000
-388286854.05132,-263168191.27781,189465242.93961,  -0.00135,  -0.00047,   0.00268,474900688.24794,   0.00024,274900691.27041,  -0.00010,  -0.00003,   0.00022,  -3.02247,   1.00000
-388189480.19850,-262682700.37643,189579733.21930,  -0.00136,  -0.00047,   0.00269,474914769.65880,   0.00025,274914777.56635,  -0.00010,  -0.00003,   0.00023,  -7.90755,   1.00000
-388086270.76735,-262199487.16971,189696070.20557,  -0.00136,  -0.00047,   0.00270,474928732.13955,   0.00026,274928737.82534,  -0.00011,  -0.00003,   0.00024,  -5.68579,   1.00000
-387983110.23949,-261718173.61711,189811747.85744,  -0.00137,  -0.00047,   0.00272,474942695.59654,   0.00028,274942704.29249,  -0.00011,  -0.00003,   0.00025,  -8.69595,   1.00000
-387874135.23042,-261239062.66924,189929282.90279,  -0.00137,  -0.00047,   0.00273,474956539.73360,   0.00029,274956544.63614,  -0.00012,  -0.00003,   0.00026,  -4.90254,   1.00000
-387754009.64590,-260758788.84843,190051513.53910,  -0.00138,  -0.00046,   0.00274,474970299.52124,   0.00030,274970307.07723,  -0.00012,  -0.00003,   0.00027,  -7.55599,   1.00000
-387636325.21073,-260266646.18106,190173546.52850,  -0.00138,  -0.00046,   0.00276,474983973.23947,   0.00031,274983975.70398,  -0.00013,  -0.00004,   0.00028,  -2.46452,   1.00000
-387507487.38224,-259773325.47013,190300253.83470,  -0.00139,  -0.00046,   0.00277,474997562.71997,   0.00033,274997566.81580,  -0.00013,  -0.00004,   0.00030,  -4.09583,   1.00000
-387384134.35213,-259285169.08222,190423431.46384,  -0.00140,  -0.00046,   0.00278,475011110.84887,   0.00034,275011116.40294,  -0.00014,  -0.00004,   0.00031,  -5.55407,   1.00000
-387243746.80266,-258795976.75821,190553822.17779,  -0.00140,  -0.00046,   0.00279,475024452.80889,   0.00035,275024456.05388,  -0.00014,  -0.00004,   0.00032,  -3.24499,   1.00000
-387111698.46769,-258294598.77174,190681439.77182,  -0.00141,  -0.00046,   0.00281,475037830.52511,   0.00036,275037835.02662,  -0.00015,  -0.00004,   0.00033,  -4.50151,   1.00000
-386960352.31571,-257805962.22737,190815794.51866,  -0.00141,  -0.00046,   0.00282,475051097.00436,   0.00038,275051104.19998,  -0.00015,  -0.00004,   0.00034,  -7.19562,   1.00000
-386816812.42767,-257308535.63423,190947076.94211,  -0.00142,  -0.00046,   0.00283,475064227.13216,   0.00039,275064232.14811,  -0.00016,  -0.00004,   0.00035,  -5.01594,   1.00000
-386659011.35443,-256792614.95168,191086291.16199,  -0.00142,  -0.00046,   0.00285,475077226.92748,   0.00040,275077231.77870,  -0.00016,  -0.00004,   0.00036,  -4.85121,   1.00000
-386493267.48525,-256292533.78286,191226855.24493,  -0.00143,  -0.00046,   0.00286,475090202.35220,   0.00041,275090206.01030,  -0.00017,  -0.00005,   0.00037,  -3.65810,   1.00000
-386329949.84446,-255780305.16543,191367132.95599,  -0.00143,  -0.00046,   0.00287,475103084.51848,   0.00042,275103088.02749,  -0.00017,  -0.00005,   0.00038,  -3.50901,   1.00000
-386164084.34009,-255287133.28682,191505972.05836,  -0.00144,  -0.00046,   0.00288,475115891.53443,   0.00043,275115895.87706,  -0.00018,  -0.00005,   0.00039,  -4.34263,   1.00000
-385995260.01367,-254778478.36742,191647341.49975,  -0.00144,  -0.00046,   0.00290,475128655.52467,   0.00045,275128660.02293,  -0.00018,  -0.00005,   0.00040,  -4.49826,   1.00000
-385806146.46495,-254251143.51960,191799153.80802,  -0.00145,  -0.00045,   0.00291,475141156.83655,   0.00046,275141164.35248,  -0.00019,  -0.00005,   0.00041,  -7.51593,   1.00000
-385620539.97110,-253742838.20153,191946938.14152,  -0.00145,  -0.00045,   0.00292,475153722.16874,   0.00047,275153727.35834,  -0.00019,  -0.00005,   0.00043,  -5.18960,   1.00000
-385442686.13241,-253225452.66222,192091617.87152,  -0.00146,  -0.00045,   0.00293,475166144.06672,   0.00048,275166150.06999,  -0.00020,  -0.00005,   0.00044,  -6.00327,   1.00000
-385242350.91020,-252703251.11476,192246291.58479,  -0.00146,  -0.00045,   0.00294,475178405.86562,   0.00049,275178412.59284,  -0.00020,  -0.00005,   0.00045,  -6.72722,   1.00000
-385042314.16914,-252182767.51692,192400177.75106,  -0.00147,  -0.00045,   0.00296,475190678.28699,   0.00050,275190683.20800,  -0.00021,  -0.00005,   0.00046,  -4.92101,   1.00000
-384836566.41458,-251663898.66307,192555878.01795,  -0.00147,  -0.00045,   0.00297,475202828.86978,   0.00051,275202829.07658,  -0.00021,  -0.00006,   0.00047,  -0.20679,   1.00000
-384625101.89087,-251146588.43776,192713390.04787,  -0.00147,  -0.00045,   0.00298,475214843.86780,   0.00053,275214850.28903,  -0.00021,  -0.00006,   0.00048,  -6.42123,   1.00000
-384410634.13049,-250613591.71785,192873327.06881,  -0.00148,  -0.00045,   0.00299,475226829.16280,   0.00054,275226829.55281,  -0.00022,  -0.00006,   0.00049,  -0.39001,   1.00000
-384195793.60233,-250085311.71271,193032301.58450,  -0.00148,  -0.00045,   0.00301,475238629.02698,   0.00055,275238635.41112,  -0.00022,  -0.00006,   0.00050,  -6.38414,   1.00000
-383969839.57016,-249555306.38485,193195862.16882,  -0.00149,  -0.00045,   0.00302,475250356.30219,   0.00056,275250365.71528,  -0.00023,  -0.00006,   0.00051,  -9.41309,   1.00000
-383744223.75901,-249026940.41887,193358615.10313,  -0.00149,  -0.00045,   0.00303,475262094.51257,   0.00057,275262104.48246,  -0.00023,  -0.00006,   0.00052,  -9.96990,   1.00000
-383498020.49589,-248479149.15627,193531756.50193,  -0.00150,  -0.00044,   0.00304,475273584.13647,   0.00058,275273585.31351,  -0.00024,  -0.00006,   0.00053,  -1.17704,   1.00000
-383260960.03924,-247953593.01834,193698117.90464,  -0.00150,  -0.00044,   0.00305,475285070.57861,   0.00059,275285075.50804,  -0.00024,  -0.00006,   0.00053,  -4.92943,   1.00000
-383014719.65749,-247411887.62814,193869484.88421,  -0.00151,  -0.00044,   0.00306,475296385.78681,   0.00060,275296391.78216,  -0.00024,  -0.00006,   0.00054,  -5.99535,   1.00000
-382762718.84106,-246871468.71052,194042664.46282,  -0.00151,  -0.00044,   0.00308,475307577.60156,   0.00061,275307583.85771,  -0.00025,  -0.00006,   0.00055,  -6.25616,   1.00000
-382511081.54102,-246332613.47387,194215012.95887,  -0.00151,  -0.00044,   0.00309,475318780.75632,   0.00062,275318784.82415,  -0.00025,  -0.00007,   0.00056,  -4.06784,   1.00000
-382253671.31254,-245794968.41518,194389188.00102,  -0.00152,  -0.00044,   0.00310,475329860.09546,   0.00063,275329861.49300,  -0.00026,  -0.00007,   0.00057,  -1.39754,   1.00000
-381981589.86602,-245237817.92510,194571062.51084,  -0.00152,  -0.00044,   0.00311,475340810.20961,   0.00064,275340814.52420,  -0.00026,  -0.00007,   0.00058,  -4.31459,   1.00000
-381712630.68626,-244702499.79328,194748874.34819,  -0.00153,  -0.00044,   0.00312,475351641.50191,   0.00065,275351642.97067,  -0.00027,  -0.00007,   0.00059,  -1.46875,   1.00000
-381428951.85513,-244147552.43739,194934373.04610,  -0.00153,  -0.00044,   0.00313,475362342.88689,   0.00066,275362348.10603,  -0.00027,  -0.00007,   0.00060,  -5.21914,   1.00000
-381151040.07944,-243597232.73392,195116295.89536,  -0.00153,  -0.00043,   0.00314,475373006.49493,   0.00067,275373013.01360,  -0.00027,  -0.00007,   0.00061,  -6.51867,   1.00000
-380850344.56511,-243041218.38610,195308135.63773,  -0.00154,  -0.00043,   0.00316,475383519.44819,   0.00068,275383520.08450,  -0.00028,  -0.00007,   0.00062,  -0.63631,   1.00000
-380560810.70891,-242492890.65503,195493691.67312,  -0.00154,  -0.00043,   0.00317,475393933.55278,   0.00069,275393937.26847,  -0.00028,  -0.00007,   0.00063,  -3.71569,   1.00000
-380256427.14135,-241924745.72257,195686893.52255,  -0.00154,  -0.00043,   0.00318,475404222.13019,   0.00070,275404232.04977,  -0.00029,  -0.00007,   0.00063,  -9.91958,   1.00000
-379961457.29570,-241378793.09546,195873412.62284,  -0.00155,  -0.00043,   0.00319,475414528.72122,   0.00071,275414534.86457,  -0.00029,  -0.00007,   0.00064,  -6.14336,   1.00000
-379645311.29979,-240812361.10182,196070273.54260,  -0.00155,  -0.00043,   0.00320,475424576.93857,   0.00072,275424582.06553,  -0.00029,  -0.00007,   0.00065,  -5.12696,   1.00000
-379329561.41351,-240247322.79146,196266242.57772,  -0.00155,  -0.00043,   0.00321,475434637.58135,   0.00073,275434639.21229,  -0.00030,  -0.00007,   0.00066,  -1.63094,   1.00000
-379001603.37748,-239682446.04635,196466748.83469,  -0.00156,  -0.00043,   0.00322,475444433.28898,   0.00074,275444439.26969,  -0.00030,  -0.00007,   0.00067,  -5.98072,   1.00000
-378674047.37763,-239118909.24986,196666362.10217,  -0.00156,  -0.00042,   0.00323,475454241.43186,   0.00075,275454249.33240,  -0.00030,  -0.00008,   0.00068,  -7.90055,   1.00000
-378340562.92153,-238556049.38709,196867812.50005,  -0.00156,  -0.00042,   0.00324,475463928.21451,   0.00075,275463935.75049,  -0.00031,  -0.00008,   0.00068,  -7.53598,   1.00000
-378009110.05109,-237979839.18887,197068799.96340,  -0.00157,  -0.00042,   0.00325,475473532.04688,   0.00076,275473534.21350,  -0.00031,  -0.00008,   0.00069,  -2.16663,   1.00000
-377659912.55845,-237400463.86235,197277012.76064,  -0.00157,  -0.00042,   0.00327,475482923.62966,   0.00077,275482925.95462,  -0.00031,  -0.00008,   0.00070,  -2.32496,   1.00000
-377314889.40979,-236840142.27366,197481244.70518,  -0.00157,  -0.00042,   0.00328,475492368.71234,   0.00078,275492375.46030,  -0.00032,  -0.00008,   0.00071,  -6.74796,   1.00000
-376948285.64860,-236258719.21788,197695784.10684,  -0.00158,  -0.00042,   0.00329,475501569.33708,   0.00079,275501570.81787,  -0.00032,  -0.00008,   0.00072,  -1.48079,   1.00000
-376592826.79527,-235684635.47127,197904134.16035,  -0.00158,  -0.00042,   0.00330,475510673.31850,   0.00080,275510675.54361,  -0.00032,  -0.00008,   0.00072,  -2.22512,   1.00000
-376225920.90766,-235107915.56632,198116969.10746,  -0.00158,  -0.00042,   0.00331,475519698.66990,   0.00081,275519707.48838,  -0.00033,  -0.00008,   0.00073,  -8.81848,   1.00000
-375847572.80785,-234528532.29295,198334280.45159,  -0.00158,  -0.00041,   0.00332,475528664.99854,   0.00081,275528666.77463,  -0.00033,  -0.00008,   0.00074,  -1.77609,   1.00000
-375464616.32719,-233934650.95699,198553858.04978,  -0.00159,  -0.00041,   0.00333,475537399.90063,   0.00082,275537405.25881,  -0.00033,  -0.00008,   0.00075,  -5.35818,   1.00000
-375079431.08787,-233358930.99534,198772250.57981,  -0.00159,  -0.00041,   0.00334,475546062.98988,   0.00083,275546067.35353,  -0.00034,  -0.00008,   0.00075,  -4.36365,   1.00000
-374678793.77502,-232762515.16139,198998133.73192,  -0.00159,  -0.00041,   0.00335,475554602.79405,   0.00084,275554610.57291,  -0.00034,  -0.00008,   0.00076,  -7.77886,   1.00000
-374293218.91208,-232191167.89008,199214866.44097,  -0.00159,  -0.00041,   0.00336,475563099.46260,   0.00085,275563109.11974,  -0.00034,  -0.00008,   0.00077,  -9.65714,   1.00000
-373880172.91940,-231595046.33723,199444478.73905,  -0.00160,  -0.00041,   0.00337,475571396.86573,   0.00085,275571406.03673,  -0.00035,  -0.00008,   0.00078,  -9.17100,   1.00000
-373472849.99669,-231003008.65424,199670561.15843,  -0.00160,  -0.00041,   0.00338,475579653.34108,   0.00086,275579662.87642,  -0.00035,  -0.00008,   0.00078,  -9.53535,   1.00000
-373059272.32346,-230411028.96033,199898521.05394,  -0.00160,  -0.00040,   0.00339,475587792.41322,   0.00087,275587796.55621,  -0.00035,  -0.00008,   0.00079,  -4.14299,   1.00000
-372627405.10386,-229815015.67014,200133735.00957,  -0.00160,  -0.00040,   0.00340,475595718.21609,   0.00088,275595724.49907,  -0.00036,  -0.00008,   0.00080,  -6.28298,   1.00000
-372201240.53205,-229222990.33696,200365437.85430,  -0.00160,  -0.00040,   0.00341,475603603.27732,   0.00088,275603612.22991,  -0.00036,  -0.00008,   0.00080,  -8.95259,   1.00000
-371759293.43249,-228609882.33698,200604569.99152,  -0.00161,  -0.00040,   0.00342,475611377.83985,   0.00089,275611382.60599,  -0.00036,  -0.00009,   0.00081,  -4.76615,   1.00000
-371320418.28351,-228017644.24920,200840039.28824,  -0.00161,  -0.00040,   0.00343,475619024.24994,   0.00090,275619024.40500,  -0.00036,  -0.00009,   0.00082,  -0.15506,   1.00000
-370875128.93515,-227425196.08545,201077404.05412,  -0.00161,  -0.00040,   0.00344,475626533.55265,   0.00090,275626543.20384,  -0.00037,  -0.00009,   0.00082,  -9.65118,   1.00000
-370413909.19330,-226811478.60086,201322178.14055,  -0.00161,  -0.00040,   0.00345,475633937.75496,   0.00091,275633945.21529,  -0.00037,  -0.00009,   0.00083,  -7.46033,   1.00000
-369958330.96372,-226201633.83034,201563456.46436,  -0.00161,  -0.00039,   0.00345,475641301.64380,   0.00092,275641307.03632,  -0.00037,  -0.00009,   0.00083,  -5.39252,   1.00000
-369493627.10976,-225608332.60253,201806535.34816,  -0.00162,  -0.00039,   0.00346,475648454.45204,   0.00092,275648456.93465,  -0.00037,  -0.00009,   0.00084,  -2.48262,   1.00000
-369012818.80557,-224993565.54601,202056991.55996,  -0.00162,  -0.00039,   0.00347,475655483.15927,   0.00093,275655490.80236,  -0.00038,  -0.00009,   0.00085,  -7.64309,   1.00000
-368537622.71310,-224382578.04419,202303975.48746,  -0.00162,  -0.00039,   0.00348,475662479.37822,   0.00094,275662484.28743,  -0.00038,  -0.00009,   0.00085,  -4.90921,   1.00000
-368043579.66290,-223766872.72961,202558240.98373,  -0.00162,  -0.00039,   0.00349,475669267.43711,   0.00094,275669272.85768,  -0.00038,  -0.00009,   0.00086,  -5.42057,   1.00000
-367542871.38720,-223150619.91083,202814410.94799,  -0.00162,  -0.00039,   0.00350,475675937.73999,   0.00095,275675938.89359,  -0.00038,  -0.00009,   0.00086,  -1.15360,   1.00000
-367047723.64477,-222538044.79520,203067122.25388,  -0.00162,  -0.00039,   0.00351,475682560.61060,   0.00096,275682564.51180,  -0.00039,  -0.00009,   0.00087,  -3.90120,   1.00000
-366533542.93514,-221920530.87703,203327127.49132,  -0.00162,  -0.00038,   0.00352,475688978.23109,   0.00096,275688985.41942,  -0.00039,  -0.00009,   0.00088,  -7.18834,   1.00000
-366024902.21217,-221306636.39222,203583694.28081,  -0.00163,  -0.00038,   0.00353,475695362.74529,   0.00097,275695365.71900,  -0.00039,  -0.00009,   0.00088,  -2.97371,   1.00000
-365497094.71035,-220687653.50884,203847560.13065,  -0.00163,  -0.00038,   0.00354,475701538.54143,   0.00097,275701541.49519,  -0.00039,  -0.00009,   0.00089,  -2.95376,   1.00000
-364970417.96597,-220053985.90025,204110897.36441,  -0.00163,  -0.00038,   0.00354,475707623.18935,   0.00098,275707632.39026,  -0.00040,  -0.00009,   0.00089,  -9.20091,   1.00000
-364441203.67723,-219437734.35540,204373274.47449,  -0.00163,  -0.00038,   0.00355,475713636.67056,   0.00098,275713645.04915,  -0.00040,  -0.00009,   0.00090,  -8.37859,   1.00000
-363892621.88576,-218816173.44494,204642963.36996,  -0.00163,  -0.00038,   0.00356,475719449.18050,   0.00099,275719453.39365,  -0.00040,  -0.00009,   0.00090,  -4.21315,   1.00000
-363345049.67842,-218179782.56417,204912125.84809,  -0.00163,  -0.00038,   0.00357,475725169.26237,   0.00100,275725177.06747,  -0.00040,  -0.00009,   0.00091,  -7.80510,   1.00000
-362789520.31326,-217557816.82832,205182774.47495,  -0.00163,  -0.00037,   0.00358,475730865.64612,   0.00100,275730875.55454,  -0.00040,  -0.00009,   0.00091,  -9.90842,   1.00000
-362215283.33278,-216914878.69342,205461193.91929,  -0.00163,  -0.00037,   0.00359,475736269.85297,   0.00101,275736273.07203,  -0.00041,  -0.00009,   0.00092,  -3.21906,   1.00000
-361650886.76959,-216293635.15399,205733335.00295,  -0.00163,  -0.00037,   0.00359,475741664.08630,   0.00101,275741673.70722,  -0.00041,  -0.00009,   0.00092,  -9.62091,   1.00000
-361074798.71769,-215652878.07606,206010321.37733,  -0.00163,  -0.00037,   0.00360,475746899.19040,   0.00102,275746908.27128,  -0.00041,  -0.00009,   0.00092,  -9.08089,   1.00000
-360478067.68468,-215021876.82618,206294143.11274,  -0.00163,  -0.00037,   0.00361,475752030.55285,   0.00102,275752036.51880,  -0.00041,  -0.00009,   0.00093,  -5.96595,   1.00000
-359887426.73397,-214378610.97723,206575056.17244,  -0.00163,  -0.00037,   0.00362,475757021.61110,   0.00102,275757026.88146,  -0.00041,  -0.00009,   0.00093,  -5.27036,   1.00000
-359294005.35759,-213752415.53125,206855101.20514,  -0.00163,  -0.00037,   0.00363,475761930.57455,   0.00103,275761938.33368,  -0.00041,  -0.00009,   0.00094,  -7.75913,   1.00000
-358675922.72661,-213101818.65097,207145315.38797,  -0.00163,  -0.00036,   0.00363,475766598.53160,   0.00103,275766603.34242,  -0.00042,  -0.00009,   0.00094,  -4.81082,   1.00000
-358057718.65572,-212451561.39747,207434511.45137,  -0.00163,  -0.00036,   0.00364,475771272.83343,   0.00104,275771281.67146,  -0.00042,  -0.00009,   0.00095,  -8.83803,   1.00000
-357441976.09622,-211821091.96046,207720521.68789,  -0.00163,  -0.00036,   0.00365,475775826.38944,   0.00104,275775826.74430,  -0.00042,  -0.00009,   0.00095,  -0.35486,   1.00000
-356801236.24449,-211165934.94278,208016675.96107,  -0.00163,  -0.00036,   0.00366,475780117.34333,   0.00105,275780126.24191,  -0.00042,  -0.00009,   0.00095,  -8.89858,   1.00000
-356170330.02070,-210532332.25057,208306683.12977,  -0.00163,  -0.00036,   0.00366,475784425.30393,   0.00105,275784427.28534,  -0.00042,  -0.00009,   0.00096,  -1.98141,   1.00000
-355514212.62039,-209873860.01319,208606827.89045,  -0.00163,  -0.00036,   0.00367,475788480.65846,   0.00105,275788483.17867,  -0.00042,  -0.00009,   0.00096,  -2.52021,   1.00000
-354863161.22416,-209218391.27602,208903642.18935,  -0.00163,  -0.00035,   0.00368,475792490.36488,   0.00106,275792498.07447,  -0.00043,  -0.00009,   0.00096,  -7.70959,   1.00000
-354196177.43571,-208574920.08835,209204984.04790,  -0.00163,  -0.00035,   0.00369,475796349.34195,   0.00106,275796353.06236,  -0.00043,  -0.00010,   0.00097,  -3.72041,   1.00000
-353524137.49055,-207913059.93393,209508098.62030,  -0.00163,  -0.00035,   0.00369,475800169.45756,   0.00106,275800179.44876,  -0.00043,  -0.00010,   0.00097,  -9.99120,   1.00000
-352836517.79240,-207247300.05984,209816241.44679,  -0.00163,  -0.00035,   0.00370,475803742.64978,   0.00107,275803749.14768,  -0.00043,  -0.00010,   0.00097,  -6.49790,   1.00000
-352158669.90937,-206602982.57469,210118306.72222,  -0.00163,  -0.00035,   0.00371,475807311.96328,   0.00107,275807319.64136,  -0.00043,  -0.00010,   0.00098,  -7.67808,   1.00000
-351460214.47455,-205936004.22947,210428218.40602,  -0.00163,  -0.00035,   0.00371,475810585.51336,   0.00107,275810591.24696,  -0.00043,  -0.00010,   0.00098,  -5.73360,   1.00000
-350753175.20712,-205282789.83260,210739635.51475,  -0.00163,  -0.00035,   0.00372,475813834.70938,   0.00108,275813838.58285,  -0.00043,  -0.00010,   0.00098,  -3.87346,   1.00000
-350033030.32931,-204608830.32726,211055832.85393,  -0.00163,  -0.00034,   0.00373,475816919.20614,   0.00108,275816922.98141,  -0.00043,  -0.00010,   0.00098,  -3.77527,   1.00000
-349322609.79501,-203956240.27896,211366003.92588,  -0.00163,  -0.00034,   0.00374,475819997.86819,   0.00108,275820007.60925,  -0.00043,  -0.00010,   0.00099,  -9.74106,   1.00000
-348585802.06236,-203277847.30728,211686252.42858,  -0.00163,  -0.00034,   0.00374,475822846.82642,   0.00109,275822849.66368,  -0.00044,  -0.00010,   0.00099,  -2.83726,   1.00000
-347850781.98948,-202618551.72181,212003563.23907,  -0.00162,  -0.00034,   0.00375,475825550.85736,   0.00109,275825556.35836,  -0.00044,  -0.00010,   0.00099,  -5.50100,   1.00000
-347102007.34251,-201954170.61311,212325123.55722,  -0.00162,  -0.00034,   0.00375,475828190.42065,   0.00109,275828197.76204,  -0.00044,  -0.00010,   0.00099,  -7.34138,   1.00000
-346339663.00001,-201268686.76829,212651447.63488,  -0.00162,  -0.00034,   0.00376,475830675.59399,   0.00109,275830677.13321,  -0.00044,  -0.00010,   0.00100,  -1.53921,   1.00000
-345578941.89930,-200602154.92947,212974888.32791,  -0.00162,  -0.00034,   0.00377,475833015.22509,   0.00110,275833020.68347,  -0.00044,  -0.00010,   0.00100,  -5.45838,   1.00000
-344804256.82407,-199930384.48808,213302552.31220,  -0.00162,  -0.00033,   0.00377,475835289.77398,   0.00110,275835299.59608,  -0.00044,  -0.00010,   0.00100,  -9.82211,   1.00000
-344026040.91237,-199258741.72877,213630101.24514,  -0.00162,  -0.00033,   0.00378,475837395.98845,   0.00110,275837401.29171,  -0.00044,  -0.00010,   0.00100,  -5.30326,   1.00000
-343225569.09390,-198579345.53713,213964949.37875,  -0.00162,  -0.00033,   0.00379,475839298.04027,   0.00110,275839303.40890,  -0.00044,  -0.00010,   0.00100,  -5.36862,   1.00000
-342429532.59380,-197902352.09559,214296594.72835,  -0.00161,  -0.00033,   0.00379,475841157.70555,   0.00110,275841163.87492,  -0.00044,  -0.00010,   0.00101,  -6.16936,   1.00000
-341619242.37634,-197219915.46387,214632426.87216,  -0.00161,  -0.00033,   0.00380,475842956.98284,   0.00110,275842960.59887,  -0.00044,  -0.00010,   0.00101,  -3.61603,   1.00000
-340791577.28588,-196532164.74939,214973411.17114,  -0.00161,  -0.00033,   0.00380,475844498.81174,   0.00111,275844501.62678,  -0.00044,  -0.00010,   0.00101,  -2.81503,   1.00000
-339968210.39604,-195846711.14489,215311209.27331,  -0.00161,  -0.00033,   0.00381,475845997.10671,   0.00111,275846000.98263,  -0.00044,  -0.00010,   0.00101,  -3.87593,   1.00000
-339121998.45102,-195153093.93705,215656279.83313,  -0.00161,  -0.00032,   0.00381,475847292.50169,   0.00111,275847301.92462,  -0.00044,  -0.00010,   0.00101,  -9.42293,   1.00000
-338266388.96074,-194456455.76325,216003392.49371,  -0.00160,  -0.00032,   0.00382,475848480.81483,   0.00111,275848483.00679,  -0.00044,  -0.00010,   0.00101,  -2.19196,   1.00000
-337425409.22410,-193783525.12957,216342605.07896,  -0.00160,  -0.00032,   0.00383,475849602.76437,   0.00111,275849604.65003,  -0.00044,  -0.00010,   0.00101,  -1.88565,   1.00000
-336550754.61288,-193080667.87181,216693815.46122,  -0.00160,  -0.00032,   0.00383,475850542.96526,   0.00111,275850546.16761,  -0.00044,  -0.00010,   0.00101,  -3.20236,   1.00000
-335671750.98665,-192393500.17210,217044415.20944,  -0.00160,  -0.00032,   0.00384,475851399.87030,   0.00111,275851407.85744,  -0.00044,  -0.00010,   0.00101,  -7.98714,   1.00000
-334788210.85020,-191705720.96964,217395024.52412,  -0.00159,  -0.00032,   0.00384,475852082.38183,   0.00111,275852092.06385,  -0.00045,  -0.00010,   0.00102,  -9.68202,   1.00000
-333884310.42316,-190993080.40729,217752356.47551,  -0.00159,  -0.00032,   0.00385,475852669.23150,   0.00111,275852675.46090,  -0.00045,  -0.00010,   0.00102,  -6.22941,   1.00000
-332981027.23580,-190298612.83235,218107072.43621,  -0.00159,  -0.00031,   0.00385,475853111.89752,   0.00111,275853120.90328,  -0.00045,  -0.00010,   0.00102,  -9.00576,   1.00000
-332053867.24253,-189595298.75098,218469015.82590,  -0.00159,  -0.00031,   0.00386,475853368.72375,   0.00111,275853369.87921,  -0.00045,  -0.00010,   0.00102,  -1.15546,   1.00000
-331125311.47171,-188891291.49395,218829824.34163,  -0.00158,  -0.00031,   0.00386,475853633.20397,   0.00111,275853635.67056,  -0.00045,  -0.00010,   0.00102,  -2.46659,   1.00000
-330191710.27168,-188186335.26326,219190682.77246,  -0.00158,  -0.00031,   0.00387,475853717.71626,   0.00111,275853724.09562,  -0.00045,  -0.00010,   0.00102,  -6.37936,   1.00000
-329233333.12365,-187488258.08137,219551553.18005,  -0.00158,  -0.00031,   0.00387,475844201.33037,   0.00111,275853724.09562,  -0.00045,  -0.00010,   0.00102,-9522.76525,   0.00000
-328266082.11314,-186769475.22034,219906507.67932,  -0.00157,  -0.00031,   0.00388,475823486.19023,   0.00111,275853724.09562,  -0.00045,  -0.00010,   0.00102,-30237.90539,   0.00000
-327266293.60687,-186053650.31348,220255546.27027,  -0.00157,  -0.00031,   0.00388,475781059.06443,   0.00111,275853724.09562,  -0.00045,  -0.00010,   0.00102,-72665.03119,   0.00000
-326236925.55898,-185308245.86501,220592753.04457,  -0.00157,  -0.00030,   0.00388,475708706.31025,   0.00111,275853724.09562,  -0.00045,  -0.00010,   0.00102,-145017.78537,   0.00000
-325195725.69446,-184574673.23319,220929959.81888,  -0.00157,  -0.00030,   0.00389,475633594.94354,   0.00111,275853724.09562,  -0.00045,  -0.00010,   0.00102,-220129.15208,   0.00000
-324133820.15081,-183832226.73888,221261250.68487,  -0.00156,  -0.00030,   0.00389,475542219.15359,   0.00111,275853724.09562,  -0.00045,  -0.00010,   0.00102,-311504.94203,   0.00000
-323051208.92803,-183080906.38209,221580709.73421,  -0.00156,  -0.00030,   0.00390,475426362.87034,   0.00111,275853724.09562,  -0.00045,  -0.00010,   0.00102,-427361.22528,   0.00000
-321947892.02613,-182320712.16282,221894252.87523,  -0.00155,  -0.00030,   0.00390,475294326.37817,   0.00111,275853724.09562,  -0.00045,  -0.00010,   0.00102,-559397.71745,   0.00000
-320832743.30759,-181572349.76020,222207796.01625,  -0.00155,  -0.00030,   0.00391,475159684.86873,   0.00111,275853724.09562,  -0.00045,  -0.00010,   0.00102,-694039.22689,   0.00000
-319667309.36832,-180785533.95348,222509507.34063,  -0.00155,  -0.00030,   0.00391,474985068.52839,   0.00111,275853724.09562,  -0.00045,  -0.00010,   0.00102,-868655.56723,   0.00000
-318510749.29154,-180019423.82589,222805302.75669,  -0.00154,  -0.00030,   0.00391,474810043.71069,   0.00111,275853724.09562,  -0.00045,  -0.00010,   0.00102,-1043680.38493,   0.00000
-317312777.85650,-179235565.97333,223095182.26443,  -0.00154,  -0.00029,   0.00392,474608715.49088,   0.00111,275853724.09562,  -0.00045,  -0.00010,   0.00102,-1245008.60474,   0.00000
-316105932.55898,-178431002.44166,223379145.86384,  -0.00154,  -0.00029,   0.00392,474396683.40709,   0.00111,275853724.09562,  -0.00045,  -0.00010,   0.00102,-1457040.68853,   0.00000
-314875423.62818,-177650102.54326,223657193.55494,  -0.00153,  -0.00029,   0.00392,474168810.37176,   0.00111,275853724.09562,  -0.00045,  -0.00010,   0.00102,-1684913.72386,   0.00000
-313615335.15577,-176839623.10326,223929325.33771,  -0.00153,  -0.00029,   0.00393,473920079.03699,   0.00111,275853724.09562,  -0.00045,  -0.00010,   0.00102,-1933645.05863,   0.00000
-312334541.00424,-176020269.80078,224189625.30384,  -0.00152,  -0.00029,   0.00393,473647289.64814,   0.00111,275853724.09562,  -0.00045,  -0.00010,   0.00102,-2206434.44748,   0.00000
-311041915.03606,-175212748.31494,224449925.26998,  -0.00152,  -0.00029,   0.00393,473372346.22214,   0.00111,275853724.09562,  -0.00045,  -0.00010,   0.00102,-2481377.87348,   0.00000
-309728583.38876,-174396352.96662,224698393.41946,  -0.00151,  -0.00029,   0.00394,473073410.75082,   0.00111,275853724.09562,  -0.00045,  -0.00010,   0.00102,-2780313.34480,   0.00000
-308385672.19986,-173550378.07669,224940945.66063,  -0.00151,  -0.00029,   0.00394,472753946.20151,   0.00111,275853724.09562,  -0.00045,  -0.00010,   0.00102,-3099777.89411,   0.00000
-307039803.05679,-172736940.68253,225183497.90180,  -0.00151,  -0.00028,   0.00394,472437507.26587,   0.00111,275853724.09562,  -0.00045,  -0.00010,   0.00102,-3416216.82975,   0.00000
-305643648.69299,-171885049.88428,225414218.32633,  -0.00150,  -0.00028,   0.00395,472082244.98352,   0.00111,275853724.09562,  -0.00045,  -0.00010,   0.00102,-3771479.11210,   0.00000
-304247494.32920,-171033159.08603,225639022.84253,  -0.00150,  -0.00028,   0.00395,471721713.62087,   0.00111,275853724.09562,  -0.00045,  -0.00010,   0.00102,-4132010.47475,   0.00000
-302818802.46964,-170184226.24195,225857911.45041,  -0.00149,  -0.00028,   0.00395,471340962.46256,   0.00111,275853724.09562,  -0.00045,  -0.00010,   0.00102,-4512761.63306,   0.00000
-301369404.93095,-169326419.53538,226070884.14998,  -0.00149,  -0.00028,   0.00396,470945098.99530,   0.00111,275853724.09562,  -0.00045,  -0.00010,   0.00102,-4908625.10032,   0.00000
-299920007.39226,-168468612.82881,226277940.94122,  -0.00148,  -0.00028,   0.00396,470544043.00495,   0.00111,275853724.09562,  -0.00045,  -0.00010,   0.00102,-5309681.09067,   0.00000
-298429198.49533,-167593058.39727,226473165.91581,  -0.00148,  -0.00028,   0.00396,470109606.67320,   0.00111,275853724.09562,  -0.00045,  -0.00010,   0.00102,-5744117.42242,   0.00000
-296917683.91927,-166708630.10326,226668390.89041,  -0.00147,  -0.00028,   0.00396,469668836.86468,   0.00111,275853724.09562,  -0.00045,  -0.00010,   0.00102,-6184887.23094,   0.00000
-295394337.52657,-165836033.62589,226851784.04837,  -0.00147,  -0.00028,   0.00397,469209521.61946,   0.00111,275853724.09562,  -0.00045,  -0.00010,   0.00102,-6644202.47616,   0.00000
-293829579.77562,-164945689.42355,227035177.20633,  -0.00146,  -0.00027,   0.00397,468734354.26554,   0.00111,275853724.09562,  -0.00045,  -0.00010,   0.00102,-7119369.83008,   0.00000
-292264822.02467,-164055345.22122,227206738.54764,  -0.00146,  -0.00027,   0.00397,468245643.16164,   0.00111,275853724.09562,  -0.00045,  -0.00010,   0.00102,-7608080.93398,   0.00000
-290679358.59460,-163156127.15640,227372383.98063,  -0.00145,  -0.00027,   0.00397,467742339.26399,   0.00111,275853724.09562,  -0.00045,  -0.00010,   0.00102,-8111384.83163,   0.00000
-289061357.66876,-162259867.04574,227538029.41363,  -0.00144,  -0.00027,   0.00397,467228359.55871,   0.00111,275853724.09562,  -0.00045,  -0.00010,   0.00102,-8625364.53691,   0.00000
-287413777.20131,-161334027.39348,227691843.02998,  -0.00144,  -0.00027,   0.00398,466686673.97198,   0.00111,275853724.09562,  -0.00045,  -0.00010,   0.00102,-9167050.12364,   0.00000
-285775070.59635,-160428893.42034,227839740.73800,  -0.00143,  -0.00027,   0.00398,466144918.29711,   0.00111,275853724.09562,  -0.00045,  -0.00010,   0.00102,-9708805.79851,   0.00000
-284094952.63314,-159506011.72224,227981722.53771,  -0.00143,  -0.00027,   0.00398,465579482.44743,   0.00111,275853724.09562,  -0.00045,  -0.00010,   0.00102,-10274241.64819,   0.00000
-282403002.85328,-158594961.84078,228117788.42910,  -0.00142,  -0.00027,   0.00398,465004624.35759,   0.00111,275853724.09562,  -0.00045,  -0.00010,   0.00102,-10849099.73803,   0.00000
-280681473.53182,-157654332.41771,228242022.50384,  -0.00142,  -0.00027,   0.00398,464402401.25599,   0.00111,275853724.09562,  -0.00045,  -0.00010,   0.00102,-11451322.83963,   0.00000
-278948112.39372,-156725534.81129,228366256.57859,  -0.00141,  -0.00027,   0.00399,463799624.83981,   0.00111,275853724.09562,  -0.00045,  -0.00010,   0.00102,-12054099.25581,   0.00000
-277194045.57649,-155787863.34238,228484574.74501,  -0.00140,  -0.00027,   0.00399,463183043.58588,   0.00111,275853724.09562,  -0.00045,  -0.00010,   0.00102,-12670680.50974,   0.00000
-275419273.08014,-154841318.01100,228591061.09479,  -0.00140,  -0.00026,   0.00399,462543993.72962,   0.00111,275853724.09562,  -0.00045,  -0.00010,   0.00102,-13309730.36600,   0.00000
-273611963.08803,-153897730.63377,228697547.44457,  -0.00139,  -0.00026,   0.00399,461895510.11793,   0.00111,275853724.09562,  -0.00045,  -0.00010,   0.00102,-13958213.97769,   0.00000
-271804653.09591,-152954143.25654,228792201.97771,  -0.00138,  -0.00026,   0.00399,461233895.75565,   0.00111,275853724.09562,  -0.00045,  -0.00010,   0.00102,-14619828.33997,   0.00000
-269955931.74554,-151992808.15435,228886856.51085,  -0.00138,  -0.00026,   0.00399,460558615.07693,   0.00111,275853724.09562,  -0.00045,  -0.00010,   0.00102,-15295109.01869,   0.00000
-268086504.71605,-151022599.18968,228969679.22735,  -0.00137,  -0.00026,   0.00399,459861305.98628,   0.00111,275853724.09562,  -0.00045,  -0.00010,   0.00102,-15992418.10934,   0.00000
-266217077.68656,-150052390.22501,229046586.03552,  -0.00136,  -0.00026,   0.00399,459159840.53727,   0.00111,275853724.09562,  -0.00045,  -0.00010,   0.00102,-16693883.55835,   0.00000
-264315113.16131,-149085139.21450,229117576.93538,  -0.00136,  -0.00026,   0.00400,458440829.90082,   0.00111,275853724.09562,  -0.00045,  -0.00010,   0.00102,-17412894.19480,   0.00000
-262392442.95693,-148109014.34151,229182651.92691,  -0.00135,  -0.00026,   0.00400,457708916.21844,   0.00111,275853724.09562,  -0.00045,  -0.00010,   0.00102,-18144807.87718,   0.00000
-260457940.93591,-147144721.28515,229241811.01012,  -0.00134,  -0.00026,   0.00400,456968621.04387,   0.00111,275853724.09562,  -0.00045,  -0.00010,   0.00102,-18885103.05175,   0.00000
-258493859.37328,-146150848.68720,229295054.18501,  -0.00134,  -0.00026,   0.00400,456211260.92959,   0.00111,275853724.09562,  -0.00045,  -0.00010,   0.00102,-19642463.16603,   0.00000
-256517945.99401,-145168807.90588,229342381.45158,  -0.00133,  -0.00026,   0.00400,455445736.36058,   0.00111,275853724.09562,  -0.00045,  -0.00010,   0.00102,-20407987.73504,   0.00000
-254521326.93561,-144177893.26209,229383792.80983,  -0.00132,  -0.00026,   0.00400,454667785.61295,   0.00111,275853724.09562,  -0.00045,  -0.00010,   0.00102,-21185938.48267,   0.00000
-252483296.51897,-143169230.89333,229419288.25976,  -0.00132,  -0.00026,   0.00400,453868961.04105,   0.00111,275853724.09562,  -0.00045,  -0.00010,   0.00102,-21984763.05457,   0.00000
-250454139.96481,-142181274.20369,229448867.80136,  -0.00131,  -0.00026,   0.00400,453070911.68590,   0.00111,275853724.09562,  -0.00045,  -0.00010,   0.00102,-22782812.40972,   0.00000
-248404277.73153,-141184443.65158,229472531.43465,  -0.00130,  -0.00026,   0.00400,452260810.39750,   0.00111,275853724.09562,  -0.00045,  -0.00010,   0.00102,-23592913.69812,   0.00000
-246313004.13999,-140169865.37450,229490279.15961,  -0.00129,  -0.00025,   0.00400,451430383.58483,   0.00111,275853724.09562,  -0.00045,  -0.00010,   0.00102,-24423340.51079,   0.00000
-244209898.73182,-139167118.91406,229496195.06793,  -0.00129,  -0.00025,   0.00400,450583493.10712,   0.00111,275853724.09562,  -0.00045,  -0.00010,   0.00102,-25270230.98849,   0.00000
-242097919.46116,-138143666.77450,229502110.97625,  -0.00128,  -0.00025,   0.00400,449738188.05184,   0.00111,275853724.09562,  -0.00045,  -0.00010,   0.00102,-26115536.04378,   0.00000
-239953402.69474,-137123172.58909,229502110.97625,  -0.00127,  -0.00025,   0.00400,448877360.64798,   0.00111,275853724.09562,  -0.00045,  -0.00010,   0.00102,-26976363.44764,   0.00000
-237797054.11167,-136114510.22034,229490279.15961,  -0.00126,  -0.00025,   0.00400,448000372.73504,   0.00111,275853724.09562,  -0.00045,  -0.00010,   0.00102,-27853351.36058,   0.00000
-235611125.98700,-135076268.30997,229478447.34297,  -0.00125,  -0.00025,   0.00400,447117213.56216,   0.00111,275853724.09562,  -0.00045,  -0.00010,   0.00102,-28736510.53346,   0.00000
-233413366.04568,-134049858.21625,229454783.70968,  -0.00125,  -0.00025,   0.00400,446218140.16705,   0.00111,275853724.09562,  -0.00045,  -0.00010,   0.00102,-29635583.92857,   0.00000
-231203774.28773,-133035279.93917,229431120.07640,  -0.00124,  -0.00025,   0.00400,445321489.14751,   0.00111,275853724.09562,  -0.00045,  -0.00010,   0.00102,-30532234.94811,   0.00000
-228964602.98816,-131991122.12048,229395624.62647,  -0.00123,  -0.00025,   0.00400,444400954.83604,   0.00111,275853724.09562,  -0.00045,  -0.00010,   0.00102,-31452769.25958,   0.00000
-226713599.87196,-130958796.11844,229360129.17655,  -0.00122,  -0.00025,   0.00400,443483177.93624,   0.00111,275853724.09562,  -0.00045,  -0.00010,   0.00102,-32370546.15938,   0.00000
-224441891.07663,-129917596.25391,229312801.90998,  -0.00121,  -0.00025,   0.00400,442545903.44788,   0.00111,275853724.09562,  -0.00045,  -0.00010,   0.00102,-33307820.64774,   0.00000
-222158350.46466,-128888228.20603,229265474.64341,  -0.00121,  -0.00025,   0.00400,441611690.82023,   0.00111,275853724.09562,  -0.00045,  -0.00010,   0.00102,-34242033.27539,   0.00000
-219845230.31108,-127829280.61654,229206315.56020,  -0.00120,  -0.00025,   0.00400,440654283.89370,   0.00111,275853724.09562,  -0.00045,  -0.00010,   0.00102,-35199440.20192,   0.00000
-217508446.52422,-126793996.66033,229147156.47698,  -0.00119,  -0.00025,   0.00400,439696639.31028,   0.00111,275853724.09562,  -0.00045,  -0.00010,   0.00102,-36157084.78534,   0.00000
-215162788.87488,-125738007.02501,229076165.57713,  -0.00118,  -0.00025,   0.00399,438723832.01113,   0.00111,275853724.09562,  -0.00045,  -0.00010,   0.00102,-37129892.08449,   0.00000
-212805299.40889,-124693849.20632,229005174.67728,  -0.00117,  -0.00025,   0.00399,437754782.56497,   0.00111,275853724.09562,  -0.00045,  -0.00010,   0.00102,-38098941.53065,   0.00000
-210406398.58466,-123631943.66267,228922351.96078,  -0.00116,  -0.00025,   0.00399,436759759.73624,   0.00111,275853724.09562,  -0.00045,  -0.00010,   0.00102,-39093964.35938,   0.00000
-208007497.76042,-122570038.11902,228839529.24428,  -0.00115,  -0.00025,   0.00399,435772459.97625,   0.00111,275853724.09562,  -0.00045,  -0.00010,   0.00102,-40081264.11937,   0.00000
-205576059.44042,-121511090.52953,228744874.71114,  -0.00114,  -0.00025,   0.00399,434763548.71034,   0.00111,275853724.09562,  -0.00045,  -0.00010,   0.00102,-41090175.38528,   0.00000
-203144621.12042,-120452142.94004,228650220.17801,  -0.00113,  -0.00025,   0.00399,433762631.45949,   0.00111,275853724.09562,  -0.00045,  -0.00010,   0.00102,-42091092.63613,   0.00000
-200671771.44218,-119375447.62559,228549649.73655,  -0.00113,  -0.00025,   0.00399,432746117.24649,   0.00111,275853724.09562,  -0.00045,  -0.00010,   0.00102,-43107606.84913,   0.00000
-198187089.94728,-118310584.12778,228437247.47844,  -0.00112,  -0.00025,   0.00399,431715895.77726,   0.00111,275853724.09562,  -0.00045,  -0.00010,   0.00102,-44137828.31836,   0.00000
-195702408.45239,-117245720.62997,228324845.22034,  -0.00111,  -0.00025,   0.00398,430694121.86233,   0.00111,275853724.09562,  -0.00045,  -0.00010,   0.00102,-45159602.23329,   0.00000
-193176315.59925,-116163109.40719,228206527.05392,  -0.00110,  -0.00025,   0.00398,429657599.00396,   0.00111,275853724.09562,  -0.00045,  -0.00010,   0.00102,-46196125.09166,   0.00000
-190638390.92947,-115092330.00106,228076377.07085,  -0.00109,  -0.00025,   0.00398,428607892.19848,   0.00111,275853724.09562,  -0.00045,  -0.00010,   0.00102,-47245831.89714,   0.00000
-188100466.25969,-114021550.59493,227946227.08779,  -0.00108,  -0.00025,   0.00398,427567117.42988,   0.00111,275853724.09562,  -0.00045,  -0.00010,   0.00102,-48286606.66574,   0.00000
-185521130.23166,-112933023.46384,227810161.19640,  -0.00107,  -0.00025,   0.00398,426512489.88818,   0.00111,275853724.09562,  -0.00045,  -0.00010,   0.00102,-49341234.20744,   0.00000
-182929962.38699,-111856328.14938,227668179.39669,  -0.00106,  -0.00025,   0.00398,425454739.20767,   0.00111,275853724.09562,  -0.00045,  -0.00010,   0.00102,-50398984.88795,   0.00000
-180318088.86319,-110770758.97245,227520281.68866,  -0.00105,  -0.00025,   0.00397,424390431.55311,   0.00111,275853724.09562,  -0.00045,  -0.00010,   0.00102,-51463292.54251,   0.00000
-177706215.33940,-109685189.79551,227366468.07231,  -0.00104,  -0.00025,   0.00397,423326271.66811,   0.00111,275853724.09562,  -0.00045,  -0.00010,   0.00102,-52527452.42751,   0.00000
-175061804.31984,-108602578.57274,227206738.54764,  -0.00103,  -0.00025,   0.00397,422253120.97130,   0.00111,275853724.09562,  -0.00045,  -0.00010,   0.00102,-53600603.12432,   0.00000
-172396687.62115,-107511093.48748,227041093.11465,  -0.00102,  -0.00025,   0.00397,421174157.10598,   0.00111,275853724.09562,  -0.00045,  -0.00010,   0.00102,-54679566.98964,   0.00000
-169719739.10582,-106431440.21887,226869531.77333,  -0.00101,  -0.00025,   0.00397,420093178.21617,   0.00111,275853724.09562,  -0.00045,  -0.00010,   0.00102,-55760545.87945,   0.00000
-167033916.72801,-105331081.27113,226697970.43202,  -0.00100,  -0.00025,   0.00396,419019107.38691,   0.00111,275853724.09562,  -0.00045,  -0.00010,   0.00102,-56834616.70871,   0.00000
-164315556.85443,-104233680.27756,226514577.27406,  -0.00099,  -0.00025,   0.00396,417927754.83777,   0.00111,275853724.09562,  -0.00045,  -0.00010,   0.00102,-57925969.25785,   0.00000
-161585365.16421,-103148111.10062,226325268.20779,  -0.00098,  -0.00025,   0.00396,416835122.01908,   0.00111,275853724.09562,  -0.00045,  -0.00010,   0.00102,-59018602.07654,   0.00000
-158834467.79487,-102053668.06121,226135959.14151,  -0.00097,  -0.00025,   0.00396,415747658.22787,   0.00111,275853724.09562,  -0.00045,  -0.00010,   0.00102,-60106065.86775,   0.00000
-156083570.42553,-100959225.02179,225940734.16691,  -0.00096,  -0.00025,   0.00395,414661808.98731,   0.00111,275853724.09562,  -0.00045,  -0.00010,   0.00102,-61191915.10830,   0.00000
-153300135.56042,-99867739.93653,225733677.37567,  -0.00095,  -0.00025,   0.00395,413559957.29412,   0.00111,275853724.09562,  -0.00045,  -0.00010,   0.00102,-62293766.80150,   0.00000
-150495995.01618,-98767380.98880,225526620.58443,  -0.00094,  -0.00025,   0.00395,412464197.91655,   0.00111,275853724.09562,  -0.00045,  -0.00010,   0.00102,-63389526.17907,   0.00000
-147691854.47195,-97667022.04106,225313647.88487,  -0.00093,  -0.00025,   0.00395,411370668.90493,   0.00111,275853724.09562,  -0.00045,  -0.00010,   0.00102,-64483055.19069,   0.00000
-144855176.43195,-96569621.04748,225094759.27698,  -0.00092,  -0.00025,   0.00394,410271929.71915,   0.00111,275853724.09562,  -0.00045,  -0.00010,   0.00102,-65581794.37647,   0.00000
-142018498.39195,-95472220.05391,224875870.66910,  -0.00091,  -0.00025,   0.00394,409185592.34763,   0.00111,275853724.09562,  -0.00045,  -0.00010,   0.00102,-66668131.74799,   0.00000
-139140408.99370,-94357071.33537,224645150.24457,  -0.00089,  -0.00026,   0.00394,408081804.80645,   0.00111,275853724.09562,  -0.00045,  -0.00010,   0.00102,-67771919.28917,   0.00000
-136271193.45793,-93262628.29595,224408513.91173,  -0.00088,  -0.00026,   0.00393,406984385.06706,   0.00111,275853724.09562,  -0.00045,  -0.00010,   0.00102,-68869339.02856,   0.00000
-133360566.56392,-92150437.53157,224171877.57888,  -0.00087,  -0.00026,   0.00393,405889888.25161,   0.00111,275853724.09562,  -0.00045,  -0.00010,   0.00102,-69963835.84401,   0.00000
-130458813.53238,-91058952.44631,223929325.33771,  -0.00086,  -0.00026,   0.00393,404802198.84514,   0.00111,275853724.09562,  -0.00045,  -0.00010,   0.00102,-71051525.25048,   0.00000
-127506775.28012,-89929013.95697,223680857.18822,  -0.00085,  -0.00026,   0.00392,403705368.22937,   0.00111,275853724.09562,  -0.00045,  -0.00010,   0.00102,-72148355.86625,   0.00000
-124572484.75282,-88840486.82588,223426473.13041,  -0.00084,  -0.00026,   0.00392,402618954.53752,   0.00111,275853724.09562,  -0.00045,  -0.00010,   0.00102,-73234769.55810,   0.00000
-121608614.68392,-87722380.15318,223166173.16428,  -0.00083,  -0.00026,   0.00392,401528948.58559,   0.00111,275853724.09562,  -0.00045,  -0.00010,   0.00102,-74324775.51003,   0.00000
-118632912.79837,-86616105.29712,222899957.28983,  -0.00082,  -0.00026,   0.00391,400441967.96620,   0.00111,275853724.09562,  -0.00045,  -0.00010,   0.00102,-75411756.12942,   0.00000
-115645379.09618,-85521662.25770,222633741.41538,  -0.00080,  -0.00026,   0.00391,399368215.83436,   0.00111,275853724.09562,  -0.00045,  -0.00010,   0.00102,-76485508.26126,   0.00000
-112637139.71486,-84418345.35580,222355693.72428,  -0.00079,  -0.00026,   0.00391,398285205.48752,   0.00111,275853724.09562,  -0.00045,  -0.00010,   0.00102,-77568518.60810,   0.00000
-109608194.65442,-83306154.59142,222077646.03319,  -0.00078,  -0.00026,   0.00390,397213138.15478,   0.00111,275853724.09562,  -0.00045,  -0.00010,   0.00102,-78640585.94084,   0.00000
-106558543.91486,-82185089.96456,221793682.43377,  -0.00077,  -0.00026,   0.00390,396142526.72264,   0.00111,275853724.09562,  -0.00045,  -0.00010,   0.00102,-79711197.37298,   0.00000
-103497061.35866,-81075857.15434,221509718.83435,  -0.00076,  -0.00026,   0.00390,395086686.65852,   0.00111,275853724.09562,  -0.00045,  -0.00010,   0.00102,-80767037.43710,   0.00000
-100435578.80245,-79966624.34412,221213923.41830,  -0.00075,  -0.00027,   0.00389,394026994.04970,   0.00111,275853724.09562,  -0.00045,  -0.00010,   0.00102,-81826730.04592,   0.00000
-97341558.75048,-78860349.48806,220918128.00224,  -0.00073,  -0.00027,   0.00389,392978882.73878,   0.00111,275853724.09562,  -0.00045,  -0.00010,   0.00102,-82874841.35684,   0.00000
-94247538.69851,-77754074.63201,220616416.67786,  -0.00072,  -0.00027,   0.00388,391937462.40707,   0.00111,275853724.09562,  -0.00045,  -0.00010,   0.00102,-83916261.68855,   0.00000
-91120981.15077,-76650757.73011,220308789.44516,  -0.00071,  -0.00027,   0.00388,390898666.83903,   0.00111,275853724.09562,  -0.00045,  -0.00010,   0.00102,-84955057.25659,   0.00000
-87994423.60303,-75547440.82821,219995246.30414,  -0.00070,  -0.00027,   0.00388,389867164.65972,   0.00111,275853724.09562,  -0.00045,  -0.00010,   0.00102,-85986559.43590,   0.00000
-84847160.37617,-74435250.06383,219675787.25479,  -0.00069,  -0.00027,   0.00387,388839789.62318,   0.00111,275853724.09562,  -0.00045,  -0.00010,   0.00102,-87013934.47244,   0.00000
-81679191.47019,-73314185.43697,219356328.20545,  -0.00067,  -0.00027,   0.00387,387827039.91219,   0.00111,275853724.09562,  -0.00045,  -0.00010,   0.00102,-88026684.18343,   0.00000
-78499390.74756,-72204952.62675,219030953.24778,  -0.00066,  -0.00027,   0.00386,386822104.05212,   0.00111,275853724.09562,  -0.00045,  -0.00010,   0.00102,-89031620.04349,   0.00000
-75307758.20829,-71107551.63317,218699662.38180,  -0.00065,  -0.00027,   0.00386,385825373.73556,   0.00111,275853724.09562,  -0.00045,  -0.00010,   0.00102,-90028350.36006,   0.00000
-72095419.98989,-70001276.77711,218368371.51581,  -0.00064,  -0.00028,   0.00386,384844636.08095,   0.00111,275853724.09562,  -0.00045,  -0.00010,   0.00102,-91009088.01467,   0.00000
-68883081.77150,-68895001.92106,218025248.83319,  -0.00062,  -0.00028,   0.00385,383862902.06190,   0.00111,275853724.09562,  -0.00045,  -0.00010,   0.00102,-91990822.03372,   0.00000
-65650037.87398,-67779853.20252,217682126.15056,  -0.00061,  -0.00028,   0.00385,382897910.91028,   0.00111,275853724.09562,  -0.00045,  -0.00010,   0.00102,-92955813.18534,   0.00000
-62384456.48070,-66667662.43814,217339003.46793,  -0.00060,  -0.00028,   0.00384,381950388.17183,   0.00111,275853724.09562,  -0.00045,  -0.00010,   0.00102,-93903335.92379,   0.00000
-59127748.94989,-65576177.35288,216984048.96866,  -0.00059,  -0.00028,   0.00384,381005494.05617,   0.00111,275853724.09562,  -0.00045,  -0.00010,   0.00102,-94848230.03945,   0.00000
-55841461.87748,-64455112.72602,216629094.46939,  -0.00057,  -0.00028,   0.00383,380076250.78782,   0.00111,275853724.09562,  -0.00045,  -0.00010,   0.00102,-95777473.30780,   0.00000
-52552216.85091,-63366585.59492,216268224.06180,  -0.00056,  -0.00028,   0.00383,379160703.83830,   0.00111,275853724.09562,  -0.00045,  -0.00010,   0.00102,-96693020.25732,   0.00000
-49254097.96186,-62257352.78470,215901437.74589,  -0.00055,  -0.00028,   0.00382,378253627.67740,   0.00111,275853724.09562,  -0.00045,  -0.00010,   0.00102,-97600096.41822,   0.00000
-45923441.57704,-61151077.92865,215534651.42997,  -0.00054,  -0.00029,   0.00382,377366806.65449,   0.00111,275853724.09562,  -0.00045,  -0.00010,   0.00102,-98486917.44113,   0.00000
-42592785.19223,-60044803.07259,215161949.20574,  -0.00052,  -0.00029,   0.00381,376491754.87030,   0.00111,275853724.09562,  -0.00045,  -0.00010,   0.00102,-99361969.22532,   0.00000
-39250296.99076,-58950360.03317,214783331.07319,  -0.00051,  -0.00029,   0.00381,375629537.63458,   0.00111,275853724.09562,  -0.00045,  -0.00010,   0.00102,-100224186.46104,   0.00000
-35887103.11018,-57847043.13127,214398797.03231,  -0.00050,  -0.00029,   0.00380,374778246.79923,   0.00111,275853724.09562,  -0.00045,  -0.00010,   0.00102,-101075477.29639,   0.00000
-32512077.41295,-56755558.04602,214014262.99143,  -0.00048,  -0.00029,   0.00380,373950934.93841,   0.00111,275853724.09562,  -0.00045,  -0.00010,   0.00102,-101902789.15721,   0.00000
-29128177.85325,-55643367.28164,213623813.04224,  -0.00047,  -0.00029,   0.00379,373134353.37030,   0.00111,275853724.09562,  -0.00045,  -0.00010,   0.00102,-102719370.72532,   0.00000
-25720614.66025,-54554840.15054,213233363.09304,  -0.00046,  -0.00030,   0.00379,372343924.33460,   0.00111,275853724.09562,  -0.00045,  -0.00010,   0.00102,-103509799.76102,   0.00000
-22304177.60478,-53445607.34032,212831081.32720,  -0.00044,  -0.00030,   0.00378,371554917.20741,   0.00111,275853724.09562,  -0.00045,  -0.00010,   0.00102,-104298806.88821,   0.00000
-18884782.59514,-52368912.02587,212434715.46968,  -0.00043,  -0.00030,   0.00378,370804109.27084,   0.00111,275853724.09562,  -0.00045,  -0.00010,   0.00102,-105049614.82478,   0.00000
-15456513.72302,-51271511.03229,212026517.79552,  -0.00042,  -0.00030,   0.00377,370055300.72087,   0.00111,275853724.09562,  -0.00045,  -0.00010,   0.00102,-105798423.37475,   0.00000
-11995707.35514,-50177067.99288,211618320.12136,  -0.00040,  -0.00030,   0.00377,369332730.68696,   0.00111,275853724.09562,  -0.00045,  -0.00010,   0.00102,-106520993.40865,   0.00000
-8534900.98726,-49082624.95346,211204206.53888,  -0.00039,  -0.00030,   0.00376,368625397.71720,   0.00111,275853724.09562,  -0.00045,  -0.00010,   0.00102,-107228326.37842,   0.00000
-5062262.80273,-48000013.73069,210790092.95640,  -0.00037,  -0.00031,   0.00376,367945687.57425,   0.00111,275853724.09562,  -0.00045,  -0.00010,   0.00102,-107908036.52137,   0.00000
-1568918.93908,-46908528.64543,210370063.46559,  -0.00036,  -0.00031,   0.00375,367281862.73607,   0.00111,275853724.09562,  -0.00045,  -0.00010,   0.00102,-108571861.35955,   0.00000
1945130.60369,-45808169.69769,209944118.06647,  -0.00035,  -0.00031,   0.00375,366634522.30937,   0.00111,275853724.09562,  -0.00045,  -0.00010,   0.00102,-109219201.78625,   0.00000
5450306.28399,-44728516.42908,209518172.66735,  -0.00033,  -0.00031,   0.00374,366016016.27291,   0.00111,275853724.09562,  -0.00045,  -0.00010,   0.00102,-109837707.82271,   0.00000
8976187.64340,-43639989.29799,209086311.35990,  -0.00032,  -0.00031,   0.00373,365414830.21013,   0.00111,275853724.09562,  -0.00045,  -0.00010,   0.00102,-110438893.88549,   0.00000
12513900.81946,-42563293.98353,208648534.14413,  -0.00031,  -0.00032,   0.00373,364833519.49813,   0.00111,275853724.09562,  -0.00045,  -0.00010,   0.00102,-111020204.59749,   0.00000
16051613.99552,-41486598.66908,208210756.92837,  -0.00029,  -0.00032,   0.00372,364279943.10813,   0.00111,275853724.09562,  -0.00045,  -0.00010,   0.00102,-111573780.98749,   0.00000
19630738.52983,-40392155.62966,207767063.80428,  -0.00028,  -0.00032,   0.00372,363746173.01494,   0.00111,275853724.09562,  -0.00045,  -0.00010,   0.00102,-112107551.08068,   0.00000
23200989.20165,-39318418.26937,207323370.68019,  -0.00026,  -0.00032,   0.00371,363242880.45800,   0.00111,275853724.09562,  -0.00045,  -0.00010,   0.00102,-112610843.63762,   0.00000
26791945.55260,-38235807.04660,206873761.64778,  -0.00025,  -0.00032,   0.00371,362759502.59430,   0.00111,275853724.09562,  -0.00045,  -0.00010,   0.00102,-113094221.50132,   0.00000
30382901.90355,-37153195.82382,206424152.61537,  -0.00023,  -0.00033,   0.00370,362305251.05365,   0.00111,275853724.09562,  -0.00045,  -0.00010,   0.00102,-113548473.04197,   0.00000
33985690.07114,-36082416.41769,205968627.67464,  -0.00022,  -0.00033,   0.00369,361873569.75064,   0.00111,275853724.09562,  -0.00045,  -0.00010,   0.00102,-113980154.34498,   0.00000
37600310.05538,-35023468.82820,205507186.82559,  -0.00021,  -0.00033,   0.00369,361464979.60810,   0.00111,275853724.09562,  -0.00045,  -0.00010,   0.00102,-114388744.48752,   0.00000
41244509.58122,-33934941.69711,205045745.97654,  -0.00019,  -0.00033,   0.00368,361086684.46202,   0.00111,275853724.09562,  -0.00045,  -0.00010,   0.00102,-114767039.63360,   0.00000
44879835.24458,-32867120.24514,204578389.21917,  -0.00018,  -0.00033,   0.00368,360730467.45858,   0.00111,275853724.09562,  -0.00045,  -0.00010,   0.00102,-115123256.63704,   0.00000
48526992.72458,-31811130.60981,204111032.46180,  -0.00016,  -0.00034,   0.00367,360408735.01497,   0.00111,275853724.09562,  -0.00045,  -0.00010,   0.00102,-115444989.08065,   0.00000
52203729.74618,-30725561.43288,203637759.79610,  -0.00015,  -0.00034,   0.00366,360108719.79785,   0.00111,275853724.09562,  -0.00045,  -0.00010,   0.00102,-115745004.29777,   0.00000
55862719.04283,-29681403.61419,203164487.13041,  -0.00013,  -0.00034,   0.00366,359843215.16898,   0.00111,275853724.09562,  -0.00045,  -0.00010,   0.00102,-116010508.92664,   0.00000
59551287.88107,-28607666.25390,202685298.55640,  -0.00012,  -0.00034,   0.00365,359600290.01402,   0.00111,275853724.09562,  -0.00045,  -0.00010,   0.00102,-116253434.08160,   0.00000
63251688.53597,-27545760.71025,202206109.98238,  -0.00010,  -0.00035,   0.00365,359393647.21056,   0.00111,275853724.09562,  -0.00045,  -0.00010,   0.00102,-116460076.88506,   0.00000
66943215.32837,-26504560.84572,201721005.50005,  -0.00009,  -0.00035,   0.00364,359210632.53731,   0.00111,275853724.09562,  -0.00045,  -0.00010,   0.00102,-116643091.55831,   0.00000
70664321.66239,-25433781.43959,201235901.01771,  -0.00007,  -0.00035,   0.00363,359061621.56695,   0.00111,275853724.09562,  -0.00045,  -0.00010,   0.00102,-116792102.52867,   0.00000
74397259.81305,-24374833.85010,200744880.62705,  -0.00006,  -0.00035,   0.00363,358940143.94278,   0.00111,275853724.09562,  -0.00045,  -0.00010,   0.00102,-116913580.15284,   0.00000
78121324.10122,-23336591.93974,200247944.32807,  -0.00004,  -0.00036,   0.00362,358843058.85427,   0.00111,275853724.09562,  -0.00045,  -0.00010,   0.00102,-117010665.24135,   0.00000
81866094.06852,-22289476.16689,199756923.93742,  -0.00003,  -0.00036,   0.00361,358792581.36319,   0.00111,275853724.09562,  -0.00045,  -0.00010,   0.00102,-117061142.73243,   0.00000
85610864.03582,-21242360.39404,199254071.73012,  -0.00001,  -0.00036,   0.00361,358755613.26153,   0.00111,275853724.09562,  -0.00045,  -0.00010,   0.00102,-117098110.83409,   0.00000
89397045.36137,-20177496.89623,198757135.43114,   0.00000,  -0.00036,   0.00360,358770077.29189,   0.00111,275853724.09562,  -0.00045,  -0.00010,   0.00102,-117083646.80373,   0.00000
93153647.14531,-19142212.94003,198248367.31552,   0.00002,  -0.00037,   0.00359,358795817.52344,   0.00111,275853724.09562,  -0.00045,  -0.00010,   0.00102,-117057906.57217,   0.00000
96942786.42502,-18109886.93798,197745515.10822,   0.00003,  -0.00037,   0.00359,358875132.85628,   0.00111,275853724.09562,  -0.00045,  -0.00010,   0.00102,-116978591.23934,   0.00000
100740799.56721,-17056855.25681,197236746.99260,   0.00005,  -0.00037,   0.00358,358977672.47843,   0.00111,275853724.09562,  -0.00045,  -0.00010,   0.00102,-116876051.61718,   0.00000
104529938.84692,-16024529.25477,196722062.96866,   0.00006,  -0.00037,   0.00357,359105899.27229,   0.00111,275853724.09562,  -0.00045,  -0.00010,   0.00102,-116747824.82333,   0.00000
108330909.94327,-15004035.06937,196207378.94472,   0.00008,  -0.00038,   0.00357,359274427.90498,   0.00111,275853724.09562,  -0.00045,  -0.00010,   0.00102,-116579296.19064,   0.00000
112161460.58123,-13953961.34236,195692694.92077,   0.00009,  -0.00038,   0.00356,359481425.80386,   0.00111,275853724.09562,  -0.00045,  -0.00010,   0.00102,-116372298.29176,   0.00000
116003843.03583,-12915719.43200,195172094.98851,   0.00011,  -0.00038,   0.00355,359719919.49825,   0.00111,275853724.09562,  -0.00045,  -0.00010,   0.00102,-116133804.59737,   0.00000
119816645.94882,-11907057.06324,194651495.05625,   0.00012,  -0.00039,   0.00355,359989005.21775,   0.00111,275853724.09562,  -0.00045,  -0.00010,   0.00102,-115864718.87787,   0.00000
123670860.22006,-10880646.96951,194124979.21566,   0.00014,  -0.00039,   0.00354,360294340.48145,   0.00111,275853724.09562,  -0.00045,  -0.00010,   0.00102,-115559383.61417,   0.00000
127525074.49130,-9854236.87579,193598463.37508,   0.00015,  -0.00039,   0.00353,360634867.92549,   0.00111,275853724.09562,  -0.00045,  -0.00010,   0.00102,-115218856.17013,   0.00000
131399994.44167,-8818952.91959,193071947.53450,   0.00017,  -0.00039,   0.00353,361016445.06694,   0.00111,275853724.09562,  -0.00045,  -0.00010,   0.00102,-114837279.02868,   0.00000
135266040.52955,-7804374.64251,192539515.78559,   0.00019,  -0.00040,   0.00352,361424780.91251,   0.00111,275853724.09562,  -0.00045,  -0.00010,   0.00102,-114428943.18311,   0.00000
139132086.61744,-6789796.36543,192001168.12836,   0.00020,  -0.00040,   0.00351,361858899.41413,   0.00111,275853724.09562,  -0.00045,  -0.00010,   0.00102,-113994824.68149,   0.00000
143030670.20109,-5778176.04251,191468736.37946,   0.00022,  -0.00040,   0.00351,362351276.19575,   0.00111,275853724.09562,  -0.00045,  -0.00010,   0.00102,-113502447.89987,   0.00000
146908548.10561,-4775429.58207,190930388.72223,   0.00023,  -0.00041,   0.00350,362863221.71521,   0.00111,275853724.09562,  -0.00045,  -0.00010,   0.00102,-112990502.38041,   0.00000
150807131.68926,-3763809.25915,190392041.06501,   0.00025,  -0.00041,   0.00349,363417052.99804,   0.00111,275853724.09562,  -0.00045,  -0.00010,   0.00102,-112436671.09758,   0.00000
154717547.08956,-2764020.75287,189847777.49946,   0.00026,  -0.00041,   0.00348,364004584.53648,   0.00111,275853724.09562,  -0.00045,  -0.00010,   0.00102,-111849139.55914,   0.00000
158648668.16897,-1755358.38411,189303513.93391,   0.00028,  -0.00041,   0.00348,364634649.51623,   0.00111,275853724.09562,  -0.00045,  -0.00010,   0.00102,-111219074.57939,   0.00000
162559083.56926,-755569.87783,188759250.36836,   0.00030,  -0.00042,   0.00347,365293053.70143,   0.00111,275853724.09562,  -0.00045,  -0.00010,   0.00102,-110560670.39419,   0.00000
166481330.78620,232386.81180,188209070.89450,   0.00031,  -0.00042,   0.00346,365985467.66121,   0.00111,275853724.09562,  -0.00045,  -0.00010,   0.00102,-109868256.43441,   0.00000
170433157.54474,1249923.04304,187658891.42063,   0.00033,  -0.00042,   0.00346,366720020.93563,   0.00111,275853724.09562,  -0.00045,  -0.00010,   0.00102,-109133703.15999,   0.00000
174367236.57832,2226047.91603,187102796.03844,   0.00034,  -0.00043,   0.00345,367482118.63147,   0.00111,275853724.09562,  -0.00045,  -0.00010,   0.00102,-108371605.46415,   0.00000
178330895.15350,3231752.33063,186552616.56457,   0.00036,  -0.00043,   0.00344,368295624.93274,   0.00111,275853724.09562,  -0.00045,  -0.00010,   0.00102,-107558099.16288,   0.00000
182285679.86620,4216751.06611,185996521.18238,   0.00038,  -0.00043,   0.00343,369135902.36492,   0.00111,275853724.09562,  -0.00045,  -0.00010,   0.00102,-106717821.73070,   0.00000
186261170.25803,5210623.66406,185440425.80019,   0.00039,  -0.00044,   0.00343,370019312.80175,   0.00111,275853724.09562,  -0.00045,  -0.00010,   0.00102,-105834411.29387,   0.00000
190227786.78737,6183790.58290,184878414.50968,   0.00041,  -0.00044,   0.00342,370929381.13648,   0.00111,275853724.09562,  -0.00045,  -0.00010,   0.00102,-104924342.95914,   0.00000
194194403.31671,7156957.50173,184316403.21917,   0.00042,  -0.00044,   0.00341,371874248.52436,   0.00111,275853724.09562,  -0.00045,  -0.00010,   0.00102,-103979475.57126,   0.00000
198181725.52518,8138998.28304,183754391.92866,   0.00044,  -0.00045,   0.00341,372862264.86549,   0.00111,275853724.09562,  -0.00045,  -0.00010,   0.00102,-102991459.23013,   0.00000
202189753.41277,9129912.92684,183192380.63814,   0.00046,  -0.00045,   0.00340,373893596.92755,   0.00111,275853724.09562,  -0.00045,  -0.00010,   0.00102,-101960127.16806,   0.00000
206168201.75876,10091248.02903,182624453.43931,   0.00047,  -0.00045,   0.00339,374942314.53065,   0.00111,275853724.09562,  -0.00045,  -0.00010,   0.00102,-100911409.56497,   0.00000
210188061.46299,11070330.85618,182056526.24048,   0.00049,  -0.00046,   0.00338,376043160.10888,   0.00111,275853724.09562,  -0.00045,  -0.00010,   0.00102,-99810563.98674,   0.00000
214178341.62562,12019834.14173,181488599.04165,   0.00051,  -0.00046,   0.00338,377169438.10111,   0.00111,275853724.09562,  -0.00045,  -0.00010,   0.00102,-98684285.99451,   0.00000
218198201.32986,12998916.96888,180914755.93449,   0.00052,  -0.00046,   0.00337,378329926.58342,   0.00111,275853724.09562,  -0.00045,  -0.00010,   0.00102,-97523797.51220,   0.00000
222229892.85073,13966167.97939,180346828.73566,   0.00054,  -0.00047,   0.00336,379542375.78420,   0.00111,275853724.09562,  -0.00045,  -0.00010,   0.00102,-96311348.31142,   0.00000
226232004.83000,14903839.44830,179772985.62851,   0.00055,  -0.00047,   0.00335,380770663.32244,   0.00111,275853724.09562,  -0.00045,  -0.00010,   0.00102,-95083060.77318,   0.00000
230263696.35088,15871090.45881,179193226.61303,   0.00057,  -0.00047,   0.00335,382033195.94942,   0.00111,275853724.09562,  -0.00045,  -0.00010,   0.00102,-93820528.14620,   0.00000
234307219.68840,16826509.65268,178619383.50588,   0.00059,  -0.00048,   0.00334,383347211.31565,   0.00111,275853724.09562,  -0.00045,  -0.00010,   0.00102,-92506512.77997,   0.00000
238350743.02592,17781928.84655,178039624.49041,   0.00060,  -0.00048,   0.00333,384685925.66866,   0.00111,275853724.09562,  -0.00045,  -0.00010,   0.00102,-91167798.42696,   0.00000
242385392.50096,18716642.36129,177465781.38325,   0.00062,  -0.00048,   0.00332,386065617.71283,   0.00111,275853724.09562,  -0.00045,  -0.00010,   0.00102,-89788106.38279,   0.00000
246440747.65512,19660229.73852,176886022.36778,   0.00064,  -0.00049,   0.00332,387479650.75554,   0.00111,275853724.09562,  -0.00045,  -0.00010,   0.00102,-88374073.34008,   0.00000
250496102.80928,20603817.11575,176300347.44398,   0.00065,  -0.00049,   0.00331,388917827.36009,   0.00111,275853724.09562,  -0.00045,  -0.00010,   0.00102,-86935896.73553,   0.00000
254551457.96344,21547404.49297,175720588.42851,   0.00067,  -0.00050,   0.00330,390395937.16593,   0.00111,275853724.09562,  -0.00045,  -0.00010,   0.00102,-85457786.92969,   0.00000
258627518.79672,22499865.73268,175134913.50471,   0.00069,  -0.00050,   0.00329,391908237.69621,   0.00111,275853724.09562,  -0.00045,  -0.00010,   0.00102,-83945486.39941,   0.00000
262674000.08840,23422747.43078,174555154.48924,   0.00070,  -0.00050,   0.00329,393449125.72686,   0.00111,275853724.09562,  -0.00045,  -0.00010,   0.00102,-82404598.36876,   0.00000
266761892.73833,24363376.85385,173969479.56544,   0.00072,  -0.00051,   0.00328,395034682.63792,   0.00111,275853724.09562,  -0.00045,  -0.00010,   0.00102,-80819041.45770,   0.00000
270820205.84665,25274426.73531,173383804.64165,   0.00074,  -0.00051,   0.00327,396640121.80634,   0.00111,275853724.09562,  -0.00045,  -0.00010,   0.00102,-79213602.28928,   0.00000
274908098.49658,26215056.15837,172792213.80953,   0.00075,  -0.00051,   0.00326,398279309.03765,   0.00111,275853724.09562,  -0.00045,  -0.00010,   0.00102,-77574415.05797,   0.00000
278987117.28403,27134979.90232,172206538.88573,   0.00077,  -0.00052,   0.00326,399956353.90534,   0.00111,275853724.09562,  -0.00045,  -0.00010,   0.00102,-75897370.19028,   0.00000
283086841.75060,28063777.50874,171614948.05362,   0.00079,  -0.00052,   0.00325,401666927.47124,   0.00111,275853724.09562,  -0.00045,  -0.00010,   0.00102,-74186796.62438,   0.00000
287156986.67556,28962995.57356,171023357.22150,   0.00080,  -0.00053,   0.00324,403395624.32074,   0.00111,275853724.09562,  -0.00045,  -0.00010,   0.00102,-72458099.77488,   0.00000
291256711.14213,29891793.17998,170437682.29770,   0.00082,  -0.00053,   0.00323,405172576.01440,   0.00111,275853724.09562,  -0.00045,  -0.00010,   0.00102,-70681148.08122,   0.00000
295347561.74622,30799885.10728,169846091.46559,   0.00084,  -0.00053,   0.00322,406970795.68683,   0.00111,275853724.09562,  -0.00045,  -0.00010,   0.00102,-68882928.40879,   0.00000
299459118.02943,31716850.89706,169248584.72515,   0.00086,  -0.00054,   0.00322,408801996.20340,   0.00111,275853724.09562,  -0.00045,  -0.00010,   0.00102,-67051727.89222,   0.00000
303549968.63352,32624942.82436,168656993.89303,   0.00087,  -0.00054,   0.00321,410657052.47542,   0.00111,275853724.09562,  -0.00045,  -0.00010,   0.00102,-65196671.62020,   0.00000
307652651.05425,33521202.93502,168065403.06092,   0.00089,  -0.00054,   0.00320,412551665.75293,   0.00111,275853724.09562,  -0.00045,  -0.00010,   0.00102,-63302058.34269,   0.00000
311776039.15410,34426336.90816,167467896.32048,   0.00091,  -0.00055,   0.00319,414478772.91092,   0.00111,275853724.09562,  -0.00045,  -0.00010,   0.00102,-61374951.18470,   0.00000
315878721.57483,35322597.01881,166876305.48836,   0.00092,  -0.00055,   0.00319,416428264.90914,   0.00111,275853724.09562,  -0.00045,  -0.00010,   0.00102,-59425459.18648,   0.00000
320002109.67469,36227730.99195,166278798.74792,   0.00094,  -0.00056,   0.00318,418409805.19352,   0.00111,275853724.09562,  -0.00045,  -0.00010,   0.00102,-57443918.90210,   0.00000
324095918.23294,37103285.42349,165681292.00748,   0.00096,  -0.00056,   0.00317,420405359.39673,   0.00111,275853724.09562,  -0.00045,  -0.00010,   0.00102,-55448364.69889,   0.00000
328219306.33279,38008419.39662,165089701.17537,   0.00097,  -0.00056,   0.00316,422446782.74069,   0.00111,275853724.09562,  -0.00045,  -0.00010,   0.00102,-53406941.35493,   0.00000
332333820.57017,38892847.69064,164492194.43493,   0.00099,  -0.00057,   0.00315,424506842.48952,   0.00111,275853724.09562,  -0.00045,  -0.00010,   0.00102,-51346881.60610,   0.00000
336469040.48666,39786149.84714,163894687.69449,   0.00101,  -0.00057,   0.00315,426605146.74037,   0.00111,275853724.09562,  -0.00045,  -0.00010,   0.00102,-49248577.35525,   0.00000
340574680.86155,40649872.46203,163297180.95405,   0.00102,  -0.00058,   0.00314,428715658.63277,   0.00111,275853724.09562,  -0.00045,  -0.00010,   0.00102,-47138065.46285,   0.00000
344709900.77805,41543174.61852,162699674.21362,   0.00104,  -0.00058,   0.00313,430864200.66965,   0.00111,275853724.09562,  -0.00045,  -0.00010,   0.00102,-44989523.42597,   0.00000
