# sigma_xx, sigma_yy, sigma_xy, epsilon_xx, epsilon_yy, epsilon_xy, vonMises, epsPlastic, hardening, epsilonP__xx, epsilonP__yy, epsilonP__xy, yieldValue, iteration
   0.00000,   0.00000,   0.00000,   0.00000,   0.00000,   0.00000,   0.00000,   0.00000,274640135.82653,   0.00000,   0.00000,   0.00000,-474640135.82653,   0.00000
   0.00000,   0.00000,   0.00000,   0.00000,   0.00000,   0.00000,   0.00000,   0.00000,274640135.82653,   0.00000,   0.00000,   0.00000,-474640135.82653,   0.00000
-2472271.32545,-1268480.50942,832528.22791,  -0.00001,  -0.00000,   0.00001,2581559.61967,   0.00000,274640135.82653,   0.00000,   0.00000,   0.00000,-472058576.20686,   0.00000
-4936104.86481,-2517272.85128,1665056.45582,  -0.00002,  -0.00000,   0.00002,5156889.57416,   0.00000,274640135.82653,   0.00000,   0.00000,   0.00000,-469483246.25237,   0.00000
-7399938.40416,-3766065.19315,2497584.68373,  -0.00003,  -0.00000,   0.00003,7732235.94611,   0.00000,274640135.82653,   0.00000,   0.00000,   0.00000,-466907899.88042,   0.00000
-9852521.56206,-5026107.91647,3324487.72091,  -0.00004,  -0.00000,   0.00004,10294210.07742,   0.00000,274640135.82653,   0.00000,   0.00000,   0.00000,-464345925.74911,   0.00000
-12296666.93386,-6266462.47224,4157015.94882,  -0.00004,  -0.00000,   0.00005,12855439.02478,   0.00000,274640135.82653,   0.00000,   0.00000,   0.00000,-461784696.80174,   0.00000
-14721124.13812,-7498379.24192,4983918.98600,  -0.00005,  -0.00001,   0.00006,15397108.84769,   0.00000,274640135.82653,   0.00000,   0.00000,   0.00000,-459243026.97884,   0.00000
-17145581.34237,-8730296.01160,5810822.02318,  -0.00006,  -0.00001,   0.00008,17938784.38923,   0.00000,274640135.82653,   0.00000,   0.00000,   0.00000,-456701351.43730,   0.00000
-19541912.59297,-9934086.82763,6637725.06037,  -0.00007,  -0.00001,   0.00009,20460194.38678,   0.00000,274640135.82653,   0.00000,   0.00000,   0.00000,-454179941.43975,   0.00000
-21946681.62967,-11157565.81122,7459002.90682,  -0.00008,  -0.00001,   0.00010,22982313.58799,   0.00000,274640135.82653,   0.00000,   0.00000,   0.00000,-451657822.23854,   0.00000
-24331762.49882,-12372607.00871,8285905.94400,  -0.00009,  -0.00001,   0.00011,25495831.95744,   0.00000,274640135.82653,   0.00000,   0.00000,   0.00000,-449144303.86909,   0.00000
-26708405.58188,-13567960.03865,9107183.79045,  -0.00010,  -0.00001,   0.00012,27997719.16576,   0.00000,274640135.82653,   0.00000,   0.00000,   0.00000,-446642416.66077,   0.00000
-29085048.66493,-14763313.06858,9928461.63690,  -0.00010,  -0.00001,   0.00013,30499620.34146,   0.00000,274640135.82653,   0.00000,   0.00000,   0.00000,-444140515.48507,   0.00000
-31442003.58043,-15950228.31243,10749739.48335,  -0.00011,  -0.00001,   0.00014,32987466.30983,   0.00000,274640135.82653,   0.00000,   0.00000,   0.00000,-441652669.51669,   0.00000
-33798958.49594,-17137143.55627,11571017.32981,  -0.00012,  -0.00001,   0.00015,35475329.55479,   0.00000,274640135.82653,   0.00000,   0.00000,   0.00000,-439164806.27174,   0.00000
-36136225.24389,-18315621.01403,12392295.17626,  -0.00013,  -0.00001,   0.00016,37949153.88738,   0.00000,274640135.82653,   0.00000,   0.00000,   0.00000,-436690981.93914,   0.00000
-38473491.99184,-19494098.47178,13207947.83198,  -0.00014,  -0.00001,   0.00017,40417484.80087,   0.00000,274640135.82653,   0.00000,   0.00000,   0.00000,-434222651.02566,   0.00000
-40810758.73979,-20672575.92953,14023600.48770,  -0.00015,  -0.00001,   0.00018,42885825.48588,   0.00000,274640135.82653,   0.00000,   0.00000,   0.00000,-431754310.34065,   0.00000
-43119899.53409,-21822927.43363,14839253.14343,  -0.00015,  -0.00002,   0.00019,45334024.31607,   0.00000,274640135.82653,   0.00000,   0.00000,   0.00000,-429306111.51046,   0.00000
-45437478.11449,-22992967.10529,15654905.79915,  -0.00016,  -0.00002,   0.00020,47788353.61065,   0.00000,274640135.82653,   0.00000,   0.00000,   0.00000,-426851782.21588,   0.00000
-47726930.74125,-24134880.82330,16470558.45487,  -0.00017,  -0.00002,   0.00021,50222569.55074,   0.00000,274640135.82653,   0.00000,   0.00000,   0.00000,-424417566.27579,   0.00000
-50016383.36800,-25276794.54131,17280585.91987,  -0.00018,  -0.00002,   0.00022,52651277.76804,   0.00000,274640135.82653,   0.00000,   0.00000,   0.00000,-421988858.05849,   0.00000
-52286147.82720,-26410270.47323,18090613.38486,  -0.00019,  -0.00002,   0.00024,55065989.62044,   0.00000,274640135.82653,   0.00000,   0.00000,   0.00000,-419574146.20609,   0.00000
-54555912.28640,-27543746.40515,18900640.84985,  -0.00019,  -0.00002,   0.00025,57480727.13632,   0.00000,274640135.82653,   0.00000,   0.00000,   0.00000,-417159408.69021,   0.00000
-56825676.74560,-28677222.33707,19710668.31485,  -0.00020,  -0.00002,   0.00026,59895487.21174,   0.00000,274640135.82653,   0.00000,   0.00000,   0.00000,-414744648.61479,   0.00000
-59075753.03725,-29802260.48289,20520695.77984,  -0.00021,  -0.00002,   0.00027,62296269.65104,   0.00000,274640135.82653,   0.00000,   0.00000,   0.00000,-412343866.17548,   0.00000
-61317391.54281,-30907610.46117,21325098.05411,  -0.00022,  -0.00002,   0.00028,64685456.31581,   0.00000,274640135.82653,   0.00000,   0.00000,   0.00000,-409954679.51072,   0.00000
-63547779.66690,-32024210.82090,22135125.51910,  -0.00023,  -0.00002,   0.00029,67072305.99346,   0.00000,274640135.82653,   0.00000,   0.00000,   0.00000,-407567829.83307,   0.00000
-65769730.00491,-33121123.01308,22939527.79336,  -0.00023,  -0.00002,   0.00030,69447567.72331,   0.00000,274640135.82653,   0.00000,   0.00000,   0.00000,-405192568.10322,   0.00000
-67991680.34291,-34218035.20526,23743930.06763,  -0.00024,  -0.00002,   0.00031,71822861.69941,   0.00000,274640135.82653,   0.00000,   0.00000,   0.00000,-402817274.12712,   0.00000
-70193942.51336,-35306509.61134,24542707.15116,  -0.00025,  -0.00002,   0.00032,74178632.39116,   0.00000,274640135.82653,   0.00000,   0.00000,   0.00000,-400461503.43537,   0.00000
-72376516.51626,-36386546.23133,25347109.42543,  -0.00026,  -0.00002,   0.00033,76526056.30807,   0.00000,274640135.82653,   0.00000,   0.00000,   0.00000,-398114079.51846,   0.00000
-74570340.90062,-37455332.46987,26145886.50896,  -0.00027,  -0.00003,   0.00034,78875870.23709,   0.00000,274640135.82653,   0.00000,   0.00000,   0.00000,-395764265.58944,   0.00000
-76752914.90352,-38535369.08986,26944663.59250,  -0.00027,  -0.00003,   0.00035,81217777.61604,   0.00000,274640135.82653,   0.00000,   0.00000,   0.00000,-393422358.21049,   0.00000
-78907362.95278,-39587279.75620,27743440.67604,  -0.00028,  -0.00003,   0.00036,83539764.76059,   0.00000,274640135.82653,   0.00000,   0.00000,   0.00000,-391100371.06594,   0.00000
-81070248.78812,-40658878.59010,28542217.75957,  -0.00029,  -0.00003,   0.00037,85867798.55063,   0.00000,274640135.82653,   0.00000,   0.00000,   0.00000,-388772337.27590,   0.00000
-83224696.83738,-41710789.25645,29340994.84311,  -0.00030,  -0.00003,   0.00038,88189876.11117,   0.00000,274640135.82653,   0.00000,   0.00000,   0.00000,-386450259.71536,   0.00000
-85359456.71908,-42754262.13670,30134146.73591,  -0.00031,  -0.00003,   0.00039,90492450.47141,   0.00000,274640135.82653,   0.00000,   0.00000,   0.00000,-384147685.35512,   0.00000
-87494216.60078,-43797735.01695,30927298.62872,  -0.00031,  -0.00003,   0.00040,92795066.77843,   0.00000,274640135.82653,   0.00000,   0.00000,   0.00000,-381845069.04810,   0.00000
-89620538.69639,-44821519.72965,31720450.52153,  -0.00032,  -0.00003,   0.00041,95091754.57215,   0.00000,274640135.82653,   0.00000,   0.00000,   0.00000,-379548381.25438,   0.00000
-91735610.41054,-45856554.82381,32513602.41433,  -0.00033,  -0.00003,   0.00042,97380541.25691,   0.00000,274640135.82653,   0.00000,   0.00000,   0.00000,-377259594.56962,   0.00000
-93822556.17105,-46863463.96433,33301129.11641,  -0.00034,  -0.00003,   0.00043,99643875.48829,   0.00000,274640135.82653,   0.00000,   0.00000,   0.00000,-374996260.33824,   0.00000
-95937627.88520,-47898499.05848,34094281.00922,  -0.00034,  -0.00003,   0.00044,101932753.66617,   0.00000,274640135.82653,   0.00000,   0.00000,   0.00000,-372707382.16036,   0.00000
-98004885.47815,-48896970.41290,34881807.71129,  -0.00035,  -0.00003,   0.00045,104182296.16985,   0.00000,274640135.82653,   0.00000,   0.00000,   0.00000,-370457839.65668,   0.00000
-100091831.23865,-49903879.55342,35669334.41337,  -0.00036,  -0.00003,   0.00046,106445786.37622,   0.00000,274640135.82653,   0.00000,   0.00000,   0.00000,-368194349.45031,   0.00000
-102150651.04551,-50882662.74028,36456861.11545,  -0.00037,  -0.00003,   0.00047,108689520.73630,   0.00000,274640135.82653,   0.00000,   0.00000,   0.00000,-365950615.09023,   0.00000
-104217908.63846,-51881134.09470,37238762.62680,  -0.00037,  -0.00003,   0.00048,110933572.86552,   0.00000,274640135.82653,   0.00000,   0.00000,   0.00000,-363706562.96100,   0.00000
-106257040.27777,-52851479.49548,38026289.32887,  -0.00038,  -0.00003,   0.00049,113163561.92844,   0.00000,274640135.82653,   0.00000,   0.00000,   0.00000,-361476573.89809,   0.00000
-108304609.70317,-53841513.06380,38808190.84022,  -0.00039,  -0.00003,   0.00050,115393847.24770,   0.00000,274640135.82653,   0.00000,   0.00000,   0.00000,-359246288.57883,   0.00000
-110324053.17493,-54803420.67848,39590092.35157,  -0.00040,  -0.00003,   0.00051,117604431.74950,   0.00000,274640135.82653,   0.00000,   0.00000,   0.00000,-357035704.07703,   0.00000
-112343496.64668,-55765328.29316,40371993.86292,  -0.00040,  -0.00003,   0.00052,119815085.74360,   0.00000,274640135.82653,   0.00000,   0.00000,   0.00000,-354825050.08293,   0.00000
-114362940.11844,-56727235.90784,41148270.18354,  -0.00041,  -0.00004,   0.00053,122020114.32693,   0.00000,274640135.82653,   0.00000,   0.00000,   0.00000,-352620021.49960,   0.00000
-116362695.42264,-57680705.73643,41930171.69488,  -0.00042,  -0.00004,   0.00055,124217052.78258,   0.00000,274640135.82653,   0.00000,   0.00000,   0.00000,-350423083.04395,   0.00000
-118354012.94075,-58614487.39746,42706448.01550,  -0.00042,  -0.00004,   0.00056,126402503.21253,   0.00000,274640135.82653,   0.00000,   0.00000,   0.00000,-348237632.61400,   0.00000
-120353768.24495,-59567957.22605,43482724.33612,  -0.00043,  -0.00004,   0.00057,128593875.77606,   0.00000,274640135.82653,   0.00000,   0.00000,   0.00000,-346046260.05047,   0.00000
-122325397.59551,-60493301.10099,44253375.46601,  -0.00044,  -0.00004,   0.00058,130759928.82515,   0.00000,274640135.82653,   0.00000,   0.00000,   0.00000,-343880207.00138,   0.00000
-124297026.94607,-61418644.97593,45029651.78663,  -0.00045,  -0.00004,   0.00059,132931766.36464,   0.00000,274640135.82653,   0.00000,   0.00000,   0.00000,-341708369.46189,   0.00000
-126248968.12908,-62335551.06478,45800302.91652,  -0.00045,  -0.00004,   0.00060,135084148.30118,   0.00000,274640135.82653,   0.00000,   0.00000,   0.00000,-339555987.52535,   0.00000
-128200909.31208,-63252457.15363,46576579.23714,  -0.00046,  -0.00004,   0.00061,137242330.06401,   0.00000,274640135.82653,   0.00000,   0.00000,   0.00000,-337397805.76252,   0.00000
-130144412.70899,-64149675.07492,47347230.36703,  -0.00047,  -0.00004,   0.00062,139389052.13027,   0.00000,274640135.82653,   0.00000,   0.00000,   0.00000,-335251083.69626,   0.00000
-132076665.72445,-65058143.37767,48112256.30619,  -0.00047,  -0.00004,   0.00063,141522127.64691,   0.00000,274640135.82653,   0.00000,   0.00000,   0.00000,-333118008.17962,   0.00000
-134000480.95381,-65946923.51288,48882907.43608,  -0.00048,  -0.00004,   0.00064,143655219.42042,   0.00000,274640135.82653,   0.00000,   0.00000,   0.00000,-330984916.40611,   0.00000
-135904608.01562,-66827265.86198,49647933.37524,  -0.00049,  -0.00004,   0.00065,145768873.34419,   0.00000,274640135.82653,   0.00000,   0.00000,   0.00000,-328871262.48234,   0.00000
-137808735.07742,-67707608.21109,50412959.31440,  -0.00049,  -0.00004,   0.00066,147882613.01155,   0.00000,274640135.82653,   0.00000,   0.00000,   0.00000,-326757522.81498,   0.00000
-139712862.13923,-68587950.56020,51177985.25356,  -0.00050,  -0.00004,   0.00067,149996434.79762,   0.00000,274640135.82653,   0.00000,   0.00000,   0.00000,-324643701.02891,   0.00000
-141588863.24739,-69440166.95566,51943011.19272,  -0.00051,  -0.00004,   0.00068,152090821.27091,   0.00000,274640135.82653,   0.00000,   0.00000,   0.00000,-322549314.55562,   0.00000
-143473302.14165,-70312071.51867,52708037.13188,  -0.00052,  -0.00004,   0.00069,154191057.72502,   0.00000,274640135.82653,   0.00000,   0.00000,   0.00000,-320449078.10151,   0.00000
-145349303.24981,-71164287.91414,53467437.88032,  -0.00052,  -0.00004,   0.00070,156279867.24271,   0.00000,274640135.82653,   0.00000,   0.00000,   0.00000,-318360268.58382,   0.00000
-147205616.19042,-72008066.52351,54226838.62875,  -0.00053,  -0.00004,   0.00070,158355023.16689,   0.00000,274640135.82653,   0.00000,   0.00000,   0.00000,-316285112.65964,   0.00000
-149061929.13103,-72851845.13287,54986239.37718,  -0.00054,  -0.00004,   0.00071,160430274.70463,   0.00000,274640135.82653,   0.00000,   0.00000,   0.00000,-314209861.12190,   0.00000
-150898553.90409,-73687185.95615,55745640.12561,  -0.00054,  -0.00004,   0.00072,162491890.01756,   0.00000,274640135.82653,   0.00000,   0.00000,   0.00000,-312148245.80897,   0.00000
-152726740.89106,-74502838.61187,56499415.68331,  -0.00055,  -0.00004,   0.00073,164542111.73367,   0.00000,274640135.82653,   0.00000,   0.00000,   0.00000,-310098024.09286,   0.00000
-154563365.66412,-75338179.43515,57258816.43174,  -0.00056,  -0.00004,   0.00074,166603928.18602,   0.00000,274640135.82653,   0.00000,   0.00000,   0.00000,-308036207.64051,   0.00000
-156371864.48353,-76145394.30478,58012591.98945,  -0.00056,  -0.00004,   0.00075,168640642.44605,   0.00000,274640135.82653,   0.00000,   0.00000,   0.00000,-305999493.38048,   0.00000
-158180363.30294,-76952609.17440,58766367.54715,  -0.00057,  -0.00004,   0.00076,170677466.53013,   0.00000,274640135.82653,   0.00000,   0.00000,   0.00000,-303962669.29640,   0.00000
-159969173.95480,-77751386.25794,59520143.10485,  -0.00058,  -0.00004,   0.00077,172700700.49932,   0.00000,274640135.82653,   0.00000,   0.00000,   0.00000,-301939435.32721,   0.00000
-161749546.82057,-78530475.17392,60268293.47183,  -0.00058,  -0.00004,   0.00078,174712576.10926,   0.00000,274640135.82653,   0.00000,   0.00000,   0.00000,-299927559.71727,   0.00000
-163538357.47243,-79329252.25746,61022069.02953,  -0.00059,  -0.00004,   0.00079,176736039.73367,   0.00000,274640135.82653,   0.00000,   0.00000,   0.00000,-297904096.09286,   0.00000
-165299042.17065,-80099903.38735,61770219.39650,  -0.00060,  -0.00004,   0.00080,178734469.45170,   0.00000,274640135.82653,   0.00000,   0.00000,   0.00000,-295905666.37483,   0.00000
-167059726.86886,-80870554.51724,62518369.76347,  -0.00060,  -0.00004,   0.00081,180733023.69431,   0.00000,274640135.82653,   0.00000,   0.00000,   0.00000,-293907112.13222,   0.00000
-168820411.56708,-81641205.64713,63260894.93972,  -0.00061,  -0.00004,   0.00082,182725855.77508,   0.00000,274640135.82653,   0.00000,   0.00000,   0.00000,-291914280.05145,   0.00000
-170561408.09774,-82403418.99093,64009045.30669,  -0.00062,  -0.00004,   0.00083,184710984.68077,   0.00000,274640135.82653,   0.00000,   0.00000,   0.00000,-289929151.14576,   0.00000
-172302404.62841,-83165632.33472,64751570.48294,  -0.00062,  -0.00004,   0.00084,186690386.06385,   0.00000,274640135.82653,   0.00000,   0.00000,   0.00000,-287949749.76268,   0.00000
-174034963.37298,-83908157.51097,65494095.65918,  -0.00063,  -0.00004,   0.00085,188664315.52534,   0.00000,274640135.82653,   0.00000,   0.00000,   0.00000,-285975820.30119,   0.00000
-175747833.94999,-84642244.90112,66236620.83543,  -0.00063,  -0.00004,   0.00086,190624734.43147,   0.00000,274640135.82653,   0.00000,   0.00000,   0.00000,-284015401.39506,   0.00000
-177469142.31311,-85396020.45882,66979146.01167,  -0.00064,  -0.00004,   0.00087,192590852.00791,   0.00000,274640135.82653,   0.00000,   0.00000,   0.00000,-282049283.81862,   0.00000
-179153886.93648,-86101981.89532,67716045.99718,  -0.00065,  -0.00004,   0.00088,194526477.42081,   0.00000,274640135.82653,   0.00000,   0.00000,   0.00000,-280113658.40572,   0.00000
-180847069.34595,-86827631.49938,68458571.17343,  -0.00065,  -0.00004,   0.00089,196473675.81745,   0.00000,274640135.82653,   0.00000,   0.00000,   0.00000,-278166460.00908,   0.00000
-182540251.75541,-87553281.10344,69195471.15894,  -0.00066,  -0.00004,   0.00090,198415126.07409,   0.00000,274640135.82653,   0.00000,   0.00000,   0.00000,-276225009.75244,   0.00000
-184205308.21123,-88250804.75385,69932371.14446,  -0.00067,  -0.00004,   0.00091,200337572.67418,   0.00000,274640135.82653,   0.00000,   0.00000,   0.00000,-274302563.15235,   0.00000
-185870364.66705,-88948328.40426,70669271.12997,  -0.00067,  -0.00004,   0.00092,202260171.55257,   0.00000,274640135.82653,   0.00000,   0.00000,   0.00000,-272379964.27396,   0.00000
-187535421.12287,-89645852.05467,71400545.92476,  -0.00068,  -0.00004,   0.00093,204177016.88587,   0.00000,274640135.82653,   0.00000,   0.00000,   0.00000,-270463118.94066,   0.00000
-189180789.41114,-90334937.91899,72131820.71955,  -0.00068,  -0.00004,   0.00094,206080411.25997,   0.00000,274640135.82653,   0.00000,   0.00000,   0.00000,-268559724.56656,   0.00000
-190826157.69941,-91024023.78331,72863095.51433,  -0.00069,  -0.00004,   0.00095,207983948.21454,   0.00000,274640135.82653,   0.00000,   0.00000,   0.00000,-266656187.61199,   0.00000
-192443400.03403,-91684983.69398,73594370.30912,  -0.00070,  -0.00004,   0.00096,209868583.83540,   0.00000,274640135.82653,   0.00000,   0.00000,   0.00000,-264771551.99113,   0.00000
-194080330.53621,-92354381.39074,74325645.10390,  -0.00070,  -0.00004,   0.00097,211766952.46582,   0.00000,274640135.82653,   0.00000,   0.00000,   0.00000,-262873183.36071,   0.00000
-195677884.70328,-93006903.51532,75056919.89869,  -0.00071,  -0.00004,   0.00098,213638358.43503,   0.00000,274640135.82653,   0.00000,   0.00000,   0.00000,-261001777.39150,   0.00000
-197295127.03790,-93667863.42599,75782569.50275,  -0.00072,  -0.00004,   0.00099,215517554.50313,   0.00000,274640135.82653,   0.00000,   0.00000,   0.00000,-259122581.32340,   0.00000
-198892681.20497,-94320385.55057,76508219.10680,  -0.00072,  -0.00004,   0.00099,217383353.00928,   0.00000,274640135.82653,   0.00000,   0.00000,   0.00000,-257256782.81725,   0.00000
-200462109.41840,-94944781.72151,77233868.71086,  -0.00073,  -0.00004,   0.00100,219230356.23425,   0.00000,274640135.82653,   0.00000,   0.00000,   0.00000,-255409779.59228,   0.00000
-202059663.58547,-95597303.84608,77959518.31492,  -0.00073,  -0.00004,   0.00101,221096477.99949,   0.00000,274640135.82653,   0.00000,   0.00000,   0.00000,-253543657.82704,   0.00000
-203629091.79889,-96221700.01702,78679542.72825,  -0.00074,  -0.00004,   0.00102,222937875.93627,   0.00000,274640135.82653,   0.00000,   0.00000,   0.00000,-251702259.89026,   0.00000
-205178831.84477,-96837658.40186,79399567.14157,  -0.00074,  -0.00004,   0.00103,224765925.52981,   0.00000,274640135.82653,   0.00000,   0.00000,   0.00000,-249874210.29672,   0.00000
-206748260.05819,-97462054.57279,80125216.74563,  -0.00075,  -0.00004,   0.00104,226613627.10486,   0.00000,274640135.82653,   0.00000,   0.00000,   0.00000,-248026508.72167,   0.00000
-208289562.31797,-98058324.79007,80839615.96823,  -0.00076,  -0.00004,   0.00105,228430693.66607,   0.00000,274640135.82653,   0.00000,   0.00000,   0.00000,-246209442.16046,   0.00000
-209811176.41020,-98646157.22127,81559640.38156,  -0.00076,  -0.00004,   0.00106,230240423.47885,   0.00000,274640135.82653,   0.00000,   0.00000,   0.00000,-244399712.34768,   0.00000
-211341228.28852,-99253677.82001,82279664.79488,  -0.00077,  -0.00004,   0.00107,232055689.15444,   0.00000,274640135.82653,   0.00000,   0.00000,   0.00000,-242584446.67209,   0.00000
-212862842.38075,-99841510.25121,82994064.01748,  -0.00077,  -0.00004,   0.00108,233859815.19365,   0.00000,274640135.82653,   0.00000,   0.00000,   0.00000,-240780320.63288,   0.00000
-214376018.68688,-100409654.51485,83708463.24008,  -0.00078,  -0.00004,   0.00109,235658809.70008,   0.00000,274640135.82653,   0.00000,   0.00000,   0.00000,-238981326.12645,   0.00000
-215877944.61156,-100989049.15995,84422862.46268,  -0.00079,  -0.00004,   0.00110,237449838.44634,   0.00000,274640135.82653,   0.00000,   0.00000,   0.00000,-237190297.38019,   0.00000
-217351744.58259,-101540317.85140,85137261.68528,  -0.00079,  -0.00004,   0.00111,239222306.17940,   0.00000,274640135.82653,   0.00000,   0.00000,   0.00000,-235417829.64713,   0.00000
-218853670.50727,-102119712.49650,85846035.71715,  -0.00080,  -0.00004,   0.00112,241007710.26860,   0.00000,274640135.82653,   0.00000,   0.00000,   0.00000,-233632425.55793,   0.00000
-220327470.47830,-102670981.18796,86560434.93975,  -0.00080,  -0.00004,   0.00113,242780587.64998,   0.00000,274640135.82653,   0.00000,   0.00000,   0.00000,-231859548.17655,   0.00000
-221773144.49568,-103194123.92576,87269208.97162,  -0.00081,  -0.00004,   0.00113,244528963.47756,   0.00000,274640135.82653,   0.00000,   0.00000,   0.00000,-230111172.34897,   0.00000
-223246944.46671,-103745392.61722,87977983.00349,  -0.00081,  -0.00004,   0.00114,246296242.92468,   0.00000,274640135.82653,   0.00000,   0.00000,   0.00000,-228343892.90184,   0.00000
-224701056.27019,-104288223.52258,88681131.84463,  -0.00082,  -0.00004,   0.00115,248044257.55921,   0.00000,274640135.82653,   0.00000,   0.00000,   0.00000,-226595878.26732,   0.00000
-226127042.12002,-104802928.47429,89389905.87650,  -0.00082,  -0.00004,   0.00116,249779868.26635,   0.00000,274640135.82653,   0.00000,   0.00000,   0.00000,-224860267.56018,   0.00000
-227572716.13741,-105326071.21210,90093054.71764,  -0.00083,  -0.00004,   0.00117,251523076.13096,   0.00000,274640135.82653,   0.00000,   0.00000,   0.00000,-223117059.69557,   0.00000
-228998701.98724,-105840776.16382,90796203.55878,  -0.00084,  -0.00004,   0.00118,253253088.41952,   0.00000,274640135.82653,   0.00000,   0.00000,   0.00000,-221387047.40701,   0.00000
-230396561.88343,-106327355.16189,91499352.39992,  -0.00084,  -0.00003,   0.00119,254964741.85421,   0.00000,274640135.82653,   0.00000,   0.00000,   0.00000,-219675393.97232,   0.00000
-231802859.56571,-106833622.32751,92202501.24106,  -0.00085,  -0.00003,   0.00120,256681812.97961,   0.00000,274640135.82653,   0.00000,   0.00000,   0.00000,-217958322.84692,   0.00000
-233200719.46189,-107320201.32558,92905650.08220,  -0.00085,  -0.00003,   0.00121,258393948.18721,   0.00000,274640135.82653,   0.00000,   0.00000,   0.00000,-216246187.63932,   0.00000
-234598579.35808,-107806780.32365,93603173.73261,  -0.00086,  -0.00003,   0.00122,260100250.30733,   0.00000,274640135.82653,   0.00000,   0.00000,   0.00000,-214539885.51920,   0.00000
-235976751.08672,-108284921.53562,94300697.38302,  -0.00086,  -0.00003,   0.00123,261793414.52858,   0.00000,274640135.82653,   0.00000,   0.00000,   0.00000,-212846721.29795,   0.00000
-237354922.81535,-108763062.74760,94998221.03343,  -0.00087,  -0.00003,   0.00123,263486813.40411,   0.00000,274640135.82653,   0.00000,   0.00000,   0.00000,-211153322.42242,   0.00000
-238704968.59034,-109213078.00593,95695744.68384,  -0.00087,  -0.00003,   0.00124,265161989.61007,   0.00000,274640135.82653,   0.00000,   0.00000,   0.00000,-209478146.21646,   0.00000
-240063452.15142,-109682781.43181,96387643.14353,  -0.00088,  -0.00003,   0.00125,266836428.73805,   0.00000,274640135.82653,   0.00000,   0.00000,   0.00000,-207803707.08848,   0.00000
-241413497.92641,-110132796.69014,97085166.79394,  -0.00088,  -0.00003,   0.00126,268512113.38912,   0.00000,274640135.82653,   0.00000,   0.00000,   0.00000,-206128022.43741,   0.00000
-242743855.53385,-110574374.16237,97777065.25362,  -0.00089,  -0.00003,   0.00127,270168623.60802,   0.00000,274640135.82653,   0.00000,   0.00000,   0.00000,-204471512.21851,   0.00000
-244065775.35520,-110996263.46706,98468963.71330,  -0.00089,  -0.00003,   0.00128,271820335.04335,   0.00000,274640135.82653,   0.00000,   0.00000,   0.00000,-202819800.78318,   0.00000
-245396132.96263,-111437840.93929,99160862.17298,  -0.00090,  -0.00003,   0.00129,273477364.68433,   0.00000,274640135.82653,   0.00000,   0.00000,   0.00000,-201162771.14220,   0.00000
-246698364.61643,-111851292.45788,99847135.44194,  -0.00090,  -0.00003,   0.00130,275110187.31993,   0.00000,274640135.82653,   0.00000,   0.00000,   0.00000,-199529948.50660,   0.00000
-248000596.27022,-112264743.97648,100539033.90162,  -0.00091,  -0.00003,   0.00131,276749412.02794,   0.00000,274640135.82653,   0.00000,   0.00000,   0.00000,-197890723.79859,   0.00000
-249302827.92401,-112678195.49507,101225307.17057,  -0.00091,  -0.00003,   0.00132,278382778.56931,   0.00000,274640135.82653,   0.00000,   0.00000,   0.00000,-196257357.25722,   0.00000
-250585371.41025,-113083209.22756,101911580.43952,  -0.00092,  -0.00003,   0.00132,280003130.82627,   0.00000,274640135.82653,   0.00000,   0.00000,   0.00000,-194637005.00026,   0.00000
-251867914.89649,-113488222.96006,102597853.70848,  -0.00092,  -0.00003,   0.00133,281623756.06372,   0.00000,274640135.82653,   0.00000,   0.00000,   0.00000,-193016379.76281,   0.00000
-253142020.59664,-113873548.52500,103278501.78670,  -0.00093,  -0.00002,   0.00134,283233533.10160,   0.00000,274640135.82653,   0.00000,   0.00000,   0.00000,-191406602.72493,   0.00000
-254396438.12923,-114250436.30386,103964775.05565,  -0.00093,  -0.00002,   0.00135,284836495.61664,   0.00000,274640135.82653,   0.00000,   0.00000,   0.00000,-189803640.20989,   0.00000
-255650855.66182,-114627324.08271,104645423.13388,  -0.00094,  -0.00002,   0.00136,286433593.86011,   0.00000,274640135.82653,   0.00000,   0.00000,   0.00000,-188206541.96641,   0.00000
-256905273.19442,-115004211.86156,105326071.21210,  -0.00094,  -0.00002,   0.00137,288030976.64162,   0.00000,274640135.82653,   0.00000,   0.00000,   0.00000,-186609159.18491,   0.00000
-258131564.77337,-115352973.68676,106006719.29033,  -0.00095,  -0.00002,   0.00138,289610502.70285,   0.00000,274640135.82653,   0.00000,   0.00000,   0.00000,-185029633.12368,   0.00000
-259366294.13841,-115721423.67952,106687367.36855,  -0.00095,  -0.00002,   0.00139,291195241.52950,   0.00000,274640135.82653,   0.00000,   0.00000,   0.00000,-183444894.29703,   0.00000
-260572897.54981,-116061747.71863,107362390.25604,  -0.00096,  -0.00002,   0.00140,292755985.16126,   0.00000,274640135.82653,   0.00000,   0.00000,   0.00000,-181884150.66527,   0.00000
-261779500.96120,-116402071.75775,108037413.14354,  -0.00096,  -0.00002,   0.00140,294317041.79956,   0.00000,274640135.82653,   0.00000,   0.00000,   0.00000,-180323094.02697,   0.00000
-262986104.37260,-116742395.79686,108712436.03103,  -0.00097,  -0.00002,   0.00141,295878406.49012,   0.00000,274640135.82653,   0.00000,   0.00000,   0.00000,-178761729.33641,   0.00000
-264184269.99790,-117063031.66842,109387458.91853,  -0.00097,  -0.00002,   0.00142,297435234.69593,   0.00000,274640135.82653,   0.00000,   0.00000,   0.00000,-177204901.13060,   0.00000
-265371185.24175,-117394917.92144,110062481.80602,  -0.00098,  -0.00002,   0.00143,298984036.20282,   0.00000,274640135.82653,   0.00000,   0.00000,   0.00000,-175656099.62371,   0.00000
-266549662.69950,-117707116.00690,110737504.69352,  -0.00098,  -0.00002,   0.00144,300528335.78907,   0.00000,274640135.82653,   0.00000,   0.00000,   0.00000,-174111800.03746,   0.00000
-267708451.98970,-118010876.30627,111406902.39028,  -0.00099,  -0.00001,   0.00145,302053582.79615,   0.00000,274640135.82653,   0.00000,   0.00000,   0.00000,-172586553.03038,   0.00000
-268867241.27990,-118314636.60565,112076300.08705,  -0.00099,  -0.00001,   0.00146,303579162.40250,   0.00000,274640135.82653,   0.00000,   0.00000,   0.00000,-171060973.42403,   0.00000
-270017592.78401,-118598708.73747,112745697.78382,  -0.00100,  -0.00001,   0.00147,305100300.54518,   0.00000,274640135.82653,   0.00000,   0.00000,   0.00000,-169539835.28135,   0.00000
-271156693.90665,-118894031.25075,113415095.48058,  -0.00100,  -0.00001,   0.00147,306613408.91563,   0.00000,274640135.82653,   0.00000,   0.00000,   0.00000,-168026726.91090,   0.00000
-272287357.24321,-119169665.59647,114078867.98662,  -0.00101,  -0.00001,   0.00148,308115863.21929,   0.00000,274640135.82653,   0.00000,   0.00000,   0.00000,-166524272.60724,   0.00000
-273418020.57976,-119445299.94220,114742640.49265,  -0.00101,  -0.00001,   0.00149,309618663.55238,   0.00000,274640135.82653,   0.00000,   0.00000,   0.00000,-165021472.27415,   0.00000
-274528995.74876,-119712496.50183,115412038.18942,  -0.00102,  -0.00001,   0.00150,311114955.53799,   0.00000,274640135.82653,   0.00000,   0.00000,   0.00000,-163525180.28854,   0.00000
-275631533.13167,-119960004.89392,116075810.69546,  -0.00102,  -0.00001,   0.00151,312600649.79634,   0.00000,274640135.82653,   0.00000,   0.00000,   0.00000,-162039486.03019,   0.00000
-276742508.30067,-120227201.45355,116733958.01076,  -0.00102,  -0.00001,   0.00152,314085130.86781,   0.00000,274640135.82653,   0.00000,   0.00000,   0.00000,-160555004.95872,   0.00000
-277825357.51603,-120466272.05954,117397730.51680,  -0.00103,  -0.00001,   0.00153,315558470.44685,   0.00000,274640135.82653,   0.00000,   0.00000,   0.00000,-159081665.37968,   0.00000
-278908206.73138,-120705342.66552,118055877.83211,  -0.00103,  -0.00001,   0.00153,317025910.19743,   0.00000,274640135.82653,   0.00000,   0.00000,   0.00000,-157614225.62910,   0.00000
-279991055.94674,-120944413.27151,118719650.33814,  -0.00104,  -0.00000,   0.00154,318500007.31279,   0.00000,274640135.82653,   0.00000,   0.00000,   0.00000,-156140128.51374,   0.00000
-281054216.99454,-121175046.09141,119377797.65345,  -0.00104,  -0.00000,   0.00155,319955126.08011,   0.00000,274640135.82653,   0.00000,   0.00000,   0.00000,-154685009.74642,   0.00000
-282108940.25626,-121385990.74375,120030319.77803,  -0.00105,  -0.00000,   0.00156,321399708.63198,   0.00000,274640135.82653,   0.00000,   0.00000,   0.00000,-153240427.19455,   0.00000
-283152413.13651,-121608185.77755,120688467.09334,  -0.00105,  -0.00000,   0.00157,322842541.99391,   0.00000,274640135.82653,   0.00000,   0.00000,   0.00000,-151797593.83262,   0.00000
-284187448.23067,-121810692.64380,121346614.40864,  -0.00106,  -0.00000,   0.00158,324281179.14842,   0.00000,274640135.82653,   0.00000,   0.00000,   0.00000,-150358956.67811,   0.00000
-285222483.32483,-122013199.51005,121999136.53322,  -0.00106,   0.00000,   0.00159,325713902.11434,   0.00000,274640135.82653,   0.00000,   0.00000,   0.00000,-148926233.71219,   0.00000
-286249080.63289,-122196018.20874,122651658.65780,  -0.00106,   0.00000,   0.00159,327142466.32702,   0.00000,274640135.82653,   0.00000,   0.00000,   0.00000,-147497669.49951,   0.00000
-287264427.55950,-122390087.28890,123304180.78238,  -0.00107,   0.00000,   0.00160,328562976.36665,   0.00000,274640135.82653,   0.00000,   0.00000,   0.00000,-146077159.45988,   0.00000
-288271336.70001,-122564468.20150,123951077.71623,  -0.00107,   0.00000,   0.00161,329973026.69915,   0.00000,274640135.82653,   0.00000,   0.00000,   0.00000,-144667109.12738,   0.00000
-289258557.67297,-122730411.32801,124603599.84081,  -0.00108,   0.00001,   0.00162,331376849.77726,   0.00000,274640135.82653,   0.00000,   0.00000,   0.00000,-143263286.04927,   0.00000
-290245778.64593,-122896354.45452,125250496.77466,  -0.00108,   0.00001,   0.00163,332774756.69812,   0.00000,274640135.82653,   0.00000,   0.00000,   0.00000,-141865379.12841,   0.00000
-291232999.61889,-123062297.58103,125897393.70851,  -0.00109,   0.00001,   0.00164,334173081.37582,   0.00000,274640135.82653,   0.00000,   0.00000,   0.00000,-140467054.45071,   0.00000
-292200532.42430,-123219802.92144,126544290.64235,  -0.00109,   0.00001,   0.00165,335558864.35127,   0.00000,274640135.82653,   0.00000,   0.00000,   0.00000,-139081271.47526,   0.00000
-293159627.44362,-123357620.09431,127191187.57620,  -0.00109,   0.00001,   0.00165,336940633.10941,   0.00000,274640135.82653,   0.00000,   0.00000,   0.00000,-137699502.71712,   0.00000
-294118722.46293,-123495437.26717,127832459.31932,  -0.00110,   0.00001,   0.00166,338316477.06976,   0.00000,274640135.82653,   0.00000,   0.00000,   0.00000,-136323658.75677,   0.00000
-295058129.31470,-123624816.65394,128479356.25317,  -0.00110,   0.00001,   0.00167,339686212.22875,   0.00000,274640135.82653,   0.00000,   0.00000,   0.00000,-134953923.59778,   0.00000
-295997536.16646,-123754196.04071,129120627.99629,  -0.00111,   0.00001,   0.00168,341050018.41146,   0.00000,274640135.82653,   0.00000,   0.00000,   0.00000,-133590117.41507,   0.00000
-296936943.01822,-123883575.42748,129761899.73941,  -0.00111,   0.00002,   0.00169,342414266.76476,   0.00000,274640135.82653,   0.00000,   0.00000,   0.00000,-132225869.06177,   0.00000
-297848223.91634,-123984828.86060,130403171.48253,  -0.00111,   0.00002,   0.00170,343761694.50234,   0.00000,274640135.82653,   0.00000,   0.00000,   0.00000,-130878441.32419,   0.00000
-298767942.60055,-124105770.46128,131038818.03492,  -0.00112,   0.00002,   0.00170,345107542.04733,   0.00000,274640135.82653,   0.00000,   0.00000,   0.00000,-129532593.77920,   0.00000
-299679223.49867,-124207023.89440,131680089.77804,  -0.00112,   0.00002,   0.00171,346455906.91974,   0.00000,274640135.82653,   0.00000,   0.00000,   0.00000,-128184228.90679,   0.00000
-300570816.22924,-124299839.54143,132315736.33044,  -0.00113,   0.00002,   0.00172,347785456.41329,   0.00000,274640135.82653,   0.00000,   0.00000,   0.00000,-126854679.41324,   0.00000
-301462408.95980,-124392655.18846,132951382.88283,  -0.00113,   0.00002,   0.00173,349115479.20714,   0.00000,274640135.82653,   0.00000,   0.00000,   0.00000,-125524656.61939,   0.00000
-302325875.73672,-124457344.88185,133587029.43522,  -0.00113,   0.00002,   0.00174,350428842.06600,   0.00000,274640135.82653,   0.00000,   0.00000,   0.00000,-124211293.76053,   0.00000
-303209030.68120,-124530472.36133,134222675.98761,  -0.00114,   0.00002,   0.00174,351755556.12675,   0.00000,274640135.82653,   0.00000,   0.00000,   0.00000,-122884579.69978,   0.00000
-304061247.07666,-124606412.43617,134852697.34927,  -0.00114,   0.00003,   0.00175,353054909.01849,   0.00000,274640135.82653,   0.00000,   0.00000,   0.00000,-121585226.80804,   0.00000
-304924713.85358,-124671102.12956,135482718.71093,  -0.00114,   0.00003,   0.00176,354363324.69675,   0.00000,274640135.82653,   0.00000,   0.00000,   0.00000,-120276811.12978,   0.00000
-305760054.67685,-124707665.86930,136112740.07259,  -0.00115,   0.00003,   0.00177,355655204.17667,   0.00000,274640135.82653,   0.00000,   0.00000,   0.00000,-118984931.64986,   0.00000
-306603833.28622,-124763917.77659,136742761.43425,  -0.00115,   0.00003,   0.00178,356951815.70158,   0.00000,274640135.82653,   0.00000,   0.00000,   0.00000,-117688320.12495,   0.00000
-307427923.72804,-124811731.89778,137372782.79592,  -0.00116,   0.00003,   0.00179,358236136.46881,   0.00000,274640135.82653,   0.00000,   0.00000,   0.00000,-116403999.35772,   0.00000
-308243576.38376,-124839857.85143,137997178.96685,  -0.00116,   0.00003,   0.00179,359510323.13312,   0.00000,274640135.82653,   0.00000,   0.00000,   0.00000,-115129812.69341,   0.00000
-309059229.03948,-124867983.80508,138627200.32851,  -0.00116,   0.00003,   0.00180,360791518.24880,   0.00000,274640135.82653,   0.00000,   0.00000,   0.00000,-113848617.57773,   0.00000
-309855193.52766,-124887671.97263,139251596.49944,  -0.00117,   0.00004,   0.00181,362054000.36657,   0.00000,274640135.82653,   0.00000,   0.00000,   0.00000,-112586135.45996,   0.00000
-310651158.01583,-124907360.14018,139875992.67038,  -0.00117,   0.00004,   0.00182,363317016.52701,   0.00000,274640135.82653,   0.00000,   0.00000,   0.00000,-111323119.29952,   0.00000
-311438684.71790,-124907360.14018,140500388.84131,  -0.00117,   0.00004,   0.00183,364576462.20792,   0.00000,274640135.82653,   0.00000,   0.00000,   0.00000,-110063673.61861,   0.00000
-312214961.03852,-124918610.52164,141119159.82151,  -0.00118,   0.00004,   0.00183,365821314.08672,   0.00000,274640135.82653,   0.00000,   0.00000,   0.00000,-108818821.73981,   0.00000
-312982799.57305,-124910172.73554,141737930.80172,  -0.00118,   0.00004,   0.00184,367062626.27424,   0.00000,274640135.82653,   0.00000,   0.00000,   0.00000,-107577509.55229,   0.00000
-313730949.94002,-124893297.16336,142362326.97265,  -0.00118,   0.00004,   0.00185,368298314.26386,   0.00000,274640135.82653,   0.00000,   0.00000,   0.00000,-106341821.56267,   0.00000
-314479100.30699,-124876421.59117,142981097.95285,  -0.00119,   0.00005,   0.00186,369528055.23150,   0.00000,274640135.82653,   0.00000,   0.00000,   0.00000,-105112080.59503,   0.00000
-315218812.88787,-124839857.85143,143594243.74233,  -0.00119,   0.00005,   0.00187,370747810.27213,   0.00000,274640135.82653,   0.00000,   0.00000,   0.00000,-103892325.55440,   0.00000
-315966963.25485,-124822982.27924,144213014.72253,  -0.00119,   0.00005,   0.00187,371978683.48129,   0.00000,274640135.82653,   0.00000,   0.00000,   0.00000,-102661452.34524,   0.00000
-316686987.66818,-124777980.75341,144826160.51200,  -0.00120,   0.00005,   0.00188,373186923.79701,   0.00000,274640135.82653,   0.00000,   0.00000,   0.00000,-101453212.02952,   0.00000
-317395761.70004,-124744229.60904,145444931.49221,  -0.00120,   0.00005,   0.00189,374393625.58914,   0.00000,274640135.82653,   0.00000,   0.00000,   0.00000,-100246510.23739,   0.00000
-318115786.11337,-124699228.08320,146058077.28168,  -0.00120,   0.00005,   0.00190,375603040.06667,   0.00000,274640135.82653,   0.00000,   0.00000,   0.00000,-99037095.75986,   0.00000
-318807684.57305,-124626100.60372,146665597.88043,  -0.00121,   0.00005,   0.00191,376789913.51753,   0.00000,274640135.82653,   0.00000,   0.00000,   0.00000,-97850222.30900,   0.00000
-319488332.65128,-124564223.50570,147278743.66990,  -0.00121,   0.00006,   0.00191,377975276.19275,   0.00000,274640135.82653,   0.00000,   0.00000,   0.00000,-96664859.63377,   0.00000
-320188668.89705,-124510784.19378,147891889.45938,  -0.00121,   0.00006,   0.00192,379173851.57718,   0.00000,274640135.82653,   0.00000,   0.00000,   0.00000,-95466284.24934,   0.00000
-320860879.18918,-124429218.92820,148499410.05812,  -0.00122,   0.00006,   0.00193,380349957.40481,   0.00000,274640135.82653,   0.00000,   0.00000,   0.00000,-94290178.42172,   0.00000
-321513401.31376,-124339215.87654,149106930.65687,  -0.00122,   0.00006,   0.00194,381514107.11233,   0.00000,274640135.82653,   0.00000,   0.00000,   0.00000,-93126028.71420,   0.00000
-322165923.43834,-124249212.82487,149714451.25561,  -0.00122,   0.00006,   0.00195,382678896.03501,   0.00000,274640135.82653,   0.00000,   0.00000,   0.00000,-91961239.79152,   0.00000
-322818445.56292,-124159209.77321,150316346.66363,  -0.00123,   0.00006,   0.00195,383837709.57106,   0.00000,274640135.82653,   0.00000,   0.00000,   0.00000,-90802426.25546,   0.00000
-323470967.68750,-124069206.72154,150923867.26237,  -0.00123,   0.00007,   0.00196,385003752.92074,   0.00000,274640135.82653,   0.00000,   0.00000,   0.00000,-89636382.90579,   0.00000
-324095363.85843,-123951077.71623,151525762.67039,  -0.00123,   0.00007,   0.00197,386147478.51953,   0.00000,274640135.82653,   0.00000,   0.00000,   0.00000,-88492657.30700,   0.00000
-324700071.86181,-123824510.92482,152127658.07841,  -0.00124,   0.00007,   0.00198,387279345.73710,   0.00000,274640135.82653,   0.00000,   0.00000,   0.00000,-87360790.08943,   0.00000
-325332905.81884,-123726070.08706,152729553.48642,  -0.00124,   0.00007,   0.00199,388428149.91351,   0.00000,274640135.82653,   0.00000,   0.00000,   0.00000,-86211985.91302,   0.00000
-325937613.82222,-123599503.29566,153331448.89444,  -0.00124,   0.00007,   0.00199,389561340.23471,   0.00000,274640135.82653,   0.00000,   0.00000,   0.00000,-85078795.59182,   0.00000
-326514195.87195,-123444810.55061,153927719.11173,  -0.00124,   0.00008,   0.00200,390672351.77205,   0.00000,274640135.82653,   0.00000,   0.00000,   0.00000,-83967784.05448,   0.00000
-327118903.87533,-123318243.75920,154529614.51974,  -0.00125,   0.00008,   0.00201,391806895.14220,   0.00000,274640135.82653,   0.00000,   0.00000,   0.00000,-82833240.68433,   0.00000
-327703923.71116,-123183239.18170,155125884.73703,  -0.00125,   0.00008,   0.00202,392922971.53772,   0.00000,274640135.82653,   0.00000,   0.00000,   0.00000,-81717164.28881,   0.00000
-328260817.59335,-123020108.65056,155722154.95432,  -0.00125,   0.00008,   0.00202,394023601.68427,   0.00000,274640135.82653,   0.00000,   0.00000,   0.00000,-80616534.14226,   0.00000
-328817711.47553,-122856978.11941,156312799.98087,  -0.00126,   0.00008,   0.00203,395118271.38491,   0.00000,274640135.82653,   0.00000,   0.00000,   0.00000,-79521864.44162,   0.00000
-329374605.35771,-122693847.58827,156909070.19816,  -0.00126,   0.00008,   0.00204,396220320.26729,   0.00000,274640135.82653,   0.00000,   0.00000,   0.00000,-78419815.55924,   0.00000
-329911811.07234,-122522279.27103,157499715.22472,  -0.00126,   0.00009,   0.00205,397303971.58774,   0.00000,274640135.82653,   0.00000,   0.00000,   0.00000,-77336164.23879,   0.00000
-330449016.78698,-122350710.95379,158090360.25128,  -0.00126,   0.00009,   0.00206,398388331.95972,   0.00000,274640135.82653,   0.00000,   0.00000,   0.00000,-76251803.86681,   0.00000
-330986222.50161,-122179142.63655,158681005.27784,  -0.00127,   0.00009,   0.00206,399473395.60912,   0.00000,274640135.82653,   0.00000,   0.00000,   0.00000,-75166740.21741,   0.00000
-331495302.26259,-121979448.36567,159271650.30439,  -0.00127,   0.00009,   0.00207,400543234.76001,   0.00000,274640135.82653,   0.00000,   0.00000,   0.00000,-74096901.06652,   0.00000
-332004382.02358,-121779754.09479,159856670.14022,  -0.00127,   0.00009,   0.00208,401607110.43753,   0.00000,274640135.82653,   0.00000,   0.00000,   0.00000,-73033025.38900,   0.00000
-332521899.57066,-121599747.99146,160447315.16678,  -0.00128,   0.00010,   0.00209,402681953.96481,   0.00000,274640135.82653,   0.00000,   0.00000,   0.00000,-71958181.86172,   0.00000
-333011291.16409,-121391615.93448,161032335.00261,  -0.00128,   0.00010,   0.00209,403734943.31343,   0.00000,274640135.82653,   0.00000,   0.00000,   0.00000,-70905192.51310,   0.00000
-333472556.80388,-121155357.92385,161617354.83844,  -0.00128,   0.00010,   0.00210,404772884.55693,   0.00000,274640135.82653,   0.00000,   0.00000,   0.00000,-69867251.26960,   0.00000
-333961948.39731,-120947225.86688,162202374.67427,  -0.00128,   0.00010,   0.00211,405827394.67461,   0.00000,274640135.82653,   0.00000,   0.00000,   0.00000,-68812741.15192,   0.00000
-334431651.82319,-120730656.02381,162781769.31937,  -0.00129,   0.00010,   0.00212,406863590.89211,   0.00000,274640135.82653,   0.00000,   0.00000,   0.00000,-67776544.93442,   0.00000
-334873229.29543,-120485960.22709,163361163.96447,  -0.00129,   0.00010,   0.00212,407884828.59756,   0.00000,274640135.82653,   0.00000,   0.00000,   0.00000,-66755307.22897,   0.00000
-335334494.93522,-120249702.21647,163946183.80029,  -0.00129,   0.00011,   0.00213,408925903.75981,   0.00000,274640135.82653,   0.00000,   0.00000,   0.00000,-65714232.06672,   0.00000
-335756384.23990,-119996568.63366,164519953.25467,  -0.00129,   0.00011,   0.00214,409929697.74441,   0.00000,274640135.82653,   0.00000,   0.00000,   0.00000,-64710438.08212,   0.00000
-336197961.71214,-119751872.83694,165099347.89976,  -0.00130,   0.00011,   0.00215,410953317.27478,   0.00000,274640135.82653,   0.00000,   0.00000,   0.00000,-63686818.55175,   0.00000
-336619851.01682,-119498739.25413,165678742.54486,  -0.00130,   0.00011,   0.00215,411965486.62629,   0.00000,274640135.82653,   0.00000,   0.00000,   0.00000,-62674649.20024,   0.00000
-337041740.32151,-119245605.67132,166252511.99924,  -0.00130,   0.00011,   0.00216,412971664.84867,   0.00000,274640135.82653,   0.00000,   0.00000,   0.00000,-61668470.97786,   0.00000
-337435503.67255,-118964346.13486,166826281.45361,  -0.00130,   0.00012,   0.00217,413963120.68089,   0.00000,274640135.82653,   0.00000,   0.00000,   0.00000,-60677015.14564,   0.00000
-337837704.80968,-118702774.76596,167400050.90798,  -0.00131,   0.00012,   0.00218,414958698.76256,   0.00000,274640135.82653,   0.00000,   0.00000,   0.00000,-59681437.06397,   0.00000
-338211779.99317,-118413077.44341,167973820.36235,  -0.00131,   0.00012,   0.00218,415939635.42866,   0.00000,274640135.82653,   0.00000,   0.00000,   0.00000,-58700500.39787,   0.00000
-338605543.34420,-118131817.90695,168541964.62599,  -0.00131,   0.00012,   0.00219,416926772.36748,   0.00000,274640135.82653,   0.00000,   0.00000,   0.00000,-57713363.45905,   0.00000
-338959930.36014,-117833682.79831,169115734.08036,  -0.00131,   0.00012,   0.00220,417897246.72075,   0.00000,274640135.82653,   0.00000,   0.00000,   0.00000,-56742889.10578,   0.00000
-339334005.54363,-117543985.47576,169683878.34400,  -0.00131,   0.00013,   0.00221,418873895.26007,   0.00000,274640135.82653,   0.00000,   0.00000,   0.00000,-55766240.56646,   0.00000
-339688392.55956,-117245850.36711,170246397.41691,  -0.00132,   0.00013,   0.00221,419832402.89767,   0.00000,274640135.82653,   0.00000,   0.00000,   0.00000,-54807732.92886,   0.00000
-340014653.62185,-116919589.30482,170814541.68055,  -0.00132,   0.00013,   0.00222,420783322.30534,   0.00000,274640135.82653,   0.00000,   0.00000,   0.00000,-53856813.52119,   0.00000
-340369040.63778,-116621454.19618,171382685.94420,  -0.00132,   0.00013,   0.00223,421750388.31674,   0.00000,274640135.82653,   0.00000,   0.00000,   0.00000,-52889747.50979,   0.00000
-340675613.53252,-116286755.34780,171945205.01711,  -0.00132,   0.00014,   0.00224,422684139.73839,   0.00000,274640135.82653,   0.00000,   0.00000,   0.00000,-51955996.08813,   0.00000
-341001874.59481,-115960494.28551,172507724.09002,  -0.00133,   0.00014,   0.00224,423630869.26471,   0.00000,274640135.82653,   0.00000,   0.00000,   0.00000,-51009266.56182,   0.00000
-341308447.48955,-115625795.43713,173070243.16293,  -0.00133,   0.00014,   0.00225,424566422.80476,   0.00000,274640135.82653,   0.00000,   0.00000,   0.00000,-50073713.02177,   0.00000
-341595332.21673,-115282658.80265,173627137.04512,  -0.00133,   0.00014,   0.00226,425483950.85573,   0.00000,274640135.82653,   0.00000,   0.00000,   0.00000,-49156184.97080,   0.00000
-341901905.11147,-114947959.95427,174189656.11803,  -0.00133,   0.00014,   0.00226,426421304.12892,   0.00000,274640135.82653,   0.00000,   0.00000,   0.00000,-48218831.69761,   0.00000
-342188789.83866,-114604823.31979,174746550.00021,  -0.00133,   0.00015,   0.00227,427340634.42278,   0.00000,274640135.82653,   0.00000,   0.00000,   0.00000,-47299501.40375,   0.00000
-342447548.61219,-114233560.73167,175303443.88239,  -0.00134,   0.00015,   0.00228,428245863.28092,   0.00000,274640135.82653,   0.00000,   0.00000,   0.00000,-46394272.54561,   0.00000
-342714745.17183,-113881986.31110,175860337.76458,  -0.00134,   0.00015,   0.00229,429155033.34121,   0.00000,274640135.82653,   0.00000,   0.00000,   0.00000,-45485102.48532,   0.00000
-342973503.94537,-113510723.72298,176411606.45603,  -0.00134,   0.00015,   0.00229,430055232.30770,   0.00000,274640135.82653,   0.00000,   0.00000,   0.00000,-44584903.51883,   0.00000
-343212574.55136,-113131023.34876,176962875.14749,  -0.00134,   0.00015,   0.00230,430944413.50404,   0.00000,274640135.82653,   0.00000,   0.00000,   0.00000,-43695722.32249,   0.00000
-343451645.15734,-112751322.97454,177519769.02967,  -0.00134,   0.00016,   0.00231,431841488.52740,   0.00000,274640135.82653,   0.00000,   0.00000,   0.00000,-42798647.29913,   0.00000
-343671027.59578,-112363184.81424,178065412.53039,  -0.00134,   0.00016,   0.00231,432713719.14945,   0.00000,274640135.82653,   0.00000,   0.00000,   0.00000,-41926416.67708,   0.00000
-343890410.03421,-111975046.65393,178616681.22185,  -0.00135,   0.00016,   0.00232,433593861.70857,   0.00000,274640135.82653,   0.00000,   0.00000,   0.00000,-41046274.11796,   0.00000
-344109792.47265,-111586908.49362,179167949.91330,  -0.00135,   0.00016,   0.00233,434474973.18803,   0.00000,274640135.82653,   0.00000,   0.00000,   0.00000,-40165162.63850,   0.00000
-344301048.95744,-111170644.37966,179713593.41403,  -0.00135,   0.00017,   0.00234,435335367.25740,   0.00000,274640135.82653,   0.00000,   0.00000,   0.00000,-39304768.56913,   0.00000
-344500743.22832,-110774068.43326,180259236.91475,  -0.00135,   0.00017,   0.00234,436199592.95683,   0.00000,274640135.82653,   0.00000,   0.00000,   0.00000,-38440542.86970,   0.00000
-344672311.54556,-110349366.53321,180804880.41548,  -0.00135,   0.00017,   0.00235,437050143.74327,   0.00000,274640135.82653,   0.00000,   0.00000,   0.00000,-37589992.08325,   0.00000
-344843879.86280,-109924664.63316,181344898.72547,  -0.00135,   0.00017,   0.00236,437894738.96141,   0.00000,274640135.82653,   0.00000,   0.00000,   0.00000,-36745396.86512,   0.00000
-345023885.96613,-109519650.90066,181890542.22620,  -0.00136,   0.00017,   0.00236,438750097.81332,   0.00000,274640135.82653,   0.00000,   0.00000,   0.00000,-35890038.01321,   0.00000
-345175766.11582,-109086511.21452,182430560.53619,  -0.00136,   0.00018,   0.00237,439584900.34790,   0.00000,274640135.82653,   0.00000,   0.00000,   0.00000,-35055235.47863,   0.00000
-345319208.47941,-108633683.36083,182970578.84619,  -0.00136,   0.00018,   0.00238,440418021.34217,   0.00000,274640135.82653,   0.00000,   0.00000,   0.00000,-34222114.48436,   0.00000
-345451400.46155,-108192105.88859,183504971.96546,  -0.00136,   0.00018,   0.00239,441236117.70512,   0.00000,274640135.82653,   0.00000,   0.00000,   0.00000,-33404018.12141,   0.00000
-345583592.44368,-107750528.41635,184044990.27545,  -0.00136,   0.00018,   0.00239,442062276.58434,   0.00000,274640135.82653,   0.00000,   0.00000,   0.00000,-32577859.24219,   0.00000
-345715784.42582,-107308950.94412,184579383.39472,  -0.00136,   0.00019,   0.00240,442882447.97627,   0.00000,274640135.82653,   0.00000,   0.00000,   0.00000,-31757687.85026,   0.00000
-345819850.45430,-106839247.51824,185113776.51399,  -0.00137,   0.00019,   0.00241,443689296.63099,   0.00000,274640135.82653,   0.00000,   0.00000,   0.00000,-30950839.19554,   0.00000
-345923916.48279,-106369544.09235,185648169.63325,  -0.00137,   0.00019,   0.00241,444497238.77975,   0.00000,274640135.82653,   0.00000,   0.00000,   0.00000,-30142897.04678,   0.00000
-346016732.12982,-105911091.04793,186176937.56179,  -0.00137,   0.00019,   0.00242,445290113.00467,   0.00000,274640135.82653,   0.00000,   0.00000,   0.00000,-29350022.82186,   0.00000
-346101109.99076,-105432949.83596,186711330.68106,  -0.00137,   0.00020,   0.00243,446088541.98936,   0.00000,274640135.82653,   0.00000,   0.00000,   0.00000,-28551593.83717,   0.00000
-346165799.68415,-104946370.83789,187240098.60959,  -0.00137,   0.00020,   0.00243,446869355.42723,   0.00000,274640135.82653,   0.00000,   0.00000,   0.00000,-27770780.39929,   0.00000
-346250177.54508,-104468229.62591,187768866.53813,  -0.00137,   0.00020,   0.00244,447662925.78057,   0.00000,274640135.82653,   0.00000,   0.00000,   0.00000,-26977210.04595,   0.00000
-346295179.07092,-103973212.84175,188292009.27594,  -0.00137,   0.00020,   0.00245,448427251.56740,   0.00000,274640135.82653,   0.00000,   0.00000,   0.00000,-26212884.25913,   0.00000
-346331742.81065,-103458507.89003,188820777.20448,  -0.00137,   0.00020,   0.00245,449197318.89144,   0.00000,274640135.82653,   0.00000,   0.00000,   0.00000,-25442816.93509,   0.00000
-346376744.33649,-102963491.10587,189343919.94229,  -0.00138,   0.00021,   0.00246,449963921.59863,   0.00000,274640135.82653,   0.00000,   0.00000,   0.00000,-24676214.22790,   0.00000
-346421745.86232,-102468474.32171,189867062.68009,  -0.00138,   0.00021,   0.00247,450731639.60171,   0.00000,274640135.82653,   0.00000,   0.00000,   0.00000,-23908496.22482,   0.00000
-346438621.43451,-101945331.58390,190384580.22717,  -0.00138,   0.00021,   0.00247,451479383.89523,   0.00000,274640135.82653,   0.00000,   0.00000,   0.00000,-23160751.93130,   0.00000
-346444246.62524,-101433439.22755,190907722.96498,  -0.00138,   0.00021,   0.00248,452226274.38096,   0.00000,274640135.82653,   0.00000,   0.00000,   0.00000,-22413861.44557,   0.00000
-346441434.02987,-100901858.70365,191425240.51206,  -0.00138,   0.00022,   0.00249,452964828.42739,   0.00000,274640135.82653,   0.00000,   0.00000,   0.00000,-21675307.39914,   0.00000
-346438621.43451,-100370278.17974,191942758.05914,  -0.00138,   0.00022,   0.00250,453704570.69748,   0.00000,274640135.82653,   0.00000,   0.00000,   0.00000,-20935565.12905,   0.00000
-346416120.67159,-99830259.86975,192460275.60622,  -0.00138,   0.00022,   0.00250,454434011.88332,   0.00000,274640135.82653,   0.00000,   0.00000,   0.00000,-20206123.94321,   0.00000
-346393619.90867,-99290241.55975,192972167.96257,  -0.00138,   0.00022,   0.00251,455157509.67271,   0.00000,274640135.82653,   0.00000,   0.00000,   0.00000,-19482626.15382,   0.00000
-346351430.97821,-98741785.46366,193484060.31892,  -0.00138,   0.00023,   0.00252,455870749.26673,   0.00000,274640135.82653,   0.00000,   0.00000,   0.00000,-18769386.55980,   0.00000
-346309242.04774,-98193329.36757,193995952.67527,  -0.00138,   0.00023,   0.00252,456585208.42850,   0.00000,274640135.82653,   0.00000,   0.00000,   0.00000,-18054927.39803,   0.00000
-346267053.11727,-97644873.27148,194507845.03162,  -0.00139,   0.00023,   0.00253,457300881.44189,   0.00000,274640135.82653,   0.00000,   0.00000,   0.00000,-17339254.38464,   0.00000
-346196738.23316,-97068291.22175,195019737.38797,  -0.00139,   0.00023,   0.00254,458004151.54207,   0.00000,274640135.82653,   0.00000,   0.00000,   0.00000,-16635984.28446,   0.00000
-346134861.13514,-96511397.33957,195526004.55359,  -0.00139,   0.00024,   0.00254,458703704.10916,   0.00000,274640135.82653,   0.00000,   0.00000,   0.00000,-15936431.71737,   0.00000
-346053295.86956,-95946065.67129,196032271.71921,  -0.00139,   0.00024,   0.00255,459393114.35295,   0.00000,274640135.82653,   0.00000,   0.00000,   0.00000,-15247021.47358,   0.00000
-345963292.81790,-95361045.83546,196538538.88483,  -0.00139,   0.00024,   0.00256,460081622.55995,   0.00000,274640135.82653,   0.00000,   0.00000,   0.00000,-14558513.26658,   0.00000
-345853601.59868,-94767588.21354,197039180.85973,  -0.00139,   0.00024,   0.00256,460752877.57944,   0.00000,274640135.82653,   0.00000,   0.00000,   0.00000,-13887258.24709,   0.00000
-345752348.16555,-94193818.75917,197545448.02535,  -0.00139,   0.00025,   0.00257,461434762.28214,   0.00000,274640135.82653,   0.00000,   0.00000,   0.00000,-13205373.54439,   0.00000
-345622968.77878,-93591923.35115,198046090.00024,  -0.00139,   0.00025,   0.00257,462097313.94462,   0.00000,274640135.82653,   0.00000,   0.00000,   0.00000,-12542821.88191,   0.00000
-345493589.39202,-92990027.94313,198541106.78440,  -0.00139,   0.00025,   0.00258,462753952.25285,   0.00000,274640135.82653,   0.00000,   0.00000,   0.00000,-11886183.57368,   0.00000
-345364210.00525,-92388132.53512,199041748.75929,  -0.00139,   0.00025,   0.00259,463419144.43244,   0.00000,274640135.82653,   0.00000,   0.00000,   0.00000,-11220991.39409,   0.00000
-345215142.45092,-91777799.34101,199536765.54346,  -0.00139,   0.00026,   0.00259,464067166.86982,   0.00000,274640135.82653,   0.00000,   0.00000,   0.00000,-10572968.95671,   0.00000
-345066074.89660,-91167466.14690,200031782.32762,  -0.00139,   0.00026,   0.00260,464716521.17189,   0.00000,274640135.82653,   0.00000,   0.00000,   0.00000,-9923614.65464,   0.00000
-344897319.17473,-90548695.16670,200526799.11178,  -0.00139,   0.00026,   0.00261,465356010.21003,   0.00000,274640135.82653,   0.00000,   0.00000,   0.00000,-9284125.61650,   0.00000
-344728563.45285,-89929924.18649,201016190.70522,  -0.00139,   0.00026,   0.00261,465989578.12931,   0.00000,274640135.82653,   0.00000,   0.00000,   0.00000,-8650557.69722,   0.00000
-344531681.77734,-89283027.25264,201511207.48938,  -0.00139,   0.00027,   0.00262,466618695.94099,   0.00000,274640135.82653,   0.00000,   0.00000,   0.00000,-8021439.88554,   0.00000
-344343237.88791,-88655818.48635,202000599.08281,  -0.00139,   0.00027,   0.00263,467243848.67526,   0.00000,274640135.82653,   0.00000,   0.00000,   0.00000,-7396287.15127,   0.00000
-344154793.99848,-88028609.72005,202484365.48552,  -0.00139,   0.00027,   0.00263,467863062.35417,   0.00000,274640135.82653,   0.00000,   0.00000,   0.00000,-6777073.47236,   0.00000
-343938224.15541,-87373275.00011,202973757.07895,  -0.00139,   0.00027,   0.00264,468477982.79693,   0.00000,274640135.82653,   0.00000,   0.00000,   0.00000,-6162153.02960,   0.00000
-343710403.93088,-86729190.66162,203457523.48166,  -0.00139,   0.00028,   0.00264,469077776.82609,   0.00000,274640135.82653,   0.00000,   0.00000,   0.00000,-5562359.00043,   0.00000
-343493834.08781,-86073855.94168,203941289.88436,  -0.00140,   0.00028,   0.00265,469688229.68005,   0.00000,274640135.82653,   0.00000,   0.00000,   0.00000,-4951906.14648,   0.00000
-343237887.90964,-85401645.64955,204425056.28706,  -0.00140,   0.00028,   0.00266,470278023.31543,   0.00000,274640135.82653,   0.00000,   0.00000,   0.00000,-4362112.51110,   0.00000
-343001629.89901,-84737873.14351,204903197.49904,  -0.00140,   0.00028,   0.00266,470872974.05124,   0.00000,274640135.82653,   0.00000,   0.00000,   0.00000,-3767161.77529,   0.00000
-342734433.33938,-84076913.23284,205381338.71102,  -0.00140,   0.00029,   0.00267,471449094.59414,   0.00000,274640135.82653,   0.00000,   0.00000,   0.00000,-3191041.23239,   0.00000
-342478487.16121,-83404702.94071,205859479.92299,  -0.00140,   0.00029,   0.00268,472035929.32963,   0.00000,274640135.82653,   0.00000,   0.00000,   0.00000,-2604206.49690,   0.00000
-342202852.81548,-82724054.86249,206331995.94424,  -0.00140,   0.00029,   0.00268,472605894.80934,   0.00000,274640135.82653,   0.00000,   0.00000,   0.00000,-2034241.01719,   0.00000
-341907530.30220,-82034968.99817,206810137.15621,  -0.00140,   0.00029,   0.00269,473173773.84954,   0.00000,274640135.82653,   0.00000,   0.00000,   0.00000,-1466361.97699,   0.00000
-341612207.78892,-81345883.13385,207282653.17746,  -0.00140,   0.00030,   0.00269,473735792.82783,   0.00000,274640135.82653,   0.00000,   0.00000,   0.00000,-904342.99870,   0.00000
-341316885.27564,-80656797.26953,207749544.00798,  -0.00140,   0.00030,   0.00270,474291922.13895,   0.00000,274640135.82653,   0.00000,   0.00000,   0.00000,-348213.68757,   0.00000
-341118834.37484,-80218255.98919,208046620.35918,  -0.00140,   0.00030,   0.00270,474640135.79681,   0.00000,274640135.82653,   0.00000,   0.00000,   0.00000,  -0.02972,   0.00000
-340865341.98240,-79939244.08272,208129130.71272,  -0.00140,   0.00030,   0.00271,474640135.79681,   0.00000,274641076.27538,  -0.00000,   0.00000,   0.00000,   0.21392,   1.00000
-340175108.78462,-79181790.48618,208353301.94223,  -0.00140,   0.00030,   0.00271,475178463.21780,   0.00000,274643531.16789,  -0.00000,   0.00000,   0.00000,   0.00000,   2.00000
-339477232.54921,-78405427.74475,208577297.84088,  -0.00140,   0.00031,   0.00272,475180859.23494,   0.00001,274645986.41018,  -0.00000,   0.00000,   0.00001,   0.00000,   2.00000
-338786526.71036,-77649220.87040,208799708.38614,  -0.00140,   0.00031,   0.00273,475186373.76346,   0.00001,274648456.23704,  -0.00001,   0.00000,   0.00001,  -0.00000,   2.00000
-338087895.79835,-76886869.57288,209023869.05081,  -0.00139,   0.00031,   0.00273,475172105.03531,   0.00001,274650850.15047,  -0.00001,   0.00000,   0.00001,   0.00000,   2.00000
-337389012.08970,-76125119.52663,209247149.54274,  -0.00139,   0.00031,   0.00274,475176006.84245,   0.00001,274653251.54768,  -0.00001,   0.00000,   0.00002,   0.00000,   2.00000
-336669765.17759,-75336956.86930,209475082.61435,  -0.00139,   0.00032,   0.00274,475167707.19261,   0.00001,274655604.60775,  -0.00001,   0.00000,   0.00002,   0.00000,   2.00000
-335962579.66458,-74569597.21150,209699207.25439,  -0.00139,   0.00032,   0.00275,475165630.62487,   0.00002,274657937.98145,  -0.00001,   0.00000,   0.00002,   0.00000,   2.00000
-335242753.90854,-73782639.93081,209925320.12080,  -0.00139,   0.00032,   0.00276,475175543.42805,   0.00002,274660306.62543,  -0.00001,   0.00000,   0.00003,   0.00000,   2.00000
-334509569.79706,-73001421.22423,210157367.75905,  -0.00139,   0.00032,   0.00276,475152043.32569,   0.00002,274662557.45373,  -0.00001,   0.00000,   0.00003,   0.00000,   2.00000
-333786124.27572,-72209386.00861,210382044.99137,  -0.00139,   0.00033,   0.00277,475157722.61624,   0.00002,274664824.54343,  -0.00002,   0.00000,   0.00003,   0.00000,   2.00000
-333057140.78472,-71429938.83008,210610043.20949,  -0.00139,   0.00033,   0.00277,475152280.84984,   0.00002,274667056.89135,  -0.00002,   0.00001,   0.00003,  -0.00000,   2.00000
-332302609.89620,-70623316.57348,210844774.90140,  -0.00139,   0.00033,   0.00278,475151659.51090,   0.00003,274669276.73955,  -0.00002,   0.00001,   0.00004,   0.00000,   2.00000
-331557379.21904,-69818456.59452,211074145.09219,  -0.00139,   0.00033,   0.00278,475140563.71875,   0.00003,274671436.13813,  -0.00002,   0.00001,   0.00004,  -0.00000,   2.00000
-330814575.60973,-69033159.24646,211304190.68005,  -0.00139,   0.00034,   0.00279,475153162.48624,   0.00003,274673643.91667,  -0.00002,   0.00001,   0.00004,   0.00000,   2.00000
-330055724.36035,-68221790.51504,211536511.61368,  -0.00139,   0.00034,   0.00280,475137673.33058,   0.00003,274675771.12411,  -0.00002,   0.00001,   0.00005,   0.99362,   1.00000
-329296488.24887,-67410985.85191,211767875.07465,  -0.00139,   0.00034,   0.00280,475141499.86402,   0.00003,274677906.66192,  -0.00002,   0.00001,   0.00005,   0.99445,   1.00000
-328528711.44270,-66593627.71403,212000916.55874,  -0.00139,   0.00035,   0.00281,475127284.78117,   0.00004,274679967.75001,  -0.00002,   0.00001,   0.00005,   0.91979,   1.00000
-327742724.52854,-65768596.42905,212239959.94591,  -0.00139,   0.00035,   0.00281,475128128.87268,   0.00004,274682023.78686,  -0.00003,   0.00001,   0.00005,   0.90870,   1.00000
-326981833.29115,-64971937.11567,212470526.29642,  -0.00139,   0.00035,   0.00282,475136024.16742,   0.00004,274684107.12696,  -0.00003,   0.00001,   0.00006,   0.92646,   1.00000
-326191516.25952,-64141303.18490,212708091.06645,  -0.00139,   0.00035,   0.00282,475110209.75446,   0.00004,274686062.95011,  -0.00003,   0.00001,   0.00006,   0.81056,   1.00000
-325395954.56054,-63310691.70371,212946808.13930,  -0.00139,   0.00036,   0.00283,475121529.44661,   0.00004,274688062.26774,  -0.00003,   0.00001,   0.00006,   0.84075,   1.00000
-324604715.75728,-62481115.19140,213182382.04462,  -0.00139,   0.00036,   0.00284,475117755.95828,   0.00005,274690035.58254,  -0.00003,   0.00001,   0.00006,   0.81298,   1.00000
-323817794.71018,-61652557.04304,213414832.60878,  -0.00138,   0.00036,   0.00284,475113928.90084,   0.00005,274691982.75023,  -0.00003,   0.00001,   0.00007,   0.78572,   1.00000
-322999290.13806,-60808477.33840,213657952.13870,  -0.00138,   0.00036,   0.00285,475104548.37213,   0.00005,274693878.37422,  -0.00003,   0.00001,   0.00007,   0.73898,   1.00000
-322198252.00422,-59973184.88402,213893164.85218,  -0.00138,   0.00037,   0.00285,475111040.27368,   0.00005,274695795.60195,  -0.00003,   0.00001,   0.00007,   0.75019,   1.00000
-321383494.43164,-59130594.56063,214132125.93140,  -0.00138,   0.00037,   0.00286,475104470.22484,   0.00005,274697674.30181,  -0.00003,   0.00001,   0.00007,   0.71479,   1.00000
-320559696.18292,-58281118.59656,214372702.51847,  -0.00138,   0.00037,   0.00286,475090311.38666,   0.00005,274699479.73915,  -0.00004,   0.00001,   0.00008,   0.65497,   1.00000
-319735365.15246,-57432142.53108,214612248.63378,  -0.00138,   0.00037,   0.00287,475094004.45375,   0.00006,274701294.31987,  -0.00004,   0.00001,   0.00008,   0.65642,   1.00000
-318897161.89294,-56575794.75368,214855491.10495,  -0.00138,   0.00038,   0.00287,475087479.54108,   0.00006,274703071.00099,  -0.00004,   0.00001,   0.00008,   0.62426,   1.00000
-318058404.05131,-55719944.09010,215097681.54290,  -0.00138,   0.00038,   0.00288,475091188.60021,   0.00006,274704857.02932,  -0.00004,   0.00001,   0.00008,   0.62577,   1.00000
-317210398.15759,-54857076.91975,215341456.04885,  -0.00138,   0.00038,   0.00289,475077074.44728,   0.00006,274706570.32894,  -0.00004,   0.00001,   0.00009,   0.57115,   1.00000
-316361809.36728,-53994693.35099,215584168.89017,  -0.00138,   0.00038,   0.00289,475080749.15896,   0.00006,274708293.09787,  -0.00004,   0.00001,   0.00009,   0.57274,   1.00000
-315517341.78896,-53133168.17495,215823758.78705,  -0.00137,   0.00039,   0.00290,475076757.71526,   0.00006,274709989.98777,  -0.00004,   0.00001,   0.00009,   0.55109,   1.00000
-314646141.27193,-52244167.64455,216069402.13530,  -0.00137,   0.00039,   0.00290,475077206.26028,   0.00007,274711681.56963,  -0.00004,   0.00001,   0.00009,   0.54298,   1.00000
-313778112.57678,-51368016.36445,216314177.84113,  -0.00137,   0.00039,   0.00291,475056246.84444,   0.00007,274713269.21712,  -0.00004,   0.00001,   0.00009,   0.47424,   1.00000
-312904770.66355,-50491988.23245,216559911.90944,  -0.00137,   0.00040,   0.00291,475067554.55671,   0.00007,274714902.07065,  -0.00005,   0.00001,   0.00010,   0.49733,   1.00000
-312035467.86178,-49616756.37370,216802518.91427,  -0.00137,   0.00040,   0.00292,475063515.24699,   0.00007,274716509.18958,  -0.00005,   0.00002,   0.00010,   0.47764,   1.00000
-311151899.17799,-48733961.80286,217048702.07132,  -0.00137,   0.00040,   0.00292,475057143.26559,   0.00007,274718079.92616,  -0.00005,   0.00002,   0.00010,   0.45227,   1.00000
-310253999.43578,-47843580.05106,217298429.70201,  -0.00137,   0.00040,   0.00293,475050812.22598,   0.00007,274719614.62155,  -0.00005,   0.00002,   0.00010,   0.42791,   1.00000
-309360053.29585,-46953938.52228,217545017.39300,  -0.00136,   0.00041,   0.00293,475046731.14747,   0.00007,274721123.80055,  -0.00005,   0.00002,   0.00011,   0.41011,   1.00000
-308457340.97383,-46045090.52276,217790763.70988,  -0.00136,   0.00041,   0.00294,475049752.02361,   0.00008,274722640.34565,  -0.00005,   0.00002,   0.00011,   0.41034,   1.00000
-307548246.99518,-45148264.33552,218039731.82139,  -0.00136,   0.00041,   0.00294,475044089.28111,   0.00008,274724124.13921,  -0.00005,   0.00002,   0.00011,   0.38922,   1.00000
-306643060.79196,-44252135.63936,218285570.61247,  -0.00136,   0.00041,   0.00295,475039960.59294,   0.00008,274725582.39540,  -0.00005,   0.00002,   0.00011,   0.37249,   1.00000
-305723324.95225,-43348316.14089,218534889.23090,  -0.00136,   0.00042,   0.00295,475033712.99728,   0.00008,274727005.43604,  -0.00005,   0.00002,   0.00011,   0.35141,   1.00000
-304793570.18711,-42437006.88370,218785679.56533,  -0.00136,   0.00042,   0.00296,475019733.37902,   0.00008,274728357.68962,  -0.00005,   0.00002,   0.00011,   0.31431,   1.00000
-303863037.85908,-41526114.58987,219035305.54039,  -0.00136,   0.00042,   0.00296,475023303.14358,   0.00008,274729720.53517,  -0.00005,   0.00002,   0.00012,   0.31621,   1.00000
-302931737.64313,-40615646.02938,219283767.24380,  -0.00135,   0.00042,   0.00297,475026880.69442,   0.00008,274731093.96225,  -0.00005,   0.00002,   0.00012,   0.31806,   1.00000
-301977497.25219,-39677739.64349,219535824.06524,  -0.00135,   0.00043,   0.00297,475020345.31655,   0.00008,274732431.18237,  -0.00006,   0.00002,   0.00012,   0.29853,   1.00000
-301035215.46859,-38760109.93737,219784545.97083,  -0.00135,   0.00043,   0.00298,475016561.81813,   0.00009,274733745.06123,  -0.00006,   0.00002,   0.00012,   0.28537,   1.00000
-300078093.89231,-37834664.99552,220036643.93462,  -0.00135,   0.00043,   0.00298,475010456.55884,   0.00009,274735024.95807,  -0.00006,   0.00002,   0.00012,   0.26810,   1.00000
-299124693.21129,-36909781.81907,220285608.91872,  -0.00135,   0.00043,   0.00299,475006207.73857,   0.00009,274736279.59897,  -0.00006,   0.00002,   0.00013,   0.25505,   1.00000
-298156352.43267,-35977038.76283,220537917.82012,  -0.00134,   0.00044,   0.00299,475000136.05358,   0.00009,274737500.65433,  -0.00006,   0.00002,   0.00013,   0.23911,   1.00000
-297173002.07444,-35036413.22479,220793534.97571,  -0.00134,   0.00044,   0.00300,474994116.05434,   0.00009,274738688.50374,  -0.00006,   0.00002,   0.00013,   0.22394,   1.00000
-296188763.32877,-34096183.30385,221047909.10550,  -0.00134,   0.00044,   0.00300,474997699.18559,   0.00009,274739887.74528,  -0.00006,   0.00002,   0.00013,   0.22587,   1.00000
-295208151.71391,-33156453.80356,221299140.13215,  -0.00134,   0.00045,   0.00301,474993424.37336,   0.00009,274741061.93660,  -0.00006,   0.00002,   0.00013,   0.21426,   1.00000
-294216899.33121,-32208873.26038,221551743.18626,  -0.00134,   0.00045,   0.00301,474979604.57018,   0.00009,274742166.96592,  -0.00006,   0.00002,   0.00013,   0.18774,   1.00000
-293220244.86933,-31261601.40562,221804985.48837,  -0.00133,   0.00045,   0.00302,474991007.57741,   0.00009,274743319.98987,  -0.00006,   0.00002,   0.00013,   0.20221,   1.00000
-292212834.91558,-30306421.87841,222059567.75920,  -0.00133,   0.00045,   0.00302,474977263.36406,   0.00009,274744404.25930,  -0.00006,   0.00002,   0.00014,   0.17686,   1.00000
-291208948.29113,-29351668.86955,222311007.35301,  -0.00133,   0.00046,   0.00303,474972914.49946,   0.00010,274745463.61240,  -0.00006,   0.00002,   0.00014,   0.16697,   1.00000
-290185266.23792,-28388863.77852,222567502.49717,  -0.00133,   0.00046,   0.00303,474974963.75019,   0.00010,274746527.82271,  -0.00006,   0.00002,   0.00014,   0.16662,   1.00000
-289169506.32943,-27426478.95564,222818987.92109,  -0.00133,   0.00046,   0.00304,474962713.10815,   0.00010,274747530.54062,  -0.00006,   0.00002,   0.00014,   0.14627,   1.00000
-288133868.36367,-26456026.78803,223075476.75002,  -0.00132,   0.00046,   0.00304,474964824.61975,   0.00010,274748538.65455,  -0.00006,   0.00002,   0.00014,   0.14615,   1.00000
-287087144.28595,-25477494.10052,223333232.23960,  -0.00132,   0.00047,   0.00305,474951181.95425,   0.00010,274749479.03441,  -0.00006,   0.00002,   0.00014,   0.12569,   1.00000
-286039377.90825,-24499319.21675,223589654.09571,  -0.00132,   0.00047,   0.00305,474954732.89008,   0.00010,274750431.76720,  -0.00007,   0.00002,   0.00014,   0.12751,   1.00000
-284994981.91690,-23521473.48872,223842918.37631,  -0.00132,   0.00047,   0.00306,474950336.93353,   0.00010,274751359.90267,  -0.00007,   0.00002,   0.00015,   0.11958,   1.00000
-283943433.91196,-22555175.35696,224099300.98615,  -0.00131,   0.00047,   0.00306,474944561.98399,   0.00010,274752257.13665,  -0.00007,   0.00002,   0.00015,   0.11043,   1.00000
-282882342.11644,-21569546.87249,224354294.98753,  -0.00131,   0.00048,   0.00306,474948187.16472,   0.00010,274753167.26417,  -0.00007,   0.00002,   0.00015,   0.11226,   1.00000
-281809875.34829,-20575680.46607,224610504.35505,  -0.00131,   0.00048,   0.00307,474934640.01252,   0.00010,274754010.44397,  -0.00007,   0.00002,   0.00015,   0.09517,   1.00000
-280736312.35538,-19582162.73725,224865344.29693,  -0.00131,   0.00048,   0.00307,474938176.84476,   0.00010,274754866.34993,  -0.00007,   0.00002,   0.00015,   0.09685,   1.00000
-279659802.14989,-18600018.05453,225121480.86977,  -0.00130,   0.00048,   0.00308,474924442.15460,   0.00011,274755654.63824,  -0.00007,   0.00002,   0.00015,   0.08114,   1.00000
-278569286.87442,-17598649.03672,225377913.55456,  -0.00130,   0.00049,   0.00308,474936172.72913,   0.00011,274756493.99866,  -0.00007,   0.00002,   0.00015,   0.09083,   1.00000
-277480055.67976,-16608463.53426,225633863.61612,  -0.00130,   0.00049,   0.00309,474914451.16366,   0.00011,274757228.63434,  -0.00007,   0.00002,   0.00015,   0.06869,   1.00000
-276361905.03073,-15590473.29914,225894356.36796,  -0.00130,   0.00049,   0.00309,474917290.87445,   0.00011,274757973.24445,  -0.00007,   0.00002,   0.00015,   0.06965,   1.00000
-275266068.33819,-14581116.89293,226145595.31744,  -0.00129,   0.00050,   0.00310,474913749.20065,   0.00011,274758698.08957,  -0.00007,   0.00002,   0.00016,   0.06514,   1.00000
-274143538.46705,-13574684.39015,226405931.67771,  -0.00129,   0.00050,   0.00310,474907128.18164,   0.00011,274759388.92071,  -0.00007,   0.00003,   0.00016,   0.05838,   1.00000
-273030422.12471,-12557363.18447,226658623.52744,  -0.00129,   0.00050,   0.00310,474911873.29514,   0.00011,274760098.79204,  -0.00007,   0.00003,   0.00016,   0.06082,   1.00000
-271894756.20926,-11542732.34111,226918614.98002,  -0.00129,   0.00050,   0.00311,474897328.06195,   0.00011,274760737.79884,  -0.00007,   0.00003,   0.00016,   0.04861,   1.00000
-270762108.35400,-10528202.35189,227175422.75265,  -0.00128,   0.00051,   0.00311,474892792.22629,   0.00011,274761352.85578,  -0.00007,   0.00003,   0.00016,   0.04442,   1.00000
-269619542.72619,-9494321.57234,227430543.20474,  -0.00128,   0.00051,   0.00312,474896777.45913,   0.00011,274761983.76093,  -0.00007,   0.00003,   0.00016,   0.04609,   1.00000
-268469311.13200,-8471736.67947,227688656.24413,  -0.00128,   0.00051,   0.00312,474891105.57305,   0.00011,274762585.44577,  -0.00007,   0.00003,   0.00016,   0.04133,   1.00000
-267322039.29128,-7449212.49295,227943586.89877,  -0.00127,   0.00051,   0.00312,474886551.75236,   0.00011,274763163.24252,  -0.00007,   0.00003,   0.00016,   0.03758,   1.00000
-266149579.17919,-6398610.88054,228200959.72960,  -0.00127,   0.00052,   0.00313,474881983.73691,   0.00011,274763717.18729,  -0.00007,   0.00003,   0.00016,   0.03403,   1.00000
-264988741.07037,-5367703.65433,228455410.72675,  -0.00127,   0.00052,   0.00313,474876864.07303,   0.00011,274764244.80459,  -0.00007,   0.00003,   0.00016,   0.03043,   1.00000
-263811342.44132,-4328348.46954,228712536.36309,  -0.00126,   0.00052,   0.00314,474871786.10880,   0.00011,274764746.39978,  -0.00007,   0.00003,   0.00016,   0.02709,   1.00000
-262632626.77527,-3289309.69729,228968133.28481,  -0.00126,   0.00052,   0.00314,474875334.73626,   0.00011,274765262.32662,  -0.00007,   0.00003,   0.00016,   0.02824,   1.00000
-261441395.26059,-2241463.64965,229224684.59283,  -0.00126,   0.00053,   0.00314,474862236.30085,   0.00011,274765714.84348,  -0.00007,   0.00003,   0.00016,   0.02139,   1.00000
-260237547.90959,-1184765.49562,229482162.89380,  -0.00126,   0.00053,   0.00315,474849154.72613,   0.00011,274766104.29587,  -0.00007,   0.00003,   0.00017,   0.01560,   1.00000
-259043617.30241,-137557.18421,229735594.40113,  -0.00125,   0.00053,   0.00315,474869302.75025,   0.00012,274766586.08068,  -0.00007,   0.00003,   0.00017,   0.02351,   1.00000
-257821529.32253,927374.08223,229994038.90462,  -0.00125,   0.00053,   0.00316,474847897.78375,   0.00012,274766965.77411,  -0.00007,   0.00003,   0.00017,   0.01437,   1.00000
-256626460.50672,1963906.41560,230245561.92267,  -0.00125,   0.00054,   0.00316,474850859.46540,   0.00012,274767357.61188,  -0.00007,   0.00003,   0.00017,   0.01507,   1.00000
-255390104.65265,3037497.01357,230503276.11021,  -0.00124,   0.00054,   0.00316,474838515.06457,   0.00012,274767690.03931,  -0.00007,   0.00003,   0.00017,   0.01067,   1.00000
-254167873.65465,4101906.44838,230755296.15549,  -0.00124,   0.00054,   0.00317,474850419.52724,   0.00012,274768076.61478,  -0.00007,   0.00003,   0.00017,   0.01419,   1.00000
-252917060.49034,5184215.62856,231012197.41396,  -0.00124,   0.00054,   0.00317,474829284.55713,   0.00012,274768362.68996,  -0.00007,   0.00003,   0.00017,   0.00764,   1.00000
-251673658.76757,6246589.40505,231267902.44162,  -0.00123,   0.00055,   0.00318,474831955.85357,   0.00012,274768659.97933,  -0.00007,   0.00003,   0.00017,   0.00812,   1.00000
-250423908.91434,7328765.09625,231519907.16156,  -0.00123,   0.00055,   0.00318,474828275.05928,   0.00012,274768938.73370,  -0.00007,   0.00003,   0.00017,   0.00701,   1.00000
-249165884.67694,8399932.67565,231774754.44153,  -0.00123,   0.00055,   0.00318,474822713.51649,   0.00012,274769190.23471,  -0.00007,   0.00003,   0.00017,   0.00561,   1.00000
-247910363.77461,9471306.83706,232026371.89637,  -0.00122,   0.00055,   0.00319,474818045.33386,   0.00012,274769418.77643,  -0.00008,   0.00003,   0.00017,   0.00455,   1.00000
-246628604.76364,10570950.31786,232279780.50585,  -0.00122,   0.00056,   0.00319,474814590.59322,   0.00012,274769630.13456,  -0.00008,   0.00003,   0.00017,   0.00383,   1.00000
-245354270.77540,11650667.29857,232532016.16928,  -0.00121,   0.00056,   0.00319,474817144.15528,   0.00012,274769852.49973,  -0.00008,   0.00003,   0.00017,   0.00416,   1.00000
-244066493.23580,12739606.31494,232784954.45245,  -0.00121,   0.00056,   0.00320,474804486.62590,   0.00012,274770014.62203,  -0.00008,   0.00003,   0.00017,   0.00217,   1.00000
-242777167.89874,13828240.54941,233036178.52724,  -0.00121,   0.00056,   0.00320,474808093.35304,   0.00012,274770192.90656,  -0.00008,   0.00003,   0.00017,   0.00258,   1.00000
-241481214.82747,14936751.31735,233283561.84079,  -0.00120,   0.00057,   0.00320,474804625.01025,   0.00012,274770354.15195,  -0.00008,   0.00003,   0.00017,   0.00207,   1.00000
-240160730.47145,16043375.27181,233537596.72285,  -0.00120,   0.00057,   0.00321,474791296.06883,   0.00012,274770452.24375,  -0.00008,   0.00003,   0.00017,   0.00075,   1.00000
-238854662.21290,17140661.66775,233785975.75590,  -0.00120,   0.00057,   0.00321,474802811.16841,   0.00012,274770603.84437,  -0.00008,   0.00003,   0.00017,   0.00176,   1.00000
-237543872.58152,18227711.29904,234035600.13143,  -0.00119,   0.00057,   0.00321,474789055.82452,   0.00012,274770690.30912,  -0.00008,   0.00003,   0.00017,   0.00056,   1.00000
-236210192.51938,19343741.77326,234285165.31850,  -0.00119,   0.00058,   0.00322,474777892.42750,   0.00012,274770724.06480,  -0.00008,   0.00003,   0.00017,   0.00008,   1.00000
-234874865.21462,20459464.38381,234532927.83057,  -0.00118,   0.00058,   0.00322,474781555.22879,   0.00012,274770774.83995,  -0.00008,   0.00003,   0.00017,   0.00019,   1.00000
-233521722.51352,21583939.47577,234782693.00537,  -0.00118,   0.00058,   0.00322,474777561.60302,   0.00012,274770806.66199,  -0.00008,   0.00003,   0.00017,   0.00007,   1.00000
-232179789.95040,22689228.76812,235029846.12621,  -0.00118,   0.00058,   0.00323,474771521.85793,   0.00012,274770810.01610,  -0.00008,   0.00003,   0.00017,   0.00000,   1.00000
-230810056.00786,23822704.70004,235277354.51829,  -0.00117,   0.00059,   0.00323,474769021.38516,   0.00012,274770810.01610,  -0.00008,   0.00003,   0.00017,-1788.63094,   0.00000
-229448759.85141,24936492.46440,235519237.71964,  -0.00117,   0.00059,   0.00323,474761143.45311,   0.00012,274770810.01610,  -0.00008,   0.00003,   0.00017,-9666.56300,   0.00000
-228087463.69496,26050280.22877,235761120.92099,  -0.00116,   0.00059,   0.00324,474756957.77365,   0.00012,274770810.01610,  -0.00008,   0.00003,   0.00017,-13852.24245,   0.00000
-226698041.58487,27192193.94678,236003004.12234,  -0.00116,   0.00059,   0.00324,474750553.92122,   0.00012,274770810.01610,  -0.00008,   0.00003,   0.00017,-20256.09489,   0.00000
-225297369.09332,28322857.28334,236239262.13297,  -0.00116,   0.00060,   0.00324,474730577.18625,   0.00012,274770810.01610,  -0.00008,   0.00003,   0.00017,-40232.82985,   0.00000
-223896696.60177,29453520.61989,236469894.95286,  -0.00115,   0.00060,   0.00325,474706035.61913,   0.00012,274770810.01610,  -0.00008,   0.00003,   0.00017,-64774.39698,   0.00000
-222496024.11022,30584183.95644,236700527.77276,  -0.00115,   0.00060,   0.00325,474685318.84587,   0.00012,274770810.01610,  -0.00008,   0.00003,   0.00017,-85491.17024,   0.00000
-221075663.45111,31723285.07909,236931160.59265,  -0.00114,   0.00060,   0.00325,474661128.23951,   0.00012,274770810.01610,  -0.00008,   0.00003,   0.00017,-109681.77659,   0.00000
-219655302.79201,32862386.20174,237156168.22181,  -0.00114,   0.00061,   0.00325,474632415.91793,   0.00012,274770810.01610,  -0.00008,   0.00003,   0.00017,-138394.09817,   0.00000
-218215253.96535,34009925.11048,237375550.66025,  -0.00113,   0.00061,   0.00326,474591943.32424,   0.00012,274770810.01610,  -0.00008,   0.00003,   0.00017,-178866.69186,   0.00000
-216755516.97115,35165901.80531,237600558.28942,  -0.00113,   0.00061,   0.00326,474556713.06083,   0.00012,274770810.01610,  -0.00008,   0.00003,   0.00017,-214096.95527,   0.00000
-215323905.93058,36293752.54650,237814315.53712,  -0.00113,   0.00061,   0.00326,474513940.28150,   0.00012,274770810.01610,  -0.00008,   0.00003,   0.00017,-256869.73461,   0.00000
-213844480.76882,37458167.02743,238033697.97556,  -0.00112,   0.00062,   0.00327,474471203.15846,   0.00012,274770810.01610,  -0.00008,   0.00003,   0.00017,-299606.85765,   0.00000
-212393181.56071,38594455.55472,238241830.03254,  -0.00112,   0.00062,   0.00327,474420808.47141,   0.00012,274770810.01610,  -0.00008,   0.00003,   0.00017,-350001.54469,   0.00000
-210894068.23140,39767307.82174,238455587.28024,  -0.00111,   0.00062,   0.00327,474370780.54114,   0.00012,274770810.01610,  -0.00008,   0.00003,   0.00017,-400029.47496,   0.00000
-209423080.85573,40912034.13511,238658094.14649,  -0.00111,   0.00062,   0.00327,474312980.28805,   0.00012,274770810.01610,  -0.00008,   0.00003,   0.00017,-457829.72805,   0.00000
-207932405.31252,42065198.23458,238866226.20347,  -0.00110,   0.00062,   0.00328,474260799.55283,   0.00012,274770810.01610,  -0.00008,   0.00003,   0.00017,-510010.46328,   0.00000
-206422041.60175,43226800.12015,239068733.06972,  -0.00110,   0.00063,   0.00328,474197382.14698,   0.00012,274770810.01610,  -0.00008,   0.00003,   0.00017,-573427.86912,   0.00000
-204911677.89098,44388402.00571,239265614.74524,  -0.00109,   0.00063,   0.00328,474129656.42412,   0.00012,274770810.01610,  -0.00008,   0.00003,   0.00017,-641153.59198,   0.00000
-203401314.18021,45550003.89128,239462496.42076,  -0.00109,   0.00063,   0.00328,474066123.75629,   0.00012,274770810.01610,  -0.00008,   0.00003,   0.00017,-704686.25982,   0.00000
-201871262.30189,46720043.56293,239653752.90555,  -0.00109,   0.00063,   0.00329,473991526.32496,   0.00012,274770810.01610,  -0.00008,   0.00003,   0.00017,-779283.69114,   0.00000
-200321522.25601,47898521.02068,239845009.39034,  -0.00108,   0.00064,   0.00329,473914518.48193,   0.00012,274770810.01610,  -0.00008,   0.00003,   0.00017,-856291.53417,   0.00000
-198780219.99623,49057310.31088,240036265.87513,  -0.00108,   0.00064,   0.00329,473839683.11923,   0.00012,274770810.01610,  -0.00008,   0.00003,   0.00017,-931126.89687,   0.00000
-197230479.95036,50235787.76864,240221897.16919,  -0.00107,   0.00064,   0.00329,473762814.88226,   0.00012,274770810.01610,  -0.00008,   0.00003,   0.00017,-1007995.13384,   0.00000
-195669489.52303,51403014.84493,240401903.27252,  -0.00107,   0.00064,   0.00330,473672931.49509,   0.00012,274770810.01610,  -0.00008,   0.00003,   0.00017,-1097878.52102,   0.00000
-194108499.09570,52570241.92122,240581909.37585,  -0.00106,   0.00065,   0.00330,473587411.01306,   0.00012,274770810.01610,  -0.00008,   0.00003,   0.00017,-1183399.00304,   0.00000
-192539070.88227,53757157.16507,240756290.28845,  -0.00106,   0.00065,   0.00330,473500002.95342,   0.00012,274770810.01610,  -0.00008,   0.00003,   0.00017,-1270807.06269,   0.00000
-190938704.11983,54941259.81355,240930671.20106,  -0.00105,   0.00065,   0.00330,473401846.94247,   0.00012,274770810.01610,  -0.00008,   0.00003,   0.00017,-1368963.07363,   0.00000
-189358025.52495,56116924.67593,241105052.11366,  -0.00105,   0.00065,   0.00331,473314588.39249,   0.00012,274770810.01610,  -0.00008,   0.00003,   0.00017,-1456221.62361,   0.00000
-187757658.76252,57301027.32441,241273807.83553,  -0.00104,   0.00065,   0.00331,473216867.76140,   0.00012,274770810.01610,  -0.00008,   0.00003,   0.00017,-1553942.25471,   0.00000
-186157292.00008,58485129.97289,241436938.36668,  -0.00104,   0.00066,   0.00331,473115067.22403,   0.00012,274770810.01610,  -0.00008,   0.00003,   0.00017,-1655742.79207,   0.00000
-184545674.85619,59657982.23992,241600068.89782,  -0.00103,   0.00066,   0.00331,473009073.29605,   0.00012,274770810.01610,  -0.00008,   0.00003,   0.00017,-1761736.72006,   0.00000
-182925619.92620,60850522.67449,241763199.42897,  -0.00103,   0.00066,   0.00331,472910162.62351,   0.00012,274770810.01610,  -0.00008,   0.00003,   0.00017,-1860647.39259,   0.00000
-181285876.82866,62051500.89516,241920704.76938,  -0.00102,   0.00066,   0.00332,472801121.86577,   0.00012,274770810.01610,  -0.00008,   0.00003,   0.00017,-1969688.15033,   0.00000
-179654571.51721,63232790.94827,242072584.91907,  -0.00102,   0.00067,   0.00332,472685540.28021,   0.00012,274770810.01610,  -0.00008,   0.00003,   0.00017,-2085269.73590,   0.00000
-178003578.03822,64422518.78748,242224465.06875,  -0.00101,   0.00067,   0.00332,472568564.34307,   0.00012,274770810.01610,  -0.00008,   0.00003,   0.00017,-2202245.67303,   0.00000
-176352584.55922,65612246.62669,242376345.21844,  -0.00101,   0.00067,   0.00332,472456313.77284,   0.00012,274770810.01610,  -0.00008,   0.00003,   0.00017,-2314496.24326,   0.00000
-174693153.29413,66821662.63346,242522600.17740,  -0.00100,   0.00067,   0.00332,472342835.39518,   0.00012,274770810.01610,  -0.00008,   0.00003,   0.00017,-2427974.62092,   0.00000
-173022471.64758,68019828.25876,242663229.94563,  -0.00100,   0.00067,   0.00333,472216858.06491,   0.00012,274770810.01610,  -0.00008,   0.00003,   0.00017,-2553951.95120,   0.00000
-171360227.78712,69198305.71651,242803859.71385,  -0.00099,   0.00068,   0.00333,472092907.68575,   0.00012,274770810.01610,  -0.00008,   0.00003,   0.00017,-2677902.33035,   0.00000
-169669857.97302,70404909.12791,242938864.29135,  -0.00099,   0.00068,   0.00333,471962051.66914,   0.00012,274770810.01610,  -0.00008,   0.00003,   0.00017,-2808758.34696,   0.00000
-167979488.15892,71611512.53930,243073868.86885,  -0.00098,   0.00068,   0.00333,471836093.97073,   0.00012,274770810.01610,  -0.00008,   0.00003,   0.00017,-2934716.04538,   0.00000
-166297556.13091,72798427.78315,243208873.44635,  -0.00097,   0.00068,   0.00333,471712155.09297,   0.00012,274770810.01610,  -0.00008,   0.00003,   0.00017,-3058654.92314,   0.00000
-164587498.14926,74013468.98064,243332627.64239,  -0.00097,   0.00069,   0.00333,471572934.81762,   0.00012,274770810.01610,  -0.00008,   0.00003,   0.00017,-3197875.19848,   0.00000
-162885877.95370,75208822.01058,243462007.02916,  -0.00096,   0.00069,   0.00334,471444458.81570,   0.00012,274770810.01610,  -0.00008,   0.00003,   0.00017,-3326351.20041,   0.00000
-161164569.59059,76412612.82661,243585761.22520,  -0.00096,   0.00069,   0.00334,471306674.00620,   0.00012,274770810.01610,  -0.00008,   0.00003,   0.00017,-3464136.00990,   0.00000
-159443261.22747,77616403.64264,243703890.23051,  -0.00095,   0.00069,   0.00334,471165183.90821,   0.00012,274770810.01610,  -0.00008,   0.00003,   0.00017,-3605626.10789,   0.00000
-157721952.86436,78820194.45867,243822019.23583,  -0.00095,   0.00069,   0.00334,471028707.89128,   0.00012,274770810.01610,  -0.00008,   0.00003,   0.00017,-3742102.12482,   0.00000
-155980956.33370,80032423.06080,243934523.05041,  -0.00094,   0.00070,   0.00334,470883144.71212,   0.00012,274770810.01610,  -0.00008,   0.00003,   0.00017,-3887665.30398,   0.00000
-154239959.80303,81244651.66293,244047026.86499,  -0.00094,   0.00070,   0.00334,470742694.46854,   0.00012,274770810.01610,  -0.00008,   0.00003,   0.00017,-4028115.54757,   0.00000
-152487712.89091,82445629.88359,244153905.48884,  -0.00093,   0.00070,   0.00335,470590181.26685,   0.00012,274770810.01610,  -0.00008,   0.00003,   0.00017,-4180628.74925,   0.00000
-150727028.19270,83666296.27181,244255158.92197,  -0.00092,   0.00070,   0.00335,470437250.15838,   0.00012,274770810.01610,  -0.00008,   0.00003,   0.00017,-4333559.85773,   0.00000
-148974781.28058,84867274.49248,244362037.54582,  -0.00092,   0.00070,   0.00335,470295055.86750,   0.00012,274770810.01610,  -0.00008,   0.00003,   0.00017,-4475754.14861,   0.00000
-147202846.20090,86076690.49924,244457665.78822,  -0.00091,   0.00071,   0.00335,470135362.95184,   0.00012,274770810.01610,  -0.00008,   0.00003,   0.00017,-4635447.06426,   0.00000
-145430911.12123,87286106.50601,244553294.03061,  -0.00091,   0.00071,   0.00335,469980907.22878,   0.00012,274770810.01610,  -0.00008,   0.00003,   0.00017,-4789902.78732,   0.00000
-143658976.04155,88495522.51277,244648922.27301,  -0.00090,   0.00071,   0.00335,469831693.86344,   0.00012,274770810.01610,  -0.00008,   0.00003,   0.00017,-4939116.15266,   0.00000
-141867352.79433,89713376.30562,244738925.32467,  -0.00090,   0.00071,   0.00335,469673992.88333,   0.00012,274770810.01610,  -0.00008,   0.00003,   0.00017,-5096817.13277,   0.00000
-140075729.54710,90931230.09848,244823303.18561,  -0.00089,   0.00071,   0.00335,469512839.39651,   0.00012,274770810.01610,  -0.00008,   0.00003,   0.00017,-5257970.61959,   0.00000
-138272855.91842,92137833.50987,244907681.04655,  -0.00088,   0.00072,   0.00336,469348741.48342,   0.00012,274770810.01610,  -0.00008,   0.00003,   0.00017,-5422068.53269,   0.00000
-136461544.50364,93364125.08882,244986433.71675,  -0.00088,   0.00072,   0.00336,469184701.16633,   0.00012,274770810.01610,  -0.00008,   0.00003,   0.00017,-5586108.84978,   0.00000
-134658670.87496,94570728.50022,245065186.38696,  -0.00087,   0.00072,   0.00336,469022585.45940,   0.00012,274770810.01610,  -0.00008,   0.00003,   0.00017,-5748224.55671,   0.00000
-132836109.07872,95785769.69771,245138313.86644,  -0.00087,   0.00072,   0.00336,468852357.65575,   0.00012,274770810.01610,  -0.00008,   0.00003,   0.00017,-5918452.36035,   0.00000
-131005109.49639,97020499.06275,245211441.34592,  -0.00086,   0.00072,   0.00336,468691209.60019,   0.00012,274770810.01610,  -0.00008,   0.00003,   0.00017,-6079600.41592,   0.00000
-129190985.48625,98215852.09269,245278943.63467,  -0.00086,   0.00073,   0.00336,468519527.47676,   0.00012,274770810.01610,  -0.00008,   0.00003,   0.00017,-6251282.53934,   0.00000
-127368423.69001,99430893.29018,245346445.92342,  -0.00085,   0.00073,   0.00336,468356925.45321,   0.00012,274770810.01610,  -0.00008,   0.00003,   0.00017,-6413884.56290,   0.00000
-125526173.72623,100654372.27377,245408323.02144,  -0.00084,   0.00073,   0.00336,468186518.59392,   0.00012,274770810.01610,  -0.00008,   0.00003,   0.00017,-6584291.42218,   0.00000
-123672673.38098,101866600.87589,245470200.11946,  -0.00084,   0.00073,   0.00336,468013575.45890,   0.00012,274770810.01610,  -0.00008,   0.00003,   0.00017,-6757234.55720,   0.00000
-121830423.41719,103090079.85948,245526452.02675,  -0.00083,   0.00073,   0.00336,467845530.75708,   0.00012,274770810.01610,  -0.00008,   0.00003,   0.00017,-6925279.25903,   0.00000
-119976923.07195,104302308.46160,245577078.74331,  -0.00083,   0.00074,   0.00336,467666129.27499,   0.00012,274770810.01610,  -0.00008,   0.00003,   0.00017,-7104680.74111,   0.00000
-118103734.55915,105522974.84982,245627705.45987,  -0.00082,   0.00074,   0.00336,467488135.48365,   0.00012,274770810.01610,  -0.00008,   0.00003,   0.00017,-7282674.53246,   0.00000
-116250234.21390,106735203.45195,245672706.98571,  -0.00081,   0.00074,   0.00337,467311191.69557,   0.00012,274770810.01610,  -0.00008,   0.00003,   0.00017,-7459618.32054,   0.00000
-114377045.70110,107955869.84017,245717708.51154,  -0.00081,   0.00074,   0.00337,467135771.16633,   0.00012,274770810.01610,  -0.00008,   0.00003,   0.00017,-7635038.84978,   0.00000
-112503857.18831,109176536.22839,245757084.84664,  -0.00080,   0.00074,   0.00337,466957224.63861,   0.00012,274770810.01610,  -0.00008,   0.00003,   0.00017,-7813585.37750,   0.00000
-110619418.29405,110385952.23515,245796461.18175,  -0.00079,   0.00075,   0.00337,466776440.02999,   0.00012,274770810.01610,  -0.00008,   0.00003,   0.00017,-7994369.98611,   0.00000
-108726541.61370,111615056.40946,245830212.32612,  -0.00079,   0.00075,   0.00337,466596593.02325,   0.00012,274770810.01610,  -0.00008,   0.00003,   0.00017,-8174216.99286,   0.00000
-106842102.71944,112824472.41622,245863963.47050,  -0.00078,   0.00075,   0.00337,466418552.33357,   0.00012,274770810.01610,  -0.00008,   0.00003,   0.00017,-8352257.68254,   0.00000
-104957663.82519,114033888.42299,245892089.42414,  -0.00078,   0.00075,   0.00337,466237416.29603,   0.00012,274770810.01610,  -0.00008,   0.00003,   0.00017,-8533393.72007,   0.00000
-103053536.76338,115251742.21584,245914590.18706,  -0.00077,   0.00075,   0.00337,466049409.58800,   0.00012,274770810.01610,  -0.00008,   0.00003,   0.00017,-8721400.42811,   0.00000
-101149409.70157,116469596.00870,245937090.94998,  -0.00076,   0.00076,   0.00337,465867318.96182,   0.00012,274770810.01610,  -0.00008,   0.00003,   0.00017,-8903491.05428,   0.00000
-99245282.63976,117687449.80155,245953966.52216,  -0.00076,   0.00076,   0.00337,465682238.36615,   0.00012,274770810.01610,  -0.00008,   0.00003,   0.00017,-9088571.64996,   0.00000
-97329905.19650,118894053.21295,245970842.09435,  -0.00075,   0.00076,   0.00337,465495240.30265,   0.00012,274770810.01610,  -0.00008,   0.00003,   0.00017,-9275569.71346,   0.00000
-95406089.96714,120120344.79190,245982092.47581,  -0.00074,   0.00076,   0.00337,465309575.56682,   0.00012,274770810.01610,  -0.00008,   0.00003,   0.00017,-9461234.44928,   0.00000
-93490712.52387,121326948.20329,245993342.85727,  -0.00074,   0.00076,   0.00337,465125637.55903,   0.00012,274770810.01610,  -0.00008,   0.00003,   0.00017,-9645172.45707,   0.00000
-91575335.08060,122533551.61469,245998968.04800,  -0.00073,   0.00076,   0.00337,464938749.89745,   0.00012,274770810.01610,  -0.00008,   0.00003,   0.00017,-9832060.11865,   0.00000
-89640269.46978,123748592.81218,245998968.04800,  -0.00072,   0.00077,   0.00337,464745549.93226,   0.00012,274770810.01610,  -0.00008,   0.00003,   0.00017,-10025260.08384,   0.00000
-87705203.85897,124963634.00967,245998968.04800,  -0.00072,   0.00077,   0.00337,464558446.74988,   0.00012,274770810.01610,  -0.00008,   0.00003,   0.00017,-10212363.26623,   0.00000
-85770138.24815,126178675.20716,245993342.85727,  -0.00071,   0.00077,   0.00337,464368508.08265,   0.00012,274770810.01610,  -0.00008,   0.00003,   0.00017,-10402301.93345,   0.00000
-83843510.42342,127374028.23710,245987717.66654,  -0.00071,   0.00077,   0.00337,464180174.82656,   0.00012,274770810.01610,  -0.00008,   0.00003,   0.00017,-10590635.18954,   0.00000
-81897194.43115,128577819.05313,245976467.28508,  -0.00070,   0.00077,   0.00337,463985814.46939,   0.00012,274770810.01610,  -0.00008,   0.00003,   0.00017,-10784995.54671,   0.00000
-79942440.65278,129801298.03672,245965216.90362,  -0.00069,   0.00077,   0.00337,463802185.34827,   0.00012,274770810.01610,  -0.00008,   0.00003,   0.00017,-10968624.66783,   0.00000
-77996124.66050,131005088.85275,245948341.33143,  -0.00069,   0.00078,   0.00337,463611235.64873,   0.00012,274770810.01610,  -0.00008,   0.00003,   0.00017,-11159574.36737,   0.00000
-76049808.66822,132208879.66878,245925840.56852,  -0.00068,   0.00078,   0.00337,463417499.06838,   0.00012,274770810.01610,  -0.00008,   0.00003,   0.00017,-11353310.94772,   0.00000
-74111930.46204,133392982.31726,245903339.80560,  -0.00067,   0.00078,   0.00337,463225252.96077,   0.00012,274770810.01610,  -0.00008,   0.00003,   0.00017,-11545557.05533,   0.00000
-72145926.30221,134605210.91939,245875213.85196,  -0.00067,   0.00078,   0.00337,463032048.00076,   0.00012,274770810.01610,  -0.00008,   0.00003,   0.00017,-11738762.01535,   0.00000
-70188359.92848,135797751.35396,245847087.89831,  -0.00066,   0.00078,   0.00337,462840392.01002,   0.00012,274770810.01610,  -0.00008,   0.00003,   0.00017,-11930418.00608,   0.00000
-68222355.76865,137009979.95609,245813336.75394,  -0.00065,   0.00078,   0.00337,462650794.45401,   0.00012,274770810.01610,  -0.00008,   0.00003,   0.00017,-12120015.56210,   0.00000
-66245101.22736,138210958.17676,245773960.41883,  -0.00065,   0.00079,   0.00337,462451078.67945,   0.00012,274770810.01610,  -0.00008,   0.00003,   0.00017,-12319731.33666,   0.00000
-64287534.85363,139403498.61133,245734584.08373,  -0.00064,   0.00079,   0.00337,462260302.51660,   0.00012,274770810.01610,  -0.00008,   0.00003,   0.00017,-12510507.49950,   0.00000
-62318718.09843,140584788.66445,245695207.74862,  -0.00063,   0.00079,   0.00337,462068365.69374,   0.00012,274770810.01610,  -0.00008,   0.00003,   0.00017,-12702444.32236,   0.00000
-60341463.55715,141785766.88511,245650206.22279,  -0.00063,   0.00079,   0.00337,461878694.08833,   0.00012,274770810.01610,  -0.00008,   0.00003,   0.00017,-12892115.92778,   0.00000
-58364209.01586,142986745.10578,245599579.50623,  -0.00062,   0.00079,   0.00336,461686429.09312,   0.00012,274770810.01610,  -0.00008,   0.00003,   0.00017,-13084380.92299,   0.00000
-56375704.09311,144176472.94499,245543327.59894,  -0.00061,   0.00079,   0.00336,461484238.86831,   0.00012,274770810.01610,  -0.00008,   0.00003,   0.00017,-13286571.14779,   0.00000
-54406887.33792,145357762.99811,245487075.69165,  -0.00061,   0.00080,   0.00336,461290759.80736,   0.00012,274770810.01610,  -0.00008,   0.00003,   0.00017,-13480050.20874,   0.00000
-52418382.41518,146547490.83732,245430823.78436,  -0.00060,   0.00080,   0.00336,461101403.26487,   0.00012,274770810.01610,  -0.00008,   0.00003,   0.00017,-13669406.75123,   0.00000
-50429877.49243,147737218.67653,245368946.68633,  -0.00059,   0.00080,   0.00336,460909522.74714,   0.00012,274770810.01610,  -0.00008,   0.00003,   0.00017,-13861287.26897,   0.00000
-48449810.35578,148907258.34818,245301444.39759,  -0.00059,   0.00080,   0.00336,460709973.85609,   0.00012,274770810.01610,  -0.00008,   0.00003,   0.00017,-14060836.16001,   0.00000
-46461305.43304,150096986.18739,245233942.10884,  -0.00058,   0.00080,   0.00336,460522007.26092,   0.00012,274770810.01610,  -0.00008,   0.00003,   0.00017,-14248802.75518,   0.00000
-44481238.29638,151267025.85905,245160814.62936,  -0.00057,   0.00080,   0.00336,460326311.85436,   0.00012,274770810.01610,  -0.00008,   0.00003,   0.00017,-14444498.16175,   0.00000
-42501171.15973,152437065.53071,245082061.95915,  -0.00057,   0.00080,   0.00336,460128040.43355,   0.00012,274770810.01610,  -0.00008,   0.00003,   0.00017,-14642769.58256,   0.00000
-40501415.85553,153615542.98846,245003309.28894,  -0.00056,   0.00081,   0.00336,459934355.54434,   0.00012,274770810.01610,  -0.00008,   0.00003,   0.00017,-14836454.47176,   0.00000
-38501660.55133,154794020.44621,244918931.42800,  -0.00055,   0.00081,   0.00336,459738232.45105,   0.00012,274770810.01610,  -0.00008,   0.00003,   0.00017,-15032577.56505,   0.00000
-36501905.24712,155972497.90396,244834553.56707,  -0.00055,   0.00081,   0.00335,459548668.14068,   0.00012,274770810.01610,  -0.00008,   0.00003,   0.00017,-15222141.87542,   0.00000
-34530275.89657,157122849.40807,244744550.51540,  -0.00054,   0.00081,   0.00335,459352925.45088,   0.00012,274770810.01610,  -0.00008,   0.00003,   0.00017,-15417884.56523,   0.00000
-32519270.21090,158290076.48436,244654547.46374,  -0.00053,   0.00081,   0.00335,459160398.77306,   0.00012,274770810.01610,  -0.00008,   0.00003,   0.00017,-15610411.24305,   0.00000
-30519514.90670,159468553.94211,244558919.22134,  -0.00053,   0.00081,   0.00335,458972502.77968,   0.00012,274770810.01610,  -0.00008,   0.00003,   0.00017,-15798307.23642,   0.00000
-28536635.17468,160607655.06476,244457665.78822,  -0.00052,   0.00081,   0.00335,458771197.39496,   0.00012,274770810.01610,  -0.00008,   0.00003,   0.00017,-15999612.62114,   0.00000
-26545317.65657,161766444.35496,244356412.35509,  -0.00051,   0.00082,   0.00335,458581886.73068,   0.00012,274770810.01610,  -0.00008,   0.00003,   0.00017,-16188923.28543,   0.00000
-24534311.97091,162933671.43125,244249533.73124,  -0.00051,   0.00082,   0.00335,458388790.72159,   0.00012,274770810.01610,  -0.00008,   0.00003,   0.00017,-16382019.29452,   0.00000
-22551432.23890,164072772.55390,244142655.10739,  -0.00050,   0.00082,   0.00335,458198020.43516,   0.00012,274770810.01610,  -0.00008,   0.00003,   0.00017,-16572789.58094,   0.00000
-20548864.33933,165220311.46264,244030151.29280,  -0.00049,   0.00082,   0.00334,458003538.33978,   0.00012,274770810.01610,  -0.00008,   0.00003,   0.00017,-16767271.67632,   0.00000
-18537858.65367,166387538.53894,243912022.28749,  -0.00048,   0.00082,   0.00334,457812360.80385,   0.00012,274770810.01610,  -0.00008,   0.00003,   0.00017,-16958449.21225,   0.00000
-16563416.70775,167506951.49403,243793893.28218,  -0.00048,   0.00082,   0.00334,457617526.12411,   0.00012,274770810.01610,  -0.00008,   0.00003,   0.00017,-17153283.89200,   0.00000
-14560848.80818,168654490.40277,243670139.08614,  -0.00047,   0.00082,   0.00334,457424876.92886,   0.00012,274770810.01610,  -0.00008,   0.00003,   0.00017,-17345933.08724,   0.00000
-12558280.90861,169802029.31151,243546384.89010,  -0.00046,   0.00083,   0.00334,457238871.85993,   0.00012,274770810.01610,  -0.00008,   0.00003,   0.00017,-17531938.15617,   0.00000
-10564150.79514,170929880.05270,243417005.50333,  -0.00046,   0.00083,   0.00334,457044713.24997,   0.00012,274770810.01610,  -0.00008,   0.00003,   0.00017,-17726096.76613,   0.00000
-8570020.68166,172057730.79389,243282000.92583,  -0.00045,   0.00083,   0.00333,456848161.00669,   0.00012,274770810.01610,  -0.00008,   0.00003,   0.00017,-17922649.00941,   0.00000
-6575890.56819,173185581.53508,243146996.34833,  -0.00044,   0.00083,   0.00333,456658212.36480,   0.00012,274770810.01610,  -0.00008,   0.00003,   0.00017,-18112597.65130,   0.00000
-4581760.45471,174313432.27627,243006366.58010,  -0.00044,   0.00083,   0.00333,456465891.59204,   0.00012,274770810.01610,  -0.00008,   0.00003,   0.00017,-18304918.42406,   0.00000
-2596068.12733,175421594.84991,242860111.62115,  -0.00043,   0.00083,   0.00333,456265255.49350,   0.00012,274770810.01610,  -0.00008,   0.00003,   0.00017,-18505554.52260,   0.00000
-601938.01386,176549445.59110,242713856.66219,  -0.00042,   0.00083,   0.00333,456077174.98031,   0.00012,274770810.01610,  -0.00008,   0.00003,   0.00017,-18693635.03579,   0.00000
1383754.31352,177657608.16473,242567601.70323,  -0.00042,   0.00083,   0.00332,455889712.78299,   0.00012,274770810.01610,  -0.00008,   0.00003,   0.00017,-18881097.23311,   0.00000
3369446.64090,178765770.73837,242415721.55355,  -0.00041,   0.00083,   0.00332,455699855.60850,   0.00012,274770810.01610,  -0.00008,   0.00003,   0.00017,-19070954.40761,   0.00000
5355138.96828,179873933.31201,242258216.21313,  -0.00040,   0.00084,   0.00332,455507617.34262,   0.00012,274770810.01610,  -0.00008,   0.00003,   0.00017,-19263192.67349,   0.00000
7340831.29566,180982095.88565,242095085.68199,  -0.00040,   0.00084,   0.00332,455313012.48256,   0.00012,274770810.01610,  -0.00008,   0.00003,   0.00017,-19457797.53354,   0.00000
9318085.83695,182070570.29173,241931955.15084,  -0.00039,   0.00084,   0.00332,455118866.73372,   0.00012,274770810.01610,  -0.00008,   0.00003,   0.00017,-19651943.28238,   0.00000
11295340.37824,183159044.69782,241768824.61970,  -0.00038,   0.00084,   0.00331,454931280.84320,   0.00012,274770810.01610,  -0.00008,   0.00003,   0.00017,-19839529.17291,   0.00000
13272594.91952,184247519.10390,241600068.89782,  -0.00037,   0.00084,   0.00331,454741297.06916,   0.00012,274770810.01610,  -0.00008,   0.00003,   0.00017,-20029512.94694,   0.00000
15249849.46081,185335993.50999,241425687.98522,  -0.00037,   0.00084,   0.00331,454548931.20062,   0.00012,274770810.01610,  -0.00008,   0.00003,   0.00017,-20221878.81549,   0.00000
17227104.00210,186424467.91607,241245681.88189,  -0.00036,   0.00084,   0.00331,454354199.64245,   0.00012,274770810.01610,  -0.00008,   0.00003,   0.00017,-20416610.37365,   0.00000
19195920.75729,187493254.15461,241065675.77856,  -0.00035,   0.00084,   0.00331,454159749.64063,   0.00012,274770810.01610,  -0.00008,   0.00003,   0.00017,-20611060.37547,   0.00000
21173175.29858,188581728.56069,240885669.67522,  -0.00035,   0.00084,   0.00330,453978210.12344,   0.00012,274770810.01610,  -0.00008,   0.00003,   0.00017,-20792599.89266,   0.00000
23122303.88622,189642077.01313,240694413.19043,  -0.00034,   0.00085,   0.00330,453778798.75531,   0.00012,274770810.01610,  -0.00008,   0.00003,   0.00017,-20992011.26079,   0.00000
25091120.64141,190710863.25166,240508781.89637,  -0.00033,   0.00085,   0.00330,453595051.70095,   0.00012,274770810.01610,  -0.00008,   0.00003,   0.00017,-21175758.31515,   0.00000
27059937.39660,191779649.49020,240311900.22085,  -0.00033,   0.00085,   0.00330,453399996.71881,   0.00012,274770810.01610,  -0.00008,   0.00003,   0.00017,-21370813.29730,   0.00000
29000628.19815,192820309.77508,240115018.54533,  -0.00032,   0.00085,   0.00329,453204660.80777,   0.00012,274770810.01610,  -0.00008,   0.00003,   0.00017,-21566149.20833,   0.00000
30961007.16725,193869407.84607,239918136.86981,  -0.00031,   0.00085,   0.00329,453016198.75542,   0.00012,274770810.01610,  -0.00008,   0.00003,   0.00017,-21754611.26068,   0.00000
32901697.96880,194910068.13095,239710004.81284,  -0.00031,   0.00085,   0.00329,452815904.55441,   0.00012,274770810.01610,  -0.00008,   0.00003,   0.00017,-21954905.46169,   0.00000
34842388.77035,195950728.41584,239501872.75586,  -0.00030,   0.00085,   0.00329,452622060.57959,   0.00012,274770810.01610,  -0.00008,   0.00003,   0.00017,-22148749.43651,   0.00000
36783079.57189,196991388.70073,239293740.69888,  -0.00029,   0.00085,   0.00328,452434675.12169,   0.00012,274770810.01610,  -0.00008,   0.00003,   0.00017,-22336134.89441,   0.00000
38723770.37344,198032048.98562,239079983.45118,  -0.00029,   0.00085,   0.00328,452244834.89247,   0.00012,274770810.01610,  -0.00008,   0.00003,   0.00017,-22525975.12363,   0.00000
40656023.38890,199053021.10295,238860601.01274,  -0.00028,   0.00085,   0.00328,452045875.23273,   0.00012,274770810.01610,  -0.00008,   0.00003,   0.00017,-22724934.78338,   0.00000
42588276.40435,200073993.22029,238641218.57430,  -0.00027,   0.00086,   0.00327,451853351.35805,   0.00012,274770810.01610,  -0.00008,   0.00003,   0.00017,-22917458.65805,   0.00000
44500841.25225,201086527.55153,238416210.94514,  -0.00027,   0.00086,   0.00327,451657465.03148,   0.00012,274770810.01610,  -0.00008,   0.00003,   0.00017,-23113344.98462,   0.00000
46433094.26770,202107499.66887,238191203.31597,  -0.00026,   0.00086,   0.00327,451468874.99879,   0.00012,274770810.01610,  -0.00008,   0.00003,   0.00017,-23301935.01731,   0.00000
48337221.32951,203100345.83256,237960570.49608,  -0.00025,   0.00086,   0.00327,451270019.39749,   0.00012,274770810.01610,  -0.00008,   0.00003,   0.00017,-23500790.61861,   0.00000
50241348.39132,204093191.99625,237724312.48546,  -0.00025,   0.00086,   0.00326,451068568.16238,   0.00012,274770810.01610,  -0.00008,   0.00003,   0.00017,-23702241.85372,   0.00000
52153913.23922,205105726.32749,237488054.47483,  -0.00024,   0.00086,   0.00326,450880307.21852,   0.00012,274770810.01610,  -0.00008,   0.00003,   0.00017,-23890502.79759,   0.00000
54049602.51494,206078884.32363,237246171.27348,  -0.00023,   0.00086,   0.00326,450675738.93372,   0.00012,274770810.01610,  -0.00008,   0.00003,   0.00017,-24095071.08238,   0.00000
55934041.40919,207063292.70122,237004288.07213,  -0.00023,   0.00086,   0.00325,450483112.97772,   0.00012,274770810.01610,  -0.00008,   0.00003,   0.00017,-24287697.03839,   0.00000
57829730.68491,208036450.69736,236751154.48932,  -0.00022,   0.00086,   0.00325,450273337.10697,   0.00012,274770810.01610,  -0.00008,   0.00003,   0.00017,-24497472.90913,   0.00000
59714169.57916,209020859.07496,236503646.09724,  -0.00021,   0.00086,   0.00325,450084345.87801,   0.00012,274770810.01610,  -0.00008,   0.00003,   0.00017,-24686464.13809,   0.00000
61590170.68733,209985579.28500,236250512.51443,  -0.00020,   0.00086,   0.00324,449885717.65827,   0.00012,274770810.01610,  -0.00008,   0.00003,   0.00017,-24885092.35783,   0.00000
63466171.79549,210950299.49505,235991753.74089,  -0.00020,   0.00086,   0.00324,449684444.21890,   0.00012,274770810.01610,  -0.00008,   0.00003,   0.00017,-25086365.79720,   0.00000
65314046.95001,211886893.75145,235727369.77662,  -0.00019,   0.00086,   0.00324,449471877.35325,   0.00012,274770810.01610,  -0.00008,   0.00003,   0.00017,-25298932.66285,   0.00000
67190048.05817,212851613.96149,235462985.81235,  -0.00019,   0.00087,   0.00323,449274142.38496,   0.00012,274770810.01610,  -0.00008,   0.00003,   0.00017,-25496667.63115,   0.00000
69037923.21269,213788208.21789,235198601.84808,  -0.00018,   0.00087,   0.00323,449073808.90638,   0.00012,274770810.01610,  -0.00008,   0.00003,   0.00017,-25697001.10972,   0.00000
70866110.19965,214716364.68820,234922967.50235,  -0.00017,   0.00087,   0.00323,448860124.37999,   0.00012,274770810.01610,  -0.00008,   0.00003,   0.00017,-25910685.63612,   0.00000
72705547.56807,215633270.77704,234652958.34736,  -0.00017,   0.00087,   0.00322,448655883.35710,   0.00012,274770810.01610,  -0.00008,   0.00003,   0.00017,-26114926.65901,   0.00000
74533734.55504,216561427.24735,234371698.81090,  -0.00016,   0.00087,   0.00322,448445400.28340,   0.00012,274770810.01610,  -0.00008,   0.00003,   0.00017,-26325409.73271,   0.00000
76353483.75591,217469895.55010,234090439.27444,  -0.00015,   0.00087,   0.00321,448233674.65426,   0.00012,274770810.01610,  -0.00008,   0.00003,   0.00017,-26537135.36185,   0.00000
78173232.95678,218378363.85286,233803554.54726,  -0.00015,   0.00087,   0.00321,448019115.43658,   0.00012,274770810.01610,  -0.00008,   0.00003,   0.00017,-26751694.57953,   0.00000
79992982.15765,219286832.15561,233516669.82007,  -0.00014,   0.00087,   0.00321,447810550.95973,   0.00012,274770810.01610,  -0.00008,   0.00003,   0.00017,-26960259.05638,   0.00000
81793043.19097,220186862.67227,233224159.90216,  -0.00013,   0.00087,   0.00320,447597061.12246,   0.00012,274770810.01610,  -0.00008,   0.00003,   0.00017,-27173748.89365,   0.00000
83584666.43820,221067205.02138,232931649.98424,  -0.00013,   0.00087,   0.00320,447382093.62977,   0.00012,274770810.01610,  -0.00008,   0.00003,   0.00017,-27388716.38633,   0.00000
85356601.51787,221939109.58439,232633514.87560,  -0.00012,   0.00087,   0.00320,447161946.47789,   0.00012,274770810.01610,  -0.00008,   0.00003,   0.00017,-27608863.53821,   0.00000
87128536.59755,222811014.14740,232335379.76696,  -0.00011,   0.00087,   0.00319,446947556.64274,   0.00012,274770810.01610,  -0.00008,   0.00003,   0.00017,-27823253.37336,   0.00000
88900471.67722,223682918.71042,232025994.27685,  -0.00011,   0.00087,   0.00319,446721402.07095,   0.00012,274770810.01610,  -0.00008,   0.00003,   0.00017,-28049407.94515,   0.00000
90672406.75689,224554823.27343,231722233.97748,  -0.00010,   0.00087,   0.00318,446509808.27516,   0.00012,274770810.01610,  -0.00008,   0.00003,   0.00017,-28261001.74094,   0.00000
92416215.88292,225398601.88280,231407223.29665,  -0.00009,   0.00087,   0.00318,446276494.80914,   0.00012,274770810.01610,  -0.00008,   0.00003,   0.00017,-28494315.20697,   0.00000
94160025.00895,226242380.49217,231092212.61582,  -0.00009,   0.00087,   0.00318,446048841.52999,   0.00012,274770810.01610,  -0.00008,   0.00003,   0.00017,-28721968.48611,   0.00000
95903834.13498,227086159.10154,230777201.93499,  -0.00008,   0.00087,   0.00317,445826857.10855,   0.00012,274770810.01610,  -0.00008,   0.00003,   0.00017,-28943952.90756,   0.00000
97619517.30736,227901811.75726,230456566.06343,  -0.00008,   0.00087,   0.00317,445591547.97818,   0.00012,274770810.01610,  -0.00008,   0.00003,   0.00017,-29179262.03792,   0.00000
99343638.26584,228737152.58054,230130305.00114,  -0.00007,   0.00087,   0.00316,445360678.92258,   0.00012,274770810.01610,  -0.00008,   0.00003,   0.00017,-29410131.09352,   0.00000
101039633.27067,229544367.45017,229804043.93885,  -0.00006,   0.00088,   0.00316,445124972.61444,   0.00012,274770810.01610,  -0.00008,   0.00003,   0.00017,-29645837.40167,   0.00000
102735628.27550,230351582.31979,229472157.68583,  -0.00006,   0.00088,   0.00315,444886007.55642,   0.00012,274770810.01610,  -0.00008,   0.00003,   0.00017,-29884802.45968,   0.00000
104423185.49424,231139109.02187,229134646.24209,  -0.00005,   0.00088,   0.00315,444636104.76128,   0.00012,274770810.01610,  -0.00008,   0.00003,   0.00017,-30134705.25483,   0.00000
106099492.33151,231937886.10541,228797134.79834,  -0.00005,   0.00088,   0.00315,444396422.11837,   0.00012,274770810.01610,  -0.00008,   0.00003,   0.00017,-30374387.89773,   0.00000
107767361.38270,232716975.02139,228459623.35459,  -0.00004,   0.00088,   0.00314,444154363.71316,   0.00012,274770810.01610,  -0.00008,   0.00003,   0.00017,-30616446.30294,   0.00000
109415542.26633,233487626.15128,228110861.52938,  -0.00003,   0.00088,   0.00314,443897232.10492,   0.00012,274770810.01610,  -0.00008,   0.00003,   0.00017,-30873577.91118,   0.00000
111063723.14997,234258277.28117,227767724.89491,  -0.00003,   0.00088,   0.00313,443654036.53358,   0.00012,274770810.01610,  -0.00008,   0.00003,   0.00017,-31116773.48252,   0.00000
112703466.24750,235009240.24351,227413337.87897,  -0.00002,   0.00088,   0.00313,443390952.84429,   0.00012,274770810.01610,  -0.00008,   0.00003,   0.00017,-31379857.17181,   0.00000
114323521.17749,235751765.41975,227058950.86304,  -0.00002,   0.00088,   0.00312,443129881.57811,   0.00012,274770810.01610,  -0.00008,   0.00003,   0.00017,-31640928.43800,   0.00000
115923887.93993,236485852.80990,226704563.84710,  -0.00001,   0.00088,   0.00312,442870663.60410,   0.00012,274770810.01610,  -0.00008,   0.00003,   0.00017,-31900146.41200,   0.00000
117543942.86991,237228377.98615,226344551.64044,  -0.00000,   0.00088,   0.00311,442611218.89323,   0.00012,274770810.01610,  -0.00008,   0.00003,   0.00017,-32159591.12287,   0.00000
119124621.46480,237954027.59020,225978914.24305,   0.00000,   0.00088,   0.00311,442341519.94836,   0.00012,274770810.01610,  -0.00008,   0.00003,   0.00017,-32429290.06775,   0.00000
120696862.27359,238659989.02671,225613276.84565,   0.00001,   0.00088,   0.00310,442068844.37409,   0.00012,274770810.01610,  -0.00008,   0.00003,   0.00017,-32701965.64201,   0.00000
122269103.08238,239365950.46321,225242014.25753,   0.00001,   0.00088,   0.00310,441792515.43966,   0.00012,274770810.01610,  -0.00008,   0.00003,   0.00017,-32978294.57645,   0.00000
123821655.72362,240063474.11363,224870751.66941,   0.00002,   0.00088,   0.00309,441517589.74612,   0.00012,274770810.01610,  -0.00008,   0.00003,   0.00017,-33253220.26998,   0.00000
125365770.57876,240741309.59648,224493863.89056,   0.00003,   0.00088,   0.00309,441230914.10833,   0.00012,274770810.01610,  -0.00008,   0.00003,   0.00017,-33539895.90777,   0.00000
126898635.05245,241430395.46080,224111350.92098,   0.00003,   0.00088,   0.00309,440944899.75649,   0.00012,274770810.01610,  -0.00008,   0.00003,   0.00017,-33825910.25961,   0.00000
128423061.74004,242099793.15757,223728837.95140,   0.00004,   0.00088,   0.00308,440655619.21181,   0.00012,274770810.01610,  -0.00008,   0.00003,   0.00017,-34115190.80429,   0.00000
129919362.47399,242741064.90069,223340699.79109,   0.00004,   0.00088,   0.00308,440350661.95719,   0.00012,274770810.01610,  -0.00008,   0.00003,   0.00017,-34420148.05892,   0.00000
131424100.99403,243402024.81136,222952561.63078,   0.00005,   0.00088,   0.00307,440058498.30060,   0.00012,274770810.01610,  -0.00008,   0.00003,   0.00017,-34712311.71550,   0.00000
132900713.56042,244034858.76839,222558798.27974,   0.00005,   0.00088,   0.00306,439750453.29164,   0.00012,274770810.01610,  -0.00008,   0.00003,   0.00017,-35020356.72446,   0.00000
134357637.95926,244659254.93932,222165034.92870,   0.00006,   0.00088,   0.00306,439443050.39624,   0.00012,274770810.01610,  -0.00008,   0.00003,   0.00017,-35327759.61987,   0.00000
135814562.35811,245283651.11025,221765646.38693,   0.00006,   0.00088,   0.00305,439131619.07748,   0.00012,274770810.01610,  -0.00008,   0.00003,   0.00017,-35639190.93863,   0.00000
137271486.75695,245908047.28118,221366257.84517,   0.00007,   0.00088,   0.00305,438824709.73663,   0.00012,274770810.01610,  -0.00008,   0.00003,   0.00017,-35946100.27947,   0.00000
138680597.03460,246495879.71238,220961244.11267,   0.00007,   0.00088,   0.00304,438497371.87745,   0.00012,274770810.01610,  -0.00008,   0.00003,   0.00017,-36273438.13866,   0.00000
140109395.47979,247092149.92967,220550605.18944,   0.00008,   0.00088,   0.00304,438170001.08681,   0.00012,274770810.01610,  -0.00008,   0.00003,   0.00017,-36600808.92929,   0.00000
141498817.58989,247671544.57476,220139966.26622,   0.00009,   0.00088,   0.00303,437838660.81751,   0.00012,274770810.01610,  -0.00008,   0.00003,   0.00017,-36932149.19859,   0.00000
142879801.91389,248231251.05231,219723702.15226,   0.00009,   0.00088,   0.00303,437494772.17133,   0.00012,274770810.01610,  -0.00008,   0.00003,   0.00017,-37276037.84477,   0.00000
144269224.02398,248810645.69741,219307438.03831,   0.00010,   0.00088,   0.00302,437163453.14533,   0.00012,274770810.01610,  -0.00008,   0.00003,   0.00017,-37607356.87077,   0.00000
145610832.01287,249353476.60277,218885548.73362,   0.00010,   0.00088,   0.00302,436810890.24107,   0.00012,274770810.01610,  -0.00008,   0.00003,   0.00017,-37959919.77503,   0.00000
146944002.21568,249876619.34058,218463659.42894,   0.00011,   0.00088,   0.00301,436454013.21040,   0.00012,274770810.01610,  -0.00008,   0.00003,   0.00017,-38316796.80571,   0.00000
148285610.20457,250419450.24594,218036144.93353,   0.00011,   0.00088,   0.00301,436101139.37117,   0.00012,274770810.01610,  -0.00008,   0.00003,   0.00017,-38669670.64494,   0.00000
149599092.23982,250934155.19766,217608630.43811,   0.00012,   0.00088,   0.00300,435739446.15751,   0.00012,274770810.01610,  -0.00008,   0.00003,   0.00017,-39031363.85859,   0.00000
150892886.10752,251440422.36328,217175490.75197,   0.00012,   0.00088,   0.00299,435368762.55844,   0.00012,274770810.01610,  -0.00008,   0.00003,   0.00017,-39402047.45766,   0.00000
152166991.80767,251938251.74280,216736725.87510,   0.00013,   0.00088,   0.00299,434988982.88026,   0.00012,274770810.01610,  -0.00008,   0.00003,   0.00017,-39781827.13584,   0.00000
153432659.72172,252416392.95478,216297960.99823,   0.00013,   0.00088,   0.00298,434604557.92495,   0.00012,274770810.01610,  -0.00008,   0.00003,   0.00017,-40166252.09116,   0.00000
154678639.46822,252886096.38066,215853570.93063,   0.00013,   0.00088,   0.00298,434210863.71981,   0.00012,274770810.01610,  -0.00008,   0.00003,   0.00017,-40559946.29629,   0.00000
155924619.21472,253355799.80654,215409180.86302,   0.00014,   0.00088,   0.00297,433820916.00386,   0.00012,274770810.01610,  -0.00008,   0.00003,   0.00017,-40949894.01224,   0.00000
157150910.79367,253817065.44633,214959165.60470,   0.00014,   0.00088,   0.00297,433421569.71891,   0.00012,274770810.01610,  -0.00008,   0.00003,   0.00017,-41349240.29720,   0.00000
158349076.41897,254250205.13247,214509150.34637,   0.00015,   0.00088,   0.00296,433012515.28974,   0.00012,274770810.01610,  -0.00008,   0.00003,   0.00017,-41758294.72637,   0.00000
159527553.87673,254674907.03252,214053509.89731,   0.00015,   0.00088,   0.00295,432593803.77359,   0.00012,274770810.01610,  -0.00008,   0.00003,   0.00017,-42177006.24251,   0.00000
160706031.33448,255099608.93257,213597869.44825,   0.00016,   0.00088,   0.00295,432178600.50769,   0.00012,274770810.01610,  -0.00008,   0.00003,   0.00017,-42592209.50841,   0.00000
161845132.45712,255507435.26043,213136603.80846,   0.00016,   0.00087,   0.00294,431748650.62781,   0.00012,274770810.01610,  -0.00008,   0.00003,   0.00017,-43022159.38829,   0.00000
162975795.79368,255895573.42074,212675338.16867,   0.00017,   0.00087,   0.00294,431313422.22109,   0.00012,274770810.01610,  -0.00008,   0.00003,   0.00017,-43457387.79502,   0.00000
164106459.13023,256283711.58105,212208447.33815,   0.00017,   0.00087,   0.00293,430873222.27624,   0.00012,274770810.01610,  -0.00008,   0.00003,   0.00017,-43897587.73986,   0.00000
165197746.13168,256654974.16917,211741556.50764,   0.00018,   0.00087,   0.00292,430426193.53771,   0.00012,274770810.01610,  -0.00008,   0.00003,   0.00017,-44344616.47839,   0.00000
166280595.34704,257006548.58974,211269040.48639,   0.00018,   0.00087,   0.00292,429965374.07506,   0.00012,274770810.01610,  -0.00008,   0.00003,   0.00017,-44805435.94104,   0.00000
167343756.39484,257349685.22422,210790899.27441,   0.00018,   0.00087,   0.00291,429494283.90567,   0.00012,274770810.01610,  -0.00008,   0.00003,   0.00017,-45276526.11044,   0.00000
168387229.27509,257684384.07260,210312758.06244,   0.00019,   0.00087,   0.00291,429021106.62282,   0.00012,274770810.01610,  -0.00008,   0.00003,   0.00017,-45749703.39329,   0.00000
169430702.15535,258019082.92099,209834616.85046,   0.00019,   0.00087,   0.00290,428550994.49401,   0.00012,274770810.01610,  -0.00008,   0.00003,   0.00017,-46219815.52210,   0.00000
170446049.08195,258325655.81572,209350850.44776,   0.00020,   0.00087,   0.00289,428061617.57342,   0.00012,274770810.01610,  -0.00008,   0.00003,   0.00017,-46709192.44268,   0.00000
171422019.67346,258615353.13827,208861458.85433,   0.00020,   0.00087,   0.00289,427556277.62729,   0.00012,274770810.01610,  -0.00008,   0.00003,   0.00017,-47214532.38881,   0.00000
172397990.26496,258905050.46082,208372067.26089,   0.00020,   0.00087,   0.00288,427053787.09989,   0.00012,274770810.01610,  -0.00008,   0.00003,   0.00017,-47717022.91621,   0.00000
173365523.07037,259175059.61582,207882675.66746,   0.00021,   0.00087,   0.00287,426545328.03352,   0.00012,274770810.01610,  -0.00008,   0.00003,   0.00017,-48225481.98259,   0.00000
174293679.54067,259428193.19863,207387658.88330,   0.00021,   0.00087,   0.00287,426020542.88055,   0.00012,274770810.01610,  -0.00008,   0.00003,   0.00017,-48750267.13555,   0.00000
175202147.84343,259672888.99535,206887016.90840,   0.00022,   0.00087,   0.00286,425484743.90420,   0.00012,274770810.01610,  -0.00008,   0.00003,   0.00017,-49286066.11190,   0.00000
176110616.14618,259917584.79207,206386374.93351,   0.00022,   0.00087,   0.00285,424951598.74174,   0.00012,274770810.01610,  -0.00008,   0.00003,   0.00017,-49819211.27437,   0.00000
176990958.49529,260134154.63514,205885732.95862,   0.00022,   0.00087,   0.00285,424406632.29774,   0.00012,274770810.01610,  -0.00008,   0.00003,   0.00017,-50364177.71837,   0.00000
177851612.67684,260342286.69211,205379465.79300,   0.00023,   0.00087,   0.00284,423850423.78641,   0.00012,274770810.01610,  -0.00008,   0.00003,   0.00017,-50920386.22970,   0.00000
178692578.69085,260541980.96300,204867573.43665,   0.00023,   0.00086,   0.00283,423282897.15658,   0.00012,274770810.01610,  -0.00008,   0.00003,   0.00017,-51487912.85952,   0.00000
179513856.53730,260733237.44779,204355681.08030,   0.00023,   0.00086,   0.00283,422712136.07675,   0.00012,274770810.01610,  -0.00008,   0.00003,   0.00017,-52058673.93935,   0.00000
180307008.43011,260896367.97893,203843788.72395,   0.00024,   0.00086,   0.00282,422129078.71533,   0.00012,274770810.01610,  -0.00008,   0.00003,   0.00017,-52641731.30077,   0.00000
181080472.15536,261051060.72398,203326271.17687,   0.00024,   0.00086,   0.00281,421534413.80347,   0.00012,274770810.01610,  -0.00008,   0.00003,   0.00017,-53236396.21263,   0.00000
181845498.09452,261186065.30148,202803128.43906,   0.00024,   0.00086,   0.00281,420924889.33161,   0.00012,274770810.01610,  -0.00008,   0.00003,   0.00017,-53845920.68449,   0.00000
182571147.69858,261304194.30679,202279985.70125,   0.00025,   0.00086,   0.00280,420305932.77653,   0.00012,274770810.01610,  -0.00008,   0.00003,   0.00017,-54464877.23957,   0.00000
183296797.30264,261422323.31211,201756842.96344,   0.00025,   0.00086,   0.00279,419689103.34735,   0.00012,274770810.01610,  -0.00008,   0.00003,   0.00017,-55081706.66875,   0.00000
183983070.57159,261523576.74523,201228075.03491,   0.00025,   0.00086,   0.00279,419054477.74827,   0.00012,274770810.01610,  -0.00008,   0.00003,   0.00017,-55716332.26783,   0.00000
184669343.84054,261624830.17835,200699307.10637,   0.00025,   0.00086,   0.00278,418421878.27341,   0.00012,274770810.01610,  -0.00008,   0.00003,   0.00017,-56348931.74269,   0.00000
185327491.15585,261697957.65783,200164913.98710,   0.00026,   0.00086,   0.00277,417768180.28837,   0.00012,274770810.01610,  -0.00008,   0.00003,   0.00017,-57002629.72773,   0.00000
185937824.34996,261734521.39757,199624895.67711,   0.00026,   0.00086,   0.00277,417087261.45922,   0.00012,274770810.01610,  -0.00008,   0.00003,   0.00017,-57683548.55688,   0.00000
186556595.33016,261790773.30486,199090502.55784,   0.00026,   0.00086,   0.00276,416425337.26748,   0.00012,274770810.01610,  -0.00008,   0.00003,   0.00017,-58345472.74862,   0.00000
187147240.35672,261818899.25851,198544859.05711,   0.00027,   0.00085,   0.00275,415733958.54397,   0.00012,274770810.01610,  -0.00008,   0.00003,   0.00017,-59036851.47214,   0.00000
187718197.21573,261838587.42606,198004840.74712,   0.00027,   0.00085,   0.00275,415046323.57839,   0.00012,274770810.01610,  -0.00008,   0.00003,   0.00017,-59724486.43771,   0.00000
188269465.90718,261849837.80752,197453572.05566,   0.00027,   0.00085,   0.00274,414338194.70756,   0.00012,274770810.01610,  -0.00008,   0.00003,   0.00017,-60432615.30854,   0.00000
188772920.47744,261824524.44924,196907928.55494,   0.00027,   0.00085,   0.00273,413618319.17741,   0.00012,274770810.01610,  -0.00008,   0.00003,   0.00017,-61152490.83870,   0.00000
189276375.04769,261799211.09096,196356659.86348,   0.00027,   0.00085,   0.00272,412891972.59287,   0.00012,274770810.01610,  -0.00008,   0.00003,   0.00017,-61878837.42323,   0.00000
189751703.66430,261745771.77903,195799765.98130,   0.00028,   0.00085,   0.00272,412143781.99932,   0.00012,274770810.01610,  -0.00008,   0.00003,   0.00017,-62627028.01678,   0.00000
190215781.89946,261703582.84856,195242872.09912,   0.00028,   0.00085,   0.00271,411400042.09833,   0.00012,274770810.01610,  -0.00008,   0.00003,   0.00017,-63370767.91778,   0.00000
190632046.01341,261624830.17835,194685978.21694,   0.00028,   0.00085,   0.00270,410636021.81391,   0.00012,274770810.01610,  -0.00008,   0.00003,   0.00017,-64134788.20219,   0.00000
191048310.12737,261546077.50815,194123459.14402,   0.00028,   0.00085,   0.00270,409865372.41413,   0.00012,274770810.01610,  -0.00008,   0.00003,   0.00017,-64905437.60198,   0.00000
191416760.12012,261430761.09820,193555314.88038,   0.00029,   0.00084,   0.00269,409066216.36777,   0.00012,274770810.01610,  -0.00008,   0.00003,   0.00017,-65704593.64833,   0.00000
191785210.11288,261315444.68825,192987170.61674,   0.00029,   0.00084,   0.00268,408268337.06932,   0.00012,274770810.01610,  -0.00008,   0.00003,   0.00017,-66502472.94678,   0.00000
192114283.77054,261183252.70612,192419026.35310,   0.00029,   0.00084,   0.00267,407458956.34326,   0.00012,274770810.01610,  -0.00008,   0.00003,   0.00017,-67311853.67284,   0.00000
192434919.64210,261031372.55643,191850882.08946,   0.00029,   0.00084,   0.00267,406641497.42728,   0.00012,274770810.01610,  -0.00008,   0.00003,   0.00017,-68129312.58882,   0.00000
192716179.17855,260862616.83456,191271487.44436,   0.00029,   0.00084,   0.00266,405796413.85750,   0.00012,274770810.01610,  -0.00008,   0.00003,   0.00017,-68974396.15860,   0.00000
192977750.54746,260685423.32659,190697717.98999,   0.00029,   0.00084,   0.00265,404953916.49793,   0.00012,274770810.01610,  -0.00008,   0.00003,   0.00017,-69816893.51818,   0.00000
193219633.74881,260499792.03253,190118323.34489,   0.00030,   0.00084,   0.00264,404098038.50212,   0.00012,274770810.01610,  -0.00008,   0.00003,   0.00017,-70672771.51398,   0.00000
193433390.99652,260286034.78482,189538928.69979,   0.00030,   0.00084,   0.00264,403227358.69103,   0.00012,274770810.01610,  -0.00008,   0.00003,   0.00017,-71543451.32508,   0.00000
193627460.07667,260063839.75102,188953908.86396,   0.00030,   0.00083,   0.00263,402343177.29759,   0.00012,274770810.01610,  -0.00008,   0.00003,   0.00017,-72427632.71851,   0.00000
193793403.20318,259813518.76358,188368889.02813,   0.00030,   0.00083,   0.00262,401444039.33683,   0.00012,274770810.01610,  -0.00008,   0.00003,   0.00017,-73326770.67927,   0.00000
193919969.99458,259546322.20394,187778244.00157,   0.00030,   0.00083,   0.00261,400524705.70396,   0.00012,274770810.01610,  -0.00008,   0.00003,   0.00017,-74246104.31215,   0.00000
194046536.78599,259279125.64431,187187598.97501,   0.00030,   0.00083,   0.00261,399606179.47102,   0.00012,274770810.01610,  -0.00008,   0.00003,   0.00017,-75164630.54508,   0.00000
194133727.24229,258995053.51249,186591328.75773,   0.00030,   0.00083,   0.00260,398667328.26248,   0.00012,274770810.01610,  -0.00008,   0.00003,   0.00017,-76103481.75362,   0.00000
194192791.74495,258682855.42702,186000683.73117,   0.00030,   0.00083,   0.00259,397721104.83482,   0.00012,274770810.01610,  -0.00008,   0.00003,   0.00017,-77049705.18128,   0.00000
194232168.08005,258362219.55546,185398788.32315,   0.00030,   0.00082,   0.00258,396753134.44452,   0.00012,274770810.01610,  -0.00008,   0.00003,   0.00017,-78017675.57158,   0.00000
194243418.46151,258013457.73026,184802518.10587,   0.00030,   0.00082,   0.00257,395777647.22347,   0.00012,274770810.01610,  -0.00008,   0.00003,   0.00017,-78993162.79264,   0.00000
194223730.29396,257667508.50042,184194997.50712,   0.00031,   0.00082,   0.00257,394783040.40264,   0.00012,274770810.01610,  -0.00008,   0.00003,   0.00017,-79987769.61346,   0.00000
194195604.34031,257301871.10302,183593102.09910,   0.00031,   0.00082,   0.00256,393787473.99656,   0.00012,274770810.01610,  -0.00008,   0.00003,   0.00017,-80983336.01955,   0.00000
194119664.26547,256899669.96589,182985581.50036,   0.00031,   0.00082,   0.00255,392761729.18260,   0.00012,274770810.01610,  -0.00008,   0.00003,   0.00017,-82009080.83350,   0.00000
194024036.02307,256489031.04267,182378060.90161,   0.00031,   0.00082,   0.00254,391729733.22948,   0.00012,274770810.01610,  -0.00008,   0.00003,   0.00017,-83041076.78662,   0.00000
193908719.61313,256069954.33335,181764915.11214,   0.00031,   0.00081,   0.00253,390683592.15007,   0.00012,274770810.01610,  -0.00008,   0.00003,   0.00017,-84087217.86603,   0.00000
193754026.86808,255634002.05184,181151769.32266,   0.00031,   0.00081,   0.00253,389624356.54985,   0.00012,274770810.01610,  -0.00008,   0.00003,   0.00017,-85146453.46625,   0.00000
193571208.16938,255169923.81669,180538623.53319,   0.00031,   0.00081,   0.00252,388549270.97198,   0.00012,274770810.01610,  -0.00008,   0.00003,   0.00017,-86221539.04412,   0.00000
193388389.47068,254705845.58153,179919852.55299,   0.00031,   0.00081,   0.00251,387466700.14048,   0.00012,274770810.01610,  -0.00008,   0.00003,   0.00017,-87304109.87562,   0.00000
193138068.48324,254196765.82055,179301081.57278,   0.00031,   0.00081,   0.00250,386354591.59340,   0.00012,274770810.01610,  -0.00008,   0.00003,   0.00017,-88416218.42270,   0.00000
192896185.28188,253707374.22711,178676685.40185,   0.00031,   0.00081,   0.00249,385244414.73667,   0.00012,274770810.01610,  -0.00008,   0.00003,   0.00017,-89526395.27943,   0.00000
192598050.17324,253161730.72639,178057914.42165,   0.00031,   0.00080,   0.00249,384109721.02134,   0.00012,274770810.01610,  -0.00008,   0.00003,   0.00017,-90661088.99477,   0.00000
192308352.85069,252635775.39322,177427893.05999,   0.00031,   0.00080,   0.00248,382969110.31409,   0.00012,274770810.01610,  -0.00008,   0.00003,   0.00017,-91801699.70201,   0.00000
191951153.23939,252064818.53421,176803496.88905,   0.00031,   0.00080,   0.00247,381806515.00530,   0.00012,274770810.01610,  -0.00008,   0.00003,   0.00017,-92964295.01081,   0.00000
191593953.62809,251493861.67520,176173475.52739,   0.00031,   0.00080,   0.00246,380636286.62255,   0.00012,274770810.01610,  -0.00008,   0.00003,   0.00017,-94134523.39356,   0.00000
191188939.89560,250886341.07646,175537828.97500,   0.00030,   0.00080,   0.00245,379435187.47767,   0.00012,274770810.01610,  -0.00008,   0.00003,   0.00017,-95335622.53844,   0.00000
190764237.99555,250270382.69162,174907807.61334,   0.00030,   0.00079,   0.00245,378235169.69727,   0.00012,274770810.01610,  -0.00008,   0.00003,   0.00017,-96535640.31883,   0.00000
190319847.92795,249645986.52069,174272161.06095,   0.00030,   0.00079,   0.00244,377020603.24778,   0.00012,274770810.01610,  -0.00008,   0.00003,   0.00017,-97750206.76832,   0.00000
189827643.73915,248985026.61001,173630889.31783,   0.00030,   0.00079,   0.00243,375775057.78289,   0.00012,274770810.01610,  -0.00008,   0.00003,   0.00017,-98995752.23321,   0.00000
189315751.38280,248315628.91325,172995242.76544,   0.00030,   0.00079,   0.00242,374530516.07957,   0.00012,274770810.01610,  -0.00008,   0.00003,   0.00017,-100240293.93653,   0.00000
188784170.85890,247637793.43039,172353971.02232,   0.00030,   0.00079,   0.00241,373271373.63767,   0.00012,274770810.01610,  -0.00008,   0.00003,   0.00017,-101499436.37843,   0.00000
188224464.38135,246931831.99388,171707074.08847,   0.00030,   0.00078,   0.00240,371988070.64718,   0.00012,274770810.01610,  -0.00008,   0.00003,   0.00017,-102782739.36892,   0.00000
187625381.56870,246208994.98519,171065802.34535,   0.00030,   0.00078,   0.00240,370698830.03167,   0.00012,274770810.01610,  -0.00008,   0.00003,   0.00017,-104071979.98444,   0.00000
186986922.42094,245469282.40431,170418905.41150,   0.00030,   0.00078,   0.00239,369388064.31698,   0.00012,274770810.01610,  -0.00008,   0.00003,   0.00017,-105382745.69913,   0.00000
186340025.48709,244709881.65588,169766383.28692,   0.00029,   0.00078,   0.00238,368059995.62141,   0.00012,274770810.01610,  -0.00008,   0.00003,   0.00017,-106710814.39470,   0.00000
185653752.21814,243933605.33526,169119486.35307,   0.00029,   0.00078,   0.00237,366725963.62260,   0.00012,274770810.01610,  -0.00008,   0.00003,   0.00017,-108044846.39351,   0.00000
184947790.78163,243148891.22855,168466964.22849,   0.00029,   0.00077,   0.00236,365377301.52002,   0.00012,274770810.01610,  -0.00008,   0.00003,   0.00017,-109393508.49609,   0.00000
184194015.22393,242327613.38210,167808816.91318,   0.00029,   0.00077,   0.00235,363997539.06408,   0.00012,274770810.01610,  -0.00008,   0.00003,   0.00017,-110773270.95203,   0.00000
183420551.49868,241497897.74955,167156294.78861,   0.00029,   0.00077,   0.00234,362618720.42257,   0.00012,274770810.01610,  -0.00008,   0.00003,   0.00017,-112152089.59353,   0.00000
182618961.81978,240640056.16336,166498147.47330,   0.00029,   0.00077,   0.00234,361215702.80617,   0.00012,274770810.01610,  -0.00008,   0.00003,   0.00017,-113555107.20994,   0.00000
181777995.80577,239765339.00498,165840000.15799,   0.00028,   0.00076,   0.00233,359798987.93150,   0.00012,274770810.01610,  -0.00008,   0.00003,   0.00017,-114971822.08461,   0.00000
180917341.62422,238882184.06051,165176227.65196,   0.00028,   0.00076,   0.00232,358367703.90797,   0.00012,274770810.01610,  -0.00008,   0.00003,   0.00017,-116403106.10813,   0.00000
180008873.32146,237962465.37630,164512455.14592,   0.00028,   0.00076,   0.00231,356913179.65530,   0.00012,274770810.01610,  -0.00008,   0.00003,   0.00017,-117857630.36080,   0.00000
179080716.85116,237034308.90599,163848682.63988,   0.00028,   0.00076,   0.00230,355451916.85759,   0.00012,274770810.01610,  -0.00008,   0.00003,   0.00017,-119318893.15851,   0.00000
178132872.21330,236097714.64959,163184910.13385,   0.00027,   0.00075,   0.00229,353983942.68436,   0.00012,274770810.01610,  -0.00008,   0.00003,   0.00017,-120786867.33174,   0.00000
177137213.45425,235124556.65346,162515512.43708,   0.00027,   0.00075,   0.00228,352485057.98065,   0.00012,274770810.01610,  -0.00008,   0.00003,   0.00017,-122285752.03546,   0.00000
176121866.52764,234142960.87122,161846114.74031,   0.00027,   0.00075,   0.00228,350979539.66204,   0.00012,274770810.01610,  -0.00008,   0.00003,   0.00017,-123791270.35406,   0.00000
175058705.47983,233124801.34925,161176717.04355,   0.00027,   0.00075,   0.00227,349450997.68032,   0.00012,274770810.01610,  -0.00008,   0.00003,   0.00017,-125319812.33579,   0.00000
173975856.26448,232098204.04119,160507319.34678,   0.00026,   0.00074,   0.00226,347915923.44740,   0.00012,274770810.01610,  -0.00008,   0.00003,   0.00017,-126854886.56870,   0.00000
172873318.88157,231063168.94703,159832296.45929,   0.00026,   0.00074,   0.00225,346366575.33913,   0.00012,274770810.01610,  -0.00008,   0.00003,   0.00017,-128404234.67698,   0.00000
171722967.37746,229991570.11313,159157273.57179,   0.00026,   0.00074,   0.00224,344794399.82229,   0.00012,274770810.01610,  -0.00008,   0.00003,   0.00017,-129976410.19381,   0.00000
170552927.70581,228911533.49314,158482250.68430,   0.00025,   0.00074,   0.00223,343215865.65630,   0.00012,274770810.01610,  -0.00008,   0.00003,   0.00017,-131554944.35980,   0.00000
169343511.69905,227814621.30096,157801602.60607,   0.00025,   0.00073,   0.00222,341616504.28618,   0.00012,274770810.01610,  -0.00008,   0.00003,   0.00017,-133154305.72993,   0.00000
168105969.73864,226689583.15514,157120954.52785,   0.00025,   0.00073,   0.00221,340001316.20643,   0.00012,274770810.01610,  -0.00008,   0.00003,   0.00017,-134769493.80967,   0.00000
166829051.44313,225547669.43712,156440306.44963,   0.00024,   0.00073,   0.00221,338373297.25126,   0.00012,274770810.01610,  -0.00008,   0.00003,   0.00017,-136397512.76485,   0.00000
165524007.19397,224377629.76547,155759658.37140,   0.00024,   0.00073,   0.00220,336729634.60495,   0.00012,274770810.01610,  -0.00008,   0.00003,   0.00017,-138041175.41116,   0.00000
164179586.60971,223190714.52162,155079010.29318,   0.00024,   0.00072,   0.00219,335073381.16188,   0.00012,274770810.01610,  -0.00008,   0.00003,   0.00017,-139697428.85422,   0.00000
162815477.85790,221995361.49168,154392737.02423,   0.00023,   0.00072,   0.00218,333403496.12430,   0.00012,274770810.01610,  -0.00008,   0.00003,   0.00017,-141367313.89180,   0.00000
161403554.98489,220763444.72200,153706463.75527,   0.00023,   0.00072,   0.00217,331711670.42915,   0.00012,274770810.01610,  -0.00008,   0.00003,   0.00017,-143059139.58695,   0.00000
159971943.94433,219523090.16623,153020190.48632,   0.00022,   0.00071,   0.00216,330014258.14699,   0.00012,274770810.01610,  -0.00008,   0.00003,   0.00017,-144756551.86911,   0.00000
158512206.95012,218254609.65682,152328292.02664,   0.00022,   0.00071,   0.00215,328293923.47432,   0.00012,274770810.01610,  -0.00008,   0.00003,   0.00017,-146476886.54178,   0.00000
157013093.62081,216969253.57521,151636393.56696,   0.00022,   0.00071,   0.00214,326561697.69723,   0.00012,274770810.01610,  -0.00008,   0.00003,   0.00017,-148209112.31887,   0.00000
155474603.95639,215667021.92142,150950120.29800,   0.00021,   0.00071,   0.00213,324825627.76682,   0.00012,274770810.01610,  -0.00008,   0.00003,   0.00017,-149945182.24928,   0.00000
153907988.33833,214336664.31398,150252596.64759,   0.00021,   0.00070,   0.00212,323059248.60606,   0.00012,274770810.01610,  -0.00008,   0.00003,   0.00017,-151711561.41004,   0.00000
152301996.38517,212989431.13436,149560698.18791,   0.00020,   0.00070,   0.00212,321289414.13390,   0.00012,274770810.01610,  -0.00008,   0.00003,   0.00017,-153481395.88220,   0.00000
150667878.47836,211614072.00109,148868799.72823,   0.00020,   0.00070,   0.00211,319505305.72597,   0.00012,274770810.01610,  -0.00008,   0.00003,   0.00017,-155265504.29013,   0.00000
149014072.40399,210230275.08172,148171276.07782,   0.00019,   0.00069,   0.00210,317708788.14790,   0.00012,274770810.01610,  -0.00008,   0.00003,   0.00017,-157062021.86821,   0.00000
147301201.82698,208821164.80408,147473752.42740,   0.00019,   0.00069,   0.00209,315895294.91955,   0.00012,274770810.01610,  -0.00008,   0.00003,   0.00017,-158875515.09655,   0.00000
145579893.46386,207392366.35888,146776228.77699,   0.00018,   0.00069,   0.00208,314074393.10955,   0.00012,274770810.01610,  -0.00008,   0.00003,   0.00017,-160696416.90656,   0.00000
143819208.76565,205946692.34149,146073079.93585,   0.00018,   0.00068,   0.00207,312235405.74663,   0.00012,274770810.01610,  -0.00008,   0.00003,   0.00017,-162535404.26948,   0.00000
142019147.73233,204484142.75192,145375556.28544,   0.00017,   0.00068,   0.00206,310394420.66040,   0.00012,274770810.01610,  -0.00008,   0.00003,   0.00017,-164376389.35570,   0.00000
140171272.57781,202985029.42261,144672407.44430,   0.00017,   0.00068,   0.00205,308526424.09453,   0.00012,274770810.01610,  -0.00008,   0.00003,   0.00017,-166244385.92157,   0.00000
138314959.63720,201466227.92575,143969258.60316,   0.00016,   0.00067,   0.00204,306651786.45899,   0.00012,274770810.01610,  -0.00008,   0.00003,   0.00017,-168119023.55711,   0.00000
136399582.19394,199922113.07060,143266109.76202,   0.00016,   0.00067,   0.00203,304762102.70007,   0.00012,274770810.01610,  -0.00008,   0.00003,   0.00017,-170008707.31604,   0.00000
134464516.58312,198369560.42936,142562960.92088,   0.00015,   0.00067,   0.00202,302869799.01686,   0.00012,274770810.01610,  -0.00008,   0.00003,   0.00017,-171901010.99924,   0.00000
132509762.80475,196808570.00203,141859812.07974,   0.00014,   0.00067,   0.00202,300975102.60120,   0.00012,274770810.01610,  -0.00008,   0.00003,   0.00017,-173795707.41491,   0.00000
130507194.90518,195211015.83496,141151038.04787,   0.00014,   0.00066,   0.00201,299054966.78721,   0.00012,274770810.01610,  -0.00008,   0.00003,   0.00017,-175715843.22889,   0.00000
128456812.88441,193576897.92815,140442264.01600,   0.00013,   0.00066,   0.00200,297117797.17450,   0.00012,274770810.01610,  -0.00008,   0.00003,   0.00017,-177653012.84161,   0.00000
126386742.69610,191934342.23525,139733489.98413,   0.00013,   0.00065,   0.00199,295179248.59551,   0.00012,274770810.01610,  -0.00008,   0.00003,   0.00017,-179591561.42059,   0.00000
124277296.17268,190274910.97016,139024715.95226,   0.00012,   0.00065,   0.00198,293233953.62858,   0.00012,274770810.01610,  -0.00008,   0.00003,   0.00017,-181536856.38753,   0.00000
122139723.69561,188587353.75142,138315941.92039,   0.00011,   0.00065,   0.00197,291278550.85415,   0.00012,274770810.01610,  -0.00008,   0.00003,   0.00017,-183492259.16195,   0.00000
119962774.88344,186882920.96050,137607167.88852,   0.00011,   0.00064,   0.00196,289317295.87188,   0.00012,274770810.01610,  -0.00008,   0.00003,   0.00017,-185453514.14422,   0.00000
117766137.90372,185170050.38348,136892768.66592,   0.00010,   0.00064,   0.00195,287348115.43796,   0.00012,274770810.01610,  -0.00008,   0.00003,   0.00017,-187422694.57815,   0.00000
115501998.63524,183412178.28063,136183994.63405,   0.00009,   0.00064,   0.00194,285367319.16670,   0.00012,274770810.01610,  -0.00008,   0.00003,   0.00017,-189403490.84940,   0.00000
113237859.36677,181654306.17778,135469595.41146,   0.00009,   0.00063,   0.00193,283384877.53125,   0.00012,274770810.01610,  -0.00008,   0.00003,   0.00017,-191385932.48485,   0.00000
110925905.97710,179859870.33518,134755196.18886,   0.00008,   0.00063,   0.00192,281389230.79547,   0.00012,274770810.01610,  -0.00008,   0.00003,   0.00017,-193381579.22063,   0.00000
108574576.25233,178048558.92041,134040796.96626,   0.00007,   0.00063,   0.00191,279390384.33514,   0.00012,274770810.01610,  -0.00008,   0.00003,   0.00017,-195380425.68097,   0.00000
106175432.40636,176200683.76589,133326397.74366,   0.00006,   0.00062,   0.00190,277379711.98883,   0.00012,274770810.01610,  -0.00008,   0.00003,   0.00017,-197391098.02727,   0.00000
103756600.39283,174344370.82528,132611998.52106,   0.00006,   0.00062,   0.00190,275372182.69886,   0.00012,274770810.01610,  -0.00008,   0.00003,   0.00017,-199398627.31725,   0.00000
101309642.42567,172459931.93102,131897599.29846,   0.00005,   0.00062,   0.00189,273359009.06222,   0.00012,274770810.01610,  -0.00008,   0.00003,   0.00017,-201411800.95389,   0.00000
98812057.74193,170569867.84604,131177574.88513,   0.00004,   0.00061,   0.00188,271341503.27550,   0.00012,274770810.01610,  -0.00008,   0.00003,   0.00017,-203429306.74060,   0.00000
96297597.48602,168640427.42595,130463175.66254,   0.00003,   0.00061,   0.00187,269323362.62514,   0.00012,274770810.01610,  -0.00008,   0.00003,   0.00017,-205447447.39096,   0.00000
93724072.72744,166685673.64758,129743151.24921,   0.00003,   0.00060,   0.00186,267293305.74600,   0.00012,274770810.01610,  -0.00008,   0.00003,   0.00017,-207477504.27011,   0.00000
91130859.80132,164722482.08311,129023126.83588,   0.00002,   0.00060,   0.00185,265269542.28941,   0.00012,274770810.01610,  -0.00008,   0.00003,   0.00017,-209501267.72670,   0.00000
88498270.54009,162742414.94646,128308727.61328,   0.00001,   0.00060,   0.00184,263256536.46231,   0.00012,274770810.01610,  -0.00008,   0.00003,   0.00017,-211514273.55379,   0.00000
85837555.32521,160734221.85617,127588703.19995,   0.00000,   0.00059,   0.00183,261233946.62911,   0.00012,274770810.01610,  -0.00008,   0.00003,   0.00017,-213536863.38699,   0.00000
83129025.98914,158689465.02613,126868678.78663,  -0.00001,   0.00059,   0.00182,259206607.90384,   0.00012,274770810.01610,  -0.00008,   0.00003,   0.00017,-215564202.11226,   0.00000
80400808.48551,156636270.41000,126148654.37330,  -0.00002,   0.00058,   0.00181,257188602.84729,   0.00012,274770810.01610,  -0.00008,   0.00003,   0.00017,-217582207.16881,   0.00000
77633214.64679,154566200.22168,125428629.95997,  -0.00002,   0.00058,   0.00180,255176760.12780,   0.00012,274770810.01610,  -0.00008,   0.00003,   0.00017,-219594049.88830,   0.00000
74817806.68686,152459566.29363,124702980.35591,  -0.00003,   0.00058,   0.00179,253154958.71560,   0.00012,274770810.01610,  -0.00008,   0.00003,   0.00017,-221615851.30051,   0.00000
71982710.55938,150344494.57948,123982955.94259,  -0.00004,   0.00057,   0.00178,251153525.80664,   0.00012,274770810.01610,  -0.00008,   0.00003,   0.00017,-223617284.20946,   0.00000
69099800.31071,148192859.12559,123262931.52926,  -0.00005,   0.00057,   0.00177,249152683.69677,   0.00012,274770810.01610,  -0.00008,   0.00003,   0.00017,-225618126.31933,   0.00000
66177513.72693,146024348.09951,122542907.11593,  -0.00006,   0.00056,   0.00176,247162573.04336,   0.00012,274770810.01610,  -0.00008,   0.00003,   0.00017,-227608236.97274,   0.00000
63227101.18950,143827711.11979,121817257.51187,  -0.00007,   0.00056,   0.00176,245170553.38907,   0.00012,274770810.01610,  -0.00008,   0.00003,   0.00017,-229600256.62704,   0.00000
60237312.31697,141614198.56788,121097233.09855,  -0.00008,   0.00055,   0.00175,243200073.84027,   0.00012,274770810.01610,  -0.00008,   0.00003,   0.00017,-231570736.17583,   0.00000
57208147.10934,139383810.44378,120371583.49449,  -0.00009,   0.00055,   0.00174,241235742.61683,   0.00012,274770810.01610,  -0.00008,   0.00003,   0.00017,-233535067.39927,   0.00000
54150855.94806,137125296.36604,119651559.08116,  -0.00010,   0.00055,   0.00173,239289984.54738,   0.00012,274770810.01610,  -0.00008,   0.00003,   0.00017,-235480825.46872,   0.00000
51045750.66559,134830218.54855,118925909.47710,  -0.00011,   0.00054,   0.00172,237344607.29395,   0.00012,274770810.01610,  -0.00008,   0.00003,   0.00017,-237426202.72216,   0.00000
47929395.00165,132546391.11253,118205885.06378,  -0.00012,   0.00054,   0.00171,235437461.24531,   0.00012,274770810.01610,  -0.00008,   0.00003,   0.00017,-239333348.77079,   0.00000
44756787.43043,130206311.76921,117480235.45972,  -0.00013,   0.00053,   0.00170,233525276.14520,   0.00012,274770810.01610,  -0.00008,   0.00003,   0.00017,-241245533.87090,   0.00000
41553241.31019,127869045.02126,116754585.85566,  -0.00014,   0.00053,   0.00169,231643457.08252,   0.00012,274770810.01610,  -0.00008,   0.00003,   0.00017,-243127352.93358,   0.00000
38313131.45022,125483964.15212,116034561.44234,  -0.00015,   0.00052,   0.00168,229779233.25388,   0.00012,274770810.01610,  -0.00008,   0.00003,   0.00017,-244991576.76222,   0.00000
35042083.04123,123101695.87833,115308911.83828,  -0.00016,   0.00052,   0.00167,227940059.46847,   0.00012,274770810.01610,  -0.00008,   0.00003,   0.00017,-246830750.54764,   0.00000
31723220.51105,120682863.86481,114583262.23422,  -0.00017,   0.00052,   0.00166,226119966.39091,   0.00012,274770810.01610,  -0.00008,   0.00003,   0.00017,-248650843.62519,   0.00000
28376232.02722,118235905.89764,113863237.82089,  -0.00018,   0.00051,   0.00165,224330919.11052,   0.00012,274770810.01610,  -0.00008,   0.00003,   0.00017,-250439890.90558,   0.00000
24989867.20829,115772072.35828,113137588.21684,  -0.00019,   0.00051,   0.00164,222564325.73332,   0.00012,274770810.01610,  -0.00008,   0.00003,   0.00017,-252206484.28279,   0.00000
21583814.22180,113299801.03284,112411938.61278,  -0.00020,   0.00050,   0.00163,220831600.82206,   0.00012,274770810.01610,  -0.00008,   0.00003,   0.00017,-253939209.19405,   0.00000
18129947.11412,110790965.96765,111686289.00872,  -0.00021,   0.00050,   0.00162,219125946.03631,   0.00012,274770810.01610,  -0.00008,   0.00003,   0.00017,-255644863.97979,   0.00000
14636703.67134,108265255.33027,110966264.59540,  -0.00022,   0.00049,   0.00161,217466061.21574,   0.00012,274770810.01610,  -0.00008,   0.00003,   0.00017,-257304748.80037,   0.00000
11095646.10735,105702980.95315,110240614.99134,  -0.00023,   0.00049,   0.00160,215829493.48219,   0.00012,274770810.01610,  -0.00008,   0.00003,   0.00017,-258941316.53391,   0.00000
7526462.58972,103112580.62239,109520590.57801,  -0.00024,   0.00048,   0.00160,214235987.22626,   0.00012,274770810.01610,  -0.00008,   0.00003,   0.00017,-260534822.78985,   0.00000
3946028.69064,100533430.67309,108794940.97395,  -0.00025,   0.00048,   0.00159,212684864.45467,   0.00012,274770810.01610,  -0.00008,   0.00003,   0.00017,-262085945.56143,   0.00000
289654.71671,97889591.03040,108069291.36990,  -0.00027,   0.00047,   0.00158,211165851.78899,   0.00012,274770810.01610,  -0.00008,   0.00003,   0.00017,-263604958.22711,   0.00000
-3377969.63868,95257001.76917,107349266.95657,  -0.00028,   0.00047,   0.00157,209710938.37260,   0.00012,274770810.01610,  -0.00008,   0.00003,   0.00017,-265059871.64350,   0.00000
-7073719.94771,92596286.55430,106623617.35251,  -0.00029,   0.00046,   0.00156,208290415.83528,   0.00012,274770810.01610,  -0.00008,   0.00003,   0.00017,-266480394.18083,   0.00000
-10817284.37795,89899007.59968,105903592.93918,  -0.00030,   0.00046,   0.00155,206925158.76883,   0.00012,274770810.01610,  -0.00008,   0.00003,   0.00017,-267845651.24727,   0.00000
-14600225.14328,87184853.07288,105183568.52586,  -0.00031,   0.00045,   0.00154,205616227.29499,   0.00012,274770810.01610,  -0.00008,   0.00003,   0.00017,-269154582.72112,   0.00000
-18430980.02981,84434134.80634,104457918.92180,  -0.00032,   0.00045,   0.00153,204351164.60208,   0.00012,274770810.01610,  -0.00008,   0.00003,   0.00017,-270419645.41403,   0.00000
-22281423.08390,81674978.75370,103737894.50847,  -0.00034,   0.00044,   0.00152,203154500.31243,   0.00012,274770810.01610,  -0.00008,   0.00003,   0.00017,-271616309.70367,   0.00000
-26171242.47309,78898947.12888,103017870.09514,  -0.00035,   0.00044,   0.00151,202022043.21220,   0.00012,274770810.01610,  -0.00008,   0.00003,   0.00017,-272748766.80390,   0.00000
-30089187.81592,76094789.55041,102297845.68182,  -0.00036,   0.00043,   0.00150,200947640.76286,   0.00012,274770810.01610,  -0.00008,   0.00003,   0.00017,-273823169.25324,   0.00000
-34046509.49386,73273756.39976,101577821.26849,  -0.00037,   0.00043,   0.00149,199942704.66691,   0.00012,274770810.01610,  -0.00008,   0.00003,   0.00017,-274828105.34919,   0.00000
-38051645.29300,70416159.50936,100852171.66443,  -0.00039,   0.00042,   0.00148,198995717.39712,   0.00012,274770810.01610,  -0.00008,   0.00003,   0.00017,-275775092.61899,   0.00000
-42084907.04578,67530436.66532,100137772.44183,  -0.00040,   0.00042,   0.00147,198131854.67239,   0.00012,274770810.01610,  -0.00008,   0.00003,   0.00017,-276638955.34372,   0.00000
-46157545.13366,64627838.24910,99417748.02851,  -0.00041,   0.00041,   0.00146,197337286.59219,   0.00012,274770810.01610,  -0.00008,   0.00003,   0.00017,-277433523.42391,   0.00000
-50249871.38910,61716802.04678,98697723.61518,  -0.00042,   0.00041,   0.00145,196618911.94733,   0.00012,274770810.01610,  -0.00008,   0.00003,   0.00017,-278151898.06877,   0.00000
-54409699.93329,58760764.31862,97977699.20185,  -0.00044,   0.00040,   0.00145,195982874.37230,   0.00012,274770810.01610,  -0.00008,   0.00003,   0.00017,-278787935.64380,   0.00000
-58569528.47747,55804726.59047,97263299.97925,  -0.00045,   0.00040,   0.00144,195431477.16704,   0.00012,274770810.01610,  -0.00008,   0.00003,   0.00017,-279339332.84907,   0.00000
-62796859.31041,52803687.33648,96543275.56592,  -0.00046,   0.00039,   0.00143,194959977.51157,   0.00012,274770810.01610,  -0.00008,   0.00003,   0.00017,-279810832.50453,   0.00000
-67043878.31090,49794210.29640,95828876.34332,  -0.00048,   0.00039,   0.00142,194582277.19240,   0.00012,274770810.01610,  -0.00008,   0.00003,   0.00017,-280188532.82370,   0.00000
-71319023.26503,46756607.30267,95114477.12073,  -0.00049,   0.00038,   0.00141,194287184.97059,   0.00012,274770810.01610,  -0.00008,   0.00003,   0.00017,-280483625.04552,   0.00000
-75653232.72182,43693690.95067,94394452.70740,  -0.00051,   0.00037,   0.00140,194085180.59323,   0.00012,274770810.01610,  -0.00008,   0.00003,   0.00017,-280685629.42287,   0.00000
-79995879.96470,40611086.43111,93680053.48480,  -0.00052,   0.00037,   0.00139,193972106.26934,   0.00012,274770810.01610,  -0.00008,   0.00003,   0.00017,-280798703.74676,   0.00000
-84397591.71024,37503168.55327,92971279.45293,  -0.00053,   0.00036,   0.00138,193973180.24605,   0.00012,274770810.01610,  -0.00008,   0.00003,   0.00017,-280797629.77005,   0.00000
-88818991.62333,34386812.88933,92256880.23033,  -0.00055,   0.00036,   0.00137,194060464.98229,   0.00012,274770810.01610,  -0.00008,   0.00003,   0.00017,-280710345.03381,   0.00000
-93288205.65762,31233893.48566,91542481.00773,  -0.00056,   0.00035,   0.00136,194247462.74591,   0.00012,274770810.01610,  -0.00008,   0.00003,   0.00017,-280523347.27019,   0.00000
-97785545.64556,28052848.12834,90833706.97586,  -0.00058,   0.00035,   0.00135,194536436.83224,   0.00012,274770810.01610,  -0.00008,   0.00003,   0.00017,-280234373.18387,   0.00000
-102322261.96859,24854927.19883,90119307.75326,  -0.00059,   0.00034,   0.00134,194923815.79033,   0.00012,274770810.01610,  -0.00008,   0.00003,   0.00017,-279846994.22578,   0.00000
-106887104.24528,21628880.31568,89410533.72140,  -0.00060,   0.00033,   0.00133,195415558.55073,   0.00012,274770810.01610,  -0.00008,   0.00003,   0.00017,-279355251.46537,   0.00000
-111491322.85706,18385957.86034,88701759.68953,  -0.00062,   0.00033,   0.00132,196015917.20766,   0.00012,274770810.01610,  -0.00008,   0.00003,   0.00017,-278754892.80845,   0.00000
-116134917.80395,15126159.83281,87992985.65766,  -0.00063,   0.00032,   0.00132,196725930.54384,   0.00012,274770810.01610,  -0.00008,   0.00003,   0.00017,-278044879.47227,   0.00000
-120806638.70449,11838235.85164,87284211.62579,  -0.00065,   0.00032,   0.00131,197535126.14720,   0.00012,274770810.01610,  -0.00008,   0.00003,   0.00017,-277235683.86890,   0.00000
-125526173.72623,8513748.13073,86581062.78465,  -0.00066,   0.00031,   0.00130,198461189.46347,   0.00012,274770810.01610,  -0.00008,   0.00003,   0.00017,-276309620.55263,   0.00000
-130265396.91551,5180822.62372,85872288.75278,  -0.00068,   0.00031,   0.00129,199481694.39566,   0.00012,274770810.01610,  -0.00008,   0.00003,   0.00017,-275289115.62044,   0.00000
-135043996.43990,1831021.54453,85169139.91164,  -0.00069,   0.00030,   0.00128,200621158.55802,   0.00012,274770810.01610,  -0.00008,   0.00003,   0.00017,-274149651.45809,   0.00000
-139850721.91794,-1546905.48831,84465991.07050,  -0.00071,   0.00029,   0.00127,201860824.40841,   0.00012,274770810.01610,  -0.00008,   0.00003,   0.00017,-272909985.60769,   0.00000
-144705261.51717,-4961396.26089,83762842.22936,  -0.00072,   0.00029,   0.00126,203211538.14488,   0.00012,274770810.01610,  -0.00008,   0.00003,   0.00017,-271559271.87122,   0.00000
-149599177.45151,-8392762.60565,83059693.38822,  -0.00074,   0.00028,   0.00125,204674228.89364,   0.00012,274770810.01610,  -0.00008,   0.00003,   0.00017,-270096581.12247,   0.00000
-154512781.55340,-11832566.73651,82362169.73780,  -0.00076,   0.00028,   0.00124,206243805.99505,   0.00012,274770810.01610,  -0.00008,   0.00003,   0.00017,-268527004.02105,   0.00000
-159474199.77648,-15308934.60711,81659020.89666,  -0.00077,   0.00027,   0.00123,207917269.26511,   0.00012,274770810.01610,  -0.00008,   0.00003,   0.00017,-266853540.75099,   0.00000
-164463743.95322,-18813428.43135,80961497.24625,  -0.00079,   0.00026,   0.00122,209696050.02741,   0.00012,274770810.01610,  -0.00008,   0.00003,   0.00017,-265074759.98869,   0.00000
-169492664.46505,-22334797.82778,80263973.59584,  -0.00080,   0.00026,   0.00122,211584353.10659,   0.00012,274770810.01610,  -0.00008,   0.00003,   0.00017,-263186456.90952,   0.00000
-174541273.14444,-25864605.01031,79566449.94543,  -0.00082,   0.00025,   0.00121,213568847.46166,   0.00012,274770810.01610,  -0.00008,   0.00003,   0.00017,-261201962.55445,   0.00000
-179637695.94503,-29430975.93257,78874551.48575,  -0.00084,   0.00024,   0.00120,215667698.22826,   0.00012,274770810.01610,  -0.00008,   0.00003,   0.00017,-259103111.78785,   0.00000
-184753806.91316,-33005784.64093,78177027.83534,  -0.00085,   0.00024,   0.00119,217853964.08972,   0.00012,274770810.01610,  -0.00008,   0.00003,   0.00017,-256916845.92639,   0.00000
-189917732.00250,-36617157.08903,77485129.37565,  -0.00087,   0.00023,   0.00118,220152559.64584,   0.00012,274770810.01610,  -0.00008,   0.00003,   0.00017,-254618250.37027,   0.00000
-195129471.21303,-40265093.27686,76793230.91597,  -0.00089,   0.00023,   0.00117,222556695.82503,   0.00012,274770810.01610,  -0.00008,   0.00003,   0.00017,-252214114.19107,   0.00000
-200360898.59112,-43921467.25079,76106957.64702,  -0.00090,   0.00022,   0.00116,225056098.18609,   0.00012,274770810.01610,  -0.00008,   0.00003,   0.00017,-249714711.83001,   0.00000
-205612014.13675,-47586279.01082,75415059.18734,  -0.00092,   0.00021,   0.00115,227637292.83988,   0.00012,274770810.01610,  -0.00008,   0.00003,   0.00017,-247133517.17623,   0.00000
-210910943.80359,-51287654.51058,74728785.91838,  -0.00094,   0.00021,   0.00114,230325631.30821,   0.00012,274770810.01610,  -0.00008,   0.00003,   0.00017,-244445178.70790,   0.00000
-216249249.80552,-55005905.58253,74042512.64943,  -0.00095,   0.00020,   0.00113,233112168.09003,   0.00012,274770810.01610,  -0.00008,   0.00003,   0.00017,-241658641.92607,   0.00000
-221615681.76111,-58752282.60813,73356239.38048,  -0.00097,   0.00019,   0.00113,235983744.17960,   0.00012,274770810.01610,  -0.00008,   0.00003,   0.00017,-238787065.83650,   0.00000
-227010239.67034,-62526785.58737,72675591.30225,  -0.00099,   0.00019,   0.00112,238944035.21006,   0.00012,274770810.01610,  -0.00008,   0.00003,   0.00017,-235826774.80605,   0.00000
-232435736.12858,-66298475.97124,71994943.22403,  -0.00100,   0.00018,   0.00111,241994916.94798,   0.00012,274770810.01610,  -0.00008,   0.00003,   0.00017,-232775893.06813,   0.00000
-237917484.49411,-70126418.26241,71314295.14581,  -0.00102,   0.00017,   0.00110,245143486.58117,   0.00012,274770810.01610,  -0.00008,   0.00003,   0.00017,-229627323.43493,   0.00000
-243418921.02719,-73962798.33967,70633647.06758,  -0.00104,   0.00017,   0.00109,248367989.84266,   0.00012,274770810.01610,  -0.00008,   0.00003,   0.00017,-226402820.17344,   0.00000
-248940045.72782,-77807616.20303,69952998.98936,  -0.00106,   0.00016,   0.00108,251666458.18112,   0.00012,274770810.01610,  -0.00008,   0.00003,   0.00017,-223104351.83498,   0.00000
-254508984.54966,-81688997.80613,69277976.10186,  -0.00107,   0.00015,   0.00107,255060082.36661,   0.00012,274770810.01610,  -0.00008,   0.00003,   0.00017,-219710727.64950,   0.00000
-260097611.53904,-85578817.19531,68602953.21437,  -0.00109,   0.00015,   0.00106,258524178.94507,   0.00012,274770810.01610,  -0.00008,   0.00003,   0.00017,-216246631.07103,   0.00000
-265734052.64962,-89505200.32424,67933555.51760,  -0.00111,   0.00014,   0.00105,262080315.74898,   0.00012,274770810.01610,  -0.00008,   0.00003,   0.00017,-212690494.26712,   0.00000
-271398619.71385,-93459709.40682,67258532.63011,  -0.00113,   0.00013,   0.00105,265703260.36349,   0.00012,274770810.01610,  -0.00008,   0.00003,   0.00017,-209067549.65262,   0.00000
-277102563.11318,-97431094.06158,66589134.93334,  -0.00115,   0.00012,   0.00104,269411546.44161,   0.00012,274770810.01610,  -0.00008,   0.00003,   0.00017,-205359263.57450,   0.00000
-282826194.68006,-101410916.50243,65919737.23658,  -0.00116,   0.00012,   0.00103,273183824.63405,   0.00012,274770810.01610,  -0.00008,   0.00003,   0.00017,-201586985.38206,   0.00000
-288577952.20059,-105418864.89693,65255964.73054,  -0.00118,   0.00011,   0.00102,277026775.26896,   0.00012,274770810.01610,  -0.00008,   0.00003,   0.00017,-197744034.74715,   0.00000
-294369086.05622,-109443688.86362,64592192.22450,  -0.00120,   0.00010,   0.00101,280946071.48232,   0.00012,274770810.01610,  -0.00008,   0.00003,   0.00017,-193824738.53378,   0.00000
-300208034.03305,-113505076.57005,63928419.71847,  -0.00122,   0.00010,   0.00100,284945010.06054,   0.00012,274770810.01610,  -0.00008,   0.00003,   0.00017,-189825799.95557,   0.00000
-306055419.79598,-117586152.44402,63264647.21243,  -0.00124,   0.00009,   0.00099,288990987.30820,   0.00012,274770810.01610,  -0.00008,   0.00003,   0.00017,-185779822.70790,   0.00000
-311942181.89400,-121684103.89019,62606499.89712,  -0.00126,   0.00008,   0.00099,293113054.30351,   0.00012,274770810.01610,  -0.00008,   0.00003,   0.00017,-181657755.71259,   0.00000
-317868320.32713,-125798930.90854,61948352.58182,  -0.00128,   0.00008,   0.00098,297306139.15841,   0.00012,274770810.01610,  -0.00008,   0.00003,   0.00017,-177464670.85769,   0.00000
-323822584.71391,-129941883.88054,61290205.26651,  -0.00130,   0.00007,   0.00097,301558138.07832,   0.00012,274770810.01610,  -0.00008,   0.00003,   0.00017,-173212671.93778,   0.00000
-329796537.26824,-134093274.63864,60637683.14193,  -0.00131,   0.00006,   0.00096,305866066.27921,   0.00012,274770810.01610,  -0.00008,   0.00003,   0.00017,-168904743.73690,   0.00000
-335818303.94377,-138281229.13647,59979535.82662,  -0.00133,   0.00005,   0.00095,310243288.26459,   0.00012,274770810.01610,  -0.00008,   0.00003,   0.00017,-164527521.75152,   0.00000
-341868196.57294,-142497309.58795,59332638.89277,  -0.00135,   0.00005,   0.00094,314682593.95214,   0.00012,274770810.01610,  -0.00008,   0.00003,   0.00017,-160088216.06396,   0.00000
-347937777.36966,-146721827.82552,58680116.76820,  -0.00137,   0.00004,   0.00093,319167657.08318,   0.00012,274770810.01610,  -0.00008,   0.00003,   0.00017,-155603152.93293,   0.00000
-354046734.50149,-150963221.63528,58033219.83435,  -0.00139,   0.00003,   0.00093,323719805.79029,   0.00012,274770810.01610,  -0.00008,   0.00003,   0.00017,-151051004.22582,   0.00000
-360183817.58696,-155232741.39868,57391948.09123,  -0.00141,   0.00002,   0.00092,328327233.35008,   0.00012,274770810.01610,  -0.00008,   0.00003,   0.00017,-146443576.66602,   0.00000
-366340588.83999,-159510698.94818,56745051.15738,  -0.00143,   0.00002,   0.00091,332977250.31025,   0.00012,274770810.01610,  -0.00008,   0.00003,   0.00017,-141793559.70586,   0.00000
-372545174.21421,-163825220.23742,56103779.41426,  -0.00145,   0.00001,   0.00090,337696930.09531,   0.00012,274770810.01610,  -0.00008,   0.00003,   0.00017,-137073879.92079,   0.00000
-378777885.54208,-168167867.48030,55462507.67114,  -0.00147,   0.00000,   0.00089,342466229.34211,   0.00012,274770810.01610,  -0.00008,   0.00003,   0.00017,-132304580.67399,   0.00000
-385030285.03750,-172518952.50928,54826861.11875,  -0.00149,  -0.00001,   0.00088,347280926.64634,   0.00012,274770810.01610,  -0.00008,   0.00003,   0.00017,-127489883.36976,   0.00000
-391322060.86802,-176886913.11044,54191214.56636,  -0.00151,  -0.00001,   0.00088,352153726.63271,   0.00012,274770810.01610,  -0.00008,   0.00003,   0.00017,-122617083.38339,   0.00000
-397641962.65219,-181282999.66525,53555568.01396,  -0.00153,  -0.00002,   0.00087,357073557.18822,   0.00012,274770810.01610,  -0.00008,   0.00003,   0.00017,-117697252.82788,   0.00000
-403981552.60392,-185687524.00615,52925546.65230,  -0.00155,  -0.00003,   0.00086,362035851.31028,   0.00012,274770810.01610,  -0.00008,   0.00003,   0.00017,-112734958.70582,   0.00000
-410368956.67684,-190128612.08680,52295525.29064,  -0.00157,  -0.00004,   0.00085,367060152.37000,   0.00012,274770810.01610,  -0.00008,   0.00003,   0.00017,-107710657.64611,   0.00000
-416764798.53585,-194589388.33499,51671129.11971,  -0.00159,  -0.00004,   0.00084,372115085.52877,   0.00012,274770810.01610,  -0.00008,   0.00003,   0.00017,-102655724.48734,   0.00000
-423200016.72997,-199067040.15537,51046732.94878,  -0.00161,  -0.00005,   0.00084,377224167.76574,   0.00012,274770810.01610,  -0.00008,   0.00003,   0.00017,-97546642.25036,   0.00000
-429674611.25919,-203561567.54794,50422336.77784,  -0.00163,  -0.00006,   0.00083,382386691.81635,   0.00012,274770810.01610,  -0.00008,   0.00003,   0.00017,-92384118.19976,   0.00000
-436157643.57450,-208075783.10806,49797940.60691,  -0.00165,  -0.00007,   0.00082,387575390.06654,   0.00012,274770810.01610,  -0.00008,   0.00003,   0.00017,-87195419.94956,   0.00000
-442688490.01101,-212626562.40793,49184794.81744,  -0.00168,  -0.00008,   0.00081,392827257.84337,   0.00012,274770810.01610,  -0.00008,   0.00003,   0.00017,-81943552.17273,   0.00000
-449230586.82898,-217166091.32633,48566023.83723,  -0.00170,  -0.00008,   0.00080,398104956.93078,   0.00012,274770810.01610,  -0.00008,   0.00003,   0.00017,-76665853.08532,   0.00000
-455809247.38669,-221753434.36593,47952878.04776,  -0.00172,  -0.00009,   0.00079,403432553.43582,   0.00012,274770810.01610,  -0.00008,   0.00003,   0.00017,-71338256.58028,   0.00000
-462427284.27951,-226357652.97771,47339732.25828,  -0.00174,  -0.00010,   0.00079,408810440.56652,   0.00012,274770810.01610,  -0.00008,   0.00003,   0.00017,-65960369.44959,   0.00000
-469045321.17232,-230961871.58950,46726586.46881,  -0.00176,  -0.00011,   0.00078,414204582.12409,   0.00012,274770810.01610,  -0.00008,   0.00003,   0.00017,-60566227.89201,   0.00000
-475711172.18633,-235602653.94103,46119065.87006,  -0.00178,  -0.00012,   0.00077,419656788.24562,   0.00012,274770810.01610,  -0.00008,   0.00003,   0.00017,-55114021.77048,   0.00000
-482405149.15399,-240271562.24620,45517170.46205,  -0.00180,  -0.00012,   0.00076,425149798.48553,   0.00012,274770810.01610,  -0.00008,   0.00003,   0.00017,-49621011.53058,   0.00000
-489118814.28920,-244948908.33747,44915275.05403,  -0.00182,  -0.00013,   0.00076,430674132.47079,   0.00012,274770810.01610,  -0.00008,   0.00003,   0.00017,-44096677.54531,   0.00000
-495852167.59196,-249634692.21483,44313379.64601,  -0.00185,  -0.00014,   0.00075,436229269.15662,   0.00012,274770810.01610,  -0.00008,   0.00003,   0.00017,-38541540.85949,   0.00000
-502633335.01591,-254357039.83193,43717109.42873,  -0.00187,  -0.00015,   0.00074,441840472.27047,   0.00012,274770810.01610,  -0.00008,   0.00003,   0.00017,-32930337.74563,   0.00000
-509414502.43987,-259079387.44902,43120839.21144,  -0.00189,  -0.00016,   0.00073,447464733.10212,   0.00012,274770810.01610,  -0.00008,   0.00003,   0.00017,-27306076.91399,   0.00000
-516243483.98503,-263838298.80586,42524568.99415,  -0.00191,  -0.00017,   0.00072,453142579.10062,   0.00012,274770810.01610,  -0.00008,   0.00003,   0.00017,-21628230.91548,   0.00000
-523100591.48383,-268625336.11635,41933923.96760,  -0.00193,  -0.00017,   0.00072,458858463.73616,   0.00012,274770810.01610,  -0.00008,   0.00003,   0.00017,-15912346.27994,   0.00000
-529977387.15018,-273420811.21292,41343278.94104,  -0.00195,  -0.00018,   0.00071,464602974.50247,   0.00012,274770810.01610,  -0.00008,   0.00003,   0.00017,-10167835.51363,   0.00000
-536873870.98409,-278224724.09559,40758259.10521,  -0.00198,  -0.00019,   0.00070,470377160.23494,   0.00012,274770810.01610,  -0.00008,   0.00003,   0.00017,-4393649.78116,   0.00000
-542110743.50486,-281879048.62471,40320080.49462,  -0.00199,  -0.00020,   0.00070,474770810.30941,   0.00012,274770810.01610,  -0.00008,   0.00003,   0.00017,   0.29331,   0.00000
-542188118.87703,-282330574.41838,40042618.20565,  -0.00200,  -0.00020,   0.00069,474770810.30941,   0.00012,274776221.26191,  -0.00008,   0.00003,   0.00017,   0.00000,   2.00000
-542493739.70634,-284159678.96195,38911240.14911,  -0.00202,  -0.00021,   0.00069,480613562.72671,   0.00014,274798470.60024,  -0.00011,   0.00003,   0.00018,   0.00000,   2.00000
-542778323.55750,-285972212.09644,37797313.16544,  -0.00204,  -0.00022,   0.00068,480673634.17705,   0.00016,274820816.09494,  -0.00013,   0.00003,   0.00019,   0.00000,   2.00000
-543042912.99401,-287767813.65353,36699368.13250,  -0.00206,  -0.00023,   0.00067,480750371.77880,   0.00019,274843320.47486,  -0.00016,   0.00003,   0.00019,   0.00000,   2.00000
-543289415.97612,-289517197.52674,35616249.77909,  -0.00209,  -0.00023,   0.00066,480776445.86337,   0.00021,274865791.31482,  -0.00018,   0.00002,   0.00020,   0.00000,   2.00000
-543517495.80237,-291266552.73206,34544500.83779,  -0.00211,  -0.00024,   0.00066,480842448.63743,   0.00023,274888379.77590,  -0.00020,   0.00002,   0.00021,   0.00000,   2.00000
-543727676.10680,-292983823.58401,33489572.13637,  -0.00213,  -0.00025,   0.00065,480910774.08917,   0.00025,274911094.24588,  -0.00023,   0.00002,   0.00021,   0.00000,   2.00000
-543919770.39507,-294670568.75097,32454110.41386,  -0.00215,  -0.00026,   0.00064,480945135.26463,   0.00027,274933806.40433,  -0.00025,   0.00002,   0.00022,   0.00000,   2.00000
-544095874.78043,-296341598.96920,31429356.42703,  -0.00218,  -0.00027,   0.00063,481019686.17969,   0.00029,274956667.54345,  -0.00028,   0.00002,   0.00023,   0.00000,   2.00000
-544256321.37709,-297983285.54978,30418469.32692,  -0.00220,  -0.00028,   0.00063,481052481.52717,   0.00031,274979520.43153,  -0.00031,   0.00002,   0.00023,   0.00000,   2.00000
-544400433.86236,-299608835.94423,29423867.03976,  -0.00222,  -0.00029,   0.00062,481127847.61396,   0.00033,275002524.77547,  -0.00033,   0.00002,   0.00024,   0.00000,   2.00000
-544529983.48299,-301205622.72127,28442965.20753,  -0.00225,  -0.00030,   0.00061,481160247.32860,   0.00035,275025519.43542,  -0.00036,   0.00001,   0.00024,   0.00000,   2.00000
-544643806.87666,-302787479.32296,27479474.68056,  -0.00227,  -0.00030,   0.00061,481218413.65679,   0.00037,275048600.85781,  -0.00038,   0.00001,   0.00025,   0.00000,   2.00000
-544744890.80902,-304339160.21035,26527307.70885,  -0.00229,  -0.00031,   0.00060,481284047.81569,   0.00039,275071796.74783,  -0.00041,   0.00001,   0.00025,   0.00000,   2.00000
-544830840.32236,-305877330.56684,25593557.77397,  -0.00232,  -0.00032,   0.00059,481325099.53830,   0.00042,275095015.20366,  -0.00043,   0.00001,   0.00026,   0.00000,   2.00000
-544904679.28779,-307386824.03931,24672072.23365,  -0.00234,  -0.00033,   0.00058,481373527.77315,   0.00044,275118283.98534,  -0.00046,   0.00001,   0.00026,   0.00000,   2.00000
-544964709.59101,-308882161.17018,23767820.55301,  -0.00236,  -0.00034,   0.00058,481431025.37422,   0.00046,275141636.57835,  -0.00048,   0.00000,   0.00027,   0.00000,   2.00000
-545013598.62210,-310349305.04374,22875687.33972,  -0.00239,  -0.00035,   0.00057,481479101.95804,   0.00048,275165038.13536,  -0.00051,   0.00000,   0.00027,   0.00000,   2.00000
-545050937.34889,-311788182.97868,22001121.81026,  -0.00241,  -0.00036,   0.00056,481527764.56293,   0.00050,275188491.07059,  -0.00054,  -0.00000,   0.00028,   0.00000,   2.00000
-545075347.05357,-313228569.03293,21137620.82153,  -0.00243,  -0.00037,   0.00056,481592531.80093,   0.00052,275212054.23816,  -0.00056,  -0.00001,   0.00028,   0.00000,   2.00000
-545090559.17693,-314626512.59637,20291962.16242,  -0.00246,  -0.00038,   0.00055,481632300.76959,   0.00054,275235635.90553,  -0.00059,  -0.00001,   0.00029,   0.00000,   2.00000
-545094671.80449,-316013365.99945,19458440.87853,  -0.00248,  -0.00039,   0.00054,481671460.98592,   0.00057,275259233.95439,  -0.00062,  -0.00001,   0.00029,   0.00000,   2.00000
-545087957.79854,-317385794.84389,18640953.32529,  -0.00250,  -0.00040,   0.00054,481744813.34534,   0.00059,275282973.79832,  -0.00064,  -0.00001,   0.00029,   0.00000,   2.00000
-545072424.67715,-318733092.03221,17835769.49906,  -0.00253,  -0.00040,   0.00053,481775127.89128,   0.00061,275306697.64045,  -0.00067,  -0.00002,   0.00030,   0.00000,   2.00000
-545048167.44139,-320053728.19493,17047570.08702,  -0.00255,  -0.00041,   0.00052,481822619.33281,   0.00063,275330468.90019,  -0.00069,  -0.00002,   0.00030,   0.00000,   2.00000
-545013982.35569,-321362259.17918,16275856.11375,  -0.00257,  -0.00042,   0.00052,481878694.87012,   0.00065,275354318.80924,  -0.00072,  -0.00002,   0.00030,   0.00000,   2.00000
-544971491.02471,-322659422.41550,15509472.82323,  -0.00260,  -0.00043,   0.00051,481933569.94068,   0.00068,275378242.68473,  -0.00075,  -0.00003,   0.00031,   0.00000,   2.00000
-544920505.96177,-323932004.08900,14765926.76671,  -0.00262,  -0.00044,   0.00050,481964389.45092,   0.00070,275402153.23997,  -0.00077,  -0.00003,   0.00031,   0.00000,   2.00000
-544863108.07015,-325179330.26238,14033299.24939,  -0.00265,  -0.00045,   0.00050,482010624.80874,   0.00072,275426107.04745,  -0.00080,  -0.00003,   0.00031,   0.00000,   2.00000
-544797760.42031,-326415693.56293,13311222.81106,  -0.00267,  -0.00046,   0.00049,482065703.75091,   0.00074,275450136.08391,  -0.00083,  -0.00004,   0.00032,   0.00000,   2.00000
-544726147.82160,-327626985.56280,12605445.09919,  -0.00269,  -0.00047,   0.00048,482112187.33064,   0.00076,275474209.35308,  -0.00085,  -0.00004,   0.00032,   0.00000,   2.00000
-544646720.66854,-328827443.59516,11915536.61763,  -0.00272,  -0.00048,   0.00048,482167527.70799,   0.00079,275498358.79323,  -0.00088,  -0.00005,   0.00032,   0.00000,   2.00000
-544561866.11899,-330005619.12848,11236534.78280,  -0.00274,  -0.00049,   0.00047,482196539.81992,   0.00081,275522489.52787,  -0.00091,  -0.00005,   0.00032,   0.00000,   2.00000
-544470248.15848,-331173614.41405,10567632.87957,  -0.00277,  -0.00050,   0.00046,482251255.46651,   0.00083,275546694.43105,  -0.00094,  -0.00005,   0.00033,   0.00000,   2.00000
-544373367.74922,-332319652.57029,9914920.56101,  -0.00279,  -0.00051,   0.00046,482280409.05799,   0.00085,275570881.68781,  -0.00096,  -0.00006,   0.00033,   0.00000,   2.00000
-544272493.88403,-333439956.40753,9277415.95213,  -0.00282,  -0.00052,   0.00045,482342764.78601,   0.00088,275595171.16297,  -0.00099,  -0.00006,   0.00033,   0.00000,   2.00000
-544165262.53896,-334552969.52717,8649977.10447,  -0.00284,  -0.00053,   0.00044,482380499.11284,   0.00090,275619474.14853,  -0.00102,  -0.00007,   0.00033,   0.00000,   2.00000
-544051532.29916,-335658580.92253,8038015.45976,  -0.00286,  -0.00054,   0.00044,482418483.71968,   0.00092,275643791.65645,  -0.00104,  -0.00007,   0.00033,   0.00000,   2.00000
-543935086.51168,-336739119.96343,7435366.68489,  -0.00289,  -0.00055,   0.00043,482480173.22251,   0.00094,275668208.87700,  -0.00107,  -0.00008,   0.00034,   0.00000,   2.00000
-543814963.36126,-337799304.76503,6848074.84936,  -0.00291,  -0.00056,   0.00043,482508654.50666,   0.00097,275692607.17245,  -0.00110,  -0.00008,   0.00034,   0.00000,   2.00000
-543689130.96878,-338852950.79762,6275764.73559,  -0.00294,  -0.00057,   0.00042,482546321.93559,   0.00099,275717019.58362,  -0.00112,  -0.00009,   0.00034,   0.00000,   2.00000
-543560942.59199,-339884599.39036,5712603.42128,  -0.00296,  -0.00058,   0.00041,482590944.43111,   0.00101,275741471.29576,  -0.00115,  -0.00009,   0.00034,   0.00000,   2.00000
-543428224.12079,-340907895.60443,5158383.13628,  -0.00299,  -0.00059,   0.00041,482644928.66028,   0.00103,275765995.53687,  -0.00118,  -0.00010,   0.00034,   0.00000,   2.00000
-543292687.66995,-341911820.92123,4624390.65361,  -0.00301,  -0.00060,   0.00040,482673106.30310,   0.00106,275790500.73918,  -0.00121,  -0.00010,   0.00034,   0.00000,   2.00000
-543153228.88150,-342907858.39060,4093456.48777,  -0.00304,  -0.00061,   0.00040,482726777.93624,   0.00108,275815077.58244,  -0.00123,  -0.00011,   0.00034,   0.00000,   2.00000
-543012029.50994,-343882585.26535,3582280.65179,  -0.00306,  -0.00062,   0.00039,482771348.11698,   0.00110,275839693.91721,  -0.00126,  -0.00011,   0.00034,   0.00000,   2.00000
-542869099.75712,-344839078.55048,3079650.99378,  -0.00309,  -0.00063,   0.00038,482798870.64699,   0.00112,275864289.67049,  -0.00129,  -0.00012,   0.00034,   0.00000,   2.00000
-542722622.90233,-345788220.74049,2585271.78711,  -0.00311,  -0.00064,   0.00038,482852515.13126,   0.00115,275888957.39919,  -0.00132,  -0.00012,   0.00034,   0.00000,   2.00000
-542572050.51290,-346732560.58295,2104691.23923,  -0.00314,  -0.00065,   0.00037,482889648.37740,   0.00117,275913638.55928,  -0.00134,  -0.00013,   0.00034,   0.00000,   2.00000
-542422852.33697,-347646185.11794,1637785.94567,  -0.00316,  -0.00066,   0.00037,482907356.28007,   0.00119,275938265.38440,  -0.00137,  -0.00013,   0.00035,   0.00000,   2.00000
-542267934.52462,-348566021.80581,1178652.95690,  -0.00319,  -0.00067,   0.00036,482970484.77846,   0.00122,275962997.87841,  -0.00140,  -0.00014,   0.00035,   0.00000,   2.00000
-542115474.58047,-349453024.34138,732829.68803,  -0.00321,  -0.00068,   0.00036,483004556.68239,   0.00124,275987734.06948,  -0.00143,  -0.00015,   0.00035,   0.00000,   2.00000
-541959615.98953,-350336314.87692,294581.60554,  -0.00324,  -0.00069,   0.00035,483041351.83309,   0.00126,276012483.59906,  -0.00145,  -0.00015,   0.00035,   0.00000,   2.00000
-541801129.76153,-351213179.28573,-130657.42978,  -0.00326,  -0.00070,   0.00034,483094715.56810,   0.00128,276037304.63568,  -0.00148,  -0.00016,   0.00035,   0.00000,   2.00000
-541642288.06309,-352073630.50046,-543083.82401,  -0.00329,  -0.00071,   0.00034,483121682.38459,   0.00131,276062104.71026,  -0.00151,  -0.00016,   0.00035,   0.00000,   2.00000
-541483226.92863,-352918001.06396,-948438.98408,  -0.00331,  -0.00072,   0.00033,483148537.86482,   0.00133,276086883.95316,  -0.00154,  -0.00017,   0.00035,   0.00000,   2.00000
-541321984.01071,-353756535.07360,-1341223.04943,  -0.00334,  -0.00073,   0.00033,483201676.46607,   0.00135,276111734.46532,  -0.00156,  -0.00018,   0.00034,   0.00000,   2.00000
-541160783.50908,-354579394.50952,-1727235.42780,  -0.00336,  -0.00074,   0.00032,483228431.84198,   0.00138,276136564.12486,  -0.00159,  -0.00018,   0.00034,   0.00000,   2.00000
-540999816.68922,-355386941.46752,-2101059.22438,  -0.00339,  -0.00075,   0.00032,483255019.15485,   0.00140,276161372.84048,  -0.00162,  -0.00019,   0.00034,   0.00000,   2.00000
-540837058.15917,-356189207.66323,-2462741.37932,  -0.00341,  -0.00076,   0.00031,483307959.06898,   0.00142,276186252.63514,  -0.00165,  -0.00019,   0.00034,   0.00000,   2.00000
-540672525.80581,-356986147.38972,-2817968.34278,  -0.00344,  -0.00077,   0.00031,483361009.61080,   0.00145,276211203.60534,  -0.00167,  -0.00020,   0.00034,   0.00000,   2.00000
-540507830.44623,-357771208.71752,-3161605.88496,  -0.00346,  -0.00078,   0.00030,483370975.90382,   0.00147,276236075.90791,  -0.00170,  -0.00021,   0.00034,   0.00000,   2.00000
-540344548.17247,-358538675.99775,-3499125.09933,  -0.00349,  -0.00079,   0.00030,483413900.66059,   0.00149,276260984.82970,  -0.00173,  -0.00021,   0.00034,   0.00000,   2.00000
-540179905.55214,-359301391.32359,-3824982.49738,  -0.00351,  -0.00080,   0.00029,483466707.07215,   0.00152,276285964.53473,  -0.00176,  -0.00022,   0.00034,   0.00000,   2.00000
-540015397.25492,-360052997.67763,-4139769.50918,  -0.00354,  -0.00081,   0.00029,483476486.79026,   0.00154,276310865.83249,  -0.00178,  -0.00023,   0.00034,   0.00000,   2.00000
-539852633.09434,-360787591.81400,-4448871.10717,  -0.00357,  -0.00082,   0.00028,483519218.15829,   0.00156,276335803.60883,  -0.00181,  -0.00024,   0.00034,   0.00000,   2.00000
-539687924.00931,-361520993.54227,-4746907.33653,  -0.00359,  -0.00083,   0.00028,483555414.52681,   0.00159,276360755.09055,  -0.00184,  -0.00024,   0.00034,   0.00000,   2.00000
-539525353.11102,-362237795.74189,-5033977.86200,  -0.00362,  -0.00085,   0.00027,483597895.68909,   0.00161,276385742.28776,  -0.00187,  -0.00025,   0.00034,   0.00000,   2.00000
-539359881.65617,-362956677.08266,-5316067.78652,  -0.00364,  -0.00086,   0.00027,483617788.72928,   0.00163,276410687.02492,  -0.00190,  -0.00026,   0.00034,   0.00000,   2.00000
-539196518.92786,-363659077.97071,-5592961.96901,  -0.00367,  -0.00087,   0.00026,483660339.28900,   0.00166,276435668.02546,  -0.00192,  -0.00026,   0.00033,   0.00000,   2.00000
-539034880.07276,-364348726.52312,-5853915.40645,  -0.00369,  -0.00088,   0.00026,483686012.87685,   0.00168,276460627.25558,  -0.00195,  -0.00027,   0.00033,   0.00000,   2.00000
-538872310.68736,-365034615.14726,-6109858.06136,  -0.00372,  -0.00089,   0.00025,483738666.89740,   0.00170,276485657.74067,  -0.00198,  -0.00028,   0.00033,   0.00000,   2.00000
-538710440.36060,-365711135.47816,-6355986.79073,  -0.00374,  -0.00090,   0.00025,483748060.50250,   0.00173,276510610.61877,  -0.00201,  -0.00029,   0.00033,   0.00000,   2.00000
-538550993.30175,-366371932.76153,-6597489.48423,  -0.00377,  -0.00091,   0.00024,483790372.25073,   0.00175,276535599.71696,  -0.00203,  -0.00029,   0.00033,   0.00000,   2.00000
-538390040.99105,-367032769.80999,-6829006.77811,  -0.00380,  -0.00092,   0.00024,483826333.74500,   0.00177,276560603.04058,  -0.00206,  -0.00030,   0.00033,   0.00000,   2.00000
-538227354.52364,-367693440.73242,-7056223.57484,  -0.00382,  -0.00093,   0.00023,483862547.80892,   0.00180,276585621.38137,  -0.00209,  -0.00031,   0.00032,   0.00000,   2.00000
-538070166.09890,-368330225.12507,-7268527.54623,  -0.00385,  -0.00094,   0.00023,483877562.66362,   0.00182,276610582.60614,  -0.00212,  -0.00032,   0.00032,   0.00000,   2.00000
-537910995.92209,-368967094.76031,-7482379.51917,  -0.00387,  -0.00095,   0.00022,483913935.32357,   0.00184,276635560.10286,  -0.00214,  -0.00032,   0.00032,   0.00000,   2.00000
-537750761.47572,-369604564.37939,-7681177.59083,  -0.00390,  -0.00096,   0.00022,483949543.28414,   0.00187,276660551.13196,  -0.00217,  -0.00033,   0.00032,   0.00000,   2.00000
-537596699.04796,-370215015.10652,-7876305.24710,  -0.00392,  -0.00098,   0.00022,483981220.14071,   0.00189,276685542.81765,  -0.00220,  -0.00034,   0.00032,   0.00000,   2.00000
-537440247.58072,-370829703.72468,-8062534.72004,  -0.00395,  -0.00099,   0.00021,484000684.10194,   0.00191,276710493.38400,  -0.00223,  -0.00035,   0.00032,   0.00000,   2.00000
-537283270.73282,-371441597.35576,-8244892.01902,  -0.00397,  -0.00100,   0.00021,484053099.11241,   0.00194,276735515.43308,  -0.00225,  -0.00036,   0.00031,   0.00000,   2.00000
-537127365.71649,-372045826.45060,-8418786.62015,  -0.00400,  -0.00101,   0.00020,484062139.68304,   0.00196,276760461.02638,  -0.00228,  -0.00036,   0.00031,   0.00000,   2.00000
