# sigma_xx, sigma_yy, sigma_xy, epsilon_xx, epsilon_yy, epsilon_xy, vonMises, epsPlastic, hardening, epsilonP__xx, epsilonP__yy, epsilonP__xy, yieldValue, iteration
   0.00000,   0.00000,   0.00000,   0.00000,   0.00000,   0.00000,   0.00000,   0.00000,274640135.82653,   0.00000,   0.00000,   0.00000,-474640135.82653,   0.00000
   0.00000,   0.00000,   0.00000,   0.00000,   0.00000,   0.00000,   0.00000,   0.00000,274640135.82653,   0.00000,   0.00000,   0.00000,-474640135.82653,   0.00000
2174898.05165,2509497.75191,217489.80517,   0.00001,   0.00001,   0.00000,2389929.74305,   0.00000,274640135.82653,   0.00000,   0.00000,   0.00000,-472250206.08348,   0.00000
4321912.79495,4991112.19546,429402.94866,   0.00001,   0.00001,   0.00001,4751014.64671,   0.00000,274640135.82653,   0.00000,   0.00000,   0.00000,-469889121.17982,   0.00000
6496810.84661,7500609.94737,646892.75383,   0.00001,   0.00002,   0.00001,7140943.03309,   0.00000,274640135.82653,   0.00000,   0.00000,   0.00000,-467499192.79344,   0.00000
8671708.89826,10010107.69928,858805.89732,   0.00002,   0.00003,   0.00001,9529359.58324,   0.00000,274640135.82653,   0.00000,   0.00000,   0.00000,-465110776.24329,   0.00000
10818723.64156,12491722.14283,1070719.04081,   0.00002,   0.00004,   0.00001,11890447.06682,   0.00000,274640135.82653,   0.00000,   0.00000,   0.00000,-462749688.75971,   0.00000
12974103.37737,14992854.90223,1282632.18431,   0.00003,   0.00004,   0.00002,14266381.57009,   0.00000,274640135.82653,   0.00000,   0.00000,   0.00000,-460373754.25644,   0.00000
15129483.11317,17493987.66164,1488968.66613,   0.00003,   0.00005,   0.00002,16640821.96692,   0.00000,274640135.82653,   0.00000,   0.00000,   0.00000,-457999313.85961,   0.00000
17284862.84898,19995120.42104,1700881.80963,   0.00004,   0.00006,   0.00002,19016766.47131,   0.00000,274640135.82653,   0.00000,   0.00000,   0.00000,-455623369.35522,   0.00000
19440242.58478,22496253.18044,1907218.29145,   0.00004,   0.00006,   0.00002,21391219.33577,   0.00000,274640135.82653,   0.00000,   0.00000,   0.00000,-453248916.49076,   0.00000
21595622.32059,24997385.93984,2113554.77327,   0.00005,   0.00007,   0.00003,23765677.83210,   0.00000,274640135.82653,   0.00000,   0.00000,   0.00000,-450874457.99443,   0.00000
23751002.05639,27498518.69924,2319891.25510,   0.00005,   0.00008,   0.00003,26140140.42557,   0.00000,274640135.82653,   0.00000,   0.00000,   0.00000,-448499995.40096,   0.00000
25886863.47635,29991286.46614,2526227.73692,   0.00006,   0.00009,   0.00003,28502142.13080,   0.00000,274640135.82653,   0.00000,   0.00000,   0.00000,-446137993.69573,   0.00000
28042243.21216,32492419.22554,2726987.55707,   0.00006,   0.00009,   0.00004,30875131.94196,   0.00000,274640135.82653,   0.00000,   0.00000,   0.00000,-443765003.88457,   0.00000
30178104.63211,34985186.99244,2927747.37723,   0.00007,   0.00010,   0.00004,33235670.42449,   0.00000,274640135.82653,   0.00000,   0.00000,   0.00000,-441404465.40204,   0.00000
32313966.05207,37477954.75933,3134083.85905,   0.00007,   0.00011,   0.00004,35597690.68450,   0.00000,274640135.82653,   0.00000,   0.00000,   0.00000,-439042445.14203,   0.00000
34449827.47203,39970722.52623,3329267.01753,   0.00008,   0.00011,   0.00004,37956775.86127,   0.00000,274640135.82653,   0.00000,   0.00000,   0.00000,-436683359.96526,   0.00000
36585688.89199,42463490.29312,3530026.83768,   0.00008,   0.00012,   0.00005,40317339.48151,   0.00000,274640135.82653,   0.00000,   0.00000,   0.00000,-434322796.34502,   0.00000
38721550.31194,44956258.06002,3730786.65784,   0.00009,   0.00013,   0.00005,42677908.76168,   0.00000,274640135.82653,   0.00000,   0.00000,   0.00000,-431962227.06485,   0.00000
40857411.73190,47449025.82691,3925969.81632,   0.00009,   0.00014,   0.00005,45037023.41254,   0.00000,274640135.82653,   0.00000,   0.00000,   0.00000,-429603112.41399,   0.00000
42973754.83601,49933428.60130,4121152.97480,   0.00010,   0.00014,   0.00005,47383706.93897,   0.00000,274640135.82653,   0.00000,   0.00000,   0.00000,-427256428.88756,   0.00000
45109616.25597,52426196.36820,4316336.13328,   0.00010,   0.00015,   0.00006,49742840.86494,   0.00000,274640135.82653,   0.00000,   0.00000,   0.00000,-424897294.96159,   0.00000
47225959.36008,54910599.14259,4511519.29176,   0.00011,   0.00016,   0.00006,52089546.27459,   0.00000,274640135.82653,   0.00000,   0.00000,   0.00000,-422550589.55194,   0.00000
49361820.78004,57403366.90948,4701125.78857,   0.00011,   0.00016,   0.00006,54447249.00992,   0.00000,274640135.82653,   0.00000,   0.00000,   0.00000,-420192886.81661,   0.00000
51478163.88414,59887769.68387,4896308.94706,   0.00012,   0.00017,   0.00006,56793973.41324,   0.00000,274640135.82653,   0.00000,   0.00000,   0.00000,-417846162.41329,   0.00000
53586141.99575,62352654.14241,5085915.44387,   0.00012,   0.00018,   0.00007,59124356.41604,   0.00000,274640135.82653,   0.00000,   0.00000,   0.00000,-415515779.41049,   0.00000
55702485.09986,64837056.91680,5275521.94068,   0.00013,   0.00019,   0.00007,61469659.13640,   0.00000,274640135.82653,   0.00000,   0.00000,   0.00000,-413170476.69013,   0.00000
57799309.88812,67313094.69869,5459551.77582,   0.00013,   0.00019,   0.00007,63801117.84458,   0.00000,274640135.82653,   0.00000,   0.00000,   0.00000,-410839017.98195,   0.00000
59907287.99972,69777979.15723,5649158.27263,   0.00014,   0.00020,   0.00007,66131528.07024,   0.00000,274640135.82653,   0.00000,   0.00000,   0.00000,-408508607.75629,   0.00000
62023631.10383,72262381.93162,5833188.10777,   0.00014,   0.00021,   0.00008,68475437.84910,   0.00000,274640135.82653,   0.00000,   0.00000,   0.00000,-406164697.97743,   0.00000
64112090.89959,74718901.39765,6017217.94291,   0.00015,   0.00021,   0.00008,70792020.47253,   0.00000,274640135.82653,   0.00000,   0.00000,   0.00000,-403848115.35400,   0.00000
66208915.68785,77194939.17953,6201247.77805,   0.00015,   0.00022,   0.00008,73123541.72112,   0.00000,274640135.82653,   0.00000,   0.00000,   0.00000,-401516594.10541,   0.00000
68297375.48360,79651458.64557,6385277.61319,   0.00016,   0.00023,   0.00008,75440149.08505,   0.00000,274640135.82653,   0.00000,   0.00000,   0.00000,-399199986.74148,   0.00000
70385835.27936,82107978.11160,6563730.78666,   0.00016,   0.00024,   0.00009,77755353.13136,   0.00000,274640135.82653,   0.00000,   0.00000,   0.00000,-396884782.69517,   0.00000
72482660.06762,84584015.89349,6742183.96013,   0.00016,   0.00024,   0.00009,80085506.91381,   0.00000,274640135.82653,   0.00000,   0.00000,   0.00000,-394554628.91272,   0.00000
74571119.86337,87040535.35952,6920637.13360,   0.00017,   0.00025,   0.00009,82400741.33821,   0.00000,274640135.82653,   0.00000,   0.00000,   0.00000,-392239394.48832,   0.00000
76659579.65913,89497054.82556,7099090.30706,   0.00017,   0.00026,   0.00009,84715987.99441,   0.00000,274640135.82653,   0.00000,   0.00000,   0.00000,-389924147.83212,   0.00000
78720156.14653,91925690.98324,7277543.48053,   0.00018,   0.00026,   0.00009,87003901.15239,   0.00000,274640135.82653,   0.00000,   0.00000,   0.00000,-387636234.67414,   0.00000
80808615.94228,94382210.44927,7450419.99233,   0.00018,   0.00027,   0.00010,89317772.80030,   0.00000,274640135.82653,   0.00000,   0.00000,   0.00000,-385322363.02623,   0.00000
82877557.42219,96830364.92280,7623296.50413,   0.00019,   0.00028,   0.00010,91619260.61162,   0.00000,274640135.82653,   0.00000,   0.00000,   0.00000,-383020875.21491,   0.00000
84938133.90959,99259001.08048,7796173.01593,   0.00019,   0.00029,   0.00010,93905817.19529,   0.00000,274640135.82653,   0.00000,   0.00000,   0.00000,-380734318.63124,   0.00000
87007075.38949,101707155.55401,7963472.86606,   0.00020,   0.00029,   0.00010,96205952.04064,   0.00000,274640135.82653,   0.00000,   0.00000,   0.00000,-378434183.78588,   0.00000
89067651.87690,104135791.71169,8136349.37785,   0.00020,   0.00030,   0.00011,98492536.90396,   0.00000,274640135.82653,   0.00000,   0.00000,   0.00000,-376147598.92257,   0.00000
91108710.04845,106556062.87686,8303649.22798,   0.00021,   0.00031,   0.00011,100765360.70228,   0.00000,274640135.82653,   0.00000,   0.00000,   0.00000,-373874775.12424,   0.00000
93169286.53585,108984699.03454,8470949.07811,   0.00021,   0.00031,   0.00011,103050593.68935,   0.00000,274640135.82653,   0.00000,   0.00000,   0.00000,-371589542.13718,   0.00000
95210344.70740,111404970.19971,8638248.92824,   0.00022,   0.00032,   0.00011,105323452.01002,   0.00000,274640135.82653,   0.00000,   0.00000,   0.00000,-369316683.81651,   0.00000
97270921.19480,113833606.35739,8799972.11669,   0.00022,   0.00033,   0.00011,107607345.57115,   0.00000,274640135.82653,   0.00000,   0.00000,   0.00000,-367032790.25538,   0.00000
99303614.37385,116234359.20672,8967271.96682,   0.00023,   0.00034,   0.00012,109865272.05551,   0.00000,274640135.82653,   0.00000,   0.00000,   0.00000,-364774863.77102,   0.00000
101344672.54540,118654630.37189,9128995.15528,   0.00023,   0.00034,   0.00012,112136813.57442,   0.00000,274640135.82653,   0.00000,   0.00000,   0.00000,-362503322.25211,   0.00000
103377365.72444,121055383.22122,9285141.68206,   0.00023,   0.00035,   0.00012,114392047.34140,   0.00000,274640135.82653,   0.00000,   0.00000,   0.00000,-360248088.48513,   0.00000
105410058.90349,123456136.07054,9446864.87052,   0.00024,   0.00036,   0.00012,116648657.27456,   0.00000,274640135.82653,   0.00000,   0.00000,   0.00000,-357991478.55197,   0.00000
107423233.76669,125848523.92736,9603011.39730,   0.00024,   0.00036,   0.00012,118891548.08580,   0.00000,274640135.82653,   0.00000,   0.00000,   0.00000,-355748587.74073,   0.00000
109455926.94573,128249276.77669,9759157.92409,   0.00025,   0.00037,   0.00013,121146840.47776,   0.00000,274640135.82653,   0.00000,   0.00000,   0.00000,-353493295.34877,   0.00000
111469101.80893,130641664.63351,9915304.45087,   0.00025,   0.00038,   0.00013,123389772.54150,   0.00000,274640135.82653,   0.00000,   0.00000,   0.00000,-351250363.28503,   0.00000
113473911.67962,133014534.17448,10071450.97766,   0.00026,   0.00038,   0.00013,125617744.78510,   0.00000,274640135.82653,   0.00000,   0.00000,   0.00000,-349022391.04143,   0.00000
115478721.55031,135387403.71545,10222020.84277,   0.00026,   0.00039,   0.00013,127844393.89726,   0.00000,274640135.82653,   0.00000,   0.00000,   0.00000,-346795741.92926,   0.00000
117491896.41351,137779791.57227,10378167.36956,   0.00027,   0.00040,   0.00013,130087381.26009,   0.00000,274640135.82653,   0.00000,   0.00000,   0.00000,-344552754.56644,   0.00000
119496706.28420,140152661.11324,10528737.23467,   0.00027,   0.00040,   0.00014,132314068.68949,   0.00000,274640135.82653,   0.00000,   0.00000,   0.00000,-342326067.13704,   0.00000
121473632.84654,142497647.34586,10673730.43812,   0.00027,   0.00041,   0.00014,134512087.35742,   0.00000,274640135.82653,   0.00000,   0.00000,   0.00000,-340128048.46911,   0.00000
123478442.71723,144870516.88683,10824300.30323,   0.00028,   0.00042,   0.00014,136738813.39717,   0.00000,274640135.82653,   0.00000,   0.00000,   0.00000,-337901322.42936,   0.00000
125455369.27957,147215503.11945,10969293.50667,   0.00028,   0.00043,   0.00014,138936873.91173,   0.00000,274640135.82653,   0.00000,   0.00000,   0.00000,-335703261.91480,   0.00000
127432295.84190,149560489.35206,11114286.71012,   0.00029,   0.00043,   0.00014,141134955.20465,   0.00000,274640135.82653,   0.00000,   0.00000,   0.00000,-333505180.62188,   0.00000
129409222.40424,151905475.58468,11259279.91356,   0.00029,   0.00044,   0.00015,143333056.32000,   0.00000,274640135.82653,   0.00000,   0.00000,   0.00000,-331307079.50653,   0.00000
131386148.96657,154250461.81729,11404273.11701,   0.00030,   0.00045,   0.00015,145531176.35959,   0.00000,274640135.82653,   0.00000,   0.00000,   0.00000,-329108959.46693,   0.00000
133363075.52891,156595448.04991,11543689.65878,   0.00030,   0.00045,   0.00015,147728006.86239,   0.00000,274640135.82653,   0.00000,   0.00000,   0.00000,-326912128.96414,   0.00000
135331637.09874,158920915.96668,11683106.20055,   0.00031,   0.00046,   0.00015,149909861.97042,   0.00000,274640135.82653,   0.00000,   0.00000,   0.00000,-324730273.85611,   0.00000
137280680.35272,161238018.89094,11822522.74232,   0.00031,   0.00047,   0.00015,152079371.16482,   0.00000,274640135.82653,   0.00000,   0.00000,   0.00000,-322560764.66171,   0.00000
139229723.60671,163555121.81520,11956362.62243,   0.00031,   0.00047,   0.00016,154247603.62570,   0.00000,274640135.82653,   0.00000,   0.00000,   0.00000,-320392532.20083,   0.00000
141178766.86069,165872224.73947,12095779.16420,   0.00032,   0.00048,   0.00016,156417155.79800,   0.00000,274640135.82653,   0.00000,   0.00000,   0.00000,-318222980.02853,   0.00000
143119445.12216,168169809.34788,12229619.04430,   0.00032,   0.00049,   0.00016,158570430.07420,   0.00000,274640135.82653,   0.00000,   0.00000,   0.00000,-316069705.75233,   0.00000
145060123.38364,170467393.95629,12363458.92440,   0.00033,   0.00049,   0.00016,160723725.52883,   0.00000,274640135.82653,   0.00000,   0.00000,   0.00000,-313916410.29770,   0.00000
147000801.64512,172764978.56471,12491722.14283,   0.00033,   0.00050,   0.00016,162875757.93788,   0.00000,274640135.82653,   0.00000,   0.00000,   0.00000,-311764377.88865,   0.00000
148921961.59074,175054198.18061,12625562.02293,   0.00034,   0.00051,   0.00016,165016734.95778,   0.00000,274640135.82653,   0.00000,   0.00000,   0.00000,-309623400.86875,   0.00000
150854274.85971,177332264.47318,12753825.24136,   0.00034,   0.00051,   0.00017,167153804.24975,   0.00000,274640135.82653,   0.00000,   0.00000,   0.00000,-307486331.57678,   0.00000
152775434.80534,179621484.08909,12882088.45980,   0.00034,   0.00052,   0.00017,169293547.73143,   0.00000,274640135.82653,   0.00000,   0.00000,   0.00000,-305346588.09510,   0.00000
154688229.75846,181891185.38915,13010351.67823,   0.00035,   0.00053,   0.00017,171418301.30979,   0.00000,274640135.82653,   0.00000,   0.00000,   0.00000,-303221834.51674,   0.00000
156592659.71908,184141368.37336,13133038.23499,   0.00035,   0.00053,   0.00017,173526793.51114,   0.00000,274640135.82653,   0.00000,   0.00000,   0.00000,-301113342.31539,   0.00000
158485936.35635,186402704.68091,13261301.45342,   0.00036,   0.00054,   0.00017,175639231.07641,   0.00000,274640135.82653,   0.00000,   0.00000,   0.00000,-299000904.75012,   0.00000
160390366.31696,188652887.66512,13383988.01018,   0.00036,   0.00055,   0.00017,177747768.69904,   0.00000,274640135.82653,   0.00000,   0.00000,   0.00000,-296892367.12749,   0.00000
162275277.96173,190894705.65683,13501097.90527,   0.00037,   0.00055,   0.00018,179842714.60758,   0.00000,274640135.82653,   0.00000,   0.00000,   0.00000,-294797421.21895,   0.00000
164179707.92235,193144888.64104,13623784.46203,   0.00037,   0.00056,   0.00018,181951300.09717,   0.00000,274640135.82653,   0.00000,   0.00000,   0.00000,-292688835.72936,   0.00000
166056254.57461,195367188.31689,13740894.35712,   0.00037,   0.00057,   0.00018,184031277.03931,   0.00000,274640135.82653,   0.00000,   0.00000,   0.00000,-290608858.78722,   0.00000
167932801.22687,197589487.99275,13858004.25220,   0.00038,   0.00057,   0.00018,186111278.88201,   0.00000,274640135.82653,   0.00000,   0.00000,   0.00000,-288528856.94452,   0.00000
169789829.56328,199803422.67610,13975114.14729,   0.00038,   0.00058,   0.00018,188178947.54772,   0.00000,274640135.82653,   0.00000,   0.00000,   0.00000,-286461188.27881,   0.00000
171666376.21554,202025722.35196,14092224.04238,   0.00039,   0.00058,   0.00018,190258996.87452,   0.00000,274640135.82653,   0.00000,   0.00000,   0.00000,-284381138.95201,   0.00000
173515039.55944,204220138.71946,14203757.27580,   0.00039,   0.00059,   0.00018,192310448.82018,   0.00000,274640135.82653,   0.00000,   0.00000,   0.00000,-282329687.00635,   0.00000
175383221.21920,206422920.07947,14315290.50922,   0.00040,   0.00060,   0.00019,194374283.76572,   0.00000,274640135.82653,   0.00000,   0.00000,   0.00000,-280265852.06081,   0.00000
177231884.56310,208617336.44697,14426823.74264,   0.00040,   0.00060,   0.00019,196425787.54046,   0.00000,274640135.82653,   0.00000,   0.00000,   0.00000,-278214348.28607,   0.00000
179080547.90701,210811752.81447,14538356.97606,   0.00040,   0.00061,   0.00019,198477316.17195,   0.00000,274640135.82653,   0.00000,   0.00000,   0.00000,-276162819.65458,   0.00000
180901327.94256,212978285.87362,14644313.54780,   0.00041,   0.00062,   0.00019,200500258.66676,   0.00000,274640135.82653,   0.00000,   0.00000,   0.00000,-274139877.15977,   0.00000
182741626.29396,215153183.92527,14750270.11955,   0.00041,   0.00062,   0.00019,202535585.03807,   0.00000,274640135.82653,   0.00000,   0.00000,   0.00000,-272104550.78846,   0.00000
184554041.33700,217300198.66857,14856226.69130,   0.00042,   0.00063,   0.00019,204543548.13123,   0.00000,274640135.82653,   0.00000,   0.00000,   0.00000,-270096587.69530,   0.00000
186394339.68840,219475096.72023,14962183.26304,   0.00042,   0.00064,   0.00019,206578926.80766,   0.00000,274640135.82653,   0.00000,   0.00000,   0.00000,-268061209.01887,   0.00000
188206754.73145,221622111.46353,15062563.17312,   0.00042,   0.00064,   0.00020,208585730.26179,   0.00000,274640135.82653,   0.00000,   0.00000,   0.00000,-266054405.56473,   0.00000
189991286.46614,223741242.89847,15168519.74487,   0.00043,   0.00065,   0.00020,210566374.58709,   0.00000,274640135.82653,   0.00000,   0.00000,   0.00000,-264073761.23944,   0.00000
191803701.50918,225888257.64177,15268899.65494,   0.00043,   0.00065,   0.00020,212573231.61660,   0.00000,274640135.82653,   0.00000,   0.00000,   0.00000,-262066904.20993,   0.00000
193607751.55972,228015754.06922,15363702.90335,   0.00044,   0.00066,   0.00020,214563879.07320,   0.00000,274640135.82653,   0.00000,   0.00000,   0.00000,-260076256.75333,   0.00000
195383918.30191,230115367.18832,15464082.81343,   0.00044,   0.00067,   0.00020,216528356.61009,   0.00000,274640135.82653,   0.00000,   0.00000,   0.00000,-258111779.21644,   0.00000
197168450.03660,232234498.62326,15558886.06183,   0.00044,   0.00067,   0.00020,218506706.32388,   0.00000,274640135.82653,   0.00000,   0.00000,   0.00000,-256133429.50265,   0.00000
198944616.77878,234334111.74236,15653689.31024,   0.00045,   0.00068,   0.00020,220470044.17748,   0.00000,274640135.82653,   0.00000,   0.00000,   0.00000,-254170091.64905,   0.00000
200720783.52096,236433724.86145,15748492.55864,   0.00045,   0.00068,   0.00020,222433409.67078,   0.00000,274640135.82653,   0.00000,   0.00000,   0.00000,-252206726.15575,   0.00000
202488585.27064,238513819.66470,15843295.80705,   0.00046,   0.00069,   0.00021,224381758.37318,   0.00000,274640135.82653,   0.00000,   0.00000,   0.00000,-250258377.45335,   0.00000
204264752.01283,240613432.78380,15932522.39378,   0.00046,   0.00070,   0.00021,226343998.33398,   0.00000,274640135.82653,   0.00000,   0.00000,   0.00000,-248296137.49255,   0.00000
206004670.45415,242665644.27869,16027325.64219,   0.00046,   0.00070,   0.00021,228264996.40475,   0.00000,274640135.82653,   0.00000,   0.00000,   0.00000,-246375139.42178,   0.00000
207752953.88798,244737374.08944,16116552.22892,   0.00047,   0.00071,   0.00021,230199890.31003,   0.00000,274640135.82653,   0.00000,   0.00000,   0.00000,-244440245.51650,   0.00000
209492872.32930,246789585.58433,16200202.15399,   0.00047,   0.00071,   0.00021,232118598.16511,   0.00000,274640135.82653,   0.00000,   0.00000,   0.00000,-242521537.66142,   0.00000
211232790.77063,248841797.07922,16289428.74072,   0.00048,   0.00072,   0.00021,234038503.41138,   0.00000,274640135.82653,   0.00000,   0.00000,   0.00000,-240601632.41515,   0.00000
212953190.89610,250885643.58161,16373078.66578,   0.00048,   0.00073,   0.00021,235944913.97878,   0.00000,274640135.82653,   0.00000,   0.00000,   0.00000,-238695221.84775,   0.00000
214684744.34492,252918336.76066,16456728.59085,   0.00048,   0.00073,   0.00021,237848665.76114,   0.00000,274640135.82653,   0.00000,   0.00000,   0.00000,-236791470.06539,   0.00000
216396779.47789,254942664.94720,16540378.51591,   0.00049,   0.00074,   0.00022,239740086.96304,   0.00000,274640135.82653,   0.00000,   0.00000,   0.00000,-234900048.86349,   0.00000
218100449.61835,256947474.81789,16624028.44097,   0.00049,   0.00074,   0.00022,241616485.60840,   0.00000,274640135.82653,   0.00000,   0.00000,   0.00000,-233023650.21813,   0.00000
219804119.75881,258952284.68858,16702101.70437,   0.00050,   0.00075,   0.00022,243491762.52371,   0.00000,274640135.82653,   0.00000,   0.00000,   0.00000,-231148373.30282,   0.00000
221507789.89927,260957094.55927,16780174.96776,   0.00050,   0.00076,   0.00022,245367071.40194,   0.00000,274640135.82653,   0.00000,   0.00000,   0.00000,-229273064.42459,   0.00000
223203095.04723,262942386.11411,16858248.23115,   0.00050,   0.00076,   0.00022,247227359.43771,   0.00000,274640135.82653,   0.00000,   0.00000,   0.00000,-227412776.38882,   0.00000
224887246.87184,264938830.99230,16936321.49455,   0.00051,   0.00077,   0.00022,249090366.41179,   0.00000,274640135.82653,   0.00000,   0.00000,   0.00000,-225549769.41474,   0.00000
226554668.71144,266896239.23879,17008818.09627,   0.00051,   0.00077,   0.00022,250922161.34248,   0.00000,274640135.82653,   0.00000,   0.00000,   0.00000,-223717974.48405,   0.00000
228230455.54355,268873165.80112,17086891.35966,   0.00051,   0.00078,   0.00022,252770173.43887,   0.00000,274640135.82653,   0.00000,   0.00000,   0.00000,-221869962.38766,   0.00000
229897877.38315,270830574.04761,17159387.96138,   0.00052,   0.00078,   0.00022,254602029.73633,   0.00000,274640135.82653,   0.00000,   0.00000,   0.00000,-220038106.09020,   0.00000
231565299.22275,272787982.29410,17226307.90143,   0.00052,   0.00079,   0.00022,256432793.13623,   0.00000,274640135.82653,   0.00000,   0.00000,   0.00000,-218207342.69030,   0.00000
233204837.75400,274717507.23223,17298804.50315,   0.00053,   0.00080,   0.00022,258237292.70034,   0.00000,274640135.82653,   0.00000,   0.00000,   0.00000,-216402843.12619,   0.00000
234863894.60109,276655397.16287,17371301.10488,   0.00053,   0.00080,   0.00023,260054186.72401,   0.00000,274640135.82653,   0.00000,   0.00000,   0.00000,-214585949.10252,   0.00000
236495068.13983,278565403.78516,17438221.04493,   0.00053,   0.00081,   0.00023,261842570.92864,   0.00000,274640135.82653,   0.00000,   0.00000,   0.00000,-212797564.89789,   0.00000
238134606.67108,280494928.72329,17505140.98498,   0.00054,   0.00081,   0.00023,263646043.57326,   0.00000,274640135.82653,   0.00000,   0.00000,   0.00000,-210994092.25327,   0.00000
239746261.89397,282396570.35307,17566484.26336,   0.00054,   0.00082,   0.00023,265421014.67971,   0.00000,274640135.82653,   0.00000,   0.00000,   0.00000,-209219121.14682,   0.00000
241369070.44021,284287058.65951,17633404.20341,   0.00054,   0.00082,   0.00023,267194437.87441,   0.00000,274640135.82653,   0.00000,   0.00000,   0.00000,-207445697.95212,   0.00000
242972360.67059,286169181.97344,17694747.48179,   0.00055,   0.00083,   0.00023,268954418.68700,   0.00000,274640135.82653,   0.00000,   0.00000,   0.00000,-205685717.13953,   0.00000
244575650.90098,288051305.28737,17761667.42184,   0.00055,   0.00083,   0.00023,270715530.57901,   0.00000,274640135.82653,   0.00000,   0.00000,   0.00000,-203924605.24752,   0.00000
246190094.45471,289922275.27796,17817434.03855,   0.00055,   0.00084,   0.00023,272471794.58050,   0.00000,274640135.82653,   0.00000,   0.00000,   0.00000,-202168341.24603,   0.00000
247773866.36924,291796033.59939,17878777.31693,   0.00056,   0.00084,   0.00023,274219500.90906,   0.00000,274640135.82653,   0.00000,   0.00000,   0.00000,-200420634.91747,   0.00000
249360426.61462,293639120.28162,17940120.59531,   0.00056,   0.00085,   0.00023,275949493.20110,   0.00000,274640135.82653,   0.00000,   0.00000,   0.00000,-198690642.62543,   0.00000
250927468.54414,295473841.97135,17995887.21202,   0.00057,   0.00086,   0.00023,277666055.61725,   0.00000,274640135.82653,   0.00000,   0.00000,   0.00000,-196974080.20928,   0.00000
252514028.78952,297316928.65358,18051653.82873,   0.00057,   0.00086,   0.00023,279395028.47354,   0.00000,274640135.82653,   0.00000,   0.00000,   0.00000,-195245107.35299,   0.00000
254081070.71904,299151650.34331,18107420.44544,   0.00057,   0.00087,   0.00024,281111658.95393,   0.00000,274640135.82653,   0.00000,   0.00000,   0.00000,-193528476.87260,   0.00000
255639747.65606,300966853.71719,18163187.06214,   0.00058,   0.00087,   0.00024,282813262.01885,   0.00000,274640135.82653,   0.00000,   0.00000,   0.00000,-191826873.80768,   0.00000
257178906.27723,302773692.09857,18213377.01718,   0.00058,   0.00088,   0.00024,284501446.01501,   0.00000,274640135.82653,   0.00000,   0.00000,   0.00000,-190138689.81152,   0.00000
258729218.22174,304569377.15660,18269143.63389,   0.00058,   0.00088,   0.00024,286188053.28757,   0.00000,274640135.82653,   0.00000,   0.00000,   0.00000,-188452082.53896,   0.00000
260260011.85041,306356697.22213,18319333.58893,   0.00059,   0.00089,   0.00024,287861244.35423,   0.00000,274640135.82653,   0.00000,   0.00000,   0.00000,-186778891.47229,   0.00000
261810323.79492,308152382.28016,18369523.54397,   0.00059,   0.00089,   0.00024,289546852.08665,   0.00000,274640135.82653,   0.00000,   0.00000,   0.00000,-185093283.73988,   0.00000
263313234.11523,309911819.03733,18414136.83734,   0.00059,   0.00090,   0.00024,291191608.36876,   0.00000,274640135.82653,   0.00000,   0.00000,   0.00000,-183448527.45777,   0.00000
264835662.75139,311679620.78701,18464326.79237,   0.00060,   0.00090,   0.00024,292849841.10181,   0.00000,274640135.82653,   0.00000,   0.00000,   0.00000,-181790294.72472,   0.00000
266349726.39504,313427904.22084,18508940.08574,   0.00060,   0.00091,   0.00024,294491993.01590,   0.00000,274640135.82653,   0.00000,   0.00000,   0.00000,-180148142.81062,   0.00000
267844271.72284,315167822.66216,18553553.37911,   0.00060,   0.00091,   0.00024,296121794.93225,   0.00000,274640135.82653,   0.00000,   0.00000,   0.00000,-178518340.89428,   0.00000
269358335.36649,316916106.09599,18598166.67248,   0.00061,   0.00092,   0.00024,297764020.25150,   0.00000,274640135.82653,   0.00000,   0.00000,   0.00000,-176876115.57503,   0.00000
270844515.70179,318636506.22146,18642779.96584,   0.00061,   0.00092,   0.00024,299378830.75605,   0.00000,274640135.82653,   0.00000,   0.00000,   0.00000,-175261305.07048,   0.00000
272311177.72124,320348541.35443,18687393.25921,   0.00061,   0.00093,   0.00024,300981283.27656,   0.00000,274640135.82653,   0.00000,   0.00000,   0.00000,-173658852.54997,   0.00000
273797358.05653,322068941.47991,18726429.89091,   0.00062,   0.00093,   0.00024,302595123.20069,   0.00000,274640135.82653,   0.00000,   0.00000,   0.00000,-172045012.62584,   0.00000
275275173.39932,323769823.28953,18765466.52260,   0.00062,   0.00094,   0.00024,304193940.63147,   0.00000,274640135.82653,   0.00000,   0.00000,   0.00000,-170446195.19506,   0.00000
276725105.43376,325442821.79081,18804503.15430,   0.00062,   0.00094,   0.00024,305765339.88732,   0.00000,274640135.82653,   0.00000,   0.00000,   0.00000,-168874795.93921,   0.00000
278183402.46070,327135338.60793,18843539.78600,   0.00063,   0.00095,   0.00024,307351835.17696,   0.00000,274640135.82653,   0.00000,   0.00000,   0.00000,-167288300.64957,   0.00000
279633334.49514,328808337.10920,18876999.75602,   0.00063,   0.00095,   0.00025,308922281.41898,   0.00000,274640135.82653,   0.00000,   0.00000,   0.00000,-165717854.40755,   0.00000
281074901.53707,330461817.29462,18916036.38772,   0.00063,   0.00096,   0.00025,310478726.33041,   0.00000,274640135.82653,   0.00000,   0.00000,   0.00000,-164161409.49612,   0.00000
282496950.26315,332106932.48754,18949496.35774,   0.00064,   0.00096,   0.00025,312021787.96026,   0.00000,274640135.82653,   0.00000,   0.00000,   0.00000,-162618347.86627,   0.00000
283938517.30508,333760412.67296,18982956.32777,   0.00064,   0.00096,   0.00025,313577288.49578,   0.00000,274640135.82653,   0.00000,   0.00000,   0.00000,-161062847.33075,   0.00000
285352201.03865,335386009.55003,19016416.29779,   0.00064,   0.00097,   0.00025,315105363.78053,   0.00000,274640135.82653,   0.00000,   0.00000,   0.00000,-159534772.04600,   0.00000
286765884.77223,337011606.42710,19049876.26782,   0.00065,   0.00097,   0.00025,316633474.85327,   0.00000,274640135.82653,   0.00000,   0.00000,   0.00000,-158006660.97326,   0.00000
288179568.50580,338637203.30417,19077759.57617,   0.00065,   0.00098,   0.00025,318160617.87876,   0.00000,274640135.82653,   0.00000,   0.00000,   0.00000,-156479517.94777,   0.00000
289565368.93102,340234916.87289,19111219.54620,   0.00065,   0.00098,   0.00025,319661333.99862,   0.00000,274640135.82653,   0.00000,   0.00000,   0.00000,-154978801.82791,   0.00000
290962322.67959,341821477.11826,19139102.85455,   0.00066,   0.00099,   0.00025,321158434.87062,   0.00000,274640135.82653,   0.00000,   0.00000,   0.00000,-153481700.95591,   0.00000
292348123.10481,343419190.68698,19166986.16291,   0.00066,   0.00099,   0.00025,322658224.52744,   0.00000,274640135.82653,   0.00000,   0.00000,   0.00000,-151981911.29909,   0.00000
293725558.53752,344997385.93984,19194869.47126,   0.00066,   0.00100,   0.00025,324142991.91313,   0.00000,274640135.82653,   0.00000,   0.00000,   0.00000,-150497143.91340,   0.00000
295094628.97773,346556062.87686,19217176.11795,   0.00067,   0.00100,   0.00025,325611749.70727,   0.00000,274640135.82653,   0.00000,   0.00000,   0.00000,-149028386.11926,   0.00000
296463699.41794,348114739.81388,19245059.42630,   0.00067,   0.00101,   0.00025,327081534.93905,   0.00000,274640135.82653,   0.00000,   0.00000,   0.00000,-147558600.88748,   0.00000
297813251.54230,349665051.75839,19267366.07298,   0.00067,   0.00101,   0.00025,328537957.29975,   0.00000,274640135.82653,   0.00000,   0.00000,   0.00000,-146102178.52678,   0.00000
299173956.99000,351204210.37956,19289672.71967,   0.00068,   0.00101,   0.00025,329991780.23017,   0.00000,274640135.82653,   0.00000,   0.00000,   0.00000,-144648355.59636,   0.00000
300515144.12185,352735004.00823,19311979.36635,   0.00068,   0.00102,   0.00025,331433224.00454,   0.00000,274640135.82653,   0.00000,   0.00000,   0.00000,-143206911.82199,   0.00000
301847966.26120,354246279.32104,19334286.01304,   0.00068,   0.00102,   0.00025,332859649.14220,   0.00000,274640135.82653,   0.00000,   0.00000,   0.00000,-141780486.68433,   0.00000
303161270.08470,355749189.64135,19356592.65972,   0.00069,   0.00103,   0.00025,334273687.99347,   0.00000,274640135.82653,   0.00000,   0.00000,   0.00000,-140366447.83306,   0.00000
304494092.22404,357260464.95417,19373322.64473,   0.00069,   0.00103,   0.00025,335699222.43840,   0.00000,274640135.82653,   0.00000,   0.00000,   0.00000,-138940913.38813,   0.00000
305799031.05503,358743856.95863,19395629.29142,   0.00069,   0.00104,   0.00025,337098279.06960,   0.00000,274640135.82653,   0.00000,   0.00000,   0.00000,-137541856.75693,   0.00000
307123488.20188,360235613.95560,19412359.27643,   0.00069,   0.00104,   0.00025,338508840.81911,   0.00000,274640135.82653,   0.00000,   0.00000,   0.00000,-136131295.00742,   0.00000
308420062.04036,361699487.64421,19429089.26144,   0.00070,   0.00104,   0.00025,339891959.51134,   0.00000,274640135.82653,   0.00000,   0.00000,   0.00000,-134748176.31519,   0.00000
309716635.87885,363163361.33282,19445819.24645,   0.00070,   0.00105,   0.00025,341275118.73371,   0.00000,274640135.82653,   0.00000,   0.00000,   0.00000,-133365017.09282,   0.00000
310993691.40148,364618870.02893,19456972.56980,   0.00070,   0.00105,   0.00025,342644932.06891,   0.00000,274640135.82653,   0.00000,   0.00000,   0.00000,-131995203.75762,   0.00000
312281900.24746,366063225.40169,19473702.55481,   0.00071,   0.00106,   0.00025,344013118.71509,   0.00000,274640135.82653,   0.00000,   0.00000,   0.00000,-130627017.11144,   0.00000
313550590.77760,367499215.78195,19484855.87815,   0.00071,   0.00106,   0.00025,345367962.01207,   0.00000,274640135.82653,   0.00000,   0.00000,   0.00000,-129272173.81446,   0.00000
314810916.31522,368915687.84636,19501585.86316,   0.00071,   0.00106,   0.00025,346708735.95851,   0.00000,274640135.82653,   0.00000,   0.00000,   0.00000,-127931399.86802,   0.00000
316071241.85285,370332159.91077,19512739.18650,   0.00072,   0.00107,   0.00025,348048608.50349,   0.00000,274640135.82653,   0.00000,   0.00000,   0.00000,-126591527.32304,   0.00000
317331567.39047,371748631.97518,19523892.50985,   0.00072,   0.00107,   0.00025,349388523.15749,   0.00000,274640135.82653,   0.00000,   0.00000,   0.00000,-125251612.66904,   0.00000
318583527.93559,373145585.72375,19529469.17152,   0.00072,   0.00108,   0.00025,350712497.32780,   0.00000,274640135.82653,   0.00000,   0.00000,   0.00000,-123927638.49873,   0.00000
319815970.16486,374534174.47980,19540622.49486,   0.00072,   0.00108,   0.00025,352024999.16492,   0.00000,274640135.82653,   0.00000,   0.00000,   0.00000,-122615136.66161,   0.00000
321059565.71747,375911609.91252,19551775.81820,   0.00073,   0.00108,   0.00025,353334941.36864,   0.00000,274640135.82653,   0.00000,   0.00000,   0.00000,-121305194.45789,   0.00000
322283642.95424,377280680.35272,19557352.47987,   0.00073,   0.00109,   0.00025,354631550.07840,   0.00000,274640135.82653,   0.00000,   0.00000,   0.00000,-120008585.74813,   0.00000
323507720.19100,378649750.79293,19562929.14154,   0.00073,   0.00109,   0.00025,355928203.09524,   0.00000,274640135.82653,   0.00000,   0.00000,   0.00000,-118711932.73129,   0.00000
324703914.11941,379990937.92478,19568505.80321,   0.00074,   0.00110,   0.00025,357197395.19410,   0.00000,274640135.82653,   0.00000,   0.00000,   0.00000,-117442740.63243,   0.00000
325911261.37116,381320971.73330,19574082.46488,   0.00074,   0.00110,   0.00025,358464041.43277,   0.00000,274640135.82653,   0.00000,   0.00000,   0.00000,-116176094.39376,   0.00000
327107455.29957,382662158.86515,19579659.12656,   0.00074,   0.00110,   0.00025,359733316.87323,   0.00000,274640135.82653,   0.00000,   0.00000,   0.00000,-114906818.95330,   0.00000
328314802.55132,383992192.67366,19585235.78823,   0.00075,   0.00111,   0.00025,361000051.34678,   0.00000,274640135.82653,   0.00000,   0.00000,   0.00000,-113640084.47975,   0.00000
329494266.49472,385294343.17382,19585235.78823,   0.00075,   0.00111,   0.00025,362238415.86537,   0.00000,274640135.82653,   0.00000,   0.00000,   0.00000,-112401719.96115,   0.00000
330673730.43812,386596493.67397,19585235.78823,   0.00075,   0.00111,   0.00025,363476828.10331,   0.00000,274640135.82653,   0.00000,   0.00000,   0.00000,-111163307.72322,   0.00000
331833676.06567,387890279.18162,19590812.44990,   0.00075,   0.00112,   0.00025,364703715.09105,   0.00000,274640135.82653,   0.00000,   0.00000,   0.00000,-109936420.73547,   0.00000
333004775.01656,389172911.36593,19590812.44990,   0.00076,   0.00112,   0.00025,365927174.62667,   0.00000,274640135.82653,   0.00000,   0.00000,   0.00000,-108712961.19986,   0.00000
334156355.65160,390447178.55774,19590812.44990,   0.00076,   0.00112,   0.00025,367138206.67712,   0.00000,274640135.82653,   0.00000,   0.00000,   0.00000,-107501929.14941,   0.00000
335299571.29413,391701927.43369,19590812.44990,   0.00076,   0.00113,   0.00025,368334242.12125,   0.00000,274640135.82653,   0.00000,   0.00000,   0.00000,-106305893.70528,   0.00000
336462305.25252,392965041.30215,19585235.78823,   0.00076,   0.00113,   0.00025,369541915.40867,   0.00000,274640135.82653,   0.00000,   0.00000,   0.00000,-105098220.41786,   0.00000
337586002.57921,394211425.18560,19585235.78823,   0.00077,   0.00114,   0.00025,370725561.65910,   0.00000,274640135.82653,   0.00000,   0.00000,   0.00000,-103914574.16743,   0.00000
338720853.22924,395446655.74570,19579659.12656,   0.00077,   0.00114,   0.00025,371905813.97244,   0.00000,274640135.82653,   0.00000,   0.00000,   0.00000,-102734321.85408,   0.00000
339855703.87927,396681886.30581,19579659.12656,   0.00077,   0.00114,   0.00025,373086995.01635,   0.00000,274640135.82653,   0.00000,   0.00000,   0.00000,-101553140.81018,   0.00000
340962671.22094,397889233.55756,19574082.46488,   0.00078,   0.00115,   0.00025,374239820.88539,   0.00000,274640135.82653,   0.00000,   0.00000,   0.00000,-100400314.94114,   0.00000
342069638.56262,399096580.80931,19568505.80321,   0.00078,   0.00115,   0.00025,375392693.78763,   0.00000,274640135.82653,   0.00000,   0.00000,   0.00000,-99247442.03889,   0.00000
343176605.90429,400303928.06106,19562929.14154,   0.00078,   0.00115,   0.00025,376545613.29107,   0.00000,274640135.82653,   0.00000,   0.00000,   0.00000,-98094522.53546,   0.00000
344275208.25346,401491756.99697,19557352.47987,   0.00078,   0.00116,   0.00025,377683547.17986,   0.00000,274640135.82653,   0.00000,   0.00000,   0.00000,-96956588.64667,   0.00000
345373810.60263,402679585.93287,19546199.15653,   0.00079,   0.00116,   0.00025,378820665.53466,   0.00000,274640135.82653,   0.00000,   0.00000,   0.00000,-95819470.29187,   0.00000
346464047.95929,403847896.55293,19540622.49486,   0.00079,   0.00116,   0.00025,379943668.01073,   0.00000,274640135.82653,   0.00000,   0.00000,   0.00000,-94696467.81580,   0.00000
347543131.99261,405027360.49632,19535045.83319,   0.00079,   0.00117,   0.00025,381069243.02989,   0.00000,274640135.82653,   0.00000,   0.00000,   0.00000,-93570892.79664,   0.00000
348605486.04092,406167787.80802,19523892.50985,   0.00079,   0.00117,   0.00025,382163950.16264,   0.00000,274640135.82653,   0.00000,   0.00000,   0.00000,-92476185.66389,   0.00000
349667840.08923,407308215.11972,19512739.18650,   0.00080,   0.00117,   0.00025,383258708.49447,   0.00000,274640135.82653,   0.00000,   0.00000,   0.00000,-91381427.33206,   0.00000
350730194.13753,408448642.43142,19501585.86316,   0.00080,   0.00117,   0.00025,384353517.58788,   0.00000,274640135.82653,   0.00000,   0.00000,   0.00000,-90286618.23865,   0.00000
351792548.18584,409589069.74313,19490432.53982,   0.00080,   0.00118,   0.00025,385448377.01032,   0.00000,274640135.82653,   0.00000,   0.00000,   0.00000,-89191758.81621,   0.00000
352846537.24164,410709978.73898,19479279.21648,   0.00080,   0.00118,   0.00025,386528263.68447,   0.00000,274640135.82653,   0.00000,   0.00000,   0.00000,-88111872.14206,   0.00000
353872642.98909,411803004.42648,19468125.89314,   0.00081,   0.00118,   0.00025,387580660.14816,   0.00000,274640135.82653,   0.00000,   0.00000,   0.00000,-87059475.67837,   0.00000
354918267.05239,412904395.10648,19456972.56980,   0.00081,   0.00119,   0.00025,388645628.76862,   0.00000,274640135.82653,   0.00000,   0.00000,   0.00000,-85994507.05791,   0.00000
355944372.79983,413997420.79398,19440242.58478,   0.00081,   0.00119,   0.00025,389697289.90838,   0.00000,274640135.82653,   0.00000,   0.00000,   0.00000,-84942845.91815,   0.00000
356970478.54728,415090446.48148,19429089.26144,   0.00081,   0.00119,   0.00025,390749836.24073,   0.00000,274640135.82653,   0.00000,   0.00000,   0.00000,-83890299.58580,   0.00000
357988219.30222,416163953.85312,19412359.27643,   0.00082,   0.00120,   0.00025,391786584.69404,   0.00000,274640135.82653,   0.00000,   0.00000,   0.00000,-82853551.13249,   0.00000
359005960.05716,417237461.22477,19395629.29142,   0.00082,   0.00120,   0.00025,392823388.27249,   0.00000,274640135.82653,   0.00000,   0.00000,   0.00000,-81816747.55404,   0.00000
359995817.50375,418283085.28807,19384475.96807,   0.00082,   0.00120,   0.00025,393833518.82198,   0.00000,274640135.82653,   0.00000,   0.00000,   0.00000,-80806617.00455,   0.00000
361005193.26618,419337074.34387,19367745.98306,   0.00082,   0.00120,   0.00025,394855414.89340,   0.00000,274640135.82653,   0.00000,   0.00000,   0.00000,-79784720.93313,   0.00000
361986685.72026,420363180.09132,19351015.99805,   0.00083,   0.00121,   0.00025,395849813.58542,   0.00000,274640135.82653,   0.00000,   0.00000,   0.00000,-78790322.24111,   0.00000
362968178.17434,421389285.83876,19328709.35136,   0.00083,   0.00121,   0.00025,396843450.51845,   0.00000,274640135.82653,   0.00000,   0.00000,   0.00000,-77796685.30808,   0.00000
363949670.62842,422415391.58621,19311979.36635,   0.00083,   0.00121,   0.00025,397837957.97338,   0.00000,274640135.82653,   0.00000,   0.00000,   0.00000,-76802177.85315,   0.00000
364922798.08999,423421979.01781,19295249.38134,   0.00083,   0.00121,   0.00025,398817511.49024,   0.00000,274640135.82653,   0.00000,   0.00000,   0.00000,-75822624.33628,   0.00000
365895925.55157,424428566.44941,19272942.73466,   0.00084,   0.00122,   0.00025,399796313.34839,   0.00000,274640135.82653,   0.00000,   0.00000,   0.00000,-74843822.47814,   0.00000
366849534.69729,425426788.88850,19256212.74964,   0.00084,   0.00122,   0.00025,400763420.79645,   0.00000,274640135.82653,   0.00000,   0.00000,   0.00000,-73876715.03008,   0.00000
367814297.16636,426413858.00425,19233906.10296,   0.00084,   0.00122,   0.00025,401727334.70123,   0.00000,274640135.82653,   0.00000,   0.00000,   0.00000,-72912801.12530,   0.00000
368759541.31958,427392562.12750,19217176.11795,   0.00084,   0.00123,   0.00025,402679544.89450,   0.00000,274640135.82653,   0.00000,   0.00000,   0.00000,-71960590.93203,   0.00000
369696420.48029,428351747.93489,19194869.47126,   0.00085,   0.00123,   0.00025,403616011.07844,   0.00000,274640135.82653,   0.00000,   0.00000,   0.00000,-71024124.74809,   0.00000
370652817.95685,429319298.73479,19172562.82458,   0.00085,   0.00123,   0.00025,404565106.43154,   0.00000,274640135.82653,   0.00000,   0.00000,   0.00000,-70075029.39498,   0.00000
371589697.11756,430278484.54219,19150256.17790,   0.00085,   0.00123,   0.00025,405501692.29196,   0.00000,274640135.82653,   0.00000,   0.00000,   0.00000,-69138443.53456,   0.00000
372498692.96992,431209787.04123,19127949.53121,   0.00085,   0.00124,   0.00025,406410765.10786,   0.00000,274640135.82653,   0.00000,   0.00000,   0.00000,-68229370.71867,   0.00000
373427207.13813,432149454.53278,19105642.88453,   0.00086,   0.00124,   0.00025,407332472.28967,   0.00000,274640135.82653,   0.00000,   0.00000,   0.00000,-67307663.53686,   0.00000
374355721.30633,433089122.02433,19077759.57617,   0.00086,   0.00124,   0.00025,408253457.73990,   0.00000,274640135.82653,   0.00000,   0.00000,   0.00000,-66386678.08663,   0.00000
375256352.16618,434000906.20752,19055452.92949,   0.00086,   0.00124,   0.00025,409147712.18817,   0.00000,274640135.82653,   0.00000,   0.00000,   0.00000,-65492423.63836,   0.00000
376156983.02604,434912690.39071,19033146.28281,   0.00086,   0.00125,   0.00025,410042022.98947,   0.00000,274640135.82653,   0.00000,   0.00000,   0.00000,-64598112.83706,   0.00000
377068767.20923,435813321.25057,19005262.97445,   0.00087,   0.00125,   0.00025,410933223.85640,   0.00000,274640135.82653,   0.00000,   0.00000,   0.00000,-63706911.97013,   0.00000
377961033.07657,436705587.11791,18977379.66610,   0.00087,   0.00125,   0.00025,411811899.17714,   0.00000,274640135.82653,   0.00000,   0.00000,   0.00000,-62828236.64938,   0.00000
378853298.94392,437597852.98526,18955073.01941,   0.00087,   0.00125,   0.00025,412691406.77178,   0.00000,274640135.82653,   0.00000,   0.00000,   0.00000,-61948729.05475,   0.00000
379717681.50291,438462235.54425,18927189.71106,   0.00087,   0.00125,   0.00025,413542623.76209,   0.00000,274640135.82653,   0.00000,   0.00000,   0.00000,-61097512.06444,   0.00000
380601582.37775,439334983.09574,18899306.40270,   0.00088,   0.00126,   0.00025,414406507.51111,   0.00000,274640135.82653,   0.00000,   0.00000,   0.00000,-60233628.31542,   0.00000
381485483.25259,440207730.64724,18871423.09435,   0.00088,   0.00126,   0.00025,415270457.68437,   0.00000,274640135.82653,   0.00000,   0.00000,   0.00000,-59369678.14216,   0.00000
382341500.81907,441052594.89038,18843539.78600,   0.00088,   0.00126,   0.00024,416106886.04322,   0.00000,274640135.82653,   0.00000,   0.00000,   0.00000,-58533249.78331,   0.00000
383217036.70140,441905824.12603,18815656.47764,   0.00088,   0.00126,   0.00024,416955994.05465,   0.00000,274640135.82653,   0.00000,   0.00000,   0.00000,-57684141.77188,   0.00000
384064689.27538,442731170.05333,18787773.16929,   0.00088,   0.00127,   0.00024,417777580.16426,   0.00000,274640135.82653,   0.00000,   0.00000,   0.00000,-56862555.66227,   0.00000
384920706.84187,443576034.29647,18759889.86093,   0.00089,   0.00127,   0.00024,418614200.07102,   0.00000,274640135.82653,   0.00000,   0.00000,   0.00000,-56025935.75551,   0.00000
385759994.42334,444381861.90792,18726429.89091,   0.00089,   0.00127,   0.00024,419420201.52609,   0.00000,274640135.82653,   0.00000,   0.00000,   0.00000,-55219934.30044,   0.00000
386607646.99732,445207207.83521,18698546.58255,   0.00089,   0.00127,   0.00024,420241985.65911,   0.00000,274640135.82653,   0.00000,   0.00000,   0.00000,-54398150.16742,   0.00000
387446934.57879,446013035.44666,18665086.61253,   0.00089,   0.00127,   0.00024,421048130.16045,   0.00000,274640135.82653,   0.00000,   0.00000,   0.00000,-53592005.66608,   0.00000
388266703.84441,446810498.06560,18637203.30417,   0.00090,   0.00128,   0.00024,421842448.32618,   0.00000,274640135.82653,   0.00000,   0.00000,   0.00000,-52797687.50035,   0.00000
389097626.43338,447596807.36119,18603743.33415,   0.00090,   0.00128,   0.00024,422633774.45579,   0.00000,274640135.82653,   0.00000,   0.00000,   0.00000,-52006361.37073,   0.00000
389928549.02234,448383116.65679,18570283.36412,   0.00090,   0.00128,   0.00024,423425177.37388,   0.00000,274640135.82653,   0.00000,   0.00000,   0.00000,-51214958.45265,   0.00000
390739953.29546,449161060.95988,18542400.05577,   0.00090,   0.00128,   0.00024,424204737.83519,   0.00000,274640135.82653,   0.00000,   0.00000,   0.00000,-50435397.99134,   0.00000
391542992.57607,449919486.94713,18508940.08574,   0.00090,   0.00128,   0.00024,424968681.22476,   0.00000,274640135.82653,   0.00000,   0.00000,   0.00000,-49671454.60177,   0.00000
392365550.17253,450686277.92688,18475480.11572,   0.00091,   0.00129,   0.00024,425745354.38018,   0.00000,274640135.82653,   0.00000,   0.00000,   0.00000,-48894781.44635,   0.00000
393168589.45314,451444703.91412,18442020.14569,   0.00091,   0.00129,   0.00024,426509445.72405,   0.00000,274640135.82653,   0.00000,   0.00000,   0.00000,-48130690.10248,   0.00000
393963263.74124,452183611.58551,18408560.17566,   0.00091,   0.00129,   0.00024,427258663.57145,   0.00000,274640135.82653,   0.00000,   0.00000,   0.00000,-47381472.25508,   0.00000
394757938.02935,452922519.25691,18375100.20564,   0.00091,   0.00129,   0.00024,428007956.95991,   0.00000,274640135.82653,   0.00000,   0.00000,   0.00000,-46632178.86662,   0.00000
395544247.32495,453641908.61246,18341640.23561,   0.00092,   0.00129,   0.00024,428742385.17301,   0.00000,274640135.82653,   0.00000,   0.00000,   0.00000,-45897750.65352,   0.00000
396319403.29720,454372451.29135,18302603.60392,   0.00092,   0.00129,   0.00024,429478440.72541,   0.00000,274640135.82653,   0.00000,   0.00000,   0.00000,-45161695.10112,   0.00000
397097347.60029,455072322.33104,18269143.63389,   0.00092,   0.00130,   0.00024,430198087.72976,   0.00000,274640135.82653,   0.00000,   0.00000,   0.00000,-44442048.09677,   0.00000
397883656.89589,455791711.68659,18235683.66387,   0.00092,   0.00130,   0.00024,430932751.49889,   0.00000,274640135.82653,   0.00000,   0.00000,   0.00000,-43707384.32764,   0.00000
398642082.88313,456483217.73378,18196647.03217,   0.00092,   0.00130,   0.00024,431639168.15906,   0.00000,274640135.82653,   0.00000,   0.00000,   0.00000,-43000967.66747,   0.00000
399420027.18623,457183088.77348,18163187.06214,   0.00093,   0.00130,   0.00024,432359060.41586,   0.00000,274640135.82653,   0.00000,   0.00000,   0.00000,-42281075.41067,   0.00000
400178453.17347,457874594.82068,18124150.43045,   0.00093,   0.00130,   0.00024,433065637.46183,   0.00000,274640135.82653,   0.00000,   0.00000,   0.00000,-41574498.36470,   0.00000
400928514.16821,458546582.55202,18085113.79875,   0.00093,   0.00130,   0.00024,433757369.78997,   0.00000,274640135.82653,   0.00000,   0.00000,   0.00000,-40882766.03656,   0.00000
401678575.16294,459218570.28336,18051653.82873,   0.00093,   0.00131,   0.00023,434449880.48807,   0.00000,274640135.82653,   0.00000,   0.00000,   0.00000,-40190255.33846,   0.00000
402448154.47353,459898923.00721,18012617.19703,   0.00093,   0.00131,   0.00023,435154486.07200,   0.00000,274640135.82653,   0.00000,   0.00000,   0.00000,-39485649.75453,   0.00000
403189850.47576,460551392.42271,17973580.56533,   0.00094,   0.00131,   0.00023,435831552.70914,   0.00000,274640135.82653,   0.00000,   0.00000,   0.00000,-38808583.11739,   0.00000
403931546.47799,461203861.83821,17934543.93364,   0.00094,   0.00131,   0.00023,436508706.50993,   0.00000,274640135.82653,   0.00000,   0.00000,   0.00000,-38131429.31660,   0.00000
404664877.48771,461836812.93785,17895507.30194,   0.00094,   0.00131,   0.00023,437171036.40876,   0.00000,274640135.82653,   0.00000,   0.00000,   0.00000,-37469099.41777,   0.00000
405387055.17410,462480917.36084,17856470.67025,   0.00094,   0.00131,   0.00023,437835639.13519,   0.00000,274640135.82653,   0.00000,   0.00000,   0.00000,-36804496.69134,   0.00000
406120386.18382,463113868.46049,17817434.03855,   0.00094,   0.00132,   0.00023,438498144.80273,   0.00000,274640135.82653,   0.00000,   0.00000,   0.00000,-36141991.02380,   0.00000
406845352.20104,463727301.24429,17778397.40685,   0.00095,   0.00132,   0.00023,439145838.61173,   0.00000,274640135.82653,   0.00000,   0.00000,   0.00000,-35494297.21480,   0.00000
407578683.21076,464360252.34394,17733784.11349,   0.00095,   0.00132,   0.00023,439807853.58602,   0.00000,274640135.82653,   0.00000,   0.00000,   0.00000,-34832282.24051,   0.00000
408284130.91213,464965320.13523,17694747.48179,   0.00095,   0.00132,   0.00023,440442994.16925,   0.00000,274640135.82653,   0.00000,   0.00000,   0.00000,-34197141.65728,   0.00000
409000731.93684,465559234.60319,17655710.85009,   0.00095,   0.00132,   0.00023,441076075.42621,   0.00000,274640135.82653,   0.00000,   0.00000,   0.00000,-33564060.40032,   0.00000
409706179.63821,466164302.39448,17611097.55673,   0.00096,   0.00132,   0.00023,441710728.09518,   0.00000,274640135.82653,   0.00000,   0.00000,   0.00000,-32929407.73135,   0.00000
410422780.66293,466758216.86243,17572060.92503,   0.00096,   0.00132,   0.00023,442344004.83017,   0.00000,274640135.82653,   0.00000,   0.00000,   0.00000,-32296130.99636,   0.00000
411119863.37179,467343766.33788,17527447.63166,   0.00096,   0.00132,   0.00023,442963956.64960,   0.00000,274640135.82653,   0.00000,   0.00000,   0.00000,-31676179.17693,   0.00000
411808581.08815,467909797.49747,17488410.99997,   0.00096,   0.00133,   0.00023,443569780.10815,   0.00000,274640135.82653,   0.00000,   0.00000,   0.00000,-31070355.71838,   0.00000
412516817.12035,468484193.64958,17443797.70660,   0.00096,   0.00133,   0.00023,444187813.77517,   0.00000,274640135.82653,   0.00000,   0.00000,   0.00000,-30452322.05136,   0.00000
413205534.83671,469050224.80917,17399184.41323,   0.00097,   0.00133,   0.00023,444793180.32138,   0.00000,274640135.82653,   0.00000,   0.00000,   0.00000,-29846955.50515,   0.00000
413894252.55307,469616255.96877,17360147.78153,   0.00097,   0.00133,   0.00023,445399298.50485,   0.00000,274640135.82653,   0.00000,   0.00000,   0.00000,-29240837.32168,   0.00000
414574605.27692,470162768.81252,17315534.48817,   0.00097,   0.00133,   0.00023,445989990.27495,   0.00000,274640135.82653,   0.00000,   0.00000,   0.00000,-28650145.55158,   0.00000
415254958.00077,470709281.65627,17270921.19480,   0.00097,   0.00133,   0.00022,446580786.81643,   0.00000,274640135.82653,   0.00000,   0.00000,   0.00000,-28059349.01010,   0.00000
415926945.73211,471236276.18417,17226307.90143,   0.00097,   0.00133,   0.00022,447156822.77950,   0.00000,274640135.82653,   0.00000,   0.00000,   0.00000,-27483313.04703,   0.00000
416607298.45596,471782789.02792,17181694.60807,   0.00098,   0.00133,   0.00022,447747830.64088,   0.00000,274640135.82653,   0.00000,   0.00000,   0.00000,-26892305.18565,   0.00000
417279286.18731,472309783.55582,17137081.31470,   0.00098,   0.00134,   0.00022,448324083.28132,   0.00000,274640135.82653,   0.00000,   0.00000,   0.00000,-26316052.54521,   0.00000
417951273.91865,472836778.08372,17092468.02133,   0.00098,   0.00134,   0.00022,448900445.21287,   0.00000,274640135.82653,   0.00000,   0.00000,   0.00000,-25739690.61366,   0.00000
418614896.65749,473344254.29577,17047854.72796,   0.00098,   0.00134,   0.00022,449462063.73332,   0.00000,274640135.82653,   0.00000,   0.00000,   0.00000,-25178072.09321,   0.00000
419278519.39633,473851730.50782,16997664.77293,   0.00098,   0.00134,   0.00022,450023165.15367,   0.00000,274640135.82653,   0.00000,   0.00000,   0.00000,-24616970.67286,   0.00000
419942142.13516,474359206.71988,16953051.47956,   0.00099,   0.00134,   0.00022,450585015.49974,   0.00000,274640135.82653,   0.00000,   0.00000,   0.00000,-24055120.32678,   0.00000
420605764.87400,474866682.93193,16908438.18619,   0.00099,   0.00134,   0.00022,451146979.88787,   0.00000,274640135.82653,   0.00000,   0.00000,   0.00000,-23493155.93866,   0.00000
421261022.62033,475354640.82813,16858248.23115,   0.00099,   0.00134,   0.00022,451693594.41292,   0.00000,274640135.82653,   0.00000,   0.00000,   0.00000,-22946541.41361,   0.00000
421916280.36667,475842598.72434,16813634.93779,   0.00099,   0.00134,   0.00022,452240955.75794,   0.00000,274640135.82653,   0.00000,   0.00000,   0.00000,-22399180.06859,   0.00000
422552019.79715,476322191.62804,16763444.98275,   0.00099,   0.00134,   0.00022,452774971.46864,   0.00000,274640135.82653,   0.00000,   0.00000,   0.00000,-21865164.35789,   0.00000
423198912.55097,476790631.20839,16718831.68938,   0.00100,   0.00134,   0.00022,453307739.78580,   0.00000,274640135.82653,   0.00000,   0.00000,   0.00000,-21332396.04073,   0.00000
423854170.29731,477278589.10460,16668641.73434,   0.00100,   0.00135,   0.00022,453854844.37461,   0.00000,274640135.82653,   0.00000,   0.00000,   0.00000,-20785291.45192,   0.00000
424501063.05113,477747028.68495,16618451.77930,   0.00100,   0.00135,   0.00022,454387250.28458,   0.00000,274640135.82653,   0.00000,   0.00000,   0.00000,-20252885.54195,   0.00000
425120072.49660,478187584.95696,16573838.48594,   0.00100,   0.00135,   0.00022,454892710.45938,   0.00000,274640135.82653,   0.00000,   0.00000,   0.00000,-19747425.36715,   0.00000
425766965.25043,478656024.53731,16523648.53090,   0.00100,   0.00135,   0.00021,455425370.87942,   0.00000,274640135.82653,   0.00000,   0.00000,   0.00000,-19214764.94711,   0.00000
426405493.01175,479104945.80182,16473458.57586,   0.00101,   0.00135,   0.00021,455943348.95436,   0.00000,274640135.82653,   0.00000,   0.00000,   0.00000,-18696786.87217,   0.00000
427044020.77306,479553867.06633,16423268.62082,   0.00101,   0.00135,   0.00021,456461462.53938,   0.00000,274640135.82653,   0.00000,   0.00000,   0.00000,-18178673.28715,   0.00000
427654665.22603,479974905.02248,16373078.66578,   0.00101,   0.00135,   0.00021,456952019.28827,   0.00000,274640135.82653,   0.00000,   0.00000,   0.00000,-17688116.53826,   0.00000
428293192.98735,480423826.28699,16322888.71075,   0.00101,   0.00135,   0.00021,457470400.75120,   0.00000,274640135.82653,   0.00000,   0.00000,   0.00000,-17169735.07533,   0.00000
428923355.75616,480853229.23565,16272698.75571,   0.00101,   0.00135,   0.00021,457974120.05911,   0.00000,274640135.82653,   0.00000,   0.00000,   0.00000,-16666015.76742,   0.00000
429525635.21662,481254748.87595,16222508.80067,   0.00102,   0.00135,   0.00021,458450283.33212,   0.00000,274640135.82653,   0.00000,   0.00000,   0.00000,-16189852.49441,   0.00000
430155797.98543,481684151.82461,16166742.18396,   0.00102,   0.00135,   0.00021,458953693.32097,   0.00000,274640135.82653,   0.00000,   0.00000,   0.00000,-15686442.50556,   0.00000
430777595.76174,482094036.45743,16116552.22892,   0.00102,   0.00135,   0.00021,459443050.67018,   0.00000,274640135.82653,   0.00000,   0.00000,   0.00000,-15197085.15635,   0.00000
431379875.22220,482495556.09773,16066362.27388,   0.00102,   0.00135,   0.00021,459919633.85598,   0.00000,274640135.82653,   0.00000,   0.00000,   0.00000,-14720501.97055,   0.00000
432001672.99850,482905440.73054,16010595.65717,   0.00102,   0.00135,   0.00021,460408698.20724,   0.00000,274640135.82653,   0.00000,   0.00000,   0.00000,-14231437.61929,   0.00000
432615105.78230,483295807.04751,15960405.70214,   0.00103,   0.00136,   0.00021,460883720.49928,   0.00000,274640135.82653,   0.00000,   0.00000,   0.00000,-13756415.32724,   0.00000
433236903.55861,483705691.68032,15904639.08543,   0.00103,   0.00136,   0.00021,461373089.05596,   0.00000,274640135.82653,   0.00000,   0.00000,   0.00000,-13267046.77057,   0.00000
433830818.02656,484087693.00478,15854449.13039,   0.00103,   0.00136,   0.00021,461835472.87656,   0.00000,274640135.82653,   0.00000,   0.00000,   0.00000,-12804662.94997,   0.00000
434435885.81785,484458541.00589,15798682.51368,   0.00103,   0.00136,   0.00021,462295615.96827,   0.00000,274640135.82653,   0.00000,   0.00000,   0.00000,-12344519.85826,   0.00000
435049318.60165,484848907.32285,15742915.89697,   0.00103,   0.00136,   0.00020,462770681.86650,   0.00000,274640135.82653,   0.00000,   0.00000,   0.00000,-11869453.96003,   0.00000
435654386.39295,485219755.32397,15692725.94193,   0.00104,   0.00136,   0.00020,463231719.02530,   0.00000,274640135.82653,   0.00000,   0.00000,   0.00000,-11408416.80123,   0.00000
436259454.18424,485590603.32508,15636959.32522,   0.00104,   0.00136,   0.00020,463692352.02877,   0.00000,274640135.82653,   0.00000,   0.00000,   0.00000,-10947783.79776,   0.00000
436864521.97553,485961451.32620,15581192.70851,   0.00104,   0.00136,   0.00020,464153149.62034,   0.00000,274640135.82653,   0.00000,   0.00000,   0.00000,-10486986.20619,   0.00000
437441706.45847,486304416.01896,15525426.09181,   0.00104,   0.00136,   0.00020,464586390.83944,   0.00000,274640135.82653,   0.00000,   0.00000,   0.00000,-10053744.98709,   0.00000
438046774.24976,486675264.02008,15469659.47510,   0.00104,   0.00136,   0.00020,465047514.36957,   0.00000,274640135.82653,   0.00000,   0.00000,   0.00000,-9592621.45696,   0.00000
438643477.04855,487026593.70534,15413892.85839,   0.00105,   0.00136,   0.00020,465494069.49455,   0.00000,274640135.82653,   0.00000,   0.00000,   0.00000,-9146066.33198,   0.00000
439231814.85483,487358405.07476,15358126.24168,   0.00105,   0.00136,   0.00020,465926068.76725,   0.00000,274640135.82653,   0.00000,   0.00000,   0.00000,-8714067.05928,   0.00000
439828517.65362,487709734.76003,15296782.96330,   0.00105,   0.00136,   0.00020,466372421.29377,   0.00000,274640135.82653,   0.00000,   0.00000,   0.00000,-8267714.53276,   0.00000
440416855.45990,488041546.12945,15241016.34659,   0.00105,   0.00136,   0.00020,466804777.15992,   0.00000,274640135.82653,   0.00000,   0.00000,   0.00000,-7835358.66661,   0.00000
441024711.58203,488381722.49137,15185249.72988,   0.00105,   0.00136,   0.00020,467250329.28189,   0.00000,274640135.82653,   0.00000,   0.00000,   0.00000,-7389806.54464,   0.00000
441613049.38831,488713533.86079,15123906.45150,   0.00106,   0.00136,   0.00020,467682506.88069,   0.00000,274640135.82653,   0.00000,   0.00000,   0.00000,-6957628.94584,   0.00000
442201387.19459,489045345.23021,15068139.83479,   0.00106,   0.00136,   0.00020,468115405.62189,   0.00000,274640135.82653,   0.00000,   0.00000,   0.00000,-6524730.20464,   0.00000
442781360.00836,489357638.28378,15006796.55641,   0.00106,   0.00136,   0.00020,468533245.49750,   0.00000,274640135.82653,   0.00000,   0.00000,   0.00000,-6106890.32903,   0.00000
443361332.82214,489669931.33735,14945453.27803,   0.00106,   0.00136,   0.00019,468951276.16646,   0.00000,274640135.82653,   0.00000,   0.00000,   0.00000,-5688859.66007,   0.00000
443960823.95176,489990589.38343,14889686.66132,   0.00106,   0.00136,   0.00019,469383077.45762,   0.00000,274640135.82653,   0.00000,   0.00000,   0.00000,-5257058.36891,   0.00000
444540796.76554,490302882.43700,14828343.38294,   0.00107,   0.00136,   0.00019,469801491.91167,   0.00000,274640135.82653,   0.00000,   0.00000,   0.00000,-4838643.91486,   0.00000
445140287.89516,490623540.48308,14767000.10456,   0.00107,   0.00136,   0.00019,470233158.33852,   0.00000,274640135.82653,   0.00000,   0.00000,   0.00000,-4406977.48801,   0.00000
445711895.71643,490916315.22080,14705656.82618,   0.00107,   0.00136,   0.00019,470637280.78636,   0.00000,274640135.82653,   0.00000,   0.00000,   0.00000,-4002855.04017,   0.00000
446303021.85354,491217454.95103,14644313.54780,   0.00107,   0.00136,   0.00019,471054676.85841,   0.00000,274640135.82653,   0.00000,   0.00000,   0.00000,-3585458.96812,   0.00000
446874629.67481,491510229.68875,14582970.26942,   0.00107,   0.00136,   0.00019,471459200.49118,   0.00000,274640135.82653,   0.00000,   0.00000,   0.00000,-3180935.33535,   0.00000
447457390.81942,491791851.10313,14521626.99104,   0.00108,   0.00137,   0.00019,471862348.40355,   0.00000,274640135.82653,   0.00000,   0.00000,   0.00000,-2777787.42298,   0.00000
448048516.95654,492092990.83336,14460283.71266,   0.00108,   0.00137,   0.00019,472280372.06921,   0.00000,274640135.82653,   0.00000,   0.00000,   0.00000,-2359763.75732,   0.00000
448631278.10115,492374612.24774,14393363.77261,   0.00108,   0.00137,   0.00019,472683443.37579,   0.00000,274640135.82653,   0.00000,   0.00000,   0.00000,-1956692.45074,   0.00000
449194520.92991,492647868.66962,14332020.49423,   0.00108,   0.00137,   0.00019,473074135.01302,   0.00000,274640135.82653,   0.00000,   0.00000,   0.00000,-1566000.81351,   0.00000
449777282.07452,492929490.08400,14265100.55418,   0.00109,   0.00137,   0.00019,473477643.23346,   0.00000,274640135.82653,   0.00000,   0.00000,   0.00000,-1162492.59307,   0.00000
450351678.22662,493191593.18253,14203757.27580,   0.00109,   0.00137,   0.00018,473867238.95274,   0.00000,274640135.82653,   0.00000,   0.00000,   0.00000,-772896.87379,   0.00000
450953957.68708,493481579.58942,14136837.33575,   0.00109,   0.00137,   0.00018,474284324.53093,   0.00000,274640135.82653,   0.00000,   0.00000,   0.00000,-355811.29560,   0.00000
451477974.97745,493720694.27532,14080874.32416,   0.00109,   0.00137,   0.00018,474640158.07215,   0.00000,274640135.82653,   0.00000,   0.00000,   0.00000,  -1.56702,   0.00000
451528353.83918,493743682.68795,14075494.05737,   0.00109,   0.00137,   0.00018,474640270.89832,   0.00000,274640275.07247,   0.00000,   0.00000,   0.00000,  -4.17415,   1.00000
451738087.06367,493600184.99122,13994888.20788,   0.00109,   0.00137,   0.00018,474676741.87067,   0.00003,274676745.86436,   0.00002,   0.00003,   0.00000,  -3.99369,  23.00000
451946656.50553,493455761.32650,13914325.14607,   0.00110,   0.00137,   0.00018,474678325.37494,   0.00003,274678330.40362,   0.00002,   0.00003,   0.00000,  -5.02869,   1.00000
452167299.49760,493301596.72502,13833882.88221,   0.00110,   0.00137,   0.00018,474679902.86528,   0.00004,274679909.74129,   0.00002,   0.00003,   0.00000,  -6.87601,   1.00000
452380336.30011,493152655.74853,13753964.91900,   0.00110,   0.00137,   0.00018,474681431.00505,   0.00004,274681436.38589,   0.00002,   0.00003,   0.00000,  -5.38084,   1.00000
452594721.07975,493002559.05904,13673159.56978,   0.00110,   0.00137,   0.00018,474683067.90632,   0.00004,274683076.56672,   0.00002,   0.00003,   0.00000,  -8.66040,   1.00000
452806887.73964,492853382.77259,13593376.02412,   0.00110,   0.00137,   0.00018,474684598.17529,   0.00004,274684604.70157,   0.00002,   0.00003,   0.00000,  -6.52629,   1.00000
453031521.87051,492694891.18396,13508151.40550,   0.00111,   0.00137,   0.00018,474686117.02826,   0.00004,274686125.97502,   0.00003,   0.00003,   0.00001,  -8.94676,   1.00000
453249884.78112,492540118.02770,13428061.05029,   0.00111,   0.00137,   0.00018,474687700.12021,   0.00004,274687709.20982,   0.00003,   0.00003,   0.00001,  -9.08960,   1.00000
453473592.48562,492381357.95953,13342973.54494,   0.00111,   0.00137,   0.00018,474689227.08451,   0.00004,274689232.15073,   0.00003,   0.00004,   0.00001,  -5.06622,   1.00000
453696385.75490,492221971.18686,13263512.58284,   0.00111,   0.00137,   0.00017,474690754.43662,   0.00005,274690757.86408,   0.00003,   0.00004,   0.00001,  -3.42745,   1.00000
453919148.26482,492062932.44488,13178561.42787,   0.00112,   0.00137,   0.00017,474692278.11665,   0.00005,274692282.53887,   0.00003,   0.00004,   0.00001,  -4.42222,   1.00000
454141440.18384,491903756.90081,13093681.22455,   0.00112,   0.00137,   0.00017,474693803.01268,   0.00005,274693808.07101,   0.00003,   0.00004,   0.00001,  -5.05833,   1.00000
454369845.90054,491738600.72270,13013995.66938,   0.00112,   0.00137,   0.00017,474695384.76852,   0.00005,274695389.99274,   0.00003,   0.00004,   0.00001,  -5.22422,   1.00000
454596559.65925,491574735.49143,12929725.14941,   0.00112,   0.00137,   0.00017,474696853.19686,   0.00005,274696858.27690,   0.00003,   0.00004,   0.00001,  -5.08004,   1.00000
454829780.49897,491405344.67246,12845094.11987,   0.00112,   0.00137,   0.00017,474698373.99853,   0.00005,274698381.19660,   0.00003,   0.00004,   0.00001,  -7.19807,   1.00000
455055528.11328,491241181.31090,12760958.35572,   0.00113,   0.00137,   0.00017,474699845.02234,   0.00005,274699851.33018,   0.00003,   0.00004,   0.00001,  -6.30784,   1.00000
455288178.51095,491071954.02919,12670910.25311,   0.00113,   0.00137,   0.00017,474701369.23968,   0.00006,274701374.31754,   0.00003,   0.00004,   0.00001,  -5.07786,   1.00000
455519897.16742,490902107.07659,12586494.60171,   0.00113,   0.00137,   0.00017,474702894.08422,   0.00006,274702900.09799,   0.00003,   0.00004,   0.00001,  -6.01377,   1.00000
455756497.42701,490727627.58199,12502605.24470,   0.00113,   0.00136,   0.00017,474704360.72935,   0.00006,274704368.03326,   0.00004,   0.00005,   0.00001,  -7.30391,   1.00000
455987616.67591,490557934.81474,12412771.96802,   0.00114,   0.00136,   0.00016,474705889.11202,   0.00006,274705893.96702,   0.00004,   0.00005,   0.00001,  -4.85500,   1.00000
456223612.81367,490383573.35200,12323463.05312,   0.00114,   0.00136,   0.00016,474707353.66957,   0.00006,274707362.16652,   0.00004,   0.00005,   0.00001,  -8.49695,   1.00000
456465568.28503,490203210.30856,12239374.80179,   0.00114,   0.00136,   0.00016,474708881.67862,   0.00006,274708887.00875,   0.00004,   0.00005,   0.00001,  -5.33013,   1.00000
456705918.48699,490023977.14384,12150646.47455,   0.00114,   0.00136,   0.00016,474710288.72780,   0.00006,274710298.64163,   0.00004,   0.00005,   0.00001,  -9.91383,   1.00000
456947203.39574,489843720.64528,12061143.21003,   0.00114,   0.00136,   0.00016,474711820.60654,   0.00007,274711823.88620,   0.00004,   0.00005,   0.00001,  -3.27966,   1.00000
457186506.70722,489664123.11158,11972550.97599,   0.00115,   0.00136,   0.00016,474713230.70161,   0.00007,274713237.71191,   0.00004,   0.00005,   0.00001,  -7.01029,   1.00000
457426703.38500,489483519.64751,11883196.14591,   0.00115,   0.00136,   0.00016,474714759.90795,   0.00007,274714765.14987,   0.00004,   0.00005,   0.00001,  -5.24192,   1.00000
457672160.58504,489298589.14769,11788785.62027,   0.00115,   0.00136,   0.00016,474716230.86773,   0.00007,274716233.46241,   0.00004,   0.00005,   0.00001,  -2.59468,   1.00000
457916661.66767,489113034.35897,11700010.01682,   0.00115,   0.00136,   0.00016,474717697.42035,   0.00007,274717704.64753,   0.00004,   0.00006,   0.00001,  -7.22718,   1.00000
458166033.13215,488922690.71651,11611727.38672,   0.00116,   0.00136,   0.00016,474719115.20219,   0.00007,274719118.49760,   0.00004,   0.00006,   0.00001,  -3.29541,   1.00000
458416565.36974,488731777.83560,11517146.54293,   0.00116,   0.00136,   0.00015,474720643.20268,   0.00007,274720644.41394,   0.00004,   0.00006,   0.00001,  -1.21126,   1.00000
458665192.57928,488541439.30673,11423443.34626,   0.00116,   0.00136,   0.00015,474722054.08508,   0.00007,274722059.09303,   0.00005,   0.00006,   0.00001,  -5.00795,   1.00000
458919975.18503,488345481.42463,11329430.89501,   0.00116,   0.00136,   0.00015,474723524.43057,   0.00008,274723529.12323,   0.00005,   0.00006,   0.00001,  -4.69266,   1.00000
459167084.04690,488154324.17507,11241432.44935,   0.00117,   0.00136,   0.00015,474724938.35603,   0.00008,274724947.90347,   0.00005,   0.00006,   0.00001,  -9.54743,   1.00000
459421082.76358,487958369.74069,11142004.97527,   0.00117,   0.00136,   0.00015,474726418.20573,   0.00008,274726418.84064,   0.00005,   0.00006,   0.00001,  -0.63491,   1.00000
459674093.21119,487761782.50340,11048217.93933,   0.00117,   0.00136,   0.00015,474727882.81710,   0.00008,274727892.73836,   0.00005,   0.00006,   0.00001,  -9.92126,   1.00000
459931959.76028,487560295.46197,10954903.49434,   0.00117,   0.00136,   0.00015,474729309.03672,   0.00008,274729309.66038,   0.00005,   0.00006,   0.00001,  -0.62366,   1.00000
460190410.12611,487357868.72690,10860900.37176,   0.00118,   0.00136,   0.00015,474730835.06878,   0.00008,274730840.41145,   0.00005,   0.00006,   0.00001,  -5.34267,   1.00000
460447426.32425,487156314.19969,10762167.90286,   0.00118,   0.00136,   0.00015,474732249.33251,   0.00008,274732258.55352,   0.00005,   0.00007,   0.00001,  -9.22102,   1.00000
460710441.35563,486949106.66047,10663151.50993,   0.00118,   0.00136,   0.00014,474733729.37324,   0.00009,274733732.35656,   0.00005,   0.00007,   0.00001,  -2.98332,   1.00000
460972455.84628,486741278.37815,10569776.35592,   0.00118,   0.00136,   0.00014,474735205.33773,   0.00009,274735209.12906,   0.00005,   0.00007,   0.00001,  -3.79133,   1.00000
461227635.89262,486539045.27699,10471269.06891,   0.00118,   0.00136,   0.00014,474736625.39910,   0.00009,274736631.43329,   0.00005,   0.00007,   0.00001,  -6.03419,   1.00000
461500743.05295,486320902.95565,10372510.07255,   0.00119,   0.00136,   0.00014,474738101.80922,   0.00009,274738105.96840,   0.00006,   0.00007,   0.00001,  -4.15918,   1.00000
461761550.66393,486113140.40061,10268245.79843,   0.00119,   0.00136,   0.00014,474739579.18793,   0.00009,274739584.07709,   0.00006,   0.00007,   0.00001,  -4.88916,   1.00000
462026826.03037,485899948.19010,10169995.92869,   0.00119,   0.00136,   0.00014,474741006.49071,   0.00009,274741007.19548,   0.00006,   0.00007,   0.00001,  -0.70476,   1.00000
462297934.76368,485681050.11547,10071479.99373,   0.00119,   0.00136,   0.00014,474742478.22750,   0.00009,274742486.36235,   0.00006,   0.00007,   0.00001,  -8.13486,   1.00000
462562247.72965,485467724.47488,9967819.97458,   0.00120,   0.00136,   0.00014,474743904.65109,   0.00009,274743911.09572,   0.00006,   0.00007,   0.00001,  -6.44463,   1.00000
462832363.32047,485248695.28083,9863905.77142,   0.00120,   0.00135,   0.00014,474745386.79671,   0.00010,274745391.91400,   0.00006,   0.00007,   0.00001,  -5.11728,   1.00000
463106922.26492,485024162.46218,9765990.78781,   0.00120,   0.00135,   0.00013,474746812.78345,   0.00010,274746817.99915,   0.00006,   0.00008,   0.00001,  -5.21569,   1.00000
463375671.21490,484804629.97392,9662240.91659,   0.00120,   0.00135,   0.00013,474748299.41175,   0.00010,274748301.99864,   0.00006,   0.00008,   0.00001,  -2.58689,   1.00000
463655913.94626,484574789.35246,9553030.31437,   0.00121,   0.00135,   0.00013,474749773.40211,   0.00010,274749783.27856,   0.00006,   0.00008,   0.00001,  -9.87645,   1.00000
463928744.95587,484349806.20593,9449795.22679,   0.00121,   0.00135,   0.00013,474751212.05195,   0.00010,274751212.89738,   0.00006,   0.00008,   0.00001,  -0.84543,   1.00000
464207235.60648,484119079.76016,9346322.02839,   0.00121,   0.00135,   0.00013,474752696.11008,   0.00010,274752698.93044,   0.00006,   0.00008,   0.00001,  -2.82036,   1.00000
464485318.38302,483888409.64234,9237369.55437,   0.00122,   0.00135,   0.00013,474754177.39484,   0.00010,274754185.37681,   0.00006,   0.00008,   0.00001,  -7.98197,   1.00000
464762686.04927,483657473.53207,9128507.18760,   0.00122,   0.00135,   0.00013,474755672.37371,   0.00011,274755673.51750,   0.00007,   0.00008,   0.00001,  -1.14379,   1.00000
465044477.50563,483420910.88047,9025622.25011,   0.00122,   0.00135,   0.00013,474757099.77871,   0.00011,274757107.31250,   0.00007,   0.00008,   0.00001,  -7.53379,   1.00000
465320381.10769,483189419.77024,8916934.48112,   0.00122,   0.00135,   0.00012,474758594.08655,   0.00011,274758598.97561,   0.00007,   0.00008,   0.00001,  -4.88907,   1.00000
465607296.87282,482947132.73694,8808350.67561,   0.00123,   0.00135,   0.00012,474760086.82154,   0.00011,274760089.91613,   0.00007,   0.00008,   0.00001,  -3.09459,   1.00000
465893738.24856,482704854.57761,8694291.69585,   0.00123,   0.00135,   0.00012,474761576.92719,   0.00011,274761581.51486,   0.00007,   0.00009,   0.00001,  -4.58766,   1.00000
466172890.84771,482467448.09886,8586187.15448,   0.00123,   0.00135,   0.00012,474763020.30142,   0.00011,274763021.28277,   0.00007,   0.00009,   0.00001,  -0.98134,   1.00000
466464005.59845,482219091.57272,8472022.05293,   0.00123,   0.00135,   0.00012,474764570.32734,   0.00011,274764571.62496,   0.00007,   0.00009,   0.00001,  -1.29762,   1.00000
466748128.19531,481975909.97433,8358243.19866,   0.00124,   0.00135,   0.00012,474766068.54509,   0.00011,274766068.93204,   0.00007,   0.00009,   0.00001,  -0.38695,   1.00000
467036674.75882,481726996.52241,8250419.64200,   0.00124,   0.00135,   0.00012,474767509.86531,   0.00012,274767512.20237,   0.00007,   0.00009,   0.00001,  -2.33706,   1.00000
467331152.72485,481472870.64760,8131271.12726,   0.00124,   0.00134,   0.00011,474769009.66862,   0.00012,274769010.17645,   0.00007,   0.00009,   0.00001,  -0.50783,   1.00000
467619030.90820,481223286.87628,8017502.43634,   0.00124,   0.00134,   0.00011,474770559.19248,   0.00012,274770568.46447,   0.00007,   0.00009,   0.00001,  -9.27199,   1.00000
467911608.00272,480968230.58002,7904115.60537,   0.00125,   0.00134,   0.00011,474772070.25325,   0.00012,274772071.66136,   0.00008,   0.00009,   0.00001,  -1.40811,   1.00000
468203622.14274,480713116.28817,7785258.01405,   0.00125,   0.00134,   0.00011,474773567.53347,   0.00012,274773575.86487,   0.00008,   0.00009,   0.00001,  -8.33140,   1.00000
468500046.33205,480452183.77444,7672340.52996,   0.00125,   0.00134,   0.00011,474775018.69383,   0.00012,274775026.29903,   0.00008,   0.00009,   0.00001,  -7.60520,   1.00000
468796460.64121,480190939.31509,7553418.64469,   0.00126,   0.00134,   0.00011,474776588.85712,   0.00012,274776589.89085,   0.00008,   0.00010,   0.00001,  -1.03372,   1.00000
469092006.21085,479929354.90406,7434601.87834,   0.00126,   0.00134,   0.00011,474778150.26956,   0.00013,274778155.68290,   0.00008,   0.00010,   0.00001,  -5.41333,   1.00000
469392448.28517,479662426.25116,7310583.88654,   0.00126,   0.00134,   0.00010,474779661.49167,   0.00013,274779665.78619,   0.00008,   0.00010,   0.00001,  -4.29452,   1.00000
469691763.69818,479394885.55375,7192238.79732,   0.00126,   0.00134,   0.00010,474781175.67373,   0.00013,274781179.18126,   0.00008,   0.00010,   0.00001,  -3.50753,   1.00000
469990212.00967,479127000.41466,7073995.07461,   0.00127,   0.00134,   0.00010,474782693.05625,   0.00013,274782694.80867,   0.00008,   0.00010,   0.00001,  -1.75242,   1.00000
470293972.01517,478853516.53555,6950044.87191,   0.00127,   0.00134,   0.00010,474784264.14372,   0.00013,274784267.12673,   0.00008,   0.00010,   0.00001,  -2.98301,   1.00000
470590901.66756,478585177.06440,6826442.68779,   0.00127,   0.00134,   0.00010,474785782.64086,   0.00013,274785786.31562,   0.00008,   0.00010,   0.00001,  -3.67476,   1.00000
470898361.85987,478305613.48569,6702952.25750,   0.00128,   0.00134,   0.00010,474787306.00379,   0.00013,274787306.70205,   0.00008,   0.00010,   0.00001,  -0.69827,   1.00000
471205267.81265,478025564.62394,6579107.26961,   0.00128,   0.00133,   0.00010,474788936.90345,   0.00014,274788941.59840,   0.00009,   0.00010,   0.00001,  -4.69495,   1.00000
471511104.25782,477745477.15815,6450263.53462,   0.00128,   0.00133,   0.00009,474790461.77601,   0.00014,274790465.92859,   0.00009,   0.00010,   0.00001,  -4.15258,   1.00000
471821620.96394,477459277.38300,6326879.85603,   0.00128,   0.00133,   0.00009,474792040.36626,   0.00014,274792049.25602,   0.00009,   0.00011,   0.00001,  -8.88977,   1.00000
472120083.44173,477183891.23726,6198037.70296,   0.00129,   0.00133,   0.00009,474793626.44362,   0.00014,274793634.90086,   0.00009,   0.00011,   0.00001,  -8.45724,   1.00000
472434442.44979,476891696.16507,6069530.31211,   0.00129,   0.00133,   0.00009,474795163.50948,   0.00014,274795165.92873,   0.00009,   0.00011,   0.00001,  -2.41926,   1.00000
472748076.16755,476599080.16273,5940719.06754,   0.00129,   0.00133,   0.00009,474796803.81300,   0.00014,274796811.64362,   0.00009,   0.00011,   0.00001,  -7.83062,   1.00000
473055171.43345,476311801.75411,5806665.39665,   0.00130,   0.00133,   0.00009,474798398.02246,   0.00014,274798403.33994,   0.00009,   0.00011,   0.00001,  -5.31748,   1.00000
473372329.88255,476012889.03811,5678305.21797,   0.00130,   0.00133,   0.00008,474799991.93470,   0.00015,274799998.04699,   0.00009,   0.00011,   0.00001,  -6.11229,   1.00000
473677461.45886,475724845.82234,5544494.06458,   0.00130,   0.00133,   0.00008,474801593.66630,   0.00015,274801594.93437,   0.00009,   0.00011,   0.00001,  -1.26807,   1.00000
473992810.27973,475425326.19777,5410808.15619,   0.00131,   0.00133,   0.00008,474803189.83680,   0.00015,274803194.21442,   0.00010,   0.00011,   0.00001,  -4.37761,   1.00000
474312803.55306,475119894.76634,5277061.87526,   0.00131,   0.00133,   0.00008,474804847.12436,   0.00015,274804852.15439,   0.00010,   0.00011,   0.00001,  -5.03003,   1.00000
474626100.34711,474819564.19325,5143625.26752,   0.00131,   0.00132,   0.00008,474806451.29620,   0.00015,274806456.93711,   0.00010,   0.00012,   0.00001,  -5.64091,   1.00000
474944171.02535,474513497.63086,5004569.40778,   0.00131,   0.00132,   0.00008,474808111.13235,   0.00015,274808119.76759,   0.00010,   0.00012,   0.00001,  -8.63523,   1.00000
475266524.11904,474201186.70966,4871388.71692,   0.00132,   0.00132,   0.00007,474809726.06773,   0.00015,274809730.20496,   0.00010,   0.00012,   0.00001,  -4.13722,   1.00000
475582459.72229,473894301.94501,4732598.74540,   0.00132,   0.00132,   0.00007,474811394.25747,   0.00016,274811398.75789,   0.00010,   0.00012,   0.00001,  -4.50042,   1.00000
475902847.03039,473581301.08471,4594105.95408,   0.00132,   0.00132,   0.00007,474813012.13288,   0.00016,274813014.33886,   0.00010,   0.00012,   0.00001,  -2.20597,   1.00000
476227841.03833,473262514.55603,4450018.95675,   0.00133,   0.00132,   0.00007,474814686.71334,   0.00016,274814688.42167,   0.00010,   0.00012,   0.00001,  -1.70833,   1.00000
476546041.03004,472948884.69892,4311493.11561,   0.00133,   0.00132,   0.00007,474816411.95853,   0.00016,274816421.93467,   0.00010,   0.00012,   0.00001,  -9.97615,   1.00000
476868814.02495,472629231.05167,4167686.20052,   0.00133,   0.00132,   0.00007,474818095.45732,   0.00016,274818102.07439,   0.00010,   0.00012,   0.00001,  -6.61706,   1.00000
477195977.47043,472303341.41324,4024162.95262,   0.00134,   0.00132,   0.00006,474819728.12662,   0.00016,274819729.65340,   0.00011,   0.00012,   0.00001,  -1.52678,   1.00000
477516483.31659,471982805.88071,3880642.97365,   0.00134,   0.00132,   0.00006,474821407.90584,   0.00017,274821416.01141,   0.00011,   0.00012,   0.00002,  -8.10557,   1.00000
477841295.60429,471656342.85351,3737135.33274,   0.00134,   0.00131,   0.00006,474823156.69217,   0.00017,274823161.79397,   0.00011,   0.00013,   0.00002,  -5.10180,   1.00000
478170585.04358,471323701.66186,3588332.69337,   0.00135,   0.00131,   0.00006,474824850.20811,   0.00017,274824854.75410,   0.00011,   0.00013,   0.00002,  -4.54599,   1.00000
478498687.17148,470990590.88382,3439680.64091,   0.00135,   0.00131,   0.00006,474826542.14632,   0.00017,274826551.02195,   0.00011,   0.00013,   0.00002,  -8.87563,   1.00000
478830845.63413,470651406.51118,3296632.76288,   0.00135,   0.00131,   0.00005,474828303.24837,   0.00017,274828307.54243,   0.00011,   0.00013,   0.00002,  -4.29405,   1.00000
479156692.00725,470317490.25889,3142707.72760,   0.00136,   0.00131,   0.00005,474830005.52696,   0.00017,274830009.94731,   0.00011,   0.00013,   0.00002,  -4.42036,   1.00000
479486545.46318,469977503.04138,2994404.27195,   0.00136,   0.00131,   0.00005,474831770.88031,   0.00017,274831772.71662,   0.00011,   0.00013,   0.00002,  -1.83631,   1.00000
479815280.28097,469637156.00544,2840688.73550,   0.00136,   0.00131,   0.00005,474833535.45253,   0.00018,274833538.47354,   0.00011,   0.00013,   0.00002,  -3.02101,   1.00000
480148193.36771,469290236.98116,2692800.36666,   0.00137,   0.00131,   0.00005,474835243.20541,   0.00018,274835252.87357,   0.00012,   0.00013,   0.00002,  -9.66816,   1.00000
480479701.66537,468943474.25178,2539317.25150,   0.00137,   0.00131,   0.00004,474837076.84391,   0.00018,274837082.23427,   0.00012,   0.00013,   0.00002,  -5.39036,   1.00000
480815532.46601,468590273.14452,2380517.16883,   0.00137,   0.00131,   0.00004,474838856.07838,   0.00018,274838859.69658,   0.00012,   0.00014,   0.00002,  -3.61820,   1.00000
481149987.30986,468236495.42670,2227458.81162,   0.00138,   0.00130,   0.00004,474840633.07962,   0.00018,274840641.15239,   0.00012,   0.00014,   0.00002,  -8.07277,   1.00000
481483248.60042,467882319.85620,2068996.61058,   0.00138,   0.00130,   0.00004,474842423.15814,   0.00018,274842425.88376,   0.00012,   0.00014,   0.00002,  -2.72562,   1.00000
481815211.49513,467527647.21082,1910707.18195,   0.00138,   0.00130,   0.00004,474844205.10277,   0.00019,274844214.31409,   0.00012,   0.00014,   0.00002,  -9.21132,   1.00000
482156507.95028,467160849.01877,1752588.84619,   0.00139,   0.00130,   0.00003,474846004.62019,   0.00019,274846008.47053,   0.00012,   0.00014,   0.00002,  -3.85033,   1.00000
482490959.39445,466799718.86263,1594589.62250,   0.00139,   0.00130,   0.00003,474847857.08342,   0.00019,274847861.32637,   0.00012,   0.00014,   0.00002,  -4.24295,   1.00000
482829631.01130,466431948.89199,1431249.55420,   0.00139,   0.00130,   0.00003,474849655.34382,   0.00019,274849662.96034,   0.00013,   0.00014,   0.00002,  -7.61652,   1.00000
483171993.05988,466058179.14979,1268045.39134,   0.00140,   0.00130,   0.00003,474851519.68332,   0.00019,274851525.61593,   0.00013,   0.00014,   0.00002,  -5.93261,   1.00000
483507949.86255,465689385.15151,1105068.49928,   0.00140,   0.00130,   0.00003,474853329.63440,   0.00019,274853335.07127,   0.00013,   0.00014,   0.00002,  -5.43687,   1.00000
483847546.20353,465314597.37835,942240.26243,   0.00140,   0.00129,   0.00002,474855198.76747,   0.00020,274855205.67499,   0.00013,   0.00015,   0.00002,  -6.90753,   1.00000
484185787.05449,464939336.30127,774030.81217,   0.00141,   0.00129,   0.00002,474857075.04186,   0.00020,274857080.14644,   0.00013,   0.00015,   0.00002,  -5.10458,   1.00000
484527546.16900,464558058.23579,611565.41220,   0.00141,   0.00129,   0.00002,474859009.07016,   0.00020,274859016.10435,   0.00013,   0.00015,   0.00002,  -7.03419,   1.00000
484868470.68706,464175422.48954,443757.05581,   0.00142,   0.00129,   0.00002,474860843.02425,   0.00020,274860844.19064,   0.00013,   0.00015,   0.00002,  -1.16639,   1.00000
485212867.89684,463786771.90388,270560.07847,   0.00142,   0.00129,   0.00002,474862724.25393,   0.00020,274862733.89205,   0.00013,   0.00015,   0.00002,  -9.63811,   1.00000
485550334.15312,463404008.45113,103134.29070,   0.00142,   0.00129,   0.00001,474864678.41216,   0.00020,274864682.20781,   0.00014,   0.00015,   0.00002,  -3.79565,   1.00000
485896679.09712,463008826.45961,-69656.84655,   0.00143,   0.00129,   0.00001,474866633.40770,   0.00021,274866637.93651,   0.00014,   0.00015,   0.00002,  -4.52881,   1.00000
486242172.42043,462612108.26417,-242252.78680,   0.00143,   0.00129,   0.00001,474868479.16200,   0.00021,274868486.20004,   0.00014,   0.00015,   0.00002,  -7.03803,   1.00000
486585514.99892,462215868.52865,-414618.93736,   0.00143,   0.00128,   0.00001,474870447.41104,   0.00021,274870450.71270,   0.00014,   0.00015,   0.00002,  -3.30166,   1.00000
486927354.34941,461819101.04351,-586771.63259,   0.00144,   0.00128,   0.00000,474872414.80850,   0.00021,274872419.64124,   0.00014,   0.00016,   0.00002,  -4.83273,   1.00000
487277877.03746,461409776.35092,-764278.21989,   0.00144,   0.00128,   0.00000,474874391.03549,   0.00021,274874396.73551,   0.00014,   0.00016,   0.00002,  -5.70002,   1.00000
487622115.34018,461005357.16477,-941596.70030,   0.00144,   0.00128,  -0.00000,474876319.76405,   0.00022,274876320.64612,   0.00014,   0.00016,   0.00002,  -0.88207,   1.00000
487964054.69312,460601530.17402,-1118620.40020,   0.00145,   0.00128,  -0.00000,474878354.89147,   0.00022,274878361.03078,   0.00015,   0.00016,   0.00002,  -6.13931,   1.00000
488315315.30388,460183877.67764,-1301071.90841,   0.00145,   0.00128,  -0.00001,474880291.72958,   0.00022,274880298.23704,   0.00015,   0.00016,   0.00002,  -6.50746,   1.00000
488664227.63322,459766909.18170,-1477625.03486,   0.00146,   0.00128,  -0.00001,474882350.38535,   0.00022,274882351.92364,   0.00015,   0.00016,   0.00002,  -1.53830,   1.00000
489006850.35371,459354785.32322,-1659576.24142,   0.00146,   0.00127,  -0.00001,474884348.34841,   0.00022,274884352.60001,   0.00015,   0.00016,   0.00002,  -4.25160,   1.00000
489357936.99649,458929956.89592,-1841289.78636,   0.00146,   0.00127,  -0.00001,474886354.77313,   0.00022,274886362.30742,   0.00015,   0.00016,   0.00002,  -7.53429,   1.00000
489701879.48794,458511241.94254,-2028270.32597,   0.00147,   0.00127,  -0.00001,474888423.16658,   0.00023,274888430.96228,   0.00015,   0.00017,   0.00002,  -7.79570,   1.00000
490054186.52603,458079780.48065,-2214996.58602,   0.00147,   0.00127,  -0.00002,474890508.91658,   0.00023,274890508.99400,   0.00015,   0.00017,   0.00002,  -0.07742,   1.00000
490400271.43406,457653159.64415,-2401560.57921,   0.00148,   0.00127,  -0.00002,474892524.18034,   0.00023,274892533.92378,   0.00016,   0.00017,   0.00002,  -9.74344,   1.00000
490749224.25306,457220563.18452,-2587786.79225,   0.00148,   0.00127,  -0.00002,474894617.49934,   0.00023,274894622.11746,   0.00016,   0.00017,   0.00002,  -4.61812,   1.00000
491101912.86988,456780537.31191,-2773854.60335,   0.00148,   0.00127,  -0.00002,474896657.45705,   0.00023,274896661.91376,   0.00016,   0.00017,   0.00002,  -4.45671,   1.00000
491447368.93713,456346715.93545,-2965146.10247,   0.00149,   0.00126,  -0.00003,474898752.35143,   0.00024,274898760.83753,   0.00016,   0.00017,   0.00002,  -8.48610,   1.00000
491800975.00118,455900008.32238,-3156167.54878,   0.00149,   0.00126,  -0.00003,474900865.63962,   0.00024,274900869.98162,   0.00016,   0.00017,   0.00002,  -4.34201,   1.00000
492152821.24494,455452708.85809,-3346927.04393,   0.00149,   0.00126,  -0.00003,474902979.16446,   0.00024,274902984.53790,   0.00016,   0.00017,   0.00002,  -5.37344,   1.00000
492502791.63127,455004715.43657,-3542992.03916,   0.00150,   0.00126,  -0.00003,474905102.78789,   0.00024,274905104.97308,   0.00016,   0.00017,   0.00002,  -2.18519,   1.00000
492851130.83161,454556253.90600,-3733217.85025,   0.00150,   0.00126,  -0.00004,474907224.73916,   0.00024,274907230.35151,   0.00017,   0.00018,   0.00002,  -5.61235,   1.00000
493201755.66496,454101576.20951,-3934170.94518,   0.00151,   0.00126,  -0.00004,474909414.28159,   0.00025,274909420.98235,   0.00017,   0.00018,   0.00001,  -6.70077,   1.00000
493556109.08935,453639378.45777,-4129405.67651,   0.00151,   0.00125,  -0.00004,474911557.99724,   0.00025,274911563.49617,   0.00017,   0.00018,   0.00001,  -5.49893,   1.00000
493903261.25008,453183688.25693,-4324222.43883,   0.00152,   0.00125,  -0.00005,474913762.59199,   0.00025,274913764.77719,   0.00017,   0.00018,   0.00001,  -2.18520,   1.00000
494253830.69424,452720152.66828,-4524474.44036,   0.00152,   0.00125,  -0.00005,474915917.51175,   0.00025,274915919.24520,   0.00017,   0.00018,   0.00001,  -1.73345,   1.00000
494606774.27180,452250641.79116,-4724268.38535,   0.00152,   0.00125,  -0.00005,474918128.93669,   0.00025,274918138.49615,   0.00017,   0.00018,   0.00001,  -9.55947,   1.00000
494957681.26257,451780391.08698,-4929336.78149,   0.00153,   0.00125,  -0.00005,474920359.93684,   0.00026,274920364.26359,   0.00018,   0.00018,   0.00001,  -4.32675,   1.00000
495306890.55590,451309707.87337,-5128537.14198,   0.00153,   0.00125,  -0.00006,474922589.32177,   0.00026,274922595.25381,   0.00018,   0.00018,   0.00001,  -5.93203,   1.00000
495659399.85192,450831018.35473,-5333185.20271,   0.00154,   0.00125,  -0.00006,474924777.59453,   0.00026,274924780.03796,   0.00018,   0.00019,   0.00001,  -2.44343,   1.00000
496014108.28525,450346360.38050,-5537331.78166,   0.00154,   0.00124,  -0.00006,474927023.54374,   0.00026,274927030.16925,   0.00018,   0.00019,   0.00001,  -6.62551,   1.00000
496366668.05634,449860911.72170,-5746738.74756,   0.00154,   0.00124,  -0.00006,474929281.29464,   0.00026,274929287.28007,   0.00018,   0.00019,   0.00001,  -5.98543,   1.00000
496717279.11608,449374854.31096,-5955831.09491,   0.00155,   0.00124,  -0.00007,474931548.64154,   0.00027,274931550.61962,   0.00018,   0.00019,   0.00001,  -1.97808,   1.00000
497065937.08380,448888188.13594,-6164607.76444,   0.00155,   0.00124,  -0.00007,474933817.01243,   0.00027,274933820.22309,   0.00019,   0.00019,   0.00001,  -3.21066,   1.00000
497416658.70636,448395609.17663,-6372832.07937,   0.00156,   0.00124,  -0.00007,474936151.45446,   0.00027,274936155.58901,   0.00019,   0.00019,   0.00001,  -4.13455,   1.00000
497770713.94396,447894996.40069,-6580946.02538,   0.00156,   0.00124,  -0.00008,474938444.30886,   0.00027,274938444.81855,   0.00019,   0.00019,   0.00001,  -0.50969,   1.00000
498117198.48621,447401030.04098,-6794082.94911,   0.00157,   0.00123,  -0.00008,474940792.22044,   0.00027,274940793.96483,   0.00019,   0.00019,   0.00001,  -1.74439,   1.00000
498466987.80022,446898960.44962,-7007112.30739,   0.00157,   0.00123,  -0.00008,474943090.25384,   0.00028,274943097.18567,   0.00019,   0.00020,   0.00001,  -6.93183,   1.00000
498818408.49902,446390768.57495,-7225107.24765,   0.00157,   0.00123,  -0.00008,474945467.08169,   0.00028,274945467.75296,   0.00019,   0.00020,   0.00001,  -0.67127,   1.00000
499173309.11567,445874615.85451,-7437431.85339,   0.00158,   0.00123,  -0.00009,474947791.16008,   0.00028,274947791.77854,   0.00020,   0.00020,   0.00001,  -0.61846,   1.00000
499520563.51910,445365202.05194,-7654737.34562,   0.00158,   0.00123,  -0.00009,474950170.95261,   0.00028,274950175.95074,   0.00020,   0.00020,   0.00001,  -4.99812,   1.00000
499870736.47843,444847293.82197,-7877510.79299,   0.00159,   0.00122,  -0.00009,474952512.52507,   0.00029,274952515.83757,   0.00020,   0.00020,   0.00001,  -3.31250,   1.00000
500222905.19533,444323754.65684,-8094066.51276,   0.00159,   0.00122,  -0.00010,474954920.14591,   0.00029,274954921.60495,   0.00020,   0.00020,   0.00001,  -1.45903,   1.00000
500572632.31681,443799334.79840,-8315830.29829,   0.00160,   0.00122,  -0.00010,474957332.45445,   0.00029,274957335.60335,   0.00020,   0.00020,   0.00001,  -3.14890,   1.00000
500920224.95774,443274304.93366,-8537230.25944,   0.00160,   0.00122,  -0.00010,474959755.70809,   0.00029,274959756.68123,   0.00020,   0.00020,   0.00001,  -0.97314,   1.00000
501269398.55372,442743433.71862,-8757938.23350,   0.00160,   0.00122,  -0.00011,474962238.22523,   0.00029,274962245.17562,   0.00021,   0.00021,   0.00001,  -6.95039,   1.00000
501617600.56346,442209091.94237,-8984457.23505,   0.00161,   0.00122,  -0.00011,474964626.00860,   0.00030,274964629.91875,   0.00021,   0.00021,   0.00001,  -3.91015,   1.00000
501967292.02061,441668893.58681,-9210261.86727,   0.00161,   0.00121,  -0.00011,474967074.76222,   0.00030,274967082.43679,   0.00021,   0.00021,   0.00001,  -7.67457,   1.00000
502314775.49525,441128075.91700,-9435687.15595,   0.00162,   0.00121,  -0.00011,474969535.02356,   0.00030,274969542.37982,   0.00021,   0.00021,   0.00001,  -7.35627,   1.00000
502663314.40225,440581147.01478,-9665930.07211,   0.00162,   0.00121,  -0.00012,474972068.38045,   0.00030,274972071.72106,   0.00021,   0.00021,   0.00001,  -3.34061,   1.00000
503009955.42516,440033916.72129,-9890214.26559,   0.00163,   0.00121,  -0.00012,474974600.69042,   0.00031,274974607.31481,   0.00022,   0.00021,   0.00001,  -6.62439,   1.00000
503358784.55718,439477466.91395,-10125548.04124,   0.00163,   0.00121,  -0.00012,474977101.02627,   0.00031,274977101.77248,   0.00022,   0.00021,   0.00001,  -0.74621,   1.00000
503705691.62853,438920696.07383,-10354918.27132,   0.00164,   0.00120,  -0.00013,474979601.06954,   0.00031,274979602.63986,   0.00022,   0.00021,   0.00001,  -1.57032,   1.00000
504049917.88170,438362965.95569,-10589449.89269,   0.00164,   0.00120,  -0.00013,474982107.02379,   0.00031,274982112.84239,   0.00022,   0.00022,   0.00001,  -5.81860,   1.00000
504395751.59461,437799813.12724,-10817610.28050,   0.00165,   0.00120,  -0.00013,474984680.68685,   0.00031,274984690.32179,   0.00022,   0.00022,   0.00001,  -9.63494,   1.00000
504738453.18845,437235376.80264,-11056477.54204,   0.00165,   0.00120,  -0.00014,474987273.69803,   0.00032,274987278.88126,   0.00023,   0.00022,   0.00001,  -5.18323,   1.00000
505084358.25807,436662508.24121,-11289717.34219,   0.00165,   0.00120,  -0.00014,474989816.16778,   0.00032,274989822.62583,   0.00023,   0.00022,   0.00001,  -6.45805,   1.00000
505430895.07266,436083545.62978,-11527665.88308,   0.00166,   0.00119,  -0.00014,474992434.58292,   0.00032,274992437.37082,   0.00023,   0.00022,   0.00001,  -2.78790,   1.00000
505771632.15485,435509059.33918,-11765624.81854,   0.00166,   0.00119,  -0.00015,474994996.47995,   0.00032,274994999.22847,   0.00023,   0.00022,   0.00001,  -2.74852,   1.00000
506112917.64422,434928486.85880,-12008260.64754,   0.00167,   0.00119,  -0.00015,474997624.84488,   0.00033,274997632.43562,   0.00023,   0.00022,   0.00001,  -7.59074,   1.00000
506452257.60303,434347690.19849,-12244897.18796,   0.00167,   0.00119,  -0.00015,475000262.57646,   0.00033,275000272.31936,   0.00024,   0.00022,   0.00001,  -9.74290,   1.00000
506797126.11519,433752500.56613,-12486571.13377,   0.00168,   0.00119,  -0.00016,475002927.81185,   0.00033,275002932.86426,   0.00024,   0.00023,   0.00001,  -5.05241,   1.00000
507139508.18335,433156686.02021,-12727794.23706,   0.00168,   0.00118,  -0.00016,475005596.73362,   0.00033,275005602.18199,   0.00024,   0.00023,   0.00001,  -5.44837,   1.00000
507478923.27845,432559855.23406,-12974118.07070,   0.00169,   0.00118,  -0.00016,475008273.15263,   0.00034,275008282.14099,   0.00024,   0.00023,   0.00001,  -8.98836,   1.00000
507815860.43407,431962418.04981,-13219979.07963,   0.00169,   0.00118,  -0.00017,475010963.30431,   0.00034,275010970.91588,   0.00024,   0.00023,   0.00001,  -7.61158,   1.00000
508155345.43386,431355879.35099,-13465795.12103,   0.00170,   0.00118,  -0.00017,475013617.46993,   0.00034,275013617.72972,   0.00025,   0.00023,   0.00001,  -0.25979,   1.00000
508490492.52753,430752247.15480,-13710205.49703,   0.00170,   0.00118,  -0.00017,475016385.30795,   0.00034,275016386.22052,   0.00025,   0.00023,   0.00001,  -0.91257,   1.00000
508827599.09339,430139034.49623,-13960123.10170,   0.00171,   0.00117,  -0.00018,475019112.78229,   0.00035,275019115.05481,   0.00025,   0.00023,   0.00001,  -2.27253,   1.00000
509167123.30568,429516588.20149,-14209998.71460,   0.00171,   0.00117,  -0.00018,475021794.82568,   0.00035,275021802.53358,   0.00025,   0.00023,   0.00001,  -7.70790,   1.00000
509498548.38106,428901722.06956,-14464499.40626,   0.00172,   0.00117,  -0.00019,475024545.08508,   0.00035,275024552.01541,   0.00025,   0.00024,   0.00001,  -6.93033,   1.00000
509836015.65404,428273067.91120,-14712852.10891,   0.00172,   0.00117,  -0.00019,475027318.21635,   0.00035,275027320.44807,   0.00026,   0.00024,   0.00001,  -2.23171,   1.00000
510165353.43607,427652083.76795,-14965802.37007,   0.00173,   0.00116,  -0.00019,475030148.36556,   0.00036,275030151.02877,   0.00026,   0.00024,   0.00001,  -2.66320,   1.00000
510497029.82608,427021761.97113,-15218713.89221,   0.00173,   0.00116,  -0.00020,475032934.91969,   0.00036,275032940.71188,   0.00026,   0.00024,   0.00001,  -5.79219,   1.00000
510833426.83868,426376661.57161,-15476554.79457,   0.00174,   0.00116,  -0.00020,475035754.02170,   0.00036,275035754.46205,   0.00026,   0.00024,   0.00001,  -0.44035,   1.00000
511159219.80467,425744680.59235,-15733995.63398,   0.00174,   0.00116,  -0.00020,475038564.88948,   0.00036,275038565.88530,   0.00027,   0.00024,   0.00000,  -0.99582,   1.00000
511490230.47847,425098347.43006,-15990799.81110,   0.00175,   0.00116,  -0.00021,475041394.19156,   0.00037,275041399.56147,   0.00027,   0.00024,   0.00000,  -5.36991,   1.00000
511818548.12782,424451424.04114,-16247083.59935,   0.00175,   0.00115,  -0.00021,475044239.15163,   0.00037,275044243.24271,   0.00027,   0.00024,   0.00000,  -4.09108,   1.00000
512146454.14590,423798566.19136,-16507757.97109,   0.00176,   0.00115,  -0.00021,475047156.05163,   0.00037,275047162.25862,   0.00027,   0.00025,   0.00000,  -6.20699,   1.00000
512468739.12335,423149978.59273,-16768529.88159,   0.00176,   0.00115,  -0.00022,475050026.58182,   0.00037,275050028.53515,   0.00027,   0.00025,   0.00000,  -1.95334,   1.00000
512796013.48561,422486951.20872,-17028631.38854,   0.00177,   0.00115,  -0.00022,475052916.96794,   0.00038,275052918.07121,   0.00028,   0.00025,   0.00000,  -1.10327,   1.00000
513119853.96091,421822814.80142,-17293732.36450,   0.00177,   0.00114,  -0.00023,475055817.79919,   0.00038,275055820.58543,   0.00028,   0.00025,   0.00000,  -2.78624,   1.00000
513444404.88824,421153840.93226,-17552068.40881,   0.00178,   0.00114,  -0.00023,475058792.92511,   0.00038,275058794.30919,   0.00028,   0.00025,   0.00000,  -1.38408,   1.00000
513766771.66447,420478842.88367,-17822147.96694,   0.00178,   0.00114,  -0.00023,475061661.46326,   0.00038,275061670.76646,   0.00028,   0.00025,   0.00000,  -9.30320,   1.00000
514085028.37478,419808244.61441,-18084891.12356,   0.00179,   0.00114,  -0.00024,475064664.18964,   0.00039,275064668.47372,   0.00029,   0.00025,   0.00000,  -4.28408,   1.00000
514404525.21918,419127312.99995,-18353154.76641,   0.00179,   0.00113,  -0.00024,475067625.17355,   0.00039,275067629.93472,   0.00029,   0.00026,   0.00000,  -4.76117,   1.00000
514721174.54490,418445812.52225,-18620843.99563,   0.00180,   0.00113,  -0.00025,475070597.83865,   0.00039,275070602.35399,   0.00029,   0.00026,   0.00000,  -4.51534,   1.00000
515037675.09074,417759050.61459,-18887231.77241,   0.00180,   0.00113,  -0.00025,475073640.11140,   0.00040,275073649.47530,   0.00029,   0.00026,  -0.00000,  -9.36390,   1.00000
515352600.66354,417066512.81147,-19159874.84337,   0.00181,   0.00113,  -0.00025,475076593.30299,   0.00040,275076597.20410,   0.00030,   0.00026,  -0.00000,  -3.90112,   1.00000
515667281.63420,416368720.63757,-19431185.56540,   0.00181,   0.00112,  -0.00026,475079618.02430,   0.00040,275079620.10618,   0.00030,   0.00026,  -0.00000,  -2.08188,   1.00000
515981664.30793,415665723.45645,-19701141.68500,   0.00182,   0.00112,  -0.00026,475082713.56135,   0.00040,275082718.43003,   0.00030,   0.00026,  -0.00000,  -4.86868,   1.00000
516289731.15667,414966245.76588,-19976790.64332,   0.00182,   0.00112,  -0.00027,475085757.15393,   0.00041,275085767.13650,   0.00030,   0.00026,  -0.00000,  -9.98257,   1.00000
516602086.80554,414252086.37952,-20251647.88603,   0.00183,   0.00112,  -0.00027,475088836.53556,   0.00041,275088842.29720,   0.00031,   0.00026,  -0.00000,  -5.76164,   1.00000
516911442.31561,413537376.77703,-20525887.60905,   0.00183,   0.00111,  -0.00027,475091923.20394,   0.00041,275091929.31159,   0.00031,   0.00027,  -0.00000,  -6.10765,   1.00000
517217815.80167,412822137.55421,-20799508.80319,   0.00184,   0.00111,  -0.00028,475095022.74437,   0.00042,275095028.15555,   0.00031,   0.00027,  -0.00000,  -5.41118,   1.00000
517520409.24112,412105768.58133,-21078037.67977,   0.00184,   0.00111,  -0.00028,475098140.90308,   0.00042,275098141.92615,   0.00031,   0.00027,  -0.00000,  -1.02308,   1.00000
517827033.56872,411374628.95393,-21355733.65642,   0.00185,   0.00111,  -0.00029,475101273.75637,   0.00042,275101283.33464,   0.00032,   0.00027,  -0.00000,  -9.57827,   1.00000
518128154.49428,410647499.34678,-21633626.28524,   0.00186,   0.00110,  -0.00029,475104371.24270,   0.00042,275104372.25253,   0.00032,   0.00027,  -0.00001,  -1.00983,   1.00000
518427844.22355,409914697.32761,-21915563.92925,   0.00186,   0.00110,  -0.00029,475107537.01386,   0.00043,275107541.39404,   0.00032,   0.00027,  -0.00001,  -4.38018,   1.00000
518726896.01176,409176915.27336,-22195988.29936,   0.00187,   0.00110,  -0.00030,475110781.97506,   0.00043,275110787.81769,   0.00032,   0.00027,  -0.00001,  -5.84263,   1.00000
519024936.87623,408433247.23059,-22477268.68252,   0.00187,   0.00109,  -0.00030,475113928.44555,   0.00043,275113933.06204,   0.00033,   0.00027,  -0.00001,  -4.61648,   1.00000
519322258.38992,407684623.36143,-22757014.27483,   0.00188,   0.00109,  -0.00031,475117149.72812,   0.00044,275117156.01397,   0.00033,   0.00028,  -0.00001,  -6.28585,   1.00000
519615574.03691,406934855.36460,-23041614.41648,   0.00188,   0.00109,  -0.00031,475120385.59839,   0.00044,275120395.12638,   0.00033,   0.00028,  -0.00001,  -9.52799,   1.00000
519910179.89546,406174610.96645,-23326208.75002,   0.00189,   0.00109,  -0.00032,475123595.22559,   0.00044,275123598.53950,   0.00033,   0.00028,  -0.00001,  -3.31391,   1.00000
520196324.71972,405423235.69865,-23614965.44872,   0.00189,   0.00108,  -0.00032,475126866.12029,   0.00044,275126866.96187,   0.00034,   0.00028,  -0.00001,  -0.84158,   1.00000
520486920.24903,404657639.21786,-23897270.57570,   0.00190,   0.00108,  -0.00032,475130160.43906,   0.00045,275130161.94439,   0.00034,   0.00028,  -0.00001,  -1.50532,   1.00000
520775475.22962,403885095.46052,-24186032.32841,   0.00190,   0.00108,  -0.00033,475133355.89974,   0.00045,275133359.79326,   0.00034,   0.00028,  -0.00001,  -3.89351,   1.00000
521057802.53297,403117216.93970,-24477969.77928,   0.00191,   0.00108,  -0.00033,475136681.35121,   0.00045,275136688.63603,   0.00034,   0.00028,  -0.00001,  -7.28483,   1.00000
521344424.58527,402335097.37444,-24763421.64109,   0.00192,   0.00107,  -0.00034,475140043.51184,   0.00046,275140044.83235,   0.00035,   0.00028,  -0.00001,  -1.32050,   1.00000
521624618.17307,401556095.97968,-25054646.10057,   0.00192,   0.00107,  -0.00034,475143347.98653,   0.00046,275143352.52062,   0.00035,   0.00028,  -0.00001,  -4.53408,   1.00000
521908022.14299,400762093.36171,-25344887.15878,   0.00193,   0.00107,  -0.00035,475146690.47763,   0.00046,275146691.82715,   0.00035,   0.00029,  -0.00001,  -1.34952,   1.00000
522180744.73223,399981491.27227,-25640186.02483,   0.00193,   0.00106,  -0.00035,475150026.78733,   0.00047,275150030.78642,   0.00036,   0.00029,  -0.00001,  -3.99910,   1.00000
522459734.24546,399182396.66797,-25927958.22663,   0.00194,   0.00106,  -0.00036,475153457.20327,   0.00047,275153464.24777,   0.00036,   0.00029,  -0.00001,  -7.04451,   1.00000
522732294.24546,398386355.82917,-26221521.37653,   0.00194,   0.00106,  -0.00036,475156848.55550,   0.00047,275156849.35072,   0.00036,   0.00029,  -0.00001,  -0.79522,   1.00000
523004685.00061,397578660.04936,-26520590.76593,   0.00195,   0.00105,  -0.00036,475160199.09171,   0.00048,275160204.80686,   0.00036,   0.00029,  -0.00002,  -5.71515,   1.00000
523276857.18200,396767144.71528,-26812360.49703,   0.00195,   0.00105,  -0.00037,475163634.86105,   0.00048,275163637.24630,   0.00037,   0.00029,  -0.00002,  -2.38526,   1.00000
523544622.03322,395954476.17382,-27108880.67154,   0.00196,   0.00105,  -0.00037,475167082.32473,   0.00048,275167088.25622,   0.00037,   0.00029,  -0.00002,  -5.93149,   1.00000
523809041.32358,395141423.05708,-27404636.21159,   0.00197,   0.00105,  -0.00038,475170546.48495,   0.00048,275170553.83861,   0.00037,   0.00029,  -0.00002,  -7.35365,   1.00000
524073104.56525,394316562.53330,-27705892.63739,   0.00197,   0.00104,  -0.00038,475173983.68273,   0.00049,275173990.66937,   0.00038,   0.00030,  -0.00002,  -6.98663,   1.00000
524336854.04695,393488043.98573,-27999780.54079,   0.00198,   0.00104,  -0.00039,475177500.84995,   0.00049,275177505.24829,   0.00038,   0.00030,  -0.00002,  -4.39834,   1.00000
524594124.44466,392662396.34211,-28299493.59819,   0.00198,   0.00104,  -0.00039,475180966.48045,   0.00049,275180971.89441,   0.00038,   0.00030,  -0.00002,  -5.41395,   1.00000
524852839.67060,391820807.80293,-28603588.80636,   0.00199,   0.00103,  -0.00040,475184470.49335,   0.00050,275184477.77660,   0.00038,   0.00030,  -0.00002,  -7.28325,   1.00000
525109218.48887,390979635.67027,-28901389.04962,   0.00199,   0.00103,  -0.00040,475187990.99510,   0.00050,275187994.68557,   0.00039,   0.00030,  -0.00002,  -3.69047,   1.00000
525361021.03144,390137318.12079,-29203889.60290,   0.00200,   0.00103,  -0.00041,475191530.98839,   0.00050,275191531.30485,   0.00039,   0.00030,  -0.00002,  -0.31646,   1.00000
525611273.22466,389290757.74739,-29504429.22989,   0.00201,   0.00102,  -0.00041,475195147.07826,   0.00051,275195150.98730,   0.00039,   0.00030,  -0.00002,  -3.90904,   1.00000
525860783.95321,388432105.00518,-29810450.56170,   0.00201,   0.00102,  -0.00042,475198739.40920,   0.00051,275198743.73901,   0.00040,   0.00030,  -0.00002,  -4.32981,   1.00000
526104910.58450,387576966.01310,-30116822.01455,   0.00202,   0.00102,  -0.00042,475202278.38351,   0.00051,275202284.55519,   0.00040,   0.00030,  -0.00002,  -6.17168,   1.00000
526349246.67264,386713858.29936,-30419988.73469,   0.00202,   0.00101,  -0.00042,475205973.05142,   0.00052,275205977.05652,   0.00040,   0.00031,  -0.00003,  -4.00509,   1.00000
526592029.98250,385843146.06653,-30724345.75528,   0.00203,   0.00101,  -0.00043,475209564.43644,   0.00052,275209570.76868,   0.00040,   0.00031,  -0.00003,  -6.33224,   1.00000
526831277.69608,384972122.75539,-31027871.67949,   0.00203,   0.00101,  -0.00043,475213174.91413,   0.00052,275213180.60857,   0.00041,   0.00031,  -0.00003,  -5.69445,   1.00000
527067559.52779,384096232.10246,-31334815.12102,   0.00204,   0.00100,  -0.00044,475216872.65903,   0.00053,275216879.69253,   0.00041,   0.00031,  -0.00003,  -7.03350,   1.00000
527303996.18409,383208816.15770,-31641746.22782,   0.00205,   0.00100,  -0.00044,475220539.70005,   0.00053,275220548.63626,   0.00041,   0.00031,  -0.00003,  -8.93621,   1.00000
527535581.69419,382320276.66433,-31953296.58095,   0.00205,   0.00100,  -0.00045,475224235.33074,   0.00053,275224239.08267,   0.00042,   0.00031,  -0.00003,  -3.75193,   1.00000
527763548.15481,381431461.08950,-32263973.39873,   0.00206,   0.00099,  -0.00045,475227937.86327,   0.00054,275227946.34515,   0.00042,   0.00031,  -0.00003,  -8.48187,   1.00000
527987936.68008,380542405.98405,-32573777.12317,   0.00206,   0.00099,  -0.00046,475231666.81655,   0.00054,275231670.32970,   0.00042,   0.00031,  -0.00003,  -3.51315,   1.00000
528214039.65324,379638070.20156,-32882281.05243,   0.00207,   0.00099,  -0.00046,475235426.48614,   0.00054,275235433.78166,   0.00043,   0.00031,  -0.00003,  -7.29552,   1.00000
528434815.10588,378737081.06310,-33191205.20183,   0.00208,   0.00098,  -0.00047,475239139.05644,   0.00055,275239145.32714,   0.00043,   0.00032,  -0.00003,  -6.27070,   1.00000
528655867.77960,377819898.66125,-33504282.07544,   0.00208,   0.00098,  -0.00047,475242892.34370,   0.00055,275242902.10369,   0.00043,   0.00032,  -0.00003,  -9.75999,   1.00000
528869719.09924,376914090.06666,-33815574.34530,   0.00209,   0.00098,  -0.00048,475246716.28292,   0.00055,275246722.39472,   0.00044,   0.00032,  -0.00004,  -6.11180,   1.00000
529082088.47723,375995580.96137,-34132317.41463,   0.00209,   0.00097,  -0.00048,475250514.24794,   0.00056,275250519.27493,   0.00044,   0.00032,  -0.00004,  -5.02700,   1.00000
529297182.55673,375062630.09215,-34442220.49586,   0.00210,   0.00097,  -0.00049,475254342.66516,   0.00056,275254352.18909,   0.00044,   0.00032,  -0.00004,  -9.52393,   1.00000
529502155.83247,374143758.33702,-34757138.62989,   0.00211,   0.00097,  -0.00049,475258176.53175,   0.00057,275258184.48642,   0.00045,   0.00032,  -0.00004,  -7.95468,   1.00000
529708460.14248,373209571.32702,-35070662.52149,   0.00211,   0.00096,  -0.00050,475262057.86664,   0.00057,275262058.45822,   0.00045,   0.00032,  -0.00004,  -0.59158,   1.00000
529912986.70390,372262488.83132,-35389622.64644,   0.00212,   0.00096,  -0.00050,475265907.62128,   0.00057,275265910.36616,   0.00045,   0.00032,  -0.00004,  -2.74488,   1.00000
530111804.20980,371328032.68057,-35701267.63868,   0.00212,   0.00095,  -0.00051,475269819.14702,   0.00058,275269820.69372,   0.00046,   0.00032,  -0.00004,  -1.54670,   1.00000
530308798.63123,370380622.75404,-36018353.33366,   0.00213,   0.00095,  -0.00051,475273699.94456,   0.00058,275273709.20015,   0.00046,   0.00032,  -0.00004,  -9.25559,   1.00000
530505398.59305,369416936.34339,-36339436.46808,   0.00214,   0.00095,  -0.00052,475277640.60629,   0.00058,275277646.60975,   0.00046,   0.00033,  -0.00004,  -6.00346,   1.00000
530694846.05577,368469296.82292,-36654612.28586,   0.00214,   0.00094,  -0.00052,475281566.42468,   0.00059,275281572.18940,   0.00047,   0.00033,  -0.00004,  -5.76472,   1.00000
530883808.86079,367505378.04998,-36973762.69907,   0.00215,   0.00094,  -0.00053,475285539.34933,   0.00059,275285547.22836,   0.00047,   0.00033,  -0.00005,  -7.87904,   1.00000
531072114.09677,366529257.04586,-37292878.82465,   0.00215,   0.00094,  -0.00054,475289486.16315,   0.00059,275289496.08853,   0.00047,   0.00033,  -0.00005,  -9.92538,   1.00000
531253436.82289,365565213.33814,-37610073.83212,   0.00216,   0.00093,  -0.00054,475293505.45877,   0.00060,275293509.14951,   0.00048,   0.00033,  -0.00005,  -3.69073,   1.00000
531432574.98785,364587964.11812,-37932681.55592,   0.00217,   0.00093,  -0.00055,475297496.04559,   0.00060,275297502.13259,   0.00048,   0.00033,  -0.00005,  -6.08700,   1.00000
531612376.92481,363595339.23470,-38253741.82146,   0.00217,   0.00092,  -0.00055,475301539.83922,   0.00060,275301540.56560,   0.00048,   0.00033,  -0.00005,  -0.72638,   1.00000
531783787.70667,362617992.23932,-38574359.47007,   0.00218,   0.00092,  -0.00056,475305564.22715,   0.00061,275305572.42125,   0.00049,   0.00033,  -0.00005,  -8.19409,   1.00000
531955815.09577,361625290.84495,-38893411.39729,   0.00218,   0.00092,  -0.00056,475309642.43595,   0.00061,275309650.11695,   0.00049,   0.00033,  -0.00005,  -7.68100,   1.00000
532122421.02573,360631626.98612,-39216888.67038,   0.00219,   0.00091,  -0.00057,475313748.97176,   0.00062,275313753.66800,   0.00049,   0.00033,  -0.00005,  -4.69624,   1.00000
532288070.95849,359625521.44904,-39540316.75204,   0.00220,   0.00091,  -0.00057,475317831.59188,   0.00062,275317832.54623,   0.00050,   0.00034,  -0.00005,  -0.95435,   1.00000
532449780.17668,358619408.03250,-39862719.72568,   0.00220,   0.00090,  -0.00058,475321925.14712,   0.00062,275321931.58251,   0.00050,   0.00034,  -0.00006,  -6.43538,   1.00000
532607588.65386,357613321.72711,-40184098.20463,   0.00221,   0.00090,  -0.00058,475326043.53051,   0.00063,275326050.69483,   0.00050,   0.00034,  -0.00006,  -7.16433,   1.00000
532762732.82198,356593697.27195,-40510860.44411,   0.00222,   0.00090,  -0.00059,475330149.67925,   0.00063,275330152.01664,   0.00051,   0.00034,  -0.00006,  -2.33740,   1.00000
532915256.43604,355571317.03253,-40834964.68791,   0.00222,   0.00089,  -0.00059,475334340.71612,   0.00064,275334345.92654,   0.00051,   0.00034,  -0.00006,  -5.21041,   1.00000
533063830.78287,354549024.84008,-41158015.67792,   0.00223,   0.00089,  -0.00060,475338557.33151,   0.00064,275338560.45039,   0.00051,   0.00034,  -0.00006,  -3.11887,   1.00000
533209849.97424,353516788.66984,-41482650.66180,   0.00223,   0.00088,  -0.00060,475342677.49567,   0.00064,275342679.33525,   0.00052,   0.00034,  -0.00006,  -1.83958,   1.00000
533351563.62943,352480941.49488,-41809999.11666,   0.00224,   0.00088,  -0.00061,475346895.77782,   0.00065,275346898.04594,   0.00052,   0.00034,  -0.00006,  -2.26812,   1.00000
533489292.39256,351445201.63384,-42136274.24786,   0.00225,   0.00088,  -0.00062,475351133.09746,   0.00065,275351137.79748,   0.00052,   0.00034,  -0.00006,  -4.70003,   1.00000
533626954.73478,350394115.75981,-42460807.40258,   0.00225,   0.00087,  -0.00062,475355423.57751,   0.00065,275355427.55706,   0.00053,   0.00034,  -0.00007,  -3.97955,   1.00000
533759294.62956,349345733.45425,-42785946.40030,   0.00226,   0.00087,  -0.00063,475359659.04129,   0.00066,275359665.96204,   0.00053,   0.00034,  -0.00007,  -6.92075,   1.00000
533889736.12882,348280974.20361,-43114725.70978,   0.00227,   0.00086,  -0.00063,475363953.86982,   0.00066,275363961.97961,   0.00053,   0.00034,  -0.00007,  -8.10979,   1.00000
534012348.62796,347231888.82336,-43443096.45262,   0.00227,   0.00086,  -0.00064,475368240.96912,   0.00067,275368250.17268,   0.00054,   0.00035,  -0.00007,  -9.20356,   1.00000
534134706.23718,346167467.79091,-43769667.79690,   0.00228,   0.00085,  -0.00064,475372583.24774,   0.00067,275372589.65067,   0.00054,   0.00035,  -0.00007,  -6.40293,   1.00000
534255426.11606,345090114.62653,-44096161.10991,   0.00228,   0.00085,  -0.00065,475376898.45328,   0.00067,275376907.79169,   0.00055,   0.00035,  -0.00007,  -9.33841,   1.00000
534370305.57930,344011929.35322,-44426940.08080,   0.00229,   0.00085,  -0.00065,475381247.23811,   0.00068,275381255.15744,   0.00055,   0.00035,  -0.00007,  -7.91933,   1.00000
534481100.26832,342933957.79625,-44756592.97399,   0.00230,   0.00084,  -0.00066,475385616.85798,   0.00068,275385624.78107,   0.00055,   0.00035,  -0.00007,  -7.92309,   1.00000
534587837.64638,341856226.97011,-45085119.36711,   0.00230,   0.00084,  -0.00067,475390007.13184,   0.00069,275390016.63445,   0.00056,   0.00035,  -0.00008,  -9.50261,   1.00000
534692791.33719,340765430.84152,-45413561.46758,   0.00231,   0.00083,  -0.00067,475394378.65019,   0.00069,275394387.89613,   0.00056,   0.00035,  -0.00008,  -9.24594,   1.00000
534793062.16611,339671647.29278,-45744448.42344,   0.00232,   0.00083,  -0.00068,475398854.24092,   0.00069,275398863.01862,   0.00056,   0.00035,  -0.00008,  -8.77770,   1.00000
534890203.17481,338566907.58081,-46077051.09911,   0.00232,   0.00082,  -0.00068,475403241.77589,   0.00070,275403244.19407,   0.00057,   0.00035,  -0.00008,  -2.41818,   1.00000
534984398.14998,337460307.37775,-46406667.06852,   0.00233,   0.00082,  -0.00069,475407721.98463,   0.00070,275407722.58245,   0.00057,   0.00035,  -0.00008,  -0.59782,   1.00000
535074468.72181,336354036.35160,-46735123.04585,   0.00234,   0.00081,  -0.00069,475412223.99409,   0.00071,275412224.02166,   0.00058,   0.00035,  -0.00008,  -0.02757,   1.00000
535160616.73764,335233483.90718,-47068849.59356,   0.00234,   0.00081,  -0.00070,475416708.00137,   0.00071,275416713.88245,   0.00058,   0.00035,  -0.00008,  -5.88108,   1.00000
535244472.42886,334114332.06763,-47396024.91282,   0.00235,   0.00081,  -0.00071,475421215.65281,   0.00072,275421219.50527,   0.00058,   0.00035,  -0.00009,  -3.85246,   1.00000
535322315.40332,332994489.53802,-47727404.59985,   0.00235,   0.00080,  -0.00071,475425752.06327,   0.00072,275425756.18895,   0.00059,   0.00036,  -0.00009,  -4.12568,   1.00000
535396059.04047,331860251.29945,-48064035.06928,   0.00236,   0.00080,  -0.00072,475430278.93911,   0.00072,275430282.18973,   0.00059,   0.00036,  -0.00009,  -3.25062,   1.00000
535467510.82272,330727448.52938,-48394099.11575,   0.00237,   0.00079,  -0.00072,475434814.90140,   0.00073,275434824.24302,   0.00059,   0.00036,  -0.00009,  -9.34162,   1.00000
535534063.10591,329592166.80304,-48726413.18997,   0.00237,   0.00079,  -0.00073,475439467.16256,   0.00073,275439473.07481,   0.00060,   0.00036,  -0.00009,  -5.91226,   1.00000
535597099.47107,328445270.52791,-49060528.74847,   0.00238,   0.00078,  -0.00074,475444024.99923,   0.00074,275444028.99513,   0.00060,   0.00036,  -0.00009,  -3.99589,   1.00000
535657087.62745,327297051.60184,-49391484.59719,   0.00239,   0.00078,  -0.00074,475448678.94950,   0.00074,275448684.51717,   0.00061,   0.00036,  -0.00010,  -5.56767,   1.00000
535712900.83823,326149324.96232,-49721225.06342,   0.00239,   0.00077,  -0.00075,475453356.26254,   0.00074,275453364.29050,   0.00061,   0.00036,  -0.00010,  -8.02796,   1.00000
535764263.50781,324987031.76039,-50056181.21119,   0.00240,   0.00077,  -0.00075,475458034.92648,   0.00075,275458035.19646,   0.00061,   0.00036,  -0.00010,  -0.26998,   1.00000
535812236.19359,323827924.39106,-50386542.53792,   0.00241,   0.00076,  -0.00076,475462641.82065,   0.00075,275462646.76930,   0.00062,   0.00036,  -0.00010,  -4.94865,   1.00000
535856750.41312,322652549.70673,-50720116.60404,   0.00241,   0.00076,  -0.00076,475467316.10300,   0.00076,275467326.00124,   0.00062,   0.00036,  -0.00010,  -9.89824,   1.00000
535895003.93816,321476617.86843,-51057790.77380,   0.00242,   0.00075,  -0.00077,475472030.38610,   0.00076,275472038.61472,   0.00063,   0.00036,  -0.00010,  -8.22862,   1.00000
535932185.05242,320300846.82378,-51386838.41089,   0.00243,   0.00075,  -0.00078,475476842.99478,   0.00077,275476844.05089,   0.00063,   0.00036,  -0.00010,  -1.05611,   1.00000
535963423.50086,319111784.49270,-51723102.69147,   0.00243,   0.00074,  -0.00078,475481562.09553,   0.00077,275481566.12973,   0.00063,   0.00036,  -0.00011,  -4.03421,   1.00000
535990391.93352,317923289.17032,-52058102.50602,   0.00244,   0.00074,  -0.00079,475486306.62124,   0.00078,275486313.62968,   0.00064,   0.00036,  -0.00011,  -7.00844,   1.00000
536013131.53353,316735395.02740,-52391839.03780,   0.00244,   0.00073,  -0.00079,475491084.11903,   0.00078,275491086.47051,   0.00064,   0.00036,  -0.00011,  -2.35148,   1.00000
536034090.02258,315532426.14514,-52723324.78170,   0.00245,   0.00073,  -0.00080,475495917.56624,   0.00078,275495921.11205,   0.00065,   0.00036,  -0.00011,  -3.54581,   1.00000
536047559.48994,314330279.63375,-53060950.92640,   0.00246,   0.00072,  -0.00081,475500709.77648,   0.00079,275500713.50385,   0.00065,   0.00036,  -0.00011,  -3.72738,   1.00000
536060007.44099,313128666.50815,-53389862.84626,   0.00246,   0.00072,  -0.00081,475505594.53353,   0.00079,275505599.79473,   0.00065,   0.00036,  -0.00011,  -5.26120,   1.00000
536067303.90179,311912139.39980,-53723915.88065,   0.00247,   0.00071,  -0.00082,475510478.12625,   0.00080,275510480.80838,   0.00066,   0.00037,  -0.00012,  -2.68212,   1.00000
536067050.01368,310696335.26459,-54064114.88740,   0.00248,   0.00071,  -0.00083,475515312.60049,   0.00080,275515319.85341,   0.00066,   0.00037,  -0.00012,  -7.25292,   1.00000
536066884.53243,309466621.05779,-54396650.30053,   0.00248,   0.00070,  -0.00083,475520213.57221,   0.00081,275520213.69528,   0.00067,   0.00037,  -0.00012,  -0.12308,   1.00000
536060244.42908,308236540.09407,-54733188.53232,   0.00249,   0.00070,  -0.00084,475525142.40833,   0.00081,275525143.24758,   0.00067,   0.00037,  -0.00012,  -0.83925,   1.00000
536051468.02591,307008320.12506,-55063096.82993,   0.00250,   0.00069,  -0.00084,475530081.27462,   0.00082,275530090.23744,   0.00068,   0.00037,  -0.00012,  -8.96282,   1.00000
536037213.07006,305765019.88917,-55398109.55146,   0.00250,   0.00069,  -0.00085,475535028.88185,   0.00082,275535033.62359,   0.00068,   0.00037,  -0.00013,  -4.74173,   1.00000
536016434.20953,304521401.40537,-55737092.98855,   0.00251,   0.00068,  -0.00086,475540005.19329,   0.00082,275540013.35371,   0.00068,   0.00037,  -0.00013,  -8.16042,   1.00000
535993563.62375,303279706.79321,-56069434.67405,   0.00252,   0.00068,  -0.00086,475545007.85289,   0.00083,275545010.66167,   0.00069,   0.00037,  -0.00013,  -2.80877,   1.00000
535965005.42767,302022830.38131,-56406848.75387,   0.00252,   0.00067,  -0.00087,475550004.67779,   0.00083,275550005.47543,   0.00069,   0.00037,  -0.00013,  -0.79764,   1.00000
535935479.26110,300767164.65041,-56735387.28316,   0.00253,   0.00067,  -0.00087,475555089.59558,   0.00084,275555096.36442,   0.00070,   0.00037,  -0.00013,  -6.76884,   1.00000
535898982.77183,299496988.01690,-57071225.43277,   0.00254,   0.00066,  -0.00088,475560099.94825,   0.00084,275560107.15512,   0.00070,   0.00037,  -0.00013,  -7.20687,   1.00000
535855236.68722,298241644.79189,-57409883.84436,   0.00254,   0.00066,  -0.00089,475565190.59159,   0.00085,275565193.75172,   0.00070,   0.00037,  -0.00014,  -3.16013,   1.00000
535811845.39763,296957521.55258,-57741838.30867,   0.00255,   0.00065,  -0.00089,475570294.82619,   0.00085,275570299.99636,   0.00071,   0.00037,  -0.00014,  -5.17018,   1.00000
535760095.98069,295688941.60341,-58078874.55546,   0.00256,   0.00065,  -0.00090,475575400.86383,   0.00086,275575403.55780,   0.00071,   0.00037,  -0.00014,  -2.69397,   1.00000
535706859.28787,294407217.95306,-58410368.89998,   0.00256,   0.00064,  -0.00091,475580483.80345,   0.00086,275580486.86574,   0.00072,   0.00037,  -0.00014,  -3.06229,   1.00000
535648177.20211,293124911.73775,-58743467.41817,   0.00257,   0.00063,  -0.00091,475585685.07608,   0.00087,275585687.03360,   0.00072,   0.00037,  -0.00014,  -1.95753,   1.00000
535584422.25956,291828732.62989,-59078604.45944,   0.00258,   0.00063,  -0.00092,475590794.59740,   0.00087,275590798.44472,   0.00073,   0.00037,  -0.00015,  -3.84732,   1.00000
535515165.98156,290532098.44493,-59415290.23502,   0.00258,   0.00062,  -0.00092,475596024.41830,   0.00088,275596027.59135,   0.00073,   0.00037,  -0.00015,  -3.17304,   1.00000
535444209.81669,289222244.27486,-59746409.27041,   0.00259,   0.00062,  -0.00093,475601232.78285,   0.00088,275601237.66245,   0.00074,   0.00037,  -0.00015,  -4.87959,   1.00000
535365094.98836,287928033.91335,-60082635.58040,   0.00259,   0.00061,  -0.00094,475606442.04439,   0.00089,275606444.54764,   0.00074,   0.00037,  -0.00015,  -2.50325,   1.00000
535283109.89563,286619230.14468,-60416199.21004,   0.00260,   0.00061,  -0.00094,475611721.19860,   0.00089,275611722.25983,   0.00074,   0.00037,  -0.00015,  -1.06123,   1.00000
535196939.52828,285296023.26817,-60749450.78179,   0.00261,   0.00060,  -0.00095,475616982.21492,   0.00090,275616991.84422,   0.00075,   0.00037,  -0.00016,  -9.62930,   1.00000
535105195.03522,283974042.59368,-61083670.45310,   0.00261,   0.00060,  -0.00096,475622208.86089,   0.00090,275622210.68311,   0.00075,   0.00037,  -0.00016,  -1.82221,   1.00000
535007910.38713,282652030.68102,-61419315.20509,   0.00262,   0.00059,  -0.00096,475627542.47874,   0.00091,275627549.16848,   0.00076,   0.00037,  -0.00016,  -6.68974,   1.00000
534906304.07405,281315550.48603,-61754624.30861,   0.00263,   0.00058,  -0.00097,475632875.82428,   0.00091,275632880.32767,   0.00076,   0.00037,  -0.00016,  -4.50339,   1.00000
534802743.04277,279981368.17832,-62083245.57988,   0.00263,   0.00058,  -0.00098,475638229.05191,   0.00092,275638230.36535,   0.00077,   0.00037,  -0.00016,  -1.31344,   1.00000
534691167.70235,278647191.97487,-62418111.09457,   0.00264,   0.00057,  -0.00098,475643534.31766,   0.00092,275643540.27142,   0.00077,   0.00037,  -0.00017,  -5.95376,   1.00000
534573925.67282,277297496.74381,-62755420.49137,   0.00265,   0.00057,  -0.00099,475648925.88883,   0.00093,275648934.83205,   0.00078,   0.00037,  -0.00017,  -8.94322,   1.00000
534454773.68967,275950165.99605,-63086029.09079,   0.00265,   0.00056,  -0.00100,475654346.04890,   0.00093,275654348.43753,   0.00078,   0.00037,  -0.00017,  -2.38862,   1.00000
534328822.51462,274603032.62100,-63420410.84944,   0.00266,   0.00056,  -0.00100,475659801.27832,   0.00094,275659802.86666,   0.00078,   0.00037,  -0.00017,  -1.58834,   1.00000
534200729.02142,273242384.75250,-63749196.27950,   0.00267,   0.00055,  -0.00101,475665238.01594,   0.00094,275665240.53461,   0.00079,   0.00037,  -0.00018,  -2.51867,   1.00000
534064501.53460,271881594.26960,-64084237.34004,   0.00267,   0.00054,  -0.00101,475670635.42783,   0.00095,275670638.56071,   0.00079,   0.00037,  -0.00018,  -3.13288,   1.00000
533925244.78116,270522546.57490,-64415298.53931,   0.00268,   0.00054,  -0.00102,475676140.22451,   0.00095,275676147.76199,   0.00080,   0.00037,  -0.00018,  -7.53747,   1.00000
533778720.63646,269147742.47983,-64751190.72796,   0.00269,   0.00053,  -0.00103,475681660.71993,   0.00096,275681663.28200,   0.00080,   0.00037,  -0.00018,  -2.56206,   1.00000
533630358.94650,267775423.53998,-65080369.74576,   0.00269,   0.00053,  -0.00103,475687193.05803,   0.00096,275687198.15551,   0.00081,   0.00037,  -0.00018,  -5.09748,   1.00000
533474571.15741,266387299.01371,-65414360.68617,   0.00270,   0.00052,  -0.00104,475692733.59620,   0.00097,275692740.18891,   0.00081,   0.00037,  -0.00019,  -6.59271,   1.00000
533316958.17705,265001699.65522,-65741639.03612,   0.00271,   0.00051,  -0.00105,475698294.75937,   0.00097,275698301.70479,   0.00082,   0.00037,  -0.00019,  -6.94542,   1.00000
533152468.44121,263616493.40315,-66072627.62239,   0.00271,   0.00051,  -0.00105,475703902.00439,   0.00098,275703905.56631,   0.00082,   0.00037,  -0.00019,  -3.56192,   1.00000
532981549.91107,262215750.16763,-66405765.80943,   0.00272,   0.00050,  -0.00106,475709420.17618,   0.00098,275709424.40466,   0.00083,   0.00037,  -0.00019,  -4.22848,   1.00000
532805070.21849,260816198.32010,-66739997.38761,   0.00273,   0.00050,  -0.00107,475715062.87957,   0.00099,275715068.01283,   0.00083,   0.00037,  -0.00020,  -5.13326,   1.00000
532626858.68627,259419267.90687,-67067507.72906,   0.00273,   0.00049,  -0.00107,475720726.04246,   0.00099,275720731.14326,   0.00083,   0.00037,  -0.00020,  -5.10080,   1.00000
532440861.20036,258006432.31223,-67399766.51437,   0.00274,   0.00048,  -0.00108,475726400.73186,   0.00100,275726403.56337,   0.00084,   0.00037,  -0.00020,  -2.83152,   1.00000
532250510.65453,256595182.13776,-67730483.73282,   0.00275,   0.00048,  -0.00109,475732101.23351,   0.00100,275732107.69737,   0.00084,   0.00037,  -0.00020,  -6.46386,   1.00000
532057039.24309,255185594.48028,-68057115.49619,   0.00275,   0.00047,  -0.00109,475737744.65634,   0.00101,275737749.12305,   0.00085,   0.00037,  -0.00021,  -4.46672,   1.00000
531854416.55951,253760018.94290,-68391008.02991,   0.00276,   0.00047,  -0.00110,475743492.59322,   0.00101,275743495.26124,   0.00085,   0.00037,  -0.00021,  -2.66802,   1.00000
531650098.92812,252337166.58427,-68718163.01361,   0.00277,   0.00046,  -0.00111,475749252.79624,   0.00102,275749261.33128,   0.00086,   0.00037,  -0.00021,  -8.53503,   1.00000
531440328.61775,250899394.33267,-69044836.89069,   0.00277,   0.00045,  -0.00111,475755021.92566,   0.00102,275755026.37726,   0.00086,   0.00037,  -0.00021,  -4.45161,   1.00000
531223268.43128,249477685.08497,-69376734.60877,   0.00278,   0.00045,  -0.00112,475760779.09133,   0.00103,275760786.04312,   0.00087,   0.00037,  -0.00022,  -6.95180,   1.00000
531003604.89127,248026633.42947,-69701342.87705,   0.00279,   0.00044,  -0.00113,475766575.57501,   0.00103,275766582.92929,   0.00087,   0.00037,  -0.00022,  -7.35428,   1.00000
530776700.95024,246591671.71287,-70031188.62936,   0.00279,   0.00043,  -0.00113,475772368.86849,   0.00104,275772374.29397,   0.00088,   0.00037,  -0.00022,  -5.42548,   1.00000
530545710.10518,245143090.27263,-70357814.02398,   0.00280,   0.00043,  -0.00114,475778242.77288,   0.00104,275778248.66287,   0.00088,   0.00037,  -0.00022,  -5.88999,   1.00000
530307721.50877,243695284.37721,-70688012.10196,   0.00281,   0.00042,  -0.00115,475784158.29426,   0.00105,275784168.27329,   0.00089,   0.00037,  -0.00022,  -9.97902,   1.00000
530065098.54488,242231986.15807,-71015240.91140,   0.00281,   0.00041,  -0.00115,475789990.98866,   0.00106,275789992.93357,   0.00089,   0.00037,  -0.00023,  -1.94491,   1.00000
529819718.74806,240787399.43979,-71339846.61822,   0.00282,   0.00041,  -0.00116,475795875.35047,   0.00106,275795882.01080,   0.00090,   0.00037,  -0.00023,  -6.66034,   1.00000
529565810.70153,239311394.72272,-71667349.03280,   0.00282,   0.00040,  -0.00117,475801834.27959,   0.00107,275801836.91174,   0.00090,   0.00037,  -0.00023,  -2.63216,   1.00000
529307597.83163,237852592.77545,-71994963.61734,   0.00283,   0.00040,  -0.00117,475807764.59730,   0.00107,275807772.94752,   0.00091,   0.00037,  -0.00024,  -8.35022,   1.00000
529045128.86197,236380432.55803,-72319246.04504,   0.00284,   0.00039,  -0.00118,475813788.06352,   0.00108,275813794.29745,   0.00091,   0.00037,  -0.00024,  -6.23393,   1.00000
528776727.86676,234908446.86413,-72644698.84625,   0.00284,   0.00038,  -0.00119,475819759.22812,   0.00108,275819765.25199,   0.00092,   0.00037,  -0.00024,  -6.02387,   1.00000
528502260.37156,233421320.88434,-72969569.01762,   0.00285,   0.00038,  -0.00120,475825735.49862,   0.00109,275825738.76771,   0.00092,   0.00037,  -0.00024,  -3.26909,   1.00000
528223515.92228,231936170.12015,-73292824.76585,   0.00286,   0.00037,  -0.00120,475831740.23951,   0.00109,275831745.82188,   0.00093,   0.00037,  -0.00025,  -5.58237,   1.00000
527937748.21978,230452022.47963,-73619588.07418,   0.00286,   0.00036,  -0.00121,475837798.08289,   0.00110,275837799.60085,   0.00093,   0.00037,  -0.00025,  -1.51796,   1.00000
527645753.70144,228952701.19517,-73945729.98366,   0.00287,   0.00036,  -0.00122,475843853.74623,   0.00111,275843856.99460,   0.00094,   0.00037,  -0.00025,  -3.24837,   1.00000
527352333.17571,227456443.88070,-74265124.06346,   0.00288,   0.00035,  -0.00122,475849930.91191,   0.00111,275849934.79921,   0.00094,   0.00037,  -0.00025,  -3.88730,   1.00000
527051884.46565,225961282.98054,-74588007.88165,   0.00288,   0.00034,  -0.00123,475856052.89109,   0.00112,275856059.81880,   0.00095,   0.00037,  -0.00026,  -6.92770,   1.00000
526745082.81924,224450923.34616,-74910253.31718,   0.00289,   0.00034,  -0.00124,475862183.00522,   0.00112,275862189.22934,   0.00095,   0.00037,  -0.00026,  -6.22412,   1.00000
526433464.48346,222959089.03103,-75234964.69980,   0.00290,   0.00033,  -0.00124,475868387.23860,   0.00113,275868395.61096,   0.00096,   0.00037,  -0.00026,  -8.37236,   1.00000
526116006.86285,221435628.19026,-75554904.09792,   0.00290,   0.00032,  -0.00125,475874555.13868,   0.00113,275874564.08242,   0.00096,   0.00037,  -0.00026,  -8.94374,   1.00000
525791905.46760,219928453.06876,-75880177.40090,   0.00291,   0.00032,  -0.00126,475880716.02670,   0.00114,275880725.11854,   0.00097,   0.00037,  -0.00027,  -9.09184,   1.00000
525466087.32092,218409405.18798,-76196802.01567,   0.00292,   0.00031,  -0.00126,475886960.87721,   0.00115,275886962.23247,   0.00097,   0.00036,  -0.00027,  -1.35526,   1.00000
525131273.59798,216889160.86680,-76519755.73490,   0.00292,   0.00030,  -0.00127,475893160.68815,   0.00115,275893163.05428,   0.00098,   0.00036,  -0.00027,  -2.36613,   1.00000
524791779.18247,215356168.23940,-76839109.81403,   0.00293,   0.00029,  -0.00128,475899454.08565,   0.00116,275899454.85830,   0.00098,   0.00036,  -0.00028,  -0.77265,   1.00000
524446115.26660,213822891.53224,-77159700.53431,   0.00294,   0.00029,  -0.00129,475905694.54663,   0.00116,275905696.65694,   0.00099,   0.00036,  -0.00028,  -2.11031,   1.00000
524096308.45877,212291914.65648,-77478619.59170,   0.00294,   0.00028,  -0.00129,475911964.82440,   0.00117,275911973.14158,   0.00099,   0.00036,  -0.00028,  -8.31718,   1.00000
523741771.97503,210748348.37221,-77793892.74659,   0.00295,   0.00027,  -0.00130,475918339.50993,   0.00117,275918341.63672,   0.00100,   0.00036,  -0.00028,  -2.12679,   1.00000
523380860.95928,209221155.32948,-78114546.13284,   0.00296,   0.00027,  -0.00131,475924695.72535,   0.00118,275924701.73167,   0.00100,   0.00036,  -0.00029,  -6.00632,   1.00000
523010287.46005,207660925.18070,-78435394.79053,   0.00296,   0.00026,  -0.00131,475931039.04958,   0.00119,275931042.39319,   0.00101,   0.00036,  -0.00029,  -3.34362,   1.00000
522641391.25451,206121797.89368,-78748546.94849,   0.00297,   0.00025,  -0.00132,475937429.85799,   0.00119,275937430.69871,   0.00101,   0.00036,  -0.00029,  -0.84072,   1.00000
522260406.47429,204563454.44365,-79068972.37268,   0.00297,   0.00025,  -0.00133,475943750.21981,   0.00120,275943756.62267,   0.00102,   0.00036,  -0.00030,  -6.40286,   1.00000
521877518.10705,203010554.77888,-79384723.65286,   0.00298,   0.00024,  -0.00133,475950194.69266,   0.00120,275950203.10606,   0.00102,   0.00036,  -0.00030,  -8.41340,   1.00000
521490614.88617,201460171.28522,-79698779.52497,   0.00299,   0.00023,  -0.00134,475956678.49430,   0.00121,275956684.69294,   0.00103,   0.00036,  -0.00030,  -6.19864,   1.00000
521094365.95612,199891317.08714,-80015039.77478,   0.00299,   0.00023,  -0.00135,475963084.18917,   0.00122,275963090.06138,   0.00103,   0.00036,  -0.00030,  -5.87221,   1.00000
520693337.21082,198327270.89375,-80331632.93544,   0.00300,   0.00022,  -0.00136,475969624.03555,   0.00122,275969631.38660,   0.00104,   0.00036,  -0.00031,  -7.35105,   1.00000
520289020.36445,196763482.42925,-80644477.54465,   0.00301,   0.00021,  -0.00136,475976100.75320,   0.00123,275976107.63378,   0.00104,   0.00036,  -0.00031,  -6.88058,   1.00000
519874432.30860,195183406.38870,-80961543.10298,   0.00301,   0.00020,  -0.00137,475982603.97850,   0.00123,275982609.11026,   0.00105,   0.00035,  -0.00031,  -5.13177,   1.00000
519455811.33628,193605945.89110,-81276875.84670,   0.00302,   0.00020,  -0.00138,475989138.69460,   0.00124,275989146.51014,   0.00105,   0.00035,  -0.00032,  -7.81553,   1.00000
519033216.98859,192031134.67911,-81590481.88403,   0.00303,   0.00019,  -0.00138,475995713.87925,   0.00125,275995719.64936,   0.00106,   0.00035,  -0.00032,  -5.77011,   1.00000
518606688.51028,190459000.17053,-81902363.84661,   0.00303,   0.00018,  -0.00139,476002319.68881,   0.00125,276002328.44332,   0.00106,   0.00035,  -0.00032,  -8.75452,   1.00000
518172759.21179,188871469.37229,-82213391.47406,   0.00304,   0.00017,  -0.00140,476008944.37393,   0.00126,276008948.47818,   0.00107,   0.00035,  -0.00033,  -4.10425,   1.00000
517734892.29983,187286677.64715,-82522686.21795,   0.00304,   0.00017,  -0.00140,476015600.23792,   0.00126,276015604.48841,   0.00107,   0.00035,  -0.00033,  -4.25049,   1.00000
517286977.65602,185682834.59981,-82834164.70602,   0.00305,   0.00016,  -0.00141,476022180.71474,   0.00127,276022186.65239,   0.00108,   0.00035,  -0.00033,  -5.93765,   1.00000
516838279.28891,184102813.08743,-83144991.60449,   0.00306,   0.00015,  -0.00142,476028928.20017,   0.00128,276028930.29164,   0.00108,   0.00035,  -0.00033,  -2.09147,   1.00000
516382517.16835,182504462.74593,-83452992.52430,   0.00306,   0.00015,  -0.00143,476035581.62798,   0.00128,276035584.63771,   0.00109,   0.00035,  -0.00034,  -3.00973,   1.00000
515919797.09488,180908097.04470,-83764254.66615,   0.00307,   0.00014,  -0.00143,476042286.95564,   0.00129,276042290.88446,   0.00109,   0.00035,  -0.00034,  -3.92882,   1.00000
515449362.48810,179296293.48243,-84074587.44372,   0.00308,   0.00013,  -0.00144,476049004.55250,   0.00130,276049010.48773,   0.00110,   0.00035,  -0.00034,  -5.93523,   1.00000
514975047.75475,177687373.55918,-84383156.99170,   0.00308,   0.00012,  -0.00145,476055763.96045,   0.00130,276055766.65656,   0.00111,   0.00034,  -0.00035,  -2.69611,   1.00000
514496893.40798,176081364.46589,-84689966.33798,   0.00309,   0.00012,  -0.00146,476062555.16358,   0.00131,276062559.29773,   0.00111,   0.00034,  -0.00035,  -4.13415,   1.00000
514014959.92084,174478298.14137,-84995022.32521,   0.00310,   0.00011,  -0.00146,476069387.35727,   0.00131,276069388.21347,   0.00112,   0.00034,  -0.00035,  -0.85620,   1.00000
513522394.09856,172855683.30056,-85302240.40658,   0.00310,   0.00010,  -0.00147,476076137.63254,   0.00132,276076145.22957,   0.00112,   0.00034,  -0.00036,  -7.59702,   1.00000
513022885.53013,171235244.57922,-85612665.89850,   0.00311,   0.00009,  -0.00148,476082951.25117,   0.00133,276082955.20425,   0.00113,   0.00034,  -0.00036,  -3.95308,   1.00000
512525569.56787,169622809.29241,-85913203.34138,   0.00311,   0.00009,  -0.00148,476089871.21546,   0.00133,276089871.97546,   0.00113,   0.00034,  -0.00036,  -0.76000,   1.00000
512018544.23491,168008375.41136,-86220094.35706,   0.00312,   0.00008,  -0.00149,476096748.63857,   0.00134,276096755.12575,   0.00114,   0.00034,  -0.00037,  -6.48717,   1.00000
511503501.57376,166378490.99237,-86525975.97707,   0.00313,   0.00007,  -0.00150,476103651.75486,   0.00135,276103653.88719,   0.00114,   0.00034,  -0.00037,  -2.13233,   1.00000
510981773.46578,164747282.85452,-86833225.70199,   0.00313,   0.00006,  -0.00151,476110500.31789,   0.00135,276110503.12288,   0.00115,   0.00034,  -0.00037,  -2.80499,   1.00000
510459298.72189,163123609.53471,-87135524.75135,   0.00314,   0.00006,  -0.00151,476117467.99743,   0.00136,276117475.82135,   0.00115,   0.00033,  -0.00038,  -7.82391,   1.00000
509928686.37073,161484505.62656,-87436787.39718,   0.00315,   0.00005,  -0.00152,476124463.02293,   0.00137,276124465.04391,   0.00116,   0.00033,  -0.00038,  -2.02098,   1.00000
509395907.76275,159862604.51431,-87738703.77023,   0.00315,   0.00004,  -0.00153,476131417.82652,   0.00137,276131424.62877,   0.00116,   0.00033,  -0.00038,  -6.80224,   1.00000
508854932.53606,158225229.02563,-88039572.48311,   0.00316,   0.00003,  -0.00153,476138400.25162,   0.00138,276138401.06479,   0.00117,   0.00033,  -0.00039,  -0.81317,   1.00000
508307140.60314,156590333.01191,-88343592.54486,   0.00316,   0.00003,  -0.00154,476145427.56677,   0.00139,276145431.44911,   0.00118,   0.00033,  -0.00039,  -3.88234,   1.00000
507754219.88216,154940692.82896,-88641583.67776,   0.00317,   0.00002,  -0.00155,476152461.46354,   0.00139,276152462.67764,   0.00118,   0.00033,  -0.00039,  -1.21410,   1.00000
507194474.29093,153293619.37065,-88942709.55888,   0.00318,   0.00001,  -0.00156,476159541.07125,   0.00140,276159548.32079,   0.00119,   0.00033,  -0.00040,  -7.24955,   1.00000
506627922.51213,151644971.38579,-89245234.36793,   0.00318,   0.00000,  -0.00156,476166575.86933,   0.00141,276166584.48586,   0.00119,   0.00033,  -0.00040,  -8.61652,   1.00000
506061023.62840,150000280.03522,-89541027.90996,   0.00319,  -0.00000,  -0.00157,476173639.99367,   0.00141,276173640.56771,   0.00120,   0.00032,  -0.00040,  -0.57404,   1.00000
505490703.10183,148363203.68103,-89836736.12417,   0.00319,  -0.00001,  -0.00158,476180835.87860,   0.00142,276180837.72091,   0.00120,   0.00032,  -0.00041,  -1.84231,   1.00000
504908577.32155,146705671.76296,-90134540.01384,   0.00320,  -0.00002,  -0.00159,476187966.53840,   0.00142,276187967.13532,   0.00121,   0.00032,  -0.00041,  -0.59692,   1.00000
504319703.47425,145050863.06337,-90435440.49277,   0.00321,  -0.00003,  -0.00159,476195143.43423,   0.00143,276195151.51524,   0.00121,   0.00032,  -0.00041,  -8.08100,   1.00000
503727177.03854,143394949.03147,-90732843.54064,   0.00321,  -0.00004,  -0.00160,476202261.76348,   0.00144,276202268.87990,   0.00122,   0.00032,  -0.00042,  -7.11642,   1.00000
503129456.81174,141728782.43795,-91025832.40769,   0.00322,  -0.00004,  -0.00161,476209490.93541,   0.00144,276209493.35716,   0.00123,   0.00032,  -0.00042,  -2.42175,   1.00000
502526791.29716,140079065.39028,-91324524.15309,   0.00322,  -0.00005,  -0.00162,476216697.95264,   0.00145,276216702.98737,   0.00123,   0.00032,  -0.00042,  -5.03473,   1.00000
501918699.90915,138414513.93918,-91617121.60422,   0.00323,  -0.00006,  -0.00162,476223914.78771,   0.00146,276223915.46274,   0.00124,   0.00031,  -0.00043,  -0.67503,   1.00000
501303946.17677,136752836.69984,-91912797.60165,   0.00324,  -0.00007,  -0.00163,476231178.31390,   0.00147,276231183.25929,   0.00124,   0.00031,  -0.00043,  -4.94539,   1.00000
500685846.25396,135094677.26344,-92206648.69933,   0.00324,  -0.00007,  -0.00164,476238484.21457,   0.00147,276238488.43076,   0.00125,   0.00031,  -0.00043,  -4.21619,   1.00000
500055285.26618,133415604.36755,-92502538.82536,   0.00325,  -0.00008,  -0.00164,476245727.30665,   0.00148,276245728.36294,   0.00125,   0.00031,  -0.00044,  -1.05630,   1.00000
499425037.30278,131745635.73834,-92793311.71553,   0.00325,  -0.00009,  -0.00165,476253091.82754,   0.00149,276253093.07740,   0.00126,   0.00031,  -0.00044,  -1.24986,   1.00000
498793351.62335,130092658.41999,-93084962.27767,   0.00326,  -0.00010,  -0.00166,476260417.09368,   0.00149,276260423.52137,   0.00126,   0.00031,  -0.00045,  -6.42769,   1.00000
498147144.65648,128405235.82344,-93375927.70374,   0.00327,  -0.00011,  -0.00167,476267752.79824,   0.00150,276267761.29967,   0.00127,   0.00031,  -0.00045,  -8.50143,   1.00000
497503332.94785,126740488.54058,-93664496.26269,   0.00327,  -0.00011,  -0.00167,476275147.20147,   0.00151,276275151.56806,   0.00128,   0.00030,  -0.00045,  -4.36659,   1.00000
496849164.49060,125073062.51136,-93959403.63618,   0.00328,  -0.00012,  -0.00168,476282505.66961,   0.00151,276282510.60748,   0.00128,   0.00030,  -0.00046,  -4.93787,   1.00000
496193189.26381,123396583.78581,-94244845.26115,   0.00328,  -0.00013,  -0.00169,476289960.09128,   0.00152,276289961.45791,   0.00129,   0.00030,  -0.00046,  -1.36662,   1.00000
495526769.33265,121717408.21395,-94536617.61127,   0.00329,  -0.00014,  -0.00170,476297374.26519,   0.00153,276297381.56556,   0.00129,   0.00030,  -0.00046,  -7.30037,   1.00000
494857174.25084,120041946.04791,-94826541.22623,   0.00330,  -0.00015,  -0.00170,476304831.24617,   0.00153,276304839.35727,   0.00130,   0.00030,  -0.00047,  -8.11109,   1.00000
494181768.06466,118351613.20162,-95110277.64739,   0.00330,  -0.00015,  -0.00171,476312302.49927,   0.00154,276312302.79369,   0.00130,   0.00030,  -0.00047,  -0.29443,   1.00000
493501842.04663,116677630.38130,-95399840.87844,   0.00331,  -0.00016,  -0.00172,476319746.53052,   0.00155,276319748.90488,   0.00131,   0.00029,  -0.00047,  -2.37436,   1.00000
492816854.09335,114994366.60372,-95684727.61057,   0.00331,  -0.00017,  -0.00173,476327298.54028,   0.00155,276327306.69158,   0.00131,   0.00029,  -0.00048,  -8.15130,   1.00000
492124631.41456,113308767.12004,-95971093.85110,   0.00332,  -0.00018,  -0.00173,476334805.42694,   0.00156,276334815.28988,   0.00132,   0.00029,  -0.00048,  -9.86294,   1.00000
491426018.53947,111626525.75941,-96260445.83433,   0.00333,  -0.00019,  -0.00174,476342370.70620,   0.00157,276342380.58539,   0.00133,   0.00029,  -0.00049,  -9.87919,   1.00000
490723462.55568,109942305.57033,-96546439.03233,   0.00333,  -0.00019,  -0.00175,476349874.62515,   0.00158,276349877.65330,   0.00133,   0.00029,  -0.00049,  -3.02814,   1.00000
490022191.81685,108268249.16911,-96827249.60129,   0.00334,  -0.00020,  -0.00176,476357498.40342,   0.00158,276357499.06314,   0.00134,   0.00029,  -0.00049,  -0.65971,   1.00000
489303927.32551,106572043.20428,-97114825.51353,   0.00334,  -0.00021,  -0.00176,476365072.61712,   0.00159,276365078.99119,   0.00134,   0.00028,  -0.00050,  -6.37407,   1.00000
488586006.18482,104880172.66535,-97395710.09073,   0.00335,  -0.00022,  -0.00177,476372673.85907,   0.00160,276372677.58785,   0.00135,   0.00028,  -0.00050,  -3.72878,   1.00000
487861779.67632,103191817.56287,-97679559.91042,   0.00335,  -0.00023,  -0.00178,476380323.68004,   0.00160,276380333.28519,   0.00135,   0.00028,  -0.00051,  -9.60515,   1.00000
487134665.40254,101507423.73038,-97961552.19361,   0.00336,  -0.00023,  -0.00179,476388026.23386,   0.00161,276388026.56169,   0.00136,   0.00028,  -0.00051,  -0.32783,   1.00000
486400152.24571,99820399.08745,-98245041.23130,   0.00337,  -0.00024,  -0.00179,476395662.49587,   0.00162,276395670.75590,   0.00137,   0.00028,  -0.00051,  -8.26003,   1.00000
485666147.20194,98137719.39426,-98521870.58912,   0.00337,  -0.00025,  -0.00180,476403324.28062,   0.00163,276403332.82650,   0.00137,   0.00027,  -0.00052,  -8.54587,   1.00000
484919274.62321,96439361.74421,-98802039.45084,   0.00338,  -0.00026,  -0.00181,476411037.91951,   0.00163,276411042.26437,   0.00138,   0.00027,  -0.00052,  -4.34486,   1.00000
484166191.59948,94744689.74777,-99085134.94836,   0.00338,  -0.00027,  -0.00182,476418800.65452,   0.00164,276418809.33341,   0.00138,   0.00027,  -0.00052,  -8.67888,   1.00000
483408976.10893,93047616.64054,-99364928.31155,   0.00339,  -0.00028,  -0.00182,476426501.14228,   0.00165,276426507.81531,   0.00139,   0.00027,  -0.00053,  -6.67304,   1.00000
482648967.37656,91354593.83559,-99642857.11231,   0.00339,  -0.00028,  -0.00183,476434238.97238,   0.00165,276434243.99535,   0.00139,   0.00027,  -0.00053,  -5.02297,   1.00000
481886216.34330,89665642.86769,-99918928.38392,   0.00340,  -0.00029,  -0.00184,476442013.66296,   0.00166,276442017.68805,   0.00140,   0.00026,  -0.00054,  -4.02509,   1.00000
481117401.12934,87980470.25496,-100197929.53318,   0.00340,  -0.00030,  -0.00185,476449847.16625,   0.00167,276449848.74470,   0.00141,   0.00026,  -0.00054,  -1.57844,   1.00000
480344417.29825,86292688.59424,-100473670.20328,   0.00341,  -0.00031,  -0.00185,476457607.06160,   0.00168,276457610.62289,   0.00141,   0.00026,  -0.00054,  -3.56129,   1.00000
479563269.82799,84596444.26712,-100749246.13902,   0.00342,  -0.00032,  -0.00186,476465499.81603,   0.00168,276465508.84283,   0.00142,   0.00026,  -0.00055,  -9.02680,   1.00000
478769519.44945,82890122.58306,-101029723.86664,   0.00342,  -0.00033,  -0.00187,476473269.27458,   0.00169,276473271.96342,   0.00142,   0.00026,  -0.00055,  -2.68884,   1.00000
477978117.05816,81195147.93450,-101304921.99826,   0.00343,  -0.00033,  -0.00188,476481154.05942,   0.00170,276481159.34702,   0.00143,   0.00025,  -0.00056,  -5.28760,   1.00000
477191377.62828,79523763.90852,-101577990.00595,   0.00343,  -0.00034,  -0.00188,476489086.56569,   0.00171,276489090.75039,   0.00144,   0.00025,  -0.00056,  -4.18469,   1.00000
476389763.51751,77829883.03125,-101852861.74983,   0.00344,  -0.00035,  -0.00189,476496961.42259,   0.00171,276496966.33571,   0.00144,   0.00025,  -0.00056,  -4.91312,   1.00000
475578272.90466,76120821.60658,-102126104.55155,   0.00344,  -0.00036,  -0.00190,476504866.67181,   0.00172,276504873.31931,   0.00145,   0.00025,  -0.00057,  -6.64750,   1.00000
474766381.36584,74428040.94866,-102400635.63867,   0.00345,  -0.00037,  -0.00191,476512737.52014,   0.00173,276512737.69740,   0.00145,   0.00025,  -0.00057,  -0.17727,   1.00000
473957265.80821,72746930.39888,-102669896.50499,   0.00345,  -0.00037,  -0.00192,476520715.61695,   0.00174,276520725.46614,   0.00146,   0.00024,  -0.00058,  -9.84919,   1.00000
473132954.55444,71043177.65481,-102940922.45774,   0.00346,  -0.00038,  -0.00192,476528653.68339,   0.00174,276528658.86235,   0.00146,   0.00024,  -0.00058,  -5.17897,   1.00000
472310308.84154,69362956.20831,-103214616.02086,   0.00346,  -0.00039,  -0.00193,476536650.36808,   0.00175,276536655.47907,   0.00147,   0.00024,  -0.00058,  -5.11098,   1.00000
471475696.95309,67660175.43257,-103485299.38300,   0.00347,  -0.00040,  -0.00194,476544568.06693,   0.00176,276544577.69010,   0.00148,   0.00024,  -0.00059,  -9.62317,   1.00000
470640739.99628,65969187.87869,-103755433.45544,   0.00348,  -0.00041,  -0.00195,476552643.89993,   0.00177,276552644.07273,   0.00148,   0.00023,  -0.00059,  -0.17279,   1.00000
469801327.22210,64275024.91193,-104022375.85239,   0.00348,  -0.00042,  -0.00195,476560634.03322,   0.00177,276560640.87410,   0.00149,   0.00023,  -0.00060,  -6.84088,   1.00000
468956185.43356,62585062.99488,-104292184.12687,   0.00349,  -0.00042,  -0.00196,476568694.49128,   0.00178,276568695.79391,   0.00149,   0.00023,  -0.00060,  -1.30263,   1.00000
468103129.20170,60891674.72025,-104563532.69400,   0.00349,  -0.00043,  -0.00197,476576698.17998,   0.00179,276576702.16953,   0.00150,   0.00023,  -0.00061,  -3.98956,   1.00000
467247787.08143,59202649.95997,-104833003.85384,   0.00350,  -0.00044,  -0.00198,476584742.93947,   0.00180,276584745.67147,   0.00150,   0.00023,  -0.00061,  -2.73200,   1.00000
466390198.27843,57518006.05063,-105100602.63867,   0.00350,  -0.00045,  -0.00198,476592817.66382,   0.00180,276592826.16835,   0.00151,   0.00022,  -0.00061,  -8.50453,   1.00000
465522487.94925,55818307.15613,-105366442.14471,   0.00351,  -0.00046,  -0.00199,476600938.28118,   0.00181,276600940.91707,   0.00152,   0.00022,  -0.00062,  -2.63588,   1.00000
464654718.97945,54134531.70175,-105633732.11649,   0.00351,  -0.00047,  -0.00200,476609007.32158,   0.00182,276609009.69167,   0.00152,   0.00022,  -0.00062,  -2.37009,   1.00000
463790667.28282,52463205.28157,-105895736.62393,   0.00352,  -0.00047,  -0.00201,476617191.34657,   0.00183,276617200.48906,   0.00153,   0.00022,  -0.00063,  -9.14249,   1.00000
462904640.95129,50760679.91082,-106162813.73869,   0.00352,  -0.00048,  -0.00201,476625249.00958,   0.00183,276625255.37575,   0.00153,   0.00021,  -0.00063,  -6.36617,   1.00000
462018979.82433,49070704.50676,-106429271.99883,   0.00353,  -0.00049,  -0.00202,476633449.03378,   0.00184,276633454.39212,   0.00154,   0.00021,  -0.00064,  -5.35834,   1.00000
461136818.01027,47396558.77362,-106692543.01852,   0.00353,  -0.00050,  -0.00203,476641580.87392,   0.00185,276641584.43106,   0.00155,   0.00021,  -0.00064,  -3.55715,   1.00000
460240984.64244,45707362.88077,-106958679.83612,   0.00354,  -0.00051,  -0.00204,476649769.58492,   0.00186,276649771.85557,   0.00155,   0.00021,  -0.00064,  -2.27064,   1.00000
459346530.61024,44022704.42107,-107218252.94407,   0.00354,  -0.00052,  -0.00205,476657967.97856,   0.00186,276657974.25944,   0.00156,   0.00020,  -0.00065,  -6.28088,   1.00000
458448801.06027,42353702.85259,-107484068.43624,   0.00355,  -0.00052,  -0.00205,476666140.97134,   0.00187,276666150.30248,   0.00156,   0.00020,  -0.00065,  -9.33114,   1.00000
457540776.22618,40669710.79697,-107748019.56924,   0.00355,  -0.00053,  -0.00206,476674357.81915,   0.00188,276674362.65860,   0.00157,   0.00020,  -0.00066,  -4.83945,   1.00000
456634223.00383,38990242.12766,-108005427.17580,   0.00356,  -0.00054,  -0.00207,476682588.91957,   0.00189,276682589.48965,   0.00158,   0.00020,  -0.00066,  -0.57008,   1.00000
455715988.43582,37306883.56795,-108269078.47960,   0.00356,  -0.00055,  -0.00208,476690782.81568,   0.00189,276690790.15251,   0.00158,   0.00019,  -0.00067,  -7.33683,   1.00000
454802227.78385,35636590.17510,-108527425.48732,   0.00357,  -0.00056,  -0.00208,476699106.98775,   0.00190,276699111.81631,   0.00159,   0.00019,  -0.00067,  -4.82856,   1.00000
453873777.57048,33953762.97507,-108790781.34721,   0.00357,  -0.00057,  -0.00209,476707293.46261,   0.00191,276707300.59509,   0.00159,   0.00019,  -0.00067,  -7.13248,   1.00000
452949935.20118,32284099.13387,-109048829.82447,   0.00358,  -0.00058,  -0.00210,476715605.05524,   0.00192,276715610.17488,   0.00160,   0.00019,  -0.00068,  -5.11964,   1.00000
452017777.27115,30610377.70281,-109308457.95702,   0.00358,  -0.00058,  -0.00211,476723870.01746,   0.00193,276723871.39539,   0.00160,   0.00018,  -0.00068,  -1.37793,   1.00000
451083822.01046,28941242.60680,-109566222.76738,   0.00359,  -0.00059,  -0.00212,476732162.94783,   0.00193,276732168.73287,   0.00161,   0.00018,  -0.00069,  -5.78504,   1.00000
450144693.26541,27276813.01283,-109826775.20046,   0.00359,  -0.00060,  -0.00212,476740514.77615,   0.00194,276740524.52949,   0.00162,   0.00018,  -0.00069,  -9.75335,   1.00000
449200614.27704,25608105.56249,-110084259.57220,   0.00360,  -0.00061,  -0.00213,476748804.72310,   0.00195,276748809.46211,   0.00162,   0.00018,  -0.00070,  -4.73900,   1.00000
448246001.21952,23924557.79390,-110339760.22281,   0.00360,  -0.00062,  -0.00214,476757131.85117,   0.00196,276757133.45427,   0.00163,   0.00017,  -0.00070,  -1.60310,   1.00000
447295084.55879,22265275.07243,-110598158.49421,   0.00361,  -0.00063,  -0.00215,476765503.19333,   0.00196,276765513.06160,   0.00163,   0.00017,  -0.00070,  -9.86827,   1.00000
446339145.41532,20601565.03795,-110853508.28762,   0.00361,  -0.00063,  -0.00215,476773817.63039,   0.00197,276773821.60962,   0.00164,   0.00017,  -0.00071,  -3.97923,   1.00000
445378135.17412,18942650.34252,-111111629.07696,   0.00362,  -0.00064,  -0.00216,476782180.20054,   0.00198,276782188.73173,   0.00165,   0.00016,  -0.00071,  -8.53120,   1.00000
444415554.47741,17288386.61972,-111367892.56578,   0.00362,  -0.00065,  -0.00217,476790591.27817,   0.00199,276790591.33891,   0.00165,   0.00016,  -0.00072,  -0.06075,   1.00000
443447847.34705,15629549.98915,-111621118.44982,   0.00362,  -0.00066,  -0.00218,476798917.89293,   0.00200,276798922.90516,   0.00166,   0.00016,  -0.00072,  -5.01223,   1.00000
442475160.98194,13975565.53883,-111877113.73513,   0.00363,  -0.00067,  -0.00219,476807308.71037,   0.00200,276807312.92175,   0.00166,   0.00016,  -0.00073,  -4.21138,   1.00000
441500971.08264,12326252.13742,-112131255.12066,   0.00363,  -0.00068,  -0.00219,476815736.73170,   0.00201,276815738.25749,   0.00167,   0.00015,  -0.00073,  -1.52579,   1.00000
440508982.73174,10653040.33939,-112386751.07842,   0.00364,  -0.00068,  -0.00220,476824114.98036,   0.00202,276824121.27485,   0.00167,   0.00015,  -0.00074,  -6.29449,   1.00000
439524675.19437,9003972.61115,-112640611.11076,   0.00364,  -0.00069,  -0.00221,476832533.81490,   0.00203,276832534.26365,   0.00168,   0.00015,  -0.00074,  -0.44875,   1.00000
438538930.25137,7359596.12983,-112892620.41306,   0.00365,  -0.00070,  -0.00222,476840978.54372,   0.00204,276840982.41095,   0.00169,   0.00015,  -0.00075,  -3.86723,   1.00000
437551801.61652,5719921.48809,-113142789.54041,   0.00365,  -0.00071,  -0.00222,476849459.60170,   0.00204,276849465.45691,   0.00169,   0.00014,  -0.00075,  -5.85521,   1.00000
436555955.50909,4075623.44672,-113394555.17880,   0.00366,  -0.00072,  -0.00223,476857893.65538,   0.00205,276857900.52955,   0.00170,   0.00014,  -0.00075,  -6.87417,   1.00000
435551323.41732,2426658.28364,-113647906.06489,   0.00366,  -0.00073,  -0.00224,476866280.45280,   0.00206,276866287.92114,   0.00170,   0.00014,  -0.00076,  -7.46834,   1.00000
434552806.50050,791817.30136,-113895976.70167,   0.00367,  -0.00074,  -0.00225,476874787.24298,   0.00207,276874792.82073,   0.00171,   0.00013,  -0.00076,  -5.57775,   1.00000
433554932.78217,-828386.58232,-114145962.87718,   0.00367,  -0.00074,  -0.00226,476883234.74051,   0.00208,276883242.19581,   0.00172,   0.00013,  -0.00077,  -7.45530,   1.00000
432538757.35991,-2472777.01075,-114397230.99945,   0.00367,  -0.00075,  -0.00226,476891646.52055,   0.00208,276891651.35697,   0.00172,   0.00013,  -0.00077,  -4.83643,   1.00000
431525503.41723,-4102560.42740,-114647794.14099,   0.00368,  -0.00076,  -0.00227,476900199.89456,   0.00209,276900201.35056,   0.00173,   0.00012,  -0.00078,  -1.45599,   1.00000
430506776.61211,-5737514.15296,-114895372.65944,   0.00368,  -0.00077,  -0.00228,476908673.09897,   0.00210,276908679.93494,   0.00173,   0.00012,  -0.00078,  -6.83597,   1.00000
429475676.44490,-7376964.65721,-115149103.27928,   0.00369,  -0.00078,  -0.00229,476917132.32982,   0.00211,276917135.05888,   0.00174,   0.00012,  -0.00079,  -2.72906,   1.00000
428464219.29818,-8983067.25723,-115393373.23634,   0.00369,  -0.00079,  -0.00230,476925672.80028,   0.00212,276925673.54271,   0.00174,   0.00012,  -0.00079,  -0.74243,   1.00000
427434147.17325,-10613468.77165,-115638873.69384,   0.00370,  -0.00079,  -0.00230,476934169.66033,   0.00212,276934173.35993,   0.00175,   0.00011,  -0.00080,  -3.69960,   1.00000
426401333.48901,-12229122.57041,-115890921.08799,   0.00370,  -0.00080,  -0.00231,476942637.62359,   0.00213,276942640.33467,   0.00176,   0.00011,  -0.00080,  -2.71109,   1.00000
425357656.75547,-13859355.21027,-116140711.08577,   0.00370,  -0.00081,  -0.00232,476951145.35794,   0.00214,276951151.43013,   0.00176,   0.00011,  -0.00081,  -6.07219,   1.00000
424326087.27559,-15465954.07889,-116384543.07381,   0.00371,  -0.00082,  -0.00233,476959660.19985,   0.00215,276959662.24927,   0.00177,   0.00010,  -0.00081,  -2.04942,   1.00000
423290078.28422,-17067386.96996,-116631109.49353,   0.00371,  -0.00083,  -0.00233,476968226.13623,   0.00216,276968230.95660,   0.00177,   0.00010,  -0.00081,  -4.82037,   1.00000
422244978.45964,-18673958.51330,-116879277.09779,   0.00372,  -0.00084,  -0.00234,476976749.97409,   0.00216,276976752.06629,   0.00178,   0.00010,  -0.00082,  -2.09220,   1.00000
421202289.26903,-20276262.71068,-117121088.19165,   0.00372,  -0.00084,  -0.00235,476985273.86506,   0.00217,276985282.36987,   0.00178,   0.00009,  -0.00082,  -8.50481,   1.00000
420137074.64329,-21902533.01335,-117368555.31701,   0.00373,  -0.00085,  -0.00236,476993796.52291,   0.00218,276993801.27591,   0.00179,   0.00009,  -0.00083,  -4.75301,   1.00000
419090795.36923,-23485531.64684,-117615163.79290,   0.00373,  -0.00086,  -0.00237,477002322.17421,   0.00219,277002330.83526,   0.00180,   0.00009,  -0.00083,  -8.66105,   1.00000
418033631.14856,-25083057.22566,-117859465.50193,   0.00373,  -0.00087,  -0.00237,477010900.13603,   0.00220,277010905.34382,   0.00180,   0.00009,  -0.00084,  -5.20779,   1.00000
416970597.82049,-26686397.72157,-118100844.21615,   0.00374,  -0.00088,  -0.00238,477019407.04280,   0.00220,277019408.01443,   0.00181,   0.00008,  -0.00084,  -0.97163,   1.00000
415903246.54826,-28284442.20322,-118344924.34543,   0.00374,  -0.00089,  -0.00239,477027960.24366,   0.00221,277027968.92493,   0.00181,   0.00008,  -0.00085,  -8.68126,   1.00000
414845164.84552,-29858534.41566,-118587739.89780,   0.00375,  -0.00089,  -0.00240,477036547.51714,   0.00222,277036550.05230,   0.00182,   0.00008,  -0.00085,  -2.53515,   1.00000
413767605.38839,-31457237.64599,-118831603.02881,   0.00375,  -0.00090,  -0.00241,477045097.02675,   0.00223,277045097.06852,   0.00182,   0.00007,  -0.00086,  -0.04177,   1.00000
412699389.21559,-33031999.97485,-119074217.38753,   0.00375,  -0.00091,  -0.00241,477053658.23439,   0.00224,277053663.88202,   0.00183,   0.00007,  -0.00086,  -5.64764,   1.00000
411630429.25666,-34602039.99706,-119315042.47548,   0.00376,  -0.00092,  -0.00242,477062262.31165,   0.00224,277062263.17903,   0.00184,   0.00007,  -0.00087,  -0.86738,   1.00000
410552040.44318,-36177608.00682,-119557472.08574,   0.00376,  -0.00093,  -0.00243,477070807.54675,   0.00225,277070815.37231,   0.00184,   0.00006,  -0.00087,  -7.82557,   1.00000
409464169.25110,-37758735.95204,-119801496.69896,   0.00376,  -0.00094,  -0.00244,477079315.54795,   0.00226,277079320.70432,   0.00185,   0.00006,  -0.00088,  -5.15638,   1.00000
408384363.05110,-39324797.76877,-120040324.35212,   0.00377,  -0.00094,  -0.00245,477087935.92462,   0.00227,277087938.10277,   0.00185,   0.00006,  -0.00088,  -2.17816,   1.00000
407305383.39569,-40877383.84916,-120281393.48157,   0.00377,  -0.00095,  -0.00245,477096484.17061,   0.00228,277096493.62303,   0.00186,   0.00005,  -0.00089,  -9.45242,   1.00000
406206478.20410,-42454751.38513,-120523420.94833,   0.00378,  -0.00096,  -0.00246,477105008.23677,   0.00228,277105017.31352,   0.00186,   0.00005,  -0.00089,  -9.07675,   1.00000
405126275.21217,-43997881.00652,-120760928.05868,   0.00378,  -0.00097,  -0.00247,477113629.32380,   0.00229,277113636.87685,   0.00187,   0.00005,  -0.00090,  -7.55305,   1.00000
404017019.01650,-45576267.39630,-121002752.16284,   0.00378,  -0.00098,  -0.00248,477122136.97235,   0.00230,277122146.50294,   0.00188,   0.00004,  -0.00090,  -9.53060,   1.00000
402926655.84853,-47120369.27828,-121240081.72970,   0.00379,  -0.00098,  -0.00248,477130741.26839,   0.00231,277130751.18511,   0.00188,   0.00004,  -0.00090,  -9.91671,   1.00000
401826637.36909,-48670284.82077,-121479023.45337,   0.00379,  -0.00099,  -0.00249,477139308.20125,   0.00232,277139308.96484,   0.00189,   0.00004,  -0.00091,  -0.76359,   1.00000
400726059.22761,-50215486.83485,-121716186.08744,   0.00379,  -0.00100,  -0.00250,477147894.97670,   0.00232,277147898.59288,   0.00189,   0.00003,  -0.00091,  -3.61618,   1.00000
399626303.77833,-51747568.65913,-121955679.42951,   0.00380,  -0.00101,  -0.00251,477156417.08119,   0.00233,277156424.68592,   0.00190,   0.00003,  -0.00092,  -7.60472,   1.00000
398515461.10825,-53293965.85961,-122192669.37616,   0.00380,  -0.00102,  -0.00252,477164996.89940,   0.00234,277164999.31724,   0.00190,   0.00003,  -0.00092,  -2.41784,   1.00000
397405405.68731,-54827319.52833,-122432001.65817,   0.00381,  -0.00103,  -0.00252,477173500.61183,   0.00235,277173510.28065,   0.00191,   0.00002,  -0.00093,  -9.66882,   1.00000
396294884.43611,-56356010.20471,-122669570.03976,   0.00381,  -0.00103,  -0.00253,477182045.04046,   0.00236,277182052.51134,   0.00191,   0.00002,  -0.00093,  -7.47087,   1.00000
395183924.89123,-57880030.92110,-122905379.10906,   0.00381,  -0.00104,  -0.00254,477190619.04643,   0.00237,277190625.89648,   0.00192,   0.00002,  -0.00094,  -6.85005,   1.00000
394063062.84598,-59410102.00860,-123142788.56927,   0.00382,  -0.00105,  -0.00255,477199144.60482,   0.00237,277199152.94541,   0.00193,   0.00001,  -0.00094,  -8.34059,   1.00000
392938440.05438,-60934678.12618,-123382863.44098,   0.00382,  -0.00106,  -0.00256,477207735.69958,   0.00238,277207737.31138,   0.00193,   0.00001,  -0.00095,  -1.61180,   1.00000
391830899.70969,-62437338.06110,-123613133.19454,   0.00382,  -0.00107,  -0.00256,477216275.49145,   0.00239,277216281.49813,   0.00194,   0.00001,  -0.00095,  -6.00668,   1.00000
390710046.78943,-63945363.53847,-123849459.19646,   0.00383,  -0.00107,  -0.00257,477224802.15315,   0.00240,277224805.18876,   0.00194,   0.00000,  -0.00096,  -3.03561,   1.00000
389568318.55442,-65478430.65026,-124086530.25874,   0.00383,  -0.00108,  -0.00258,477233300.18630,   0.00241,277233302.36135,   0.00195,   0.00000,  -0.00096,  -2.17505,   1.00000
388457687.40004,-66958289.24552,-124320212.86548,   0.00383,  -0.00109,  -0.00259,477241862.76165,   0.00241,277241867.70576,   0.00195,  -0.00000,  -0.00097,  -4.94411,   1.00000
387326126.91173,-68463275.78003,-124554644.38991,   0.00384,  -0.00110,  -0.00260,477250398.09290,   0.00242,277250406.47800,   0.00196,  -0.00001,  -0.00097,  -8.38510,   1.00000
386184426.63126,-69974536.11952,-124790664.99630,   0.00384,  -0.00111,  -0.00260,477258895.56761,   0.00243,277258899.46376,   0.00196,  -0.00001,  -0.00098,  -3.89614,   1.00000
385053367.45010,-71462376.33000,-125025830.80197,   0.00384,  -0.00111,  -0.00261,477267399.65182,   0.00244,277267402.48600,   0.00197,  -0.00001,  -0.00098,  -2.83418,   1.00000
383922076.00423,-72945629.26671,-125259267.03382,   0.00385,  -0.00112,  -0.00262,477275931.33279,   0.00245,277275935.51882,   0.00198,  -0.00002,  -0.00099,  -4.18604,   1.00000
382780563.22554,-74435288.82076,-125494300.61374,   0.00385,  -0.00113,  -0.00263,477284414.20536,   0.00245,277284422.67411,   0.00198,  -0.00002,  -0.00099,  -8.46875,   1.00000
381642157.58194,-75921292.38341,-125723210.41117,   0.00385,  -0.00114,  -0.00263,477292909.87909,   0.00246,277292913.12020,   0.00199,  -0.00002,  -0.00100,  -3.24110,   1.00000
380501164.75733,-77394103.35895,-125959062.94604,   0.00385,  -0.00115,  -0.00264,477301358.37287,   0.00247,277301362.96824,   0.00199,  -0.00003,  -0.00100,  -4.59537,   1.00000
379360000.76496,-78862370.75697,-126193191.63399,   0.00386,  -0.00115,  -0.00265,477309833.94103,   0.00248,277309842.47855,   0.00200,  -0.00003,  -0.00101,  -8.53752,   1.00000
378222011.43103,-80327077.88132,-126421228.76670,   0.00386,  -0.00116,  -0.00266,477318321.02820,   0.00249,277318324.48140,   0.00200,  -0.00003,  -0.00101,  -3.45319,   1.00000
377070326.09679,-81797371.49081,-126655250.26518,   0.00386,  -0.00117,  -0.00267,477326784.92480,   0.00249,277326787.76326,   0.00201,  -0.00004,  -0.00102,  -2.83846,   1.00000
375918516.73842,-83263101.55434,-126887546.82520,   0.00387,  -0.00118,  -0.00267,477335275.83928,   0.00250,277335280.65360,   0.00201,  -0.00004,  -0.00102,  -4.81432,   1.00000
374770697.35753,-84717869.41594,-127118078.02597,   0.00387,  -0.00119,  -0.00268,477343676.27417,   0.00251,277343678.07992,   0.00202,  -0.00004,  -0.00103,  -1.80575,   1.00000
373622788.41586,-86168143.99927,-127346915.61891,   0.00387,  -0.00119,  -0.00269,477352102.80306,   0.00252,277352104.52812,   0.00202,  -0.00005,  -0.00103,  -1.72507,   1.00000
372471535.47122,-87612872.55107,-127578424.47194,   0.00388,  -0.00120,  -0.00270,477360581.22902,   0.00253,277360587.06985,   0.00203,  -0.00005,  -0.00104,  -5.84083,   1.00000
371313016.35787,-89065397.04101,-127807166.04636,   0.00388,  -0.00121,  -0.00271,477368994.98571,   0.00253,277368997.06495,   0.00203,  -0.00005,  -0.00104,  -2.07925,   1.00000
370165708.89590,-90494894.66324,-128035286.16515,   0.00388,  -0.00122,  -0.00271,477377406.61574,   0.00254,277377411.79101,   0.00204,  -0.00006,  -0.00105,  -5.17528,   1.00000
369004508.16916,-91930150.89551,-128269361.80984,   0.00388,  -0.00122,  -0.00272,477385805.55695,   0.00255,277385808.45356,   0.00204,  -0.00006,  -0.00105,  -2.89661,   1.00000
367846579.60124,-93362043.23162,-128497393.16925,   0.00389,  -0.00123,  -0.00273,477394203.63252,   0.00256,277394206.37559,   0.00205,  -0.00007,  -0.00105,  -2.74308,   1.00000
366677934.64927,-94800806.80586,-128727013.78753,   0.00389,  -0.00124,  -0.00274,477402552.36887,   0.00257,277402559.36878,   0.00205,  -0.00007,  -0.00106,  -6.99991,   1.00000
365520648.04388,-96216667.34896,-128956071.05546,   0.00389,  -0.00125,  -0.00274,477410907.51087,   0.00257,277410915.68742,   0.00206,  -0.00007,  -0.00106,  -8.17655,   1.00000
364366687.88057,-97629273.01758,-129179135.39179,   0.00389,  -0.00126,  -0.00275,477419270.76556,   0.00258,277419272.31623,   0.00207,  -0.00008,  -0.00107,  -1.55067,   1.00000
363198665.25954,-99047725.87255,-129408139.32370,   0.00390,  -0.00126,  -0.00276,477427611.11021,   0.00259,277427611.53926,   0.00207,  -0.00008,  -0.00107,  -0.42905,   1.00000
362019772.20764,-100473173.31732,-129638717.41327,   0.00390,  -0.00127,  -0.00277,477435901.98131,   0.00260,277435906.28742,   0.00208,  -0.00008,  -0.00108,  -4.30611,   1.00000
360863361.73071,-101864405.83127,-129865541.39867,   0.00390,  -0.00128,  -0.00278,477444270.54080,   0.00261,277444275.52375,   0.00208,  -0.00009,  -0.00108,  -4.98295,   1.00000
359688267.21655,-103275397.51750,-130092893.35238,   0.00390,  -0.00129,  -0.00278,477452498.98518,   0.00261,277452499.57145,   0.00209,  -0.00009,  -0.00109,  -0.58627,   1.00000
358524339.51985,-104670544.69794,-130315344.52713,   0.00391,  -0.00129,  -0.00279,477460815.06046,   0.00262,277460823.72499,   0.00209,  -0.00009,  -0.00109,  -8.66454,   1.00000
357357695.39853,-106053332.24713,-130544924.78839,   0.00391,  -0.00130,  -0.00280,477469096.70308,   0.00263,277469103.98524,   0.00210,  -0.00010,  -0.00110,  -7.28216,   1.00000
356183260.87362,-107444562.12534,-130771785.10451,   0.00391,  -0.00131,  -0.00281,477477311.60346,   0.00264,277477311.64883,   0.00210,  -0.00010,  -0.00110,  -0.04536,   1.00000
355008960.66663,-108831475.27700,-130996997.11693,   0.00391,  -0.00132,  -0.00282,477485539.93962,   0.00264,277485546.79970,   0.00211,  -0.00010,  -0.00111,  -6.86008,   1.00000
353834837.88268,-110214075.65129,-131220572.90971,   0.00392,  -0.00132,  -0.00282,477493801.87166,   0.00265,277493809.16129,   0.00211,  -0.00011,  -0.00111,  -7.28964,   1.00000
352661140.64102,-111585732.88454,-131447002.18327,   0.00392,  -0.00133,  -0.00283,477501990.45537,   0.00266,277501999.18660,   0.00212,  -0.00011,  -0.00112,  -8.73123,   1.00000
351487650.18864,-112953133.35124,-131671804.87435,   0.00392,  -0.00134,  -0.00284,477510212.02554,   0.00267,277510216.07660,   0.00212,  -0.00011,  -0.00112,  -4.05105,   1.00000
350306151.29342,-114329175.65818,-131893905.41266,   0.00392,  -0.00135,  -0.00285,477518356.08808,   0.00268,277518360.56755,   0.00213,  -0.00012,  -0.00113,  -4.47947,   1.00000
349133275.92599,-115681507.91185,-132119974.83017,   0.00393,  -0.00135,  -0.00285,477526525.65095,   0.00268,277526531.37785,   0.00213,  -0.00012,  -0.00113,  -5.72690,   1.00000
347952319.28994,-117042601.19809,-132343352.61744,   0.00393,  -0.00136,  -0.00286,477534627.52259,   0.00269,277534629.64595,   0.00214,  -0.00012,  -0.00114,  -2.12337,   1.00000
346768401.53648,-118398140.99765,-132569388.27678,   0.00393,  -0.00137,  -0.00287,477542779.56927,   0.00270,277542783.04162,   0.00214,  -0.00013,  -0.00114,  -3.47235,   1.00000
345599604.77717,-119732743.93897,-132790883.40397,   0.00393,  -0.00138,  -0.00288,477550899.82442,   0.00271,277550904.70435,   0.00215,  -0.00013,  -0.00115,  -4.87993,   1.00000
344419430.70913,-121074897.77404,-133013980.01490,   0.00393,  -0.00138,  -0.00288,477558979.73309,   0.00271,277558982.22035,   0.00215,  -0.00014,  -0.00115,  -2.48726,   1.00000
343239537.44761,-122412889.37139,-133235478.35481,   0.00394,  -0.00139,  -0.00289,477567081.31346,   0.00272,277567085.89033,   0.00216,  -0.00014,  -0.00116,  -4.57687,   1.00000
342051348.28783,-123759831.37748,-133454302.07124,   0.00394,  -0.00140,  -0.00290,477575114.65592,   0.00273,277575117.22978,   0.00216,  -0.00014,  -0.00116,  -2.57386,   1.00000
340872011.59946,-125083226.66407,-133677187.68964,   0.00394,  -0.00141,  -0.00291,477583170.24443,   0.00274,277583172.76790,   0.00217,  -0.00015,  -0.00117,  -2.52346,   1.00000
339684289.60111,-126415680.21098,-133897401.91084,   0.00394,  -0.00141,  -0.00292,477591147.37120,   0.00274,277591155.99450,   0.00217,  -0.00015,  -0.00117,  -8.62331,   1.00000
338508645.54327,-127726092.14977,-134117463.69291,   0.00394,  -0.00142,  -0.00292,477599127.28124,   0.00275,277599133.76600,   0.00217,  -0.00015,  -0.00118,  -6.48476,   1.00000
337321380.96175,-129044243.26241,-134339118.91082,   0.00395,  -0.00143,  -0.00293,477607066.24250,   0.00276,277607067.95344,   0.00218,  -0.00016,  -0.00118,  -1.71095,   1.00000
336134442.93548,-130358325.73514,-134559197.92863,   0.00395,  -0.00143,  -0.00294,477615026.20896,   0.00277,277615027.73660,   0.00218,  -0.00016,  -0.00118,  -1.52764,   1.00000
334959666.81682,-131650485.05904,-134779173.66941,   0.00395,  -0.00144,  -0.00295,477622977.03000,   0.00277,277622980.96445,   0.00219,  -0.00016,  -0.00119,  -3.93445,   1.00000
333764483.65634,-132969789.04892,-134995033.37158,   0.00395,  -0.00145,  -0.00295,477630888.27973,   0.00278,277630893.88710,   0.00219,  -0.00017,  -0.00119,  -5.60737,   1.00000
332578044.29390,-134259744.34122,-135219668.18914,   0.00395,  -0.00146,  -0.00296,477638727.17031,   0.00279,277638728.40660,   0.00220,  -0.00017,  -0.00120,  -1.23629,   1.00000
331395451.66795,-135553171.85244,-135433893.32571,   0.00396,  -0.00146,  -0.00297,477646658.92331,   0.00280,277646659.31305,   0.00220,  -0.00017,  -0.00120,  -0.38974,   1.00000
330200627.34413,-136848562.19534,-135654337.87097,   0.00396,  -0.00147,  -0.00298,477654438.38728,   0.00280,277654446.70328,   0.00221,  -0.00018,  -0.00121,  -8.31600,   1.00000
329018476.08081,-138128097.26679,-135870116.09528,   0.00396,  -0.00148,  -0.00298,477662318.24060,   0.00281,277662326.59281,   0.00221,  -0.00018,  -0.00121,  -8.35221,   1.00000
327827064.07295,-139411293.21025,-136087920.03621,   0.00396,  -0.00148,  -0.00299,477670025.75452,   0.00282,277670033.52082,   0.00222,  -0.00018,  -0.00122,  -7.76630,   1.00000
326645318.89392,-140677108.70530,-136305292.33303,   0.00396,  -0.00149,  -0.00300,477677852.17350,   0.00283,277677861.68731,   0.00222,  -0.00019,  -0.00122,  -9.51381,   1.00000
325454684.19571,-141952507.41168,-136520042.81802,   0.00396,  -0.00150,  -0.00301,477685608.50099,   0.00283,277685617.64612,   0.00223,  -0.00019,  -0.00123,  -9.14513,   1.00000
324263918.05678,-143218275.46968,-136737946.32244,   0.00397,  -0.00150,  -0.00301,477693290.73854,   0.00284,277693297.12280,   0.00223,  -0.00019,  -0.00123,  -6.38427,   1.00000
323076651.66330,-144481768.38863,-136950136.86108,   0.00397,  -0.00151,  -0.00302,477700963.11696,   0.00285,277700971.30150,   0.00223,  -0.00020,  -0.00124,  -8.18453,   1.00000
321886112.62217,-145734153.22420,-137169704.48587,   0.00397,  -0.00152,  -0.00303,477708589.47566,   0.00286,277708598.21182,   0.00224,  -0.00020,  -0.00124,  -8.73616,   1.00000
320699083.45294,-146984340.13634,-137383575.59180,   0.00397,  -0.00152,  -0.00304,477716214.98929,   0.00286,277716219.42070,   0.00224,  -0.00021,  -0.00125,  -4.43141,   1.00000
319512497.98159,-148230714.74427,-137595952.49319,   0.00397,  -0.00153,  -0.00304,477723859.07876,   0.00287,277723864.46065,   0.00225,  -0.00021,  -0.00125,  -5.38189,   1.00000
318313669.99083,-149485263.77491,-137809904.92574,   0.00397,  -0.00154,  -0.00305,477731461.38552,   0.00288,277731467.43924,   0.00225,  -0.00021,  -0.00125,  -6.05372,   1.00000
317130348.48692,-150720140.39080,-138019840.60724,   0.00397,  -0.00154,  -0.00306,477739027.60894,   0.00289,277739028.91609,   0.00226,  -0.00022,  -0.00126,  -1.30715,   1.00000
315943645.98579,-151944123.70757,-138237197.90219,   0.00398,  -0.00155,  -0.00307,477746536.61736,   0.00289,277746542.54482,   0.00226,  -0.00022,  -0.00126,  -5.92746,   1.00000
314760464.81044,-153166077.43414,-138448910.80221,   0.00398,  -0.00156,  -0.00307,477754043.32937,   0.00290,277754049.50070,   0.00227,  -0.00022,  -0.00127,  -6.17133,   1.00000
313564877.79075,-154396351.40738,-138662202.48591,   0.00398,  -0.00156,  -0.00308,477761507.62379,   0.00291,277761514.60586,   0.00227,  -0.00023,  -0.00127,  -6.98207,   1.00000
312372796.22144,-155624603.48498,-138869860.73265,   0.00398,  -0.00157,  -0.00309,477768969.52422,   0.00291,277768973.02386,   0.00227,  -0.00023,  -0.00128,  -3.49964,   1.00000
311180258.69723,-156843803.64116,-139080810.62913,   0.00398,  -0.00158,  -0.00309,477776352.69169,   0.00292,277776353.33258,   0.00228,  -0.00023,  -0.00128,  -0.64089,   1.00000
310000242.34202,-158041975.58700,-139292034.98016,   0.00398,  -0.00158,  -0.00310,477783716.82015,   0.00293,277783719.80904,   0.00228,  -0.00024,  -0.00129,  -2.98890,   1.00000
308807655.19742,-159248606.63914,-139504839.23433,   0.00398,  -0.00159,  -0.00311,477791037.94872,   0.00293,277791044.68843,   0.00229,  -0.00024,  -0.00129,  -6.73971,   1.00000
307618562.33527,-160453367.31792,-139712050.86272,   0.00398,  -0.00160,  -0.00312,477798355.60816,   0.00294,277798362.13492,   0.00229,  -0.00024,  -0.00130,  -6.52676,   1.00000
306429966.12493,-161654507.35608,-139917829.97352,   0.00398,  -0.00160,  -0.00312,477805699.56252,   0.00295,277805702.22702,   0.00229,  -0.00025,  -0.00130,  -2.66450,   1.00000
305240770.61505,-162846862.74051,-140126962.34679,   0.00399,  -0.00161,  -0.00313,477812962.73214,   0.00296,277812963.43077,   0.00230,  -0.00025,  -0.00130,  -0.69863,   1.00000
304050928.12799,-164030510.05282,-140339453.23597,   0.00399,  -0.00162,  -0.00314,477820144.35377,   0.00296,277820145.65399,   0.00230,  -0.00025,  -0.00131,  -1.30022,   1.00000
302864559.07816,-165212431.66451,-140546388.26430,   0.00399,  -0.00162,  -0.00314,477827312.69238,   0.00297,277827319.79141,   0.00231,  -0.00026,  -0.00131,  -7.09903,   1.00000
301678694.89565,-166390830.43108,-140751913.76521,   0.00399,  -0.00163,  -0.00315,477834506.55874,   0.00298,277834516.08367,   0.00231,  -0.00026,  -0.00132,  -9.52493,   1.00000
300495074.63536,-167562510.04196,-140956727.68336,   0.00399,  -0.00164,  -0.00316,477841595.98179,   0.00298,277841602.21328,   0.00231,  -0.00026,  -0.00132,  -6.23149,   1.00000
299298537.66059,-168742843.48641,-141163115.98348,   0.00399,  -0.00164,  -0.00317,477848641.42563,   0.00299,277848647.65416,   0.00232,  -0.00027,  -0.00133,  -6.22853,   1.00000
298115944.22385,-169907542.60543,-141365133.17967,   0.00399,  -0.00165,  -0.00317,477855772.55693,   0.00300,277855777.70944,   0.00232,  -0.00027,  -0.00133,  -5.15252,   1.00000
296919027.38124,-171075972.89899,-141573547.78565,   0.00399,  -0.00166,  -0.00318,477862759.69537,   0.00300,277862765.64014,   0.00233,  -0.00027,  -0.00134,  -5.94478,   1.00000
295751237.48620,-172213630.22928,-141775391.52707,   0.00399,  -0.00166,  -0.00319,477869760.59553,   0.00301,277869767.13577,   0.00233,  -0.00028,  -0.00134,  -6.54023,   1.00000
294544665.74757,-173389270.76618,-141979873.96619,   0.00399,  -0.00167,  -0.00319,477876697.45822,   0.00302,277876705.90467,   0.00233,  -0.00028,  -0.00134,  -8.44645,   1.00000
293379460.96952,-174517181.73457,-142179743.30286,   0.00399,  -0.00167,  -0.00320,477883615.29095,   0.00302,277883617.29320,   0.00234,  -0.00028,  -0.00135,  -2.00224,   1.00000
292175284.90279,-175683096.67044,-142382215.68613,   0.00399,  -0.00168,  -0.00321,477890460.68854,   0.00303,277890466.97363,   0.00234,  -0.00029,  -0.00135,  -6.28509,   1.00000
291009643.98188,-176799511.52116,-142584246.56476,   0.00400,  -0.00169,  -0.00321,477897316.55853,   0.00304,277897318.68577,   0.00235,  -0.00029,  -0.00136,  -2.12724,   1.00000
289807778.32256,-177955891.25858,-142784754.19688,   0.00400,  -0.00169,  -0.00322,477904077.39226,   0.00304,277904078.63621,   0.00235,  -0.00029,  -0.00136,  -1.24395,   1.00000
288632359.13648,-179079805.37126,-142982936.74847,   0.00400,  -0.00170,  -0.00323,477910873.21190,   0.00305,277910880.13062,   0.00235,  -0.00030,  -0.00137,  -6.91872,   1.00000
287455829.28824,-180195753.98265,-143184667.91140,   0.00400,  -0.00170,  -0.00323,477917598.35265,   0.00306,277917600.52548,   0.00236,  -0.00030,  -0.00137,  -2.17283,   1.00000
286268834.10071,-181322633.34457,-143383895.01408,   0.00400,  -0.00171,  -0.00324,477924246.75072,   0.00306,277924249.99272,   0.00236,  -0.00030,  -0.00137,  -3.24200,   1.00000
285082327.75900,-182446247.86023,-143581785.73744,   0.00400,  -0.00172,  -0.00325,477930910.88181,   0.00307,277930920.40724,   0.00236,  -0.00030,  -0.00138,  -9.52543,   1.00000
283911417.57299,-183551810.28580,-143776295.42838,   0.00400,  -0.00172,  -0.00325,477937531.61387,   0.00307,277937538.44187,   0.00237,  -0.00031,  -0.00138,  -6.82800,   1.00000
282727031.62761,-184666393.95192,-143972386.48280,   0.00400,  -0.00173,  -0.00326,477944115.01789,   0.00308,277944116.89306,   0.00237,  -0.00031,  -0.00139,  -1.87518,   1.00000
281541314.43325,-185773216.54628,-144172061.13475,   0.00400,  -0.00173,  -0.00327,477950609.29683,   0.00309,277950614.18961,   0.00237,  -0.00031,  -0.00139,  -4.89278,   1.00000
280358947.79388,-186878905.16562,-144366370.14472,   0.00400,  -0.00174,  -0.00327,477957094.83946,   0.00309,277957100.52919,   0.00238,  -0.00032,  -0.00139,  -5.68972,   1.00000
279189291.91099,-187964725.29366,-144561436.17020,   0.00400,  -0.00174,  -0.00328,477963558.98148,   0.00310,277963564.58627,   0.00238,  -0.00032,  -0.00140,  -5.60479,   1.00000
278008841.12991,-189061731.63113,-144754031.33195,   0.00400,  -0.00175,  -0.00329,477969952.80780,   0.00311,277969957.94012,   0.00239,  -0.00032,  -0.00140,  -5.13231,   1.00000
276826902.15254,-190151186.60651,-144950263.96362,   0.00400,  -0.00176,  -0.00329,477976263.55449,   0.00311,277976269.62061,   0.00239,  -0.00033,  -0.00141,  -6.06612,   1.00000
275648269.74379,-191239646.23620,-145141176.71788,   0.00400,  -0.00176,  -0.00330,477982564.57100,   0.00312,277982569.70106,   0.00239,  -0.00033,  -0.00141,  -5.13005,   1.00000
274470113.30077,-192325024.48094,-145330818.47668,   0.00400,  -0.00177,  -0.00331,477988880.40842,   0.00312,277988889.71682,   0.00240,  -0.00033,  -0.00141,  -9.30840,   1.00000
