# sigma_xx, sigma_yy, sigma_xy, epsilon_xx, epsilon_yy, epsilon_xy, vonMises, epsPlastic, hardening, epsilonP__xx, epsilonP__yy, epsilonP__xy, yieldValue, iteration
   0.00000,   0.00000,   0.00000,   0.00000,   0.00000,   0.00000,   0.00000,   0.00000,274640135.82653,   0.00000,   0.00000,   0.00000,-474640135.82653,   0.00000
   0.00000,   0.00000,   0.00000,   0.00000,   0.00000,   0.00000,   0.00000,   0.00000,274640135.82653,   0.00000,   0.00000,   0.00000,-474640135.82653,   0.00000
3088760.24192,2644866.55446,-801474.71347,   0.00001,   0.00001,  -0.00001,3208346.21158,   0.00000,274640135.82653,   0.00000,   0.00000,   0.00000,-471431789.61495,   0.00000
6165190.10364,5302063.48913,-1596784.23684,   0.00002,   0.00001,  -0.00002,6409553.54153,   0.00000,274640135.82653,   0.00000,   0.00000,   0.00000,-468230582.28500,   0.00000
9232372.18020,7937682.25843,-2392093.76021,   0.00003,   0.00002,  -0.00003,9598239.24084,   0.00000,274640135.82653,   0.00000,   0.00000,   0.00000,-465041896.58569,   0.00000
12277976.09139,10564053.24258,-3181238.09348,   0.00004,   0.00002,  -0.00004,12767284.44480,   0.00000,274640135.82653,   0.00000,   0.00000,   0.00000,-461872851.38173,   0.00000
15302001.83723,13181176.44158,-3970382.42674,   0.00004,   0.00003,  -0.00005,15921309.50420,   0.00000,274640135.82653,   0.00000,   0.00000,   0.00000,-458718826.32233,   0.00000
18326027.58306,15798299.64057,-4753361.56990,   0.00005,   0.00004,  -0.00006,19070732.08276,   0.00000,274640135.82653,   0.00000,   0.00000,   0.00000,-455569403.74377,   0.00000
21350053.32889,18415422.83956,-5536340.71307,   0.00006,   0.00004,  -0.00007,22220160.24427,   0.00000,274640135.82653,   0.00000,   0.00000,   0.00000,-452419975.58226,   0.00000
24352500.90937,21023298.25340,-6306989.47602,   0.00007,   0.00005,  -0.00008,25345370.95626,   0.00000,274640135.82653,   0.00000,   0.00000,   0.00000,-449294764.87027,   0.00000
27354948.48984,23631173.66724,-7083803.42908,   0.00008,   0.00005,  -0.00009,28475197.10936,   0.00000,274640135.82653,   0.00000,   0.00000,   0.00000,-446164938.71717,   0.00000
30335817.90495,26229801.29592,-7854452.19203,   0.00009,   0.00006,  -0.00010,31585425.52983,   0.00000,274640135.82653,   0.00000,   0.00000,   0.00000,-443054710.29670,   0.00000
33285861.36954,28797602.97409,-8618935.76488,   0.00010,   0.00007,  -0.00011,34663462.67978,   0.00000,274640135.82653,   0.00000,   0.00000,   0.00000,-439976673.14675,   0.00000
36245152.61928,31386982.81762,-9377254.14763,   0.00010,   0.00007,  -0.00012,37749522.94206,   0.00000,274640135.82653,   0.00000,   0.00000,   0.00000,-436890612.88447,   0.00000
39204443.86903,33976362.66114,-10135572.53038,   0.00011,   0.00008,  -0.00013,40835606.12375,   0.00000,274640135.82653,   0.00000,   0.00000,   0.00000,-433804529.70277,   0.00000
42132909.16825,36534916.55415,-10893890.91313,   0.00012,   0.00008,  -0.00014,43894081.82927,   0.00000,274640135.82653,   0.00000,   0.00000,   0.00000,-430746053.99726,   0.00000
45049044.08727,39105800.82737,-11646044.10577,   0.00013,   0.00009,  -0.00015,46945629.35916,   0.00000,274640135.82653,   0.00000,   0.00000,   0.00000,-427694506.46737,   0.00000
47955931.22114,41655106.93522,-12392032.10831,   0.00014,   0.00010,  -0.00016,49979968.07919,   0.00000,274640135.82653,   0.00000,   0.00000,   0.00000,-424660167.74734,   0.00000
50872066.14016,44225991.20844,-13131854.92075,   0.00015,   0.00010,  -0.00017,53022398.12425,   0.00000,274640135.82653,   0.00000,   0.00000,   0.00000,-421617737.70228,   0.00000
53757375.10866,46766049.53114,-13877842.92329,   0.00015,   0.00011,  -0.00018,56041790.41516,   0.00000,274640135.82653,   0.00000,   0.00000,   0.00000,-418598345.41137,   0.00000
56630353.69696,49318438.23404,-14611500.54562,   0.00016,   0.00011,  -0.00019,59049746.42872,   0.00000,274640135.82653,   0.00000,   0.00000,   0.00000,-415590389.39781,   0.00000
59494084.50010,51849248.77159,-15345158.16795,   0.00017,   0.00012,  -0.00020,62045054.10262,   0.00000,274640135.82653,   0.00000,   0.00000,   0.00000,-412595081.72391,   0.00000
62345484.92303,54392389.68934,-16072650.60018,   0.00018,   0.00013,  -0.00021,65033544.62927,   0.00000,274640135.82653,   0.00000,   0.00000,   0.00000,-409606591.19726,   0.00000
65187637.56080,56913952.44172,-16800143.03241,   0.00019,   0.00013,  -0.00022,68009369.84785,   0.00000,274640135.82653,   0.00000,   0.00000,   0.00000,-406630765.97868,   0.00000
68017459.81837,59447845.57432,-17521470.27454,   0.00019,   0.00014,  -0.00023,70978415.71687,   0.00000,274640135.82653,   0.00000,   0.00000,   0.00000,-403661720.10966,   0.00000
70838034.29079,61960160.54155,-18236632.32656,   0.00020,   0.00014,  -0.00024,73930216.38853,   0.00000,274640135.82653,   0.00000,   0.00000,   0.00000,-400709919.43800,   0.00000
73637030.59784,64463227.72363,-18951794.37858,   0.00021,   0.00015,  -0.00025,76867098.69638,   0.00000,274640135.82653,   0.00000,   0.00000,   0.00000,-397773037.13015,   0.00000
76445274.69005,66987873.07107,-19660791.24050,   0.00022,   0.00016,  -0.00026,79812210.46813,   0.00000,274640135.82653,   0.00000,   0.00000,   0.00000,-394827925.35840,   0.00000
79222692.83173,69481692.46799,-20369788.10242,   0.00022,   0.00016,  -0.00026,82729672.24593,   0.00000,274640135.82653,   0.00000,   0.00000,   0.00000,-391910463.58060,   0.00000
82009358.75858,71997090.03027,-21072619.77423,   0.00023,   0.00017,  -0.00027,85655394.59603,   0.00000,274640135.82653,   0.00000,   0.00000,   0.00000,-388984741.23050,   0.00000
84765198.73490,74481661.64204,-21769286.25594,   0.00024,   0.00017,  -0.00028,88548909.97981,   0.00000,274640135.82653,   0.00000,   0.00000,   0.00000,-386091225.84672,   0.00000
87508708.33102,76978563.63401,-22465952.73765,   0.00025,   0.00018,  -0.00029,91440339.66123,   0.00000,274640135.82653,   0.00000,   0.00000,   0.00000,-383199796.16530,   0.00000
90242970.14198,79453887.46062,-23156454.02926,   0.00026,   0.00019,  -0.00030,94314490.87233,   0.00000,274640135.82653,   0.00000,   0.00000,   0.00000,-380325644.95420,   0.00000
92986479.73810,81950789.45259,-23840790.13076,   0.00026,   0.00019,  -0.00031,97196973.74512,   0.00000,274640135.82653,   0.00000,   0.00000,   0.00000,-377443162.08141,   0.00000
95699163.38370,84416865.49405,-24525126.23227,   0.00027,   0.00020,  -0.00032,100051782.08834,   0.00000,274640135.82653,   0.00000,   0.00000,   0.00000,-374588353.73819,   0.00000
98399516.64910,86895271.91571,-25203297.14367,   0.00028,   0.00020,  -0.00033,102900043.55305,   0.00000,274640135.82653,   0.00000,   0.00000,   0.00000,-371740092.27348,   0.00000
101099869.91449,89373678.33737,-25881468.05507,   0.00029,   0.00021,  -0.00034,105748390.00499,   0.00000,274640135.82653,   0.00000,   0.00000,   0.00000,-368891745.82154,   0.00000
103778645.01452,91842836.97388,-26553473.77636,   0.00029,   0.00022,  -0.00035,108577389.90139,   0.00000,274640135.82653,   0.00000,   0.00000,   0.00000,-366062745.92514,   0.00000
106448172.32939,94290417.44502,-27219314.30756,   0.00030,   0.00022,  -0.00035,111389078.56315,   0.00000,274640135.82653,   0.00000,   0.00000,   0.00000,-363251057.26338,   0.00000
109126947.42942,96759576.08153,-27885154.83875,   0.00031,   0.00023,  -0.00036,114213723.46414,   0.00000,274640135.82653,   0.00000,   0.00000,   0.00000,-360426412.36239,   0.00000
111762566.19873,99210239.14772,-28544830.17984,   0.00032,   0.00023,  -0.00037,117004161.57010,   0.00000,274640135.82653,   0.00000,   0.00000,   0.00000,-357635974.25643,   0.00000
114398184.96803,101660902.21392,-29204505.52093,   0.00032,   0.00024,  -0.00038,119794701.45048,   0.00000,274640135.82653,   0.00000,   0.00000,   0.00000,-354845434.37605,   0.00000
117033803.73734,104111565.28012,-29858015.67191,   0.00033,   0.00025,  -0.00039,122580830.65520,   0.00000,274640135.82653,   0.00000,   0.00000,   0.00000,-352059305.17133,   0.00000
119647844.34128,106552980.56116,-30505360.63280,   0.00034,   0.00025,  -0.00040,125347680.36031,   0.00000,274640135.82653,   0.00000,   0.00000,   0.00000,-349292455.46622,   0.00000
122261884.94522,108994395.84220,-31146540.40357,   0.00034,   0.00026,  -0.00040,128110138.11782,   0.00000,274640135.82653,   0.00000,   0.00000,   0.00000,-346529997.70871,   0.00000
124854347.38380,111426563.33808,-31787720.17435,   0.00035,   0.00026,  -0.00041,130857837.72026,   0.00000,274640135.82653,   0.00000,   0.00000,   0.00000,-343782298.10627,   0.00000
127434479.44217,113871061.21417,-32428899.94513,   0.00036,   0.00027,  -0.00042,133603766.33290,   0.00000,274640135.82653,   0.00000,   0.00000,   0.00000,-341036369.49362,   0.00000
130005363.71539,116293980.92490,-33057749.33570,   0.00036,   0.00028,  -0.00043,136327868.31571,   0.00000,274640135.82653,   0.00000,   0.00000,   0.00000,-338312267.51082,   0.00000
132554669.82324,118707652.85048,-33686598.72627,   0.00037,   0.00028,  -0.00044,139037241.08801,   0.00000,274640135.82653,   0.00000,   0.00000,   0.00000,-335602894.73852,   0.00000
135113223.71625,121142902.94141,-34315448.11684,   0.00038,   0.00029,  -0.00045,141759754.32996,   0.00000,274640135.82653,   0.00000,   0.00000,   0.00000,-332880381.49657,   0.00000
137650199.44390,123568905.24719,-34938132.31731,   0.00039,   0.00029,  -0.00045,144463097.59956,   0.00000,274640135.82653,   0.00000,   0.00000,   0.00000,-330177038.22697,   0.00000
140177927.38639,125973329.38761,-35554651.32767,   0.00039,   0.00030,  -0.00046,147149075.82762,   0.00000,274640135.82653,   0.00000,   0.00000,   0.00000,-327491059.99891,   0.00000
142693324.94867,128390083.90824,-36165005.14793,   0.00040,   0.00031,  -0.00047,149828947.33534,   0.00000,274640135.82653,   0.00000,   0.00000,   0.00000,-324811188.49119,   0.00000
145208722.51096,130806838.42886,-36775358.96819,   0.00041,   0.00031,  -0.00048,152508980.88567,   0.00000,274640135.82653,   0.00000,   0.00000,   0.00000,-322131154.94086,   0.00000
147702541.90788,133214345.16433,-37379547.59835,   0.00041,   0.00032,  -0.00049,155169897.14573,   0.00000,274640135.82653,   0.00000,   0.00000,   0.00000,-319470238.68080,   0.00000
150174783.13944,135612604.11465,-37983736.22851,   0.00042,   0.00032,  -0.00049,157816168.77073,   0.00000,274640135.82653,   0.00000,   0.00000,   0.00000,-316823967.05580,   0.00000
152647024.37100,138010863.06496,-38581759.66856,   0.00043,   0.00033,  -0.00050,160458160.69270,   0.00000,274640135.82653,   0.00000,   0.00000,   0.00000,-314181975.13383,   0.00000
155128513.38771,140430700.18064,-39173617.91851,   0.00043,   0.00034,  -0.00051,163109007.99332,   0.00000,274640135.82653,   0.00000,   0.00000,   0.00000,-311531127.83321,   0.00000
157579176.45391,142819711.34580,-39765476.16846,   0.00044,   0.00034,  -0.00052,165732113.93766,   0.00000,274640135.82653,   0.00000,   0.00000,   0.00000,-308908021.88887,   0.00000
160017509.13989,145221052.89117,-40351169.22830,   0.00044,   0.00035,  -0.00052,168349329.81783,   0.00000,274640135.82653,   0.00000,   0.00000,   0.00000,-306290806.00870,   0.00000
162446594.04073,147600816.27117,-40930697.09805,   0.00045,   0.00035,  -0.00053,170949152.94690,   0.00000,274640135.82653,   0.00000,   0.00000,   0.00000,-303690982.87963,   0.00000
164863348.56135,149992910.03138,-41510224.96779,   0.00046,   0.00036,  -0.00054,173547571.80940,   0.00000,274640135.82653,   0.00000,   0.00000,   0.00000,-301092564.01713,   0.00000
167258524.91662,152375756.00644,-42083587.64743,   0.00046,   0.00037,  -0.00055,176127016.78323,   0.00000,274640135.82653,   0.00000,   0.00000,   0.00000,-298513119.04330,   0.00000
169675279.43724,154767849.76665,-42650785.13696,   0.00047,   0.00037,  -0.00055,178717033.42110,   0.00000,274640135.82653,   0.00000,   0.00000,   0.00000,-295923102.40543,   0.00000
172048877.62714,157141447.95655,-43217982.62649,   0.00048,   0.00038,  -0.00056,181277751.74004,   0.00000,274640135.82653,   0.00000,   0.00000,   0.00000,-293362384.08649,   0.00000
174431723.60220,159536624.31181,-43779014.92593,   0.00048,   0.00039,  -0.00057,183847542.22700,   0.00000,274640135.82653,   0.00000,   0.00000,   0.00000,-290792593.59953,   0.00000
176783743.62673,161900974.71656,-44340047.22536,   0.00049,   0.00039,  -0.00058,186389582.81375,   0.00000,274640135.82653,   0.00000,   0.00000,   0.00000,-288250553.01278,   0.00000
179145011.43643,164286903.28666,-44894914.33468,   0.00049,   0.00040,  -0.00058,188940738.18341,   0.00000,274640135.82653,   0.00000,   0.00000,   0.00000,-285699397.64312,   0.00000
181497031.46097,166651253.69141,-45443616.25391,   0.00050,   0.00040,  -0.00059,191474467.55774,   0.00000,274640135.82653,   0.00000,   0.00000,   0.00000,-283165668.26879,   0.00000
183815142.93993,169018686.69120,-45992318.17313,   0.00051,   0.00041,  -0.00060,193992291.50665,   0.00000,274640135.82653,   0.00000,   0.00000,   0.00000,-280647844.31988,   0.00000
186133254.41890,171386119.69100,-46534854.90225,   0.00051,   0.00042,  -0.00060,196506011.01574,   0.00000,274640135.82653,   0.00000,   0.00000,   0.00000,-278134124.81079,   0.00000
188460613.68302,173775130.85616,-47071226.44127,   0.00052,   0.00042,  -0.00061,199028973.48354,   0.00000,274640135.82653,   0.00000,   0.00000,   0.00000,-275611162.34299,   0.00000
190757146.99663,176133316.07080,-47601432.79018,   0.00052,   0.00043,  -0.00062,201519811.69776,   0.00000,274640135.82653,   0.00000,   0.00000,   0.00000,-273120324.12876,   0.00000
193053680.31023,178491501.28544,-48137804.32920,   0.00053,   0.00044,  -0.00063,204015300.65687,   0.00000,274640135.82653,   0.00000,   0.00000,   0.00000,-270624835.16966,   0.00000
195337883.24363,180862016.88029,-48661845.48801,   0.00054,   0.00044,  -0.00063,206501040.82652,   0.00000,274640135.82653,   0.00000,   0.00000,   0.00000,-268139095.00001,   0.00000
197600508.01166,183223284.68998,-49185886.64681,   0.00054,   0.00045,  -0.00064,208972421.67436,   0.00000,274640135.82653,   0.00000,   0.00000,   0.00000,-265667714.15217,   0.00000
199863132.77970,185584552.49968,-49703762.61552,   0.00055,   0.00045,  -0.00065,211439778.58326,   0.00000,274640135.82653,   0.00000,   0.00000,   0.00000,-263200357.24327,   0.00000
202104179.38237,187936572.52421,-50215473.39412,   0.00055,   0.00046,  -0.00065,213888450.25998,   0.00000,274640135.82653,   0.00000,   0.00000,   0.00000,-260751685.56655,   0.00000
204345225.98504,190288592.54875,-50727184.17272,   0.00056,   0.00047,  -0.00066,216337458.69034,   0.00000,274640135.82653,   0.00000,   0.00000,   0.00000,-258302677.13619,   0.00000
206573942.20751,192652942.95350,-51232729.76122,   0.00056,   0.00047,  -0.00067,218781283.29538,   0.00000,274640135.82653,   0.00000,   0.00000,   0.00000,-255858852.53115,   0.00000
208781080.26461,195008045.57309,-51738275.34972,   0.00057,   0.00048,  -0.00067,221210836.77827,   0.00000,274640135.82653,   0.00000,   0.00000,   0.00000,-253429299.04826,   0.00000
210978970.53656,197341570.02731,-52237655.74811,   0.00058,   0.00049,  -0.00068,223622937.14030,   0.00000,274640135.82653,   0.00000,   0.00000,   0.00000,-251017198.68623,   0.00000
213186108.59366,199696672.64690,-52730870.95641,   0.00058,   0.00049,  -0.00069,226044587.81028,   0.00000,274640135.82653,   0.00000,   0.00000,   0.00000,-248595548.01625,   0.00000
215380916.27055,202064105.64670,-53217920.97459,   0.00059,   0.00050,  -0.00069,228461224.28837,   0.00000,274640135.82653,   0.00000,   0.00000,   0.00000,-246178911.53816,   0.00000
217544897.99693,204400712.69598,-53704970.99278,   0.00059,   0.00051,  -0.00070,230850110.52451,   0.00000,274640135.82653,   0.00000,   0.00000,   0.00000,-243790025.30202,   0.00000
219718127.50846,206758897.91062,-54192021.01097,   0.00060,   0.00051,  -0.00070,233252963.43276,   0.00000,274640135.82653,   0.00000,   0.00000,   0.00000,-241387172.39377,   0.00000
221860531.06948,209086257.17474,-54666740.64895,   0.00060,   0.00052,  -0.00071,235619455.32827,   0.00000,274640135.82653,   0.00000,   0.00000,   0.00000,-239020680.49826,   0.00000
223990604.25028,211425946.81907,-55141460.28693,   0.00061,   0.00053,  -0.00072,237985373.76545,   0.00000,274640135.82653,   0.00000,   0.00000,   0.00000,-236654762.06108,   0.00000
226151503.38161,213796462.41392,-55616179.92491,   0.00061,   0.00053,  -0.00072,240379942.67037,   0.00000,274640135.82653,   0.00000,   0.00000,   0.00000,-234260193.15616,   0.00000
228259998.39705,216126904.27309,-56084734.37278,   0.00062,   0.00054,  -0.00073,242727895.15207,   0.00000,274640135.82653,   0.00000,   0.00000,   0.00000,-231912240.67446,   0.00000
230377741.19765,218478924.29763,-56547123.63056,   0.00062,   0.00054,  -0.00074,245085688.06699,   0.00000,274640135.82653,   0.00000,   0.00000,   0.00000,-229554447.75954,   0.00000
232464658.04773,220800118.37165,-57003347.69823,   0.00063,   0.00055,  -0.00074,247411459.81226,   0.00000,274640135.82653,   0.00000,   0.00000,   0.00000,-227228676.01427,   0.00000
234560822.68297,223142890.61103,-57459571.76590,   0.00063,   0.00056,  -0.00075,249751389.05107,   0.00000,274640135.82653,   0.00000,   0.00000,   0.00000,-224888746.77546,   0.00000
236635409.15284,225476415.06526,-57909630.64346,   0.00064,   0.00056,  -0.00075,252073010.94349,   0.00000,274640135.82653,   0.00000,   0.00000,   0.00000,-222567124.88304,   0.00000
238719243.40787,227831517.68485,-58359689.52103,   0.00064,   0.00057,  -0.00076,254408864.19420,   0.00000,274640135.82653,   0.00000,   0.00000,   0.00000,-220231271.63232,   0.00000
240772251.71238,230155794.35392,-58803583.20849,   0.00065,   0.00058,  -0.00076,256712723.12171,   0.00000,274640135.82653,   0.00000,   0.00000,   0.00000,-217927412.70482,   0.00000
242812929.63669,232492401.40320,-59241311.70585,   0.00065,   0.00058,  -0.00077,259012110.61239,   0.00000,274640135.82653,   0.00000,   0.00000,   0.00000,-215628025.21414,   0.00000
244853607.56099,234829008.45248,-59679040.20320,   0.00066,   0.00059,  -0.00078,261312047.14971,   0.00000,274640135.82653,   0.00000,   0.00000,   0.00000,-213328088.67682,   0.00000
246894285.48529,237165615.50175,-60110603.51046,   0.00066,   0.00060,  -0.00078,263608300.63526,   0.00000,274640135.82653,   0.00000,   0.00000,   0.00000,-211031835.19127,   0.00000
248901054.86403,239505305.14608,-60542166.81771,   0.00067,   0.00060,  -0.00079,265889949.22356,   0.00000,274640135.82653,   0.00000,   0.00000,   0.00000,-208750186.60297,   0.00000
250929402.40812,241854242.57557,-60967564.93486,   0.00067,   0.00061,  -0.00079,268182458.42636,   0.00000,274640135.82653,   0.00000,   0.00000,   0.00000,-206457677.40017,   0.00000
252914593.62149,244184684.43474,-61386797.86191,   0.00067,   0.00062,  -0.00080,270442412.35803,   0.00000,274640135.82653,   0.00000,   0.00000,   0.00000,-204197723.46850,   0.00000
254899784.83487,246515126.29392,-61806030.78896,   0.00068,   0.00062,  -0.00080,272702972.98593,   0.00000,274640135.82653,   0.00000,   0.00000,   0.00000,-201937162.84060,   0.00000
256884976.04824,248845568.15309,-62219098.52590,   0.00068,   0.00063,  -0.00081,274959939.91516,   0.00000,274640135.82653,   0.00000,   0.00000,   0.00000,-199680195.91137,   0.00000
258857836.88140,251188340.39248,-62626001.07274,   0.00069,   0.00064,  -0.00081,277212805.71306,   0.00000,274640135.82653,   0.00000,   0.00000,   0.00000,-197427330.11347,   0.00000
260799871.76405,253500286.68134,-63032903.61958,   0.00069,   0.00064,  -0.00082,279437948.41998,   0.00000,274640135.82653,   0.00000,   0.00000,   0.00000,-195202187.40655,   0.00000
262751154.43185,255833811.13557,-63433640.97632,   0.00070,   0.00065,  -0.00082,281673497.65178,   0.00000,274640135.82653,   0.00000,   0.00000,   0.00000,-192966638.17475,   0.00000
264690106.71944,258179665.97000,-63828213.14295,   0.00070,   0.00066,  -0.00083,283905110.12697,   0.00000,274640135.82653,   0.00000,   0.00000,   0.00000,-190735025.69956,   0.00000
266619811.22188,260503942.63907,-64222785.30959,   0.00071,   0.00067,  -0.00083,286123424.96949,   0.00000,274640135.82653,   0.00000,   0.00000,   0.00000,-188516710.85704,   0.00000
268537185.34411,262840549.68835,-64617357.47622,   0.00071,   0.00067,  -0.00084,288342022.13176,   0.00000,274640135.82653,   0.00000,   0.00000,   0.00000,-186298113.69477,   0.00000
270454559.46634,265177156.73763,-64999599.26264,   0.00071,   0.00068,  -0.00084,290553034.39903,   0.00000,274640135.82653,   0.00000,   0.00000,   0.00000,-184087101.42750,   0.00000
272350355.42321,267504516.00175,-65381841.04907,   0.00072,   0.00069,  -0.00085,292750384.43525,   0.00000,274640135.82653,   0.00000,   0.00000,   0.00000,-181889751.39128,   0.00000
274233820.99987,269844205.64608,-65764082.83549,   0.00072,   0.00069,  -0.00085,294948165.08250,   0.00000,274640135.82653,   0.00000,   0.00000,   0.00000,-179691970.74403,   0.00000
276108038.79138,272162317.12505,-66140159.43182,   0.00073,   0.00070,  -0.00086,297128481.30528,   0.00000,274640135.82653,   0.00000,   0.00000,   0.00000,-177511654.52125,   0.00000
277969926.20267,274492758.98422,-66510070.83803,   0.00073,   0.00071,  -0.00086,299305180.74119,   0.00000,274640135.82653,   0.00000,   0.00000,   0.00000,-175334955.08533,   0.00000
279831813.61397,276823200.84340,-66879982.24425,   0.00073,   0.00071,  -0.00087,301482646.54572,   0.00000,274640135.82653,   0.00000,   0.00000,   0.00000,-173157489.28081,   0.00000
281681370.64506,279165973.08278,-67243728.46037,   0.00074,   0.00072,  -0.00087,303656612.33056,   0.00000,274640135.82653,   0.00000,   0.00000,   0.00000,-170983523.49597,   0.00000
283509349.51079,281499497.53701,-67601309.48638,   0.00074,   0.00073,  -0.00088,305812998.53359,   0.00000,274640135.82653,   0.00000,   0.00000,   0.00000,-168827137.29294,   0.00000
285337328.37652,283833021.99123,-67958890.51239,   0.00074,   0.00074,  -0.00088,307970212.09321,   0.00000,274640135.82653,   0.00000,   0.00000,   0.00000,-166669923.73332,   0.00000
287165307.24225,286166546.44546,-68310306.34830,   0.00075,   0.00074,  -0.00089,310124161.61239,   0.00000,274640135.82653,   0.00000,   0.00000,   0.00000,-164515974.21414,   0.00000
288971707.94261,288490823.11453,-68661722.18420,   0.00075,   0.00075,  -0.00089,312264652.83682,   0.00000,274640135.82653,   0.00000,   0.00000,   0.00000,-162375482.98971,   0.00000
290765778.26277,290827430.16381,-69006972.83001,   0.00076,   0.00076,  -0.00090,314401900.07407,   0.00000,274640135.82653,   0.00000,   0.00000,   0.00000,-160238235.75246,   0.00000
292559848.58293,293164037.21309,-69346058.28571,   0.00076,   0.00076,  -0.00090,316535967.59328,   0.00000,274640135.82653,   0.00000,   0.00000,   0.00000,-158104168.23325,   0.00000
294332340.73773,295491396.47721,-69685143.74141,   0.00076,   0.00077,  -0.00091,318656673.51867,   0.00000,274640135.82653,   0.00000,   0.00000,   0.00000,-155983462.30786,   0.00000
296083254.72716,297809507.95618,-70024229.19711,   0.00077,   0.00078,  -0.00091,320764035.35702,   0.00000,274640135.82653,   0.00000,   0.00000,   0.00000,-153876100.46951,   0.00000
297843416.50175,300149197.60051,-70350984.27260,   0.00077,   0.00078,  -0.00091,322878556.21648,   0.00000,274640135.82653,   0.00000,   0.00000,   0.00000,-151761579.61005,   0.00000
299603578.27634,302488887.24484,-70683904.53820,   0.00077,   0.00079,  -0.00092,324998032.45177,   0.00000,274640135.82653,   0.00000,   0.00000,   0.00000,-149642103.37476,   0.00000
301342161.88556,304819329.10401,-71004494.42359,   0.00078,   0.00080,  -0.00092,327096195.32123,   0.00000,274640135.82653,   0.00000,   0.00000,   0.00000,-147543940.50530,   0.00000
303068415.11458,307162101.34340,-71325084.30897,   0.00078,   0.00081,  -0.00093,329195523.14604,   0.00000,274640135.82653,   0.00000,   0.00000,   0.00000,-145444612.68049,   0.00000
304794668.34360,309504873.58278,-71639509.00426,   0.00078,   0.00081,  -0.00093,331291833.70391,   0.00000,274640135.82653,   0.00000,   0.00000,   0.00000,-143348302.12262,   0.00000
306499343.40725,311838398.03700,-71953933.69955,   0.00079,   0.00082,  -0.00094,333374977.27989,   0.00000,274640135.82653,   0.00000,   0.00000,   0.00000,-141265158.54664,   0.00000
308182440.30555,314162674.70607,-72268358.39483,   0.00079,   0.00083,  -0.00094,335444972.86824,   0.00000,274640135.82653,   0.00000,   0.00000,   0.00000,-139195162.95829,   0.00000
309874784.98900,316508529.54051,-72570452.70991,   0.00079,   0.00084,  -0.00094,337522489.50979,   0.00000,274640135.82653,   0.00000,   0.00000,   0.00000,-137117646.31674,   0.00000
311557881.88729,318832806.20958,-72872547.02499,   0.00080,   0.00084,  -0.00095,339586546.60110,   0.00000,274640135.82653,   0.00000,   0.00000,   0.00000,-135053589.22543,   0.00000
313228648.40537,321169413.25886,-73174641.34007,   0.00080,   0.00085,  -0.00095,341652017.96041,   0.00000,274640135.82653,   0.00000,   0.00000,   0.00000,-132988117.86612,   0.00000
314887084.54325,323518350.68834,-73470570.46504,   0.00080,   0.00086,  -0.00096,343715031.92781,   0.00000,274640135.82653,   0.00000,   0.00000,   0.00000,-130925103.89872,   0.00000
316536272.89597,325845709.95247,-73760334.39991,   0.00080,   0.00087,  -0.00096,345760629.59534,   0.00000,274640135.82653,   0.00000,   0.00000,   0.00000,-128879506.23119,   0.00000
318173130.86849,328185399.59680,-74050098.33478,   0.00081,   0.00087,  -0.00096,347807810.16288,   0.00000,274640135.82653,   0.00000,   0.00000,   0.00000,-126832325.66365,   0.00000
319809988.84101,330525089.24113,-74339862.26965,   0.00081,   0.00088,  -0.00097,349856090.19320,   0.00000,274640135.82653,   0.00000,   0.00000,   0.00000,-124784045.63333,   0.00000
321434516.43331,332877109.26566,-74617295.82432,   0.00081,   0.00089,  -0.00097,351898206.99693,   0.00000,274640135.82653,   0.00000,   0.00000,   0.00000,-122741928.82960,   0.00000
323037465.86026,335219881.50505,-74894729.37898,   0.00082,   0.00090,  -0.00097,353927469.61003,   0.00000,274640135.82653,   0.00000,   0.00000,   0.00000,-120712666.21650,   0.00000
324640415.28721,337562653.74443,-75172162.93364,   0.00082,   0.00090,  -0.00098,355957900.01650,   0.00000,274640135.82653,   0.00000,   0.00000,   0.00000,-118682235.81003,   0.00000
326221786.54879,339896178.19866,-75443431.29820,   0.00082,   0.00091,  -0.00098,357971593.08834,   0.00000,274640135.82653,   0.00000,   0.00000,   0.00000,-116668542.73819,   0.00000
327803157.81037,342229702.65288,-75714699.66276,   0.00082,   0.00092,  -0.00098,359986457.60262,   0.00000,274640135.82653,   0.00000,   0.00000,   0.00000,-114653678.22391,   0.00000
329372198.69175,344575557.48732,-75979802.83722,   0.00083,   0.00093,  -0.00099,361999367.98460,   0.00000,274640135.82653,   0.00000,   0.00000,   0.00000,-112640767.84193,   0.00000
330941239.57312,346921412.32175,-76238740.82157,   0.00083,   0.00093,  -0.00099,364009622.06441,   0.00000,274640135.82653,   0.00000,   0.00000,   0.00000,-110630513.76212,   0.00000
332488702.28914,349258019.37103,-76497678.80593,   0.00083,   0.00094,  -0.00099,366007158.68439,   0.00000,274640135.82653,   0.00000,   0.00000,   0.00000,-108632977.14213,   0.00000
334045412.79030,351616204.58567,-76756616.79028,   0.00083,   0.00095,  -0.00100,368020716.25408,   0.00000,274640135.82653,   0.00000,   0.00000,   0.00000,-106619419.57245,   0.00000
335580545.12611,353965142.01515,-77003224.39442,   0.00084,   0.00096,  -0.00100,370013916.51838,   0.00000,274640135.82653,   0.00000,   0.00000,   0.00000,-104626219.30815,   0.00000
337094099.29655,356304831.65948,-77255997.18867,   0.00084,   0.00096,  -0.00100,371998354.62813,   0.00000,274640135.82653,   0.00000,   0.00000,   0.00000,-102641781.19840,   0.00000
338616901.25215,358666099.46918,-77502604.79282,   0.00084,   0.00097,  -0.00101,373995099.94732,   0.00000,274640135.82653,   0.00000,   0.00000,   0.00000,-100645035.87920,   0.00000
340108877.25723,360996541.32835,-77743047.20686,   0.00084,   0.00098,  -0.00101,375960592.40604,   0.00000,274640135.82653,   0.00000,   0.00000,   0.00000,-98679543.42049,   0.00000
341610101.04747,363348561.35289,-77983489.62090,   0.00085,   0.00099,  -0.00101,377942288.41984,   0.00000,274640135.82653,   0.00000,   0.00000,   0.00000,-96697847.40669,   0.00000
343098994.45749,365712911.75763,-78217766.84484,   0.00085,   0.00099,  -0.00102,379922595.65654,   0.00000,274640135.82653,   0.00000,   0.00000,   0.00000,-94717540.16999,   0.00000
344578640.08237,368055683.99702,-78445878.87868,   0.00085,   0.00100,  -0.00102,381885540.96272,   0.00000,274640135.82653,   0.00000,   0.00000,   0.00000,-92754594.86381,   0.00000
346045955.32703,370410786.61661,-78680156.10261,   0.00085,   0.00101,  -0.00102,383854790.79327,   0.00000,274640135.82653,   0.00000,   0.00000,   0.00000,-90785345.03326,   0.00000
347491692.40634,372756641.45104,-78902102.94634,   0.00085,   0.00102,  -0.00103,385804068.65639,   0.00000,274640135.82653,   0.00000,   0.00000,   0.00000,-88836067.17014,   0.00000
348937429.48564,375102496.28547,-79130214.98018,   0.00086,   0.00103,  -0.00103,387758538.70233,   0.00000,274640135.82653,   0.00000,   0.00000,   0.00000,-86881597.12420,   0.00000
350392414.35010,377469929.28527,-79345996.63381,   0.00086,   0.00103,  -0.00103,389721892.15815,   0.00000,274640135.82653,   0.00000,   0.00000,   0.00000,-84918243.66838,   0.00000
351825821.04919,379828114.49991,-79561778.28743,   0.00086,   0.00104,  -0.00103,391672945.67378,   0.00000,274640135.82653,   0.00000,   0.00000,   0.00000,-82967190.15275,   0.00000
353237649.58292,382177051.92940,-79777559.94106,   0.00086,   0.00105,  -0.00104,393611724.63062,   0.00000,274640135.82653,   0.00000,   0.00000,   0.00000,-81028411.19591,   0.00000
354649478.11666,384525989.35888,-79987176.40458,   0.00086,   0.00106,  -0.00104,395548217.71809,   0.00000,274640135.82653,   0.00000,   0.00000,   0.00000,-79091918.10844,   0.00000
356048976.27018,386887257.16858,-80196792.86811,   0.00087,   0.00107,  -0.00104,397487594.99462,   0.00000,274640135.82653,   0.00000,   0.00000,   0.00000,-77152540.83191,   0.00000
357426896.25835,389239277.19311,-80400244.14153,   0.00087,   0.00107,  -0.00105,399411081.59860,   0.00000,274640135.82653,   0.00000,   0.00000,   0.00000,-75229054.22793,   0.00000
358835642.19703,391622123.16817,-80603695.41495,   0.00087,   0.00108,  -0.00105,401364916.93186,   0.00000,274640135.82653,   0.00000,   0.00000,   0.00000,-73275218.89467,   0.00000
360191984.01983,393964895.40755,-80800981.49826,   0.00087,   0.00109,  -0.00105,403274103.66630,   0.00000,274640135.82653,   0.00000,   0.00000,   0.00000,-71366032.16023,   0.00000
361557573.62778,396329245.81229,-80998267.58158,   0.00087,   0.00110,  -0.00105,405200034.19766,   0.00000,274640135.82653,   0.00000,   0.00000,   0.00000,-69440101.62887,   0.00000
362901585.07038,398684348.43188,-81189388.47479,   0.00087,   0.00111,  -0.00106,407110228.98620,   0.00000,274640135.82653,   0.00000,   0.00000,   0.00000,-67529906.84033,   0.00000
364245596.51297,401039451.05147,-81380509.36801,   0.00088,   0.00111,  -0.00106,409022008.84582,   0.00000,274640135.82653,   0.00000,   0.00000,   0.00000,-65618126.98071,   0.00000
365598855.74072,403416131.83643,-81565465.07112,   0.00088,   0.00112,  -0.00106,410946952.58007,   0.00000,274640135.82653,   0.00000,   0.00000,   0.00000,-63693183.24646,   0.00000
366930536.80310,405783564.83622,-81750420.77422,   0.00088,   0.00113,  -0.00106,412859943.50247,   0.00000,274640135.82653,   0.00000,   0.00000,   0.00000,-61780192.32406,   0.00000
368240639.70013,408141750.05086,-81929211.28723,   0.00088,   0.00114,  -0.00107,414757356.43955,   0.00000,274640135.82653,   0.00000,   0.00000,   0.00000,-59882779.38698,   0.00000
369538412.21694,410512265.64571,-82108001.80024,   0.00088,   0.00115,  -0.00107,416658228.51107,   0.00000,274640135.82653,   0.00000,   0.00000,   0.00000,-57981907.31546,   0.00000
370848515.11396,412870450.86035,-82280627.12314,   0.00088,   0.00116,  -0.00107,418555302.82055,   0.00000,274640135.82653,   0.00000,   0.00000,   0.00000,-56084833.00598,   0.00000
372124709.46542,415231718.67005,-82453252.44604,   0.00088,   0.00116,  -0.00107,420442402.03656,   0.00000,274640135.82653,   0.00000,   0.00000,   0.00000,-54197733.78997,   0.00000
373410151.60202,417614564.64510,-82625877.76894,   0.00088,   0.00117,  -0.00107,422346605.35997,   0.00000,274640135.82653,   0.00000,   0.00000,   0.00000,-52293530.46656,   0.00000
374686345.95348,419975832.45479,-82792337.90174,   0.00089,   0.00118,  -0.00108,424233498.54121,   0.00000,274640135.82653,   0.00000,   0.00000,   0.00000,-50406637.28532,   0.00000
375950209.92472,422349430.64469,-82952632.84443,   0.00089,   0.00119,  -0.00108,426120479.07059,   0.00000,274640135.82653,   0.00000,   0.00000,   0.00000,-48519656.75594,   0.00000
377192495.73061,424713781.04944,-83119092.97723,   0.00089,   0.00120,  -0.00108,427999386.04588,   0.00000,274640135.82653,   0.00000,   0.00000,   0.00000,-46640749.78065,   0.00000
378444029.32164,427099709.61955,-83273222.72982,   0.00089,   0.00121,  -0.00108,429888356.58483,   0.00000,274640135.82653,   0.00000,   0.00000,   0.00000,-44751779.24170,   0.00000
379686315.12753,429464060.02429,-83433517.67252,   0.00089,   0.00121,  -0.00108,431767189.50259,   0.00000,274640135.82653,   0.00000,   0.00000,   0.00000,-42872946.32394,   0.00000
380916270.55320,431840740.80924,-83581482.23500,   0.00089,   0.00122,  -0.00109,433642777.69917,   0.00000,274640135.82653,   0.00000,   0.00000,   0.00000,-40997358.12736,   0.00000
382124647.81352,434208173.80904,-83735611.98760,   0.00089,   0.00123,  -0.00109,435510387.15451,   0.00000,274640135.82653,   0.00000,   0.00000,   0.00000,-39129748.67202,   0.00000
383342272.85898,436597184.97420,-83883576.55008,   0.00089,   0.00124,  -0.00109,437391822.19235,   0.00000,274640135.82653,   0.00000,   0.00000,   0.00000,-37248313.63418,   0.00000
384529071.95393,438955370.18884,-84025375.92247,   0.00089,   0.00125,  -0.00109,439242660.11420,   0.00000,274640135.82653,   0.00000,   0.00000,   0.00000,-35397475.71233,   0.00000
385725118.83404,441335133.56884,-84167175.29485,   0.00089,   0.00126,  -0.00109,441110939.30170,   0.00000,274640135.82653,   0.00000,   0.00000,   0.00000,-33529196.52483,   0.00000
386908835.33394,443727227.32905,-84308974.66723,   0.00090,   0.00126,  -0.00110,442983435.38904,   0.00000,274640135.82653,   0.00000,   0.00000,   0.00000,-31656700.43749,   0.00000
388083304.04868,446097742.92390,-84444608.84951,   0.00090,   0.00127,  -0.00110,444838664.02530,   0.00000,274640135.82653,   0.00000,   0.00000,   0.00000,-29801471.80123,   0.00000
389245442.38322,448480588.89896,-84580243.03179,   0.00090,   0.00128,  -0.00110,446698198.27592,   0.00000,274640135.82653,   0.00000,   0.00000,   0.00000,-27941937.55061,   0.00000
390386002.55239,450854187.08886,-84709712.02397,   0.00090,   0.00129,  -0.00110,448542942.32137,   0.00000,274640135.82653,   0.00000,   0.00000,   0.00000,-26097193.50516,   0.00000
391526562.72156,453227785.27876,-84839181.01615,   0.00090,   0.00130,  -0.00110,450389628.73452,   0.00000,274640135.82653,   0.00000,   0.00000,   0.00000,-24250507.09200,   0.00000
392667122.89073,455601383.46866,-84968650.00832,   0.00090,   0.00131,  -0.00110,452238233.72077,   0.00000,274640135.82653,   0.00000,   0.00000,   0.00000,-22401902.10576,   0.00000
393795352.67970,457987312.03877,-85091953.81040,   0.00090,   0.00132,  -0.00111,454087881.93840,   0.00000,274640135.82653,   0.00000,   0.00000,   0.00000,-20552253.88813,   0.00000
394923582.46867,460373240.60887,-85215257.61247,   0.00090,   0.00132,  -0.00111,455939499.92791,   0.00000,274640135.82653,   0.00000,   0.00000,   0.00000,-18700635.89862,   0.00000
396030234.09227,462749921.39383,-85332396.22444,   0.00090,   0.00133,  -0.00111,457776506.50247,   0.00000,274640135.82653,   0.00000,   0.00000,   0.00000,-16863629.32406,   0.00000
397124555.33566,465138932.55899,-85455700.02651,   0.00090,   0.00134,  -0.00111,459621667.53965,   0.00000,274640135.82653,   0.00000,   0.00000,   0.00000,-15018468.28688,   0.00000
398218876.57906,467527943.72414,-85566673.44838,   0.00090,   0.00135,  -0.00111,461461987.73326,   0.00000,274640135.82653,   0.00000,   0.00000,   0.00000,-13178148.09327,   0.00000
399313197.82245,469916954.88930,-85677646.87024,   0.00090,   0.00136,  -0.00111,463304338.42072,   0.00000,274640135.82653,   0.00000,   0.00000,   0.00000,-11335797.40581,   0.00000
400385940.90049,472296718.26931,-85788620.29211,   0.00090,   0.00137,  -0.00112,465135666.17185,   0.00000,274640135.82653,   0.00000,   0.00000,   0.00000,-9504469.65468,   0.00000
401446353.59831,474688812.02952,-85899593.71397,   0.00090,   0.00138,  -0.00112,466971916.71544,   0.00000,274640135.82653,   0.00000,   0.00000,   0.00000,-7668219.11109,   0.00000
402497518.51098,477059327.62437,-86004401.94573,   0.00090,   0.00139,  -0.00112,468790923.96474,   0.00000,274640135.82653,   0.00000,   0.00000,   0.00000,-5849211.86179,   0.00000
403536353.04345,479442173.59942,-86109210.17750,   0.00090,   0.00139,  -0.00112,470614946.69845,   0.00000,274640135.82653,   0.00000,   0.00000,   0.00000,-4025189.12808,   0.00000
404584435.36106,481846597.73984,-86207853.21915,   0.00090,   0.00140,  -0.00112,472453656.22740,   0.00000,274640135.82653,   0.00000,   0.00000,   0.00000,-2186479.59913,   0.00000
405623269.89353,484229443.71490,-86306496.26081,   0.00090,   0.00141,  -0.00112,474278499.18761,   0.00000,274640135.82653,   0.00000,   0.00000,   0.00000,-361636.63892,   0.00000
405826216.15189,484702984.98440,-86325998.60396,   0.00090,   0.00141,  -0.00112,474640134.33349,   0.00000,274640135.82653,   0.00000,   0.00000,   0.00000,  -4.98228,   0.00000
405454925.87018,485142129.35073,-86094369.16280,   0.00090,   0.00142,  -0.00112,474647277.13911,   0.00001,274647280.14210,   0.00000,   0.00000,  -0.00000,  -3.00299,   1.00000
404984393.27729,485692277.40307,-85803774.37401,   0.00090,   0.00143,  -0.00112,474656104.91606,   0.00001,274656108.36947,   0.00001,   0.00001,  -0.00001,  -3.45341,   1.00000
404514223.12461,486237815.84554,-85514015.53321,   0.00090,   0.00144,  -0.00113,474664932.86910,   0.00002,274664939.78007,   0.00001,   0.00002,  -0.00001,  -6.91097,   1.00000
404047120.21688,486782139.42029,-85219653.27048,   0.00090,   0.00145,  -0.00113,474673754.19228,   0.00003,274673758.00409,   0.00001,   0.00002,  -0.00002,  -3.81181,   1.00000
403562814.07270,487327522.38166,-84930922.38297,   0.00090,   0.00146,  -0.00113,474682607.00806,   0.00004,274682611.38766,   0.00002,   0.00003,  -0.00002,  -4.37959,   1.00000
403073058.35284,487878706.70264,-84634775.88597,   0.00090,   0.00147,  -0.00113,474691369.49780,   0.00005,274691373.97188,   0.00002,   0.00003,  -0.00003,  -4.47408,   1.00000
402581047.16927,488421864.56900,-84344935.06658,   0.00090,   0.00147,  -0.00113,474700153.61759,   0.00005,274700156.34268,   0.00002,   0.00004,  -0.00003,  -2.72509,   1.00000
402080849.82217,488967461.34955,-84053092.73194,   0.00090,   0.00148,  -0.00113,474708861.14643,   0.00006,274708864.75237,   0.00002,   0.00004,  -0.00004,  -3.60594,   1.00000
401577334.24347,489513440.07188,-83758756.84544,   0.00090,   0.00149,  -0.00113,474717651.97173,   0.00007,274717655.30730,   0.00003,   0.00005,  -0.00004,  -3.33556,   1.00000
401074262.71938,490054697.46534,-83465267.68369,   0.00090,   0.00150,  -0.00113,474726444.35948,   0.00008,274726449.89259,   0.00003,   0.00005,  -0.00005,  -5.53311,   1.00000
400562905.31371,490598314.59899,-83169742.50110,   0.00090,   0.00151,  -0.00113,474735167.61037,   0.00009,274735171.39004,   0.00003,   0.00006,  -0.00005,  -3.77967,   1.00000
400040628.67923,491140945.31667,-82877638.06716,   0.00090,   0.00152,  -0.00114,474743835.03191,   0.00009,274743836.05796,   0.00004,   0.00007,  -0.00006,  -1.02605,   1.00000
399521379.76610,491682125.68875,-82580863.98946,   0.00090,   0.00153,  -0.00114,474752484.60882,   0.00010,274752489.69483,   0.00004,   0.00007,  -0.00006,  -5.08600,   1.00000
398998877.92341,492223426.68151,-82281650.81178,   0.00090,   0.00154,  -0.00114,474761225.88689,   0.00011,274761226.15506,   0.00004,   0.00008,  -0.00007,  -0.26818,   1.00000
398465385.07779,492763668.09239,-81985835.62716,   0.00090,   0.00155,  -0.00114,474769904.97370,   0.00012,274769906.52943,   0.00004,   0.00008,  -0.00007,  -1.55573,   1.00000
397932397.57992,493299127.12548,-81690858.62274,   0.00090,   0.00156,  -0.00114,474778586.95702,   0.00013,274778591.78529,   0.00005,   0.00009,  -0.00008,  -4.82827,   1.00000
397390904.92520,493836808.78826,-81393728.21581,   0.00090,   0.00157,  -0.00114,474787200.41752,   0.00013,274787206.10406,   0.00005,   0.00009,  -0.00008,  -5.68654,   1.00000
396846229.58498,494374376.67792,-81094183.98681,   0.00090,   0.00157,  -0.00114,474795900.24862,   0.00014,274795904.04253,   0.00005,   0.00010,  -0.00009,  -3.79392,   1.00000
396294176.85976,494906180.41056,-80801222.08333,   0.00089,   0.00158,  -0.00114,474804461.96659,   0.00015,274804468.53831,   0.00006,   0.00010,  -0.00009,  -6.57172,   1.00000
395729818.88520,495444740.43041,-80502792.09118,   0.00089,   0.00159,  -0.00114,474813038.55343,   0.00016,274813041.90646,   0.00006,   0.00011,  -0.00010,  -3.35302,   1.00000
395175231.25884,495971507.46962,-80208258.04310,   0.00089,   0.00160,  -0.00114,474821691.20101,   0.00017,274821695.97137,   0.00006,   0.00012,  -0.00010,  -4.77036,   1.00000
394610739.05387,496508118.45006,-79902732.73637,   0.00089,   0.00161,  -0.00114,474830339.79713,   0.00017,274830344.35695,   0.00006,   0.00012,  -0.00010,  -4.55982,   1.00000
394036304.38107,497035812.89063,-79609251.94575,   0.00089,   0.00162,  -0.00114,474838870.13993,   0.00018,274838875.27814,   0.00007,   0.00013,  -0.00011,  -5.13821,   1.00000
393461230.83821,497566304.50748,-79307843.33718,   0.00089,   0.00163,  -0.00114,474847469.19743,   0.00019,274847476.07179,   0.00007,   0.00013,  -0.00011,  -6.87437,   1.00000
392874943.28242,498095556.86071,-79009688.88237,   0.00089,   0.00164,  -0.00115,474856013.95006,   0.00020,274856023.72050,   0.00007,   0.00014,  -0.00012,  -9.77044,   1.00000
392289290.34788,498619919.61790,-78712366.40959,   0.00089,   0.00165,  -0.00115,474864577.55720,   0.00020,274864577.66614,   0.00008,   0.00015,  -0.00012,  -0.10894,   1.00000
391706643.35929,499142577.28420,-78410323.25360,   0.00089,   0.00166,  -0.00115,474873119.66695,   0.00021,274873123.25968,   0.00008,   0.00015,  -0.00013,  -3.59273,   1.00000
391106725.73723,499665091.59951,-78113885.25836,   0.00089,   0.00167,  -0.00115,474881705.21703,   0.00022,274881709.94833,   0.00008,   0.00016,  -0.00013,  -4.73129,   1.00000
390501499.03153,500185260.08042,-77818227.31000,   0.00089,   0.00168,  -0.00115,474890146.03140,   0.00023,274890151.16055,   0.00008,   0.00016,  -0.00014,  -5.12915,   1.00000
389907668.57035,500704249.37073,-77512327.97621,   0.00088,   0.00169,  -0.00115,474898717.40966,   0.00024,274898722.20058,   0.00009,   0.00017,  -0.00014,  -4.79092,   1.00000
389288124.69067,501222398.66766,-77217516.55545,   0.00088,   0.00170,  -0.00115,474907195.04975,   0.00024,274907197.67061,   0.00009,   0.00017,  -0.00014,  -2.62086,   1.00000
388680089.12456,501739229.53363,-76912498.38902,   0.00088,   0.00170,  -0.00115,474915797.70290,   0.00025,274915803.28074,   0.00009,   0.00018,  -0.00015,  -5.57785,   1.00000
388064248.75277,502250648.80100,-76613777.52220,   0.00088,   0.00171,  -0.00115,474924275.42418,   0.00026,274924278.61351,   0.00009,   0.00019,  -0.00015,  -3.18933,   1.00000
387439261.72282,502763854.05859,-76312586.61229,   0.00088,   0.00172,  -0.00115,474932680.13600,   0.00027,274932689.05502,   0.00010,   0.00019,  -0.00016,  -8.91902,   1.00000
386809186.77957,503272989.20460,-76014708.28548,   0.00088,   0.00173,  -0.00115,474941196.97583,   0.00027,274941200.36511,   0.00010,   0.00020,  -0.00016,  -3.38928,   1.00000
386182140.20280,503780272.72285,-75712073.36378,   0.00088,   0.00174,  -0.00115,474949701.38257,   0.00028,274949705.08343,   0.00010,   0.00020,  -0.00017,  -3.70086,   1.00000
385543609.92756,504286162.93197,-75412536.22440,   0.00088,   0.00175,  -0.00115,474958159.68010,   0.00029,274958159.85930,   0.00010,   0.00021,  -0.00017,  -0.17920,   1.00000
384895785.92500,504793699.36847,-75110456.88403,   0.00087,   0.00176,  -0.00115,474966545.66032,   0.00030,274966551.24615,   0.00011,   0.00022,  -0.00018,  -5.58582,   1.00000
384255366.11696,505293453.69916,-74809531.21036,   0.00087,   0.00177,  -0.00115,474975091.52899,   0.00031,274975101.17730,   0.00011,   0.00022,  -0.00018,  -9.64831,   1.00000
383609118.13208,505791081.62649,-74509123.36875,   0.00087,   0.00178,  -0.00115,474983506.43017,   0.00031,274983508.53111,   0.00011,   0.00023,  -0.00018,  -2.10094,   1.00000
382947786.78391,506290988.57934,-74208683.34749,   0.00087,   0.00179,  -0.00115,474991942.06507,   0.00032,274991946.71919,   0.00011,   0.00023,  -0.00019,  -4.65412,   1.00000
382287315.41992,506785895.58918,-73909081.91777,   0.00087,   0.00180,  -0.00115,475000392.79079,   0.00033,275000393.30272,   0.00012,   0.00024,  -0.00019,  -0.51193,   1.00000
381627716.00834,507275829.17699,-73610321.38733,   0.00087,   0.00181,  -0.00115,475008844.82516,   0.00034,275008848.29387,   0.00012,   0.00025,  -0.00020,  -3.46872,   1.00000
380958620.13786,507767308.53278,-73308923.11731,   0.00087,   0.00182,  -0.00115,475017232.62221,   0.00034,275017241.69379,   0.00012,   0.00025,  -0.00020,  -9.07158,   1.00000
380290419.98683,508253827.02094,-73008369.76064,   0.00086,   0.00183,  -0.00115,475025642.51080,   0.00035,275025643.67757,   0.00012,   0.00026,  -0.00020,  -1.16676,   1.00000
379610507.49014,508738821.56546,-72710777.27599,   0.00086,   0.00184,  -0.00115,475033993.65368,   0.00036,275033998.31027,   0.00013,   0.00026,  -0.00021,  -4.65659,   1.00000
378928120.04549,509222346.05599,-72411010.58770,   0.00086,   0.00185,  -0.00115,475042434.91589,   0.00037,275042441.71937,   0.00013,   0.00027,  -0.00021,  -6.80348,   1.00000
378248786.66385,509703883.33825,-72106450.78173,   0.00086,   0.00186,  -0.00115,475050880.01733,   0.00038,275050880.68629,   0.00013,   0.00028,  -0.00022,  -0.66897,   1.00000
377558971.44715,510177437.20698,-71813465.23236,   0.00086,   0.00187,  -0.00115,475059203.96719,   0.00038,275059206.41148,   0.00013,   0.00028,  -0.00022,  -2.44429,   1.00000
376868841.43085,510652432.28245,-71512668.07032,   0.00086,   0.00188,  -0.00115,475067600.23484,   0.00039,275067608.08414,   0.00014,   0.00029,  -0.00023,  -7.84930,   1.00000
376166901.05416,511125833.08568,-71214775.23752,   0.00085,   0.00189,  -0.00116,475075958.82348,   0.00040,275075963.66778,   0.00014,   0.00029,  -0.00023,  -4.84430,   1.00000
375462644.57850,511597546.23654,-70914762.09557,   0.00085,   0.00190,  -0.00116,475084402.57337,   0.00041,275084408.90968,   0.00014,   0.00030,  -0.00023,  -6.33630,   1.00000
374764764.35397,512063953.75448,-70612884.27983,   0.00085,   0.00191,  -0.00116,475092762.15487,   0.00041,275092770.51764,   0.00014,   0.00031,  -0.00024,  -8.36277,   1.00000
374052978.14578,512525818.46549,-70319544.54074,   0.00085,   0.00191,  -0.00116,475101095.88705,   0.00042,275101099.72438,   0.00015,   0.00031,  -0.00024,  -3.83733,   1.00000
373340973.51657,512988861.80921,-70018427.64419,   0.00085,   0.00192,  -0.00116,475109497.27920,   0.00043,275109506.07141,   0.00015,   0.00032,  -0.00025,  -8.79222,   1.00000
372630056.87493,513446947.32333,-69718175.14659,   0.00084,   0.00193,  -0.00116,475117915.52857,   0.00044,275117922.17821,   0.00015,   0.00032,  -0.00025,  -6.64964,   1.00000
371910430.64799,513900259.16025,-69423661.99804,   0.00084,   0.00194,  -0.00116,475126207.05555,   0.00044,275126213.34912,   0.00015,   0.00033,  -0.00025,  -6.29357,   1.00000
371188681.68039,514351753.38565,-69127080.48216,   0.00084,   0.00195,  -0.00116,475134585.27796,   0.00045,275134594.95557,   0.00015,   0.00034,  -0.00026,  -9.67761,   1.00000
370456885.15121,514804450.73951,-68827604.06718,   0.00084,   0.00196,  -0.00116,475142915.57287,   0.00046,275142919.83130,   0.00016,   0.00034,  -0.00026,  -4.25843,   1.00000
369724289.67917,515249313.83039,-68534666.95903,   0.00084,   0.00197,  -0.00116,475151261.11944,   0.00047,275151267.75960,   0.00016,   0.00035,  -0.00026,  -6.64016,   1.00000
368994789.32411,515692163.58812,-68236868.03961,   0.00083,   0.00198,  -0.00116,475159606.19019,   0.00047,275159613.43804,   0.00016,   0.00036,  -0.00027,  -7.24785,   1.00000
368263317.34473,516133061.13193,-67937072.04672,   0.00083,   0.00199,  -0.00116,475168045.73358,   0.00048,275168049.97926,   0.00016,   0.00036,  -0.00027,  -4.24568,   1.00000
367522891.06016,516569322.64791,-67642890.60162,   0.00083,   0.00200,  -0.00116,475176358.42750,   0.00049,275176362.72691,   0.00016,   0.00037,  -0.00028,  -4.29941,   1.00000
366770336.21845,517003854.19643,-67351425.19682,   0.00083,   0.00201,  -0.00116,475184628.09947,   0.00050,275184632.76752,   0.00017,   0.00037,  -0.00028,  -4.66805,   1.00000
366029301.35534,517433221.13252,-67056091.57280,   0.00082,   0.00202,  -0.00116,475193040.35742,   0.00051,275193047.64607,   0.00017,   0.00038,  -0.00028,  -7.28865,   1.00000
365277967.29037,517863653.29555,-66757761.23827,   0.00082,   0.00203,  -0.00116,475201399.66089,   0.00051,275201407.78941,   0.00017,   0.00039,  -0.00029,  -8.12852,   1.00000
364515651.69503,518286722.66177,-66470659.41120,   0.00082,   0.00204,  -0.00116,475209648.92337,   0.00052,275209657.31895,   0.00017,   0.00039,  -0.00029,  -8.39559,   1.00000
363766921.81511,518707439.57534,-66174023.84106,   0.00082,   0.00205,  -0.00116,475218030.96545,   0.00053,275218039.46338,   0.00017,   0.00040,  -0.00030,  -8.49793,   1.00000
362992406.47040,519129399.30028,-65881885.62384,   0.00082,   0.00206,  -0.00116,475226323.98843,   0.00054,275226327.30077,   0.00018,   0.00041,  -0.00030,  -3.31234,   1.00000
362232799.34244,519543470.63056,-65588780.04199,   0.00081,   0.00207,  -0.00116,475234675.97589,   0.00054,275234679.06756,   0.00018,   0.00041,  -0.00030,  -3.09167,   1.00000
361460905.86686,519955739.10476,-65298318.60521,   0.00081,   0.00208,  -0.00116,475242986.13298,   0.00055,275242989.67718,   0.00018,   0.00042,  -0.00031,  -3.54420,   1.00000
360690376.02439,520363207.28408,-65008696.67751,   0.00081,   0.00209,  -0.00116,475251308.12883,   0.00056,275251311.70442,   0.00018,   0.00043,  -0.00031,  -3.57558,   1.00000
359921230.66318,520765917.98190,-64719918.52172,   0.00081,   0.00210,  -0.00116,475259641.76071,   0.00057,275259645.08997,   0.00018,   0.00043,  -0.00031,  -3.32926,   1.00000
359139731.41149,521166822.07492,-64433734.22829,   0.00080,   0.00211,  -0.00116,475267933.83231,   0.00057,275267938.01279,   0.00019,   0.00044,  -0.00032,  -4.18048,   1.00000
358375185.59773,521562824.18775,-64140895.93137,   0.00080,   0.00212,  -0.00116,475276280.59938,   0.00058,275276282.43022,   0.00019,   0.00044,  -0.00032,  -1.83084,   1.00000
357584373.09635,521959889.25956,-63852374.17187,   0.00080,   0.00213,  -0.00115,475284532.84154,   0.00059,275284535.08648,   0.00019,   0.00045,  -0.00032,  -2.24495,   1.00000
356804335.66552,522349052.48793,-63566026.53211,   0.00080,   0.00214,  -0.00115,475292940.31526,   0.00060,275292944.13229,   0.00019,   0.00046,  -0.00033,  -3.81703,   1.00000
356016384.99012,522736690.45792,-63279169.39651,   0.00079,   0.00215,  -0.00115,475301217.05329,   0.00060,275301220.44844,   0.00019,   0.00046,  -0.00033,  -3.39515,   1.00000
355229906.00399,523119656.76844,-62993151.67400,   0.00079,   0.00216,  -0.00115,475309505.88844,   0.00061,275309508.59445,   0.00019,   0.00047,  -0.00034,  -2.70601,   1.00000
354428144.22286,523503067.34467,-62706973.72145,   0.00079,   0.00217,  -0.00115,475317834.65645,   0.00062,275317839.27608,   0.00020,   0.00048,  -0.00034,  -4.61963,   1.00000
353630656.81694,523879493.67874,-62424302.94256,   0.00079,   0.00218,  -0.00115,475326095.10622,   0.00063,275326100.48672,   0.00020,   0.00048,  -0.00034,  -5.38050,   1.00000
352831981.81404,524253548.16393,-62139806.24165,   0.00078,   0.00219,  -0.00115,475334448.93130,   0.00064,275334455.51467,   0.00020,   0.00049,  -0.00035,  -6.58338,   1.00000
352037572.41845,524620766.04545,-61858804.13387,   0.00078,   0.00220,  -0.00115,475342733.81221,   0.00064,275342740.83263,   0.00020,   0.00050,  -0.00035,  -7.02042,   1.00000
351243682.16499,524988267.45128,-61570224.73791,   0.00078,   0.00221,  -0.00115,475351102.65165,   0.00065,275351108.67318,   0.00020,   0.00050,  -0.00035,  -6.02153,   1.00000
350438194.00319,525349070.94443,-61292538.46913,   0.00078,   0.00222,  -0.00115,475359359.14984,   0.00066,275359367.66558,   0.00020,   0.00051,  -0.00036,  -8.51575,   1.00000
349633286.37543,525710092.15015,-61007272.99705,   0.00077,   0.00223,  -0.00115,475367700.63460,   0.00067,275367709.70681,   0.00021,   0.00052,  -0.00036,  -9.07220,   1.00000
348816715.59736,526064474.45893,-60732848.67129,   0.00077,   0.00224,  -0.00115,475375942.72097,   0.00067,275375943.21697,   0.00021,   0.00052,  -0.00036,  -0.49600,   1.00000
348000778.93118,526418994.02117,-60450841.49800,   0.00077,   0.00225,  -0.00115,475384257.36754,   0.00068,275384260.36524,   0.00021,   0.00053,  -0.00037,  -2.99770,   1.00000
347187481.90870,526764354.75986,-60178059.39577,   0.00076,   0.00226,  -0.00115,475392511.14133,   0.00069,275392518.94886,   0.00021,   0.00054,  -0.00037,  -7.80753,   1.00000
346374897.69254,527109881.21084,-59897718.81828,   0.00076,   0.00227,  -0.00115,475400857.80675,   0.00070,275400861.17138,   0.00021,   0.00054,  -0.00037,  -3.36463,   1.00000
345566492.91603,527448963.54184,-59620792.65554,   0.00076,   0.00228,  -0.00115,475409127.37864,   0.00070,275409133.59650,   0.00021,   0.00055,  -0.00038,  -6.21786,   1.00000
344742804.43186,527788102.83050,-59343680.15748,   0.00076,   0.00229,  -0.00115,475417447.20330,   0.00071,275417451.52294,   0.00022,   0.00056,  -0.00038,  -4.31963,   1.00000
343923277.80244,528120866.37031,-59069945.87699,   0.00075,   0.00230,  -0.00115,475425689.87160,   0.00072,275425699.83948,   0.00022,   0.00056,  -0.00038,  -9.96788,   1.00000
343103072.16993,528451182.30456,-58794506.37245,   0.00075,   0.00231,  -0.00115,475434041.70268,   0.00073,275434043.13339,   0.00022,   0.00057,  -0.00039,  -1.43071,   1.00000
342287005.91136,528775253.22921,-58522430.18930,   0.00075,   0.00232,  -0.00115,475442308.93066,   0.00073,275442316.60514,   0.00022,   0.00058,  -0.00039,  -7.67448,   1.00000
341455671.58980,529099266.78211,-58250154.27590,   0.00074,   0.00233,  -0.00115,475450634.35961,   0.00074,275450636.54419,   0.00022,   0.00058,  -0.00039,  -2.18458,   1.00000
340628461.18871,529417107.15709,-57981206.69636,   0.00074,   0.00234,  -0.00115,475458881.89661,   0.00075,275458886.81547,   0.00022,   0.00059,  -0.00040,  -4.91886,   1.00000
339800745.21231,529732478.48610,-57710585.19092,   0.00074,   0.00234,  -0.00115,475467232.50542,   0.00076,275467232.50885,   0.00022,   0.00060,  -0.00040,  -0.00343,   1.00000
338977132.01538,530041811.66085,-57443277.84436,   0.00073,   0.00235,  -0.00115,475475504.60731,   0.00077,275475508.28749,   0.00023,   0.00060,  -0.00040,  -3.68018,   1.00000
338138259.48708,530350957.11946,-57175755.99892,   0.00073,   0.00236,  -0.00115,475483829.28439,   0.00077,275483831.55944,   0.00023,   0.00061,  -0.00041,  -2.27505,   1.00000
337303471.98235,530654132.26612,-56911513.56059,   0.00073,   0.00237,  -0.00115,475492082.15762,   0.00078,275492085.06964,   0.00023,   0.00062,  -0.00041,  -2.91203,   1.00000
336471949.81404,530955581.83081,-56642239.92746,   0.00073,   0.00238,  -0.00115,475500339.68199,   0.00079,275500341.16491,   0.00023,   0.00062,  -0.00041,  -1.48291,   1.00000
335640877.57453,531250427.27680,-56379633.85928,   0.00072,   0.00239,  -0.00115,475508617.06185,   0.00080,275508620.45367,   0.00023,   0.00063,  -0.00042,  -3.39182,   1.00000
334809562.81341,531542816.14811,-56115410.99654,   0.00072,   0.00240,  -0.00115,475516991.19248,   0.00080,275516995.59869,   0.00023,   0.00064,  -0.00042,  -4.40622,   1.00000
333968613.16734,531834023.20759,-55849970.64654,   0.00072,   0.00241,  -0.00115,475525235.20829,   0.00081,275525243.06579,   0.00023,   0.00064,  -0.00042,  -7.85750,   1.00000
333128204.28897,532118719.03184,-55591196.09640,   0.00071,   0.00242,  -0.00115,475533512.53885,   0.00082,275533513.75802,   0.00024,   0.00065,  -0.00043,  -1.21917,   1.00000
332289722.72350,532399353.04960,-55333218.04039,   0.00071,   0.00243,  -0.00115,475541788.49854,   0.00083,275541797.57423,   0.00024,   0.00066,  -0.00043,  -9.07569,   1.00000
331454544.66600,532678382.91451,-55070189.82023,   0.00071,   0.00244,  -0.00115,475550082.91695,   0.00083,275550084.24289,   0.00024,   0.00067,  -0.00043,  -1.32593,   1.00000
330621960.79285,532949515.51035,-54816218.62452,   0.00070,   0.00245,  -0.00115,475558310.50720,   0.00084,275558310.53535,   0.00024,   0.00067,  -0.00044,  -0.02815,   1.00000
329774121.73453,533220221.06684,-54561991.16108,   0.00070,   0.00246,  -0.00115,475566586.36339,   0.00085,275566586.52562,   0.00024,   0.00068,  -0.00044,  -0.16223,   1.00000
328944872.29821,533487371.85556,-54301376.62917,   0.00070,   0.00247,  -0.00115,475574902.66453,   0.00086,275574912.21347,   0.00024,   0.00069,  -0.00044,  -9.54894,   1.00000
328100992.25677,533750221.05890,-54048762.87271,   0.00069,   0.00248,  -0.00115,475583209.07893,   0.00086,275583214.22381,   0.00024,   0.00069,  -0.00044,  -5.14488,   1.00000
327261004.00263,534007752.74108,-53799279.02805,   0.00069,   0.00249,  -0.00115,475591440.93745,   0.00087,275591445.77119,   0.00024,   0.00070,  -0.00045,  -4.83374,   1.00000
326407057.27039,534267051.72025,-53543657.14194,   0.00069,   0.00250,  -0.00115,475599708.89565,   0.00088,275599718.22113,   0.00024,   0.00071,  -0.00045,  -9.32548,   1.00000
325571137.00810,534516930.88413,-53295753.92249,   0.00068,   0.00251,  -0.00115,475607970.78583,   0.00089,275607975.84900,   0.00025,   0.00071,  -0.00045,  -5.06317,   1.00000
324737250.43215,534763077.21458,-53048632.13613,   0.00068,   0.00252,  -0.00115,475616243.79061,   0.00089,275616246.31176,   0.00025,   0.00072,  -0.00046,  -2.52115,   1.00000
323891136.17496,535009580.86172,-52797668.05731,   0.00068,   0.00253,  -0.00115,475624473.66974,   0.00090,275624474.37916,   0.00025,   0.00073,  -0.00046,  -0.70942,   1.00000
323044111.47377,535251363.56757,-52551084.66000,   0.00068,   0.00254,  -0.00115,475632808.47397,   0.00091,275632809.05719,   0.00025,   0.00073,  -0.00046,  -0.58322,   1.00000
322200880.74067,535488107.43886,-52307565.53805,   0.00067,   0.00255,  -0.00114,475641067.56367,   0.00092,275641072.95398,   0.00025,   0.00074,  -0.00046,  -5.39031,   1.00000
321361401.08945,535719918.86212,-52067086.17265,   0.00067,   0.00256,  -0.00114,475649263.89755,   0.00093,275649265.81373,   0.00025,   0.00075,  -0.00047,  -1.91618,   1.00000
320523571.25050,535951659.76842,-51819215.49884,   0.00067,   0.00257,  -0.00114,475657539.21686,   0.00093,275657546.15068,   0.00025,   0.00076,  -0.00047,  -6.93382,   1.00000
319686641.73131,536177552.69084,-51578031.86080,   0.00066,   0.00258,  -0.00114,475665844.71815,   0.00094,275665848.73861,   0.00025,   0.00076,  -0.00047,  -4.02046,   1.00000
318837641.28006,536400234.76417,-51341054.09206,   0.00066,   0.00259,  -0.00114,475674026.22349,   0.00095,275674035.32022,   0.00025,   0.00077,  -0.00048,  -9.09674,   1.00000
318005021.66402,536619049.42380,-51101408.96677,   0.00066,   0.00260,  -0.00114,475682359.94817,   0.00096,275682363.71236,   0.00025,   0.00078,  -0.00048,  -3.76419,   1.00000
317160215.47100,536834699.96617,-50865934.71543,   0.00065,   0.00261,  -0.00114,475690569.79850,   0.00096,275690576.12428,   0.00026,   0.00078,  -0.00048,  -6.32578,   1.00000
316317547.08315,537046877.48084,-50631206.85815,   0.00065,   0.00262,  -0.00114,475698797.11321,   0.00097,275698801.48093,   0.00026,   0.00079,  -0.00049,  -4.36772,   1.00000
315494080.33569,537256356.31802,-50390171.06319,   0.00065,   0.00263,  -0.00114,475707068.59290,   0.00098,275707074.65550,   0.00026,   0.00080,  -0.00049,  -6.06259,   1.00000
314655654.86877,537461699.97592,-50156971.55420,   0.00064,   0.00264,  -0.00114,475715316.43995,   0.00099,275715325.42570,   0.00026,   0.00080,  -0.00049,  -8.98575,   1.00000
313819402.62958,537663683.23294,-49924524.11622,   0.00064,   0.00265,  -0.00114,475723587.99129,   0.00099,275723588.91435,   0.00026,   0.00081,  -0.00049,  -0.92306,   1.00000
312969522.06751,537860390.75892,-49702032.56613,   0.00064,   0.00266,  -0.00114,475731739.93255,   0.00100,275731745.97567,   0.00026,   0.00082,  -0.00050,  -6.04312,   1.00000
312138996.07274,538054619.34847,-49473211.19586,   0.00063,   0.00267,  -0.00114,475739943.07172,   0.00101,275739950.55623,   0.00026,   0.00083,  -0.00050,  -7.48451,   1.00000
311309352.01847,538246685.79939,-49242975.05259,   0.00063,   0.00268,  -0.00114,475748244.58108,   0.00102,275748252.33214,   0.00026,   0.00083,  -0.00050,  -7.75106,   1.00000
310467037.63368,538435721.11237,-49016737.81453,   0.00062,   0.00268,  -0.00114,475756435.26373,   0.00102,275756438.53775,   0.00026,   0.00084,  -0.00050,  -3.27402,   1.00000
309643079.82264,538620279.11359,-48790133.64869,   0.00062,   0.00269,  -0.00114,475764680.59237,   0.00103,275764680.73289,   0.00026,   0.00085,  -0.00051,  -0.14053,   1.00000
308805215.08297,538799732.26391,-48573394.51408,   0.00062,   0.00270,  -0.00114,475772812.49096,   0.00104,275772816.27275,   0.00026,   0.00085,  -0.00051,  -3.78179,   1.00000
307985697.61303,538978023.91753,-48348233.29219,   0.00061,   0.00271,  -0.00114,475781076.22448,   0.00105,275781083.40714,   0.00026,   0.00086,  -0.00051,  -7.18266,   1.00000
307153240.77088,539153376.74564,-48126985.99657,   0.00061,   0.00272,  -0.00114,475789228.94033,   0.00105,275789234.96354,   0.00027,   0.00087,  -0.00052,  -6.02321,   1.00000
306337139.27343,539323428.11471,-47909222.28179,   0.00061,   0.00273,  -0.00114,475797527.98724,   0.00106,275797535.47270,   0.00027,   0.00088,  -0.00052,  -7.48546,   1.00000
305509041.39758,539492681.14621,-47689389.97853,   0.00060,   0.00274,  -0.00114,475805705.38570,   0.00107,275805711.70578,   0.00027,   0.00088,  -0.00052,  -6.32008,   1.00000
304683147.17101,539655870.41732,-47478278.84620,   0.00060,   0.00275,  -0.00114,475813819.20289,   0.00108,275813823.86618,   0.00027,   0.00089,  -0.00052,  -4.66329,   1.00000
303858455.01948,539817058.12672,-47265772.57710,   0.00060,   0.00276,  -0.00114,475822024.95029,   0.00109,275822033.50145,   0.00027,   0.00090,  -0.00053,  -8.55115,   1.00000
303036010.91955,539975320.61151,-47053960.81738,   0.00059,   0.00277,  -0.00114,475830252.62821,   0.00109,275830255.33623,   0.00027,   0.00090,  -0.00053,  -2.70802,   1.00000
302217759.32816,540131800.38917,-46838960.04761,   0.00059,   0.00278,  -0.00114,475838394.75656,   0.00110,275838395.47677,   0.00027,   0.00091,  -0.00053,  -0.72020,   1.00000
301417223.22757,540282436.72274,-46629589.88178,   0.00059,   0.00279,  -0.00114,475846590.83712,   0.00111,275846598.12298,   0.00027,   0.00092,  -0.00053,  -7.28585,   1.00000
300602356.53391,540431212.64589,-46421912.53404,   0.00058,   0.00280,  -0.00114,475854765.84749,   0.00112,275854770.58485,   0.00027,   0.00093,  -0.00054,  -4.73736,   1.00000
299790564.54287,540576306.32411,-46216940.38530,   0.00058,   0.00281,  -0.00114,475862864.94354,   0.00112,275862869.53607,   0.00027,   0.00093,  -0.00054,  -4.59252,   1.00000
298980175.64526,540719532.68319,-46010615.46132,   0.00058,   0.00282,  -0.00114,475871062.16174,   0.00113,275871065.83010,   0.00027,   0.00094,  -0.00054,  -3.66836,   1.00000
298171839.17644,540857153.68072,-45812924.23897,   0.00057,   0.00283,  -0.00114,475879192.86593,   0.00114,275879196.78393,   0.00027,   0.00095,  -0.00054,  -3.91800,   1.00000
297366701.53236,540994106.30462,-45609929.81831,   0.00057,   0.00284,  -0.00114,475887321.10702,   0.00115,275887331.10646,   0.00027,   0.00095,  -0.00055,  -9.99944,   1.00000
296563796.44189,541128411.55404,-45407602.56154,   0.00057,   0.00284,  -0.00114,475895469.79264,   0.00115,275895477.03239,   0.00027,   0.00096,  -0.00055,  -7.23976,   1.00000
295762856.19461,541257274.01118,-45213874.28551,   0.00056,   0.00285,  -0.00114,475903550.90130,   0.00116,275903557.12521,   0.00027,   0.00097,  -0.00055,  -6.22391,   1.00000
294964428.37973,541386371.44684,-45012849.23446,   0.00056,   0.00286,  -0.00114,475911720.17505,   0.00117,275911726.21816,   0.00027,   0.00097,  -0.00055,  -6.04311,   1.00000
294167930.92688,541510125.91410,-44820411.50316,   0.00056,   0.00287,  -0.00114,475919827.91131,   0.00118,275919829.15370,   0.00027,   0.00098,  -0.00056,  -1.24238,   1.00000
293375176.05880,541632526.96819,-44624606.39370,   0.00055,   0.00288,  -0.00114,475927848.23584,   0.00118,275927849.39441,   0.00027,   0.00099,  -0.00056,  -1.15857,   1.00000
292583132.22554,541751281.58331,-44433444.33522,   0.00055,   0.00289,  -0.00114,475935968.83793,   0.00119,275935975.01224,   0.00027,   0.00100,  -0.00056,  -6.17432,   1.00000
291793854.52479,541866807.68266,-44244854.93545,   0.00055,   0.00290,  -0.00114,475944017.63090,   0.00120,275944025.87744,   0.00027,   0.00100,  -0.00056,  -8.24655,   1.00000
291023734.96904,541979429.22849,-44055974.70562,   0.00054,   0.00291,  -0.00114,475952124.66538,   0.00121,275952128.06482,   0.00028,   0.00101,  -0.00057,  -3.39944,   1.00000
290238836.53892,542090204.55906,-43868623.42950,   0.00054,   0.00292,  -0.00114,475960198.13508,   0.00121,275960200.86280,   0.00028,   0.00102,  -0.00057,  -2.72772,   1.00000
289456155.65154,542198617.07973,-43681887.86651,   0.00054,   0.00293,  -0.00114,475968277.39988,   0.00122,275968284.71318,   0.00028,   0.00102,  -0.00057,  -7.31330,   1.00000
288675220.13190,542302054.72103,-43503643.65972,   0.00053,   0.00294,  -0.00114,475976299.07727,   0.00123,275976301.30788,   0.00028,   0.00103,  -0.00057,  -2.23061,   1.00000
287914433.50702,542404734.61178,-43319132.60543,   0.00053,   0.00295,  -0.00114,475984355.83823,   0.00124,275984360.57003,   0.00028,   0.00104,  -0.00057,  -4.73181,   1.00000
287138731.09807,542505565.31391,-43136109.00002,   0.00053,   0.00295,  -0.00114,475992385.81545,   0.00124,275992390.63233,   0.00028,   0.00105,  -0.00058,  -4.81688,   1.00000
286381802.01588,542601227.04689,-42960676.44287,   0.00052,   0.00296,  -0.00114,476000388.76268,   0.00125,276000392.51026,   0.00028,   0.00105,  -0.00058,  -3.74757,   1.00000
285609604.10077,542695769.86769,-42784801.87731,   0.00052,   0.00297,  -0.00114,476008443.64659,   0.00126,276008451.70023,   0.00028,   0.00106,  -0.00058,  -8.05364,   1.00000
284857913.88767,542789048.61723,-42604553.98857,   0.00052,   0.00298,  -0.00114,476016460.21409,   0.00127,276016466.48891,   0.00028,   0.00107,  -0.00058,  -6.27482,   1.00000
284107752.61794,542877664.41198,-42432741.89246,   0.00051,   0.00299,  -0.00114,476024403.98156,   0.00127,276024412.80265,   0.00028,   0.00107,  -0.00059,  -8.82110,   1.00000
283359550.72941,542964943.60912,-42259637.66255,   0.00051,   0.00300,  -0.00114,476032449.96664,   0.00128,276032455.68136,   0.00028,   0.00108,  -0.00059,  -5.71472,   1.00000
282596408.52198,543049671.53682,-42089792.50235,   0.00051,   0.00301,  -0.00114,476040377.42516,   0.00129,276040383.18122,   0.00028,   0.00109,  -0.00059,  -5.75606,   1.00000
281852038.55957,543129684.19817,-41927489.57516,   0.00050,   0.00302,  -0.00114,476048274.81060,   0.00130,276048280.94072,   0.00028,   0.00110,  -0.00059,  -6.13012,   1.00000
281127852.87207,543210160.05664,-41757079.19786,   0.00050,   0.00303,  -0.00114,476056302.01019,   0.00130,276056306.19608,   0.00028,   0.00110,  -0.00059,  -4.18589,   1.00000
280388504.01218,543288152.58262,-41589884.72606,   0.00049,   0.00303,  -0.00114,476064211.11361,   0.00131,276064215.69831,   0.00028,   0.00111,  -0.00060,  -4.58470,   1.00000
279650471.42173,543362408.38816,-41429220.50527,   0.00049,   0.00304,  -0.00114,476072137.69785,   0.00132,276072142.62281,   0.00028,   0.00112,  -0.00060,  -4.92496,   1.00000
278914583.92833,543434130.21123,-41270895.01339,   0.00049,   0.00305,  -0.00114,476079988.03945,   0.00132,276079992.49913,   0.00028,   0.00112,  -0.00060,  -4.45968,   1.00000
278199063.01574,543506474.26823,-41104495.02516,   0.00048,   0.00306,  -0.00114,476087967.58974,   0.00133,276087969.46931,   0.00028,   0.00113,  -0.00060,  -1.87957,   1.00000
277484749.93538,543573924.18854,-40948235.81538,   0.00048,   0.00307,  -0.00114,476095785.66582,   0.00134,276095789.51897,   0.00028,   0.00114,  -0.00061,  -3.85315,   1.00000
276755083.30898,543640211.45227,-40791480.69981,   0.00048,   0.00308,  -0.00114,476103663.42604,   0.00135,276103667.64652,   0.00028,   0.00114,  -0.00061,  -4.22048,   1.00000
276044940.77977,543704175.65178,-40636242.16093,   0.00048,   0.00309,  -0.00114,476111505.33532,   0.00135,276111506.17351,   0.00028,   0.00115,  -0.00061,  -0.83819,   1.00000
275336080.74437,543764654.74062,-40487501.39628,   0.00047,   0.00310,  -0.00114,476119356.38997,   0.00136,276119361.26306,   0.00028,   0.00116,  -0.00061,  -4.87309,   1.00000
274647630.01881,543825398.63783,-40332487.88317,   0.00047,   0.00310,  -0.00114,476127248.46954,   0.00137,276127255.55419,   0.00028,   0.00117,  -0.00061,  -7.08466,   1.00000
273943422.82080,543883733.18714,-40180521.96938,   0.00047,   0.00311,  -0.00114,476135028.83500,   0.00138,276135033.78912,   0.00028,   0.00117,  -0.00062,  -4.95412,   1.00000
273258110.90400,543938879.03930,-40034285.18362,   0.00046,   0.00312,  -0.00114,476142857.49376,   0.00138,276142865.76179,   0.00028,   0.00118,  -0.00062,  -8.26802,   1.00000
272556918.80844,543991629.85301,-39891036.46423,   0.00046,   0.00313,  -0.00114,476150574.10523,   0.00139,276150581.71158,   0.00028,   0.00119,  -0.00062,  -7.60636,   1.00000
271875698.91411,544043692.35045,-39745754.86067,   0.00046,   0.00314,  -0.00114,476158430.39590,   0.00140,276158430.82685,   0.00028,   0.00119,  -0.00062,  -0.43094,   1.00000
271196180.59687,544093621.75503,-39602693.23673,   0.00045,   0.00315,  -0.00114,476166195.18038,   0.00140,276166201.14873,   0.00028,   0.00120,  -0.00062,  -5.96835,   1.00000
270518318.67809,544141466.56229,-39461833.73830,   0.00045,   0.00316,  -0.00114,476173887.02184,   0.00141,276173892.48680,   0.00028,   0.00121,  -0.00063,  -5.46496,   1.00000
269842418.44736,544187846.04845,-39321429.97081,   0.00045,   0.00316,  -0.00114,476181585.82399,   0.00142,276181592.09008,   0.00028,   0.00121,  -0.00063,  -6.26609,   1.00000
269186249.05278,544233156.09441,-39180754.21555,   0.00044,   0.00317,  -0.00114,476189329.44269,   0.00143,276189336.70334,   0.00028,   0.00122,  -0.00063,  -7.26065,   1.00000
268530875.39639,544274785.51381,-39048258.72359,   0.00044,   0.00318,  -0.00114,476197005.56081,   0.00143,276197008.93806,   0.00028,   0.00123,  -0.00063,  -3.37725,   1.00000
267878133.11874,544316781.71407,-38910191.28912,   0.00044,   0.00319,  -0.00114,476204681.52513,   0.00144,276204681.74020,   0.00028,   0.00123,  -0.00063,  -0.21507,   1.00000
267226580.06447,544355724.08707,-38778577.50104,   0.00043,   0.00320,  -0.00114,476212363.52284,   0.00145,276212369.47272,   0.00028,   0.00124,  -0.00064,  -5.94987,   1.00000
266576446.00456,544392775.80801,-38649089.95155,   0.00043,   0.00321,  -0.00114,476219971.20361,   0.00145,276219977.36253,   0.00028,   0.00125,  -0.00064,  -6.15892,   1.00000
265928202.12356,544428541.86159,-38520019.57949,   0.00043,   0.00321,  -0.00114,476227590.84436,   0.00146,276227592.85910,   0.00028,   0.00126,  -0.00064,  -2.01475,   1.00000
265299748.53884,544463561.40706,-38390665.73264,   0.00042,   0.00322,  -0.00114,476235246.48136,   0.00147,276235252.16705,   0.00028,   0.00126,  -0.00064,  -5.68569,   1.00000
264672575.82878,544496795.36474,-38263416.48162,   0.00042,   0.00323,  -0.00114,476242827.05480,   0.00148,276242831.04160,   0.00028,   0.00127,  -0.00064,  -3.98680,   1.00000
264046542.24329,544527159.25957,-38142587.45066,   0.00042,   0.00324,  -0.00114,476250418.38741,   0.00148,276250424.14455,   0.00028,   0.00128,  -0.00065,  -5.75714,   1.00000
263422405.59580,544557457.81667,-38017808.82449,   0.00042,   0.00325,  -0.00114,476257928.51551,   0.00149,276257929.62203,   0.00028,   0.00128,  -0.00065,  -1.10653,   1.00000
262817381.48029,544585561.45049,-37898757.52584,   0.00041,   0.00325,  -0.00114,476265478.44885,   0.00150,276265485.03218,   0.00028,   0.00129,  -0.00065,  -6.58333,   1.00000
262214137.29730,544612583.43875,-37780093.10931,   0.00041,   0.00326,  -0.00114,476273038.72547,   0.00150,276273047.11965,   0.00028,   0.00130,  -0.00065,  -8.39418,   1.00000
261611969.47181,544637966.51342,-37663467.46771,   0.00041,   0.00327,  -0.00114,476280522.81735,   0.00151,276280528.07411,   0.00028,   0.00130,  -0.00065,  -5.25676,   1.00000
261011553.18983,544662288.16186,-37547215.78426,   0.00040,   0.00328,  -0.00114,476288011.06755,   0.00152,276288015.65633,   0.00028,   0.00131,  -0.00065,  -4.58878,   1.00000
260412135.16813,544684993.52077,-37432979.64511,   0.00040,   0.00329,  -0.00114,476295416.78259,   0.00153,276295421.99333,   0.00028,   0.00132,  -0.00066,  -5.21074,   1.00000
259832539.39577,544707427.79702,-37318444.18782,   0.00040,   0.00329,  -0.00114,476302860.65030,   0.00153,276302870.22317,   0.00028,   0.00132,  -0.00066,  -9.57287,   1.00000
259253183.58781,544726701.44597,-37211926.29715,   0.00039,   0.00330,  -0.00114,476310238.51026,   0.00154,276310243.59509,   0.00028,   0.00133,  -0.00066,  -5.08484,   1.00000
258676153.42821,544746647.33788,-37099728.64286,   0.00039,   0.00331,  -0.00114,476317608.75294,   0.00155,276317616.26694,   0.00028,   0.00134,  -0.00066,  -7.51399,   1.00000
258118299.60006,544764864.03897,-36993256.53323,   0.00039,   0.00332,  -0.00114,476325032.28261,   0.00155,276325036.95021,   0.00028,   0.00134,  -0.00066,  -4.66760,   1.00000
257561210.00492,544781629.05141,-36888744.88872,   0.00039,   0.00333,  -0.00114,476332366.29750,   0.00156,276332375.45135,   0.00028,   0.00135,  -0.00067,  -9.15385,   1.00000
257005740.43347,544797535.04302,-36784566.52870,   0.00038,   0.00333,  -0.00115,476339714.83465,   0.00157,276339719.64096,   0.00028,   0.00136,  -0.00067,  -4.80630,   1.00000
256450964.77783,544812012.17253,-36682327.67617,   0.00038,   0.00334,  -0.00115,476346973.63370,   0.00157,276346981.52924,   0.00028,   0.00136,  -0.00067,  -7.89554,   1.00000
255915381.16847,544824978.67610,-36585795.94845,   0.00038,   0.00335,  -0.00115,476354289.38508,   0.00158,276354290.55647,   0.00028,   0.00137,  -0.00067,  -1.17138,   1.00000
255381983.71917,544838746.25035,-36483549.30464,   0.00037,   0.00336,  -0.00115,476361590.92553,   0.00159,276361598.20880,   0.00028,   0.00138,  -0.00067,  -7.28327,   1.00000
254848532.01692,544849581.73380,-36389247.02890,   0.00037,   0.00336,  -0.00115,476368824.34703,   0.00159,276368829.76169,   0.00028,   0.00138,  -0.00067,  -5.41466,   1.00000
254317241.58799,544861241.59478,-36289218.16884,   0.00037,   0.00337,  -0.00115,476376055.25095,   0.00160,276376059.86240,   0.00027,   0.00139,  -0.00068,  -4.61145,   1.00000
253804131.91368,544871003.64751,-36196493.15428,   0.00037,   0.00338,  -0.00115,476383243.04767,   0.00161,276383248.15974,   0.00027,   0.00140,  -0.00068,  -5.11207,   1.00000
253291452.27865,544879500.12203,-36105641.82999,   0.00036,   0.00339,  -0.00115,476390345.89689,   0.00161,276390353.19838,   0.00027,   0.00140,  -0.00068,  -7.30150,   1.00000
252799637.27397,544888926.15402,-36012879.90064,   0.00036,   0.00339,  -0.00115,476397584.08393,   0.00162,276397585.55544,   0.00027,   0.00141,  -0.00068,  -1.47151,   1.00000
252288727.30707,544895496.04208,-35924174.00316,   0.00036,   0.00340,  -0.00115,476404608.66241,   0.00163,276404611.88395,   0.00027,   0.00141,  -0.00068,  -3.22154,   1.00000
251798123.98212,544901475.37764,-35839586.48996,   0.00036,   0.00341,  -0.00115,476411766.99761,   0.00163,276411772.07708,   0.00027,   0.00142,  -0.00068,  -5.07948,   1.00000
251326797.43710,544908960.29562,-35750199.17179,   0.00035,   0.00342,  -0.00115,476418870.80282,   0.00164,276418875.87874,   0.00027,   0.00143,  -0.00069,  -5.07592,   1.00000
250836680.83502,544912594.17286,-35669286.77528,   0.00035,   0.00342,  -0.00115,476425863.41442,   0.00165,276425868.29324,   0.00027,   0.00143,  -0.00069,  -4.87881,   1.00000
250366359.40473,544916777.86963,-35588020.98168,   0.00035,   0.00343,  -0.00115,476432892.00453,   0.00165,276432899.08658,   0.00027,   0.00144,  -0.00069,  -7.08205,   1.00000
249914621.10137,544921021.86292,-35507965.74041,   0.00035,   0.00344,  -0.00115,476439874.58271,   0.00166,276439879.48995,   0.00027,   0.00145,  -0.00069,  -4.90724,   1.00000
249464168.80085,544924737.61288,-35428158.85289,   0.00034,   0.00345,  -0.00115,476446857.23538,   0.00167,276446863.81697,   0.00027,   0.00145,  -0.00069,  -6.58160,   1.00000
249015002.66097,544927936.85705,-35348600.30893,   0.00034,   0.00345,  -0.00115,476453845.51122,   0.00167,276453852.02048,   0.00027,   0.00146,  -0.00069,  -6.50926,   1.00000
248565872.92701,544930061.65518,-35270833.43262,   0.00034,   0.00346,  -0.00115,476460747.48408,   0.00168,276460755.68183,   0.00027,   0.00147,  -0.00070,  -8.19775,   1.00000
248134645.24752,544930835.33935,-35200290.59963,   0.00034,   0.00347,  -0.00115,476467605.76065,   0.00169,276467614.81013,   0.00027,   0.00147,  -0.00070,  -9.04948,   1.00000
247705220.18289,544932700.51905,-35123932.11005,   0.00033,   0.00347,  -0.00116,476474470.93682,   0.00169,276474470.94326,   0.00027,   0.00148,  -0.00070,  -0.00644,   1.00000
247276416.00064,544932549.44635,-35053838.51911,   0.00033,   0.00348,  -0.00116,476481328.43985,   0.00170,276481337.23546,   0.00027,   0.00148,  -0.00070,  -8.79561,   1.00000
246866034.95562,544932707.23135,-34984912.26402,   0.00033,   0.00349,  -0.00116,476488142.69793,   0.00171,276488151.85179,   0.00027,   0.00149,  -0.00070,  -9.15385,   1.00000
246456810.71103,544932456.07183,-34916196.80678,   0.00033,   0.00350,  -0.00116,476494961.61899,   0.00171,276494969.74047,   0.00027,   0.00150,  -0.00070,  -8.12148,   1.00000
246065941.47684,544932579.61873,-34848642.80347,   0.00033,   0.00350,  -0.00116,476501730.69492,   0.00172,276501735.53228,   0.00027,   0.00150,  -0.00070,  -4.83736,   1.00000
245655667.70466,544928885.44402,-34789423.02470,   0.00032,   0.00351,  -0.00116,476508383.89744,   0.00172,276508389.15869,   0.00027,   0.00151,  -0.00071,  -5.26125,   1.00000
245284242.24554,544929066.69385,-34723203.39440,   0.00032,   0.00352,  -0.00116,476515095.85965,   0.00173,276515105.71888,   0.00027,   0.00151,  -0.00071,  -9.85922,   1.00000
244895276.70940,544927537.79182,-34657754.70743,   0.00032,   0.00352,  -0.00116,476521791.45178,   0.00174,276521791.94682,   0.00027,   0.00152,  -0.00071,  -0.49504,   1.00000
244524007.17450,544924963.08650,-34599486.52457,   0.00032,   0.00353,  -0.00116,476528428.63722,   0.00174,276528431.98460,   0.00027,   0.00153,  -0.00071,  -3.34737,   1.00000
244170950.23335,544922925.91974,-34542341.10188,   0.00031,   0.00354,  -0.00116,476535013.91967,   0.00175,276535019.02686,   0.00027,   0.00153,  -0.00071,  -5.10719,   1.00000
243818873.15217,544920606.86363,-34485367.56078,   0.00031,   0.00354,  -0.00116,476541607.93612,   0.00176,276541608.53286,   0.00027,   0.00154,  -0.00071,  -0.59674,   1.00000
243467767.24199,544917990.94760,-34428564.23447,   0.00031,   0.00355,  -0.00116,476548194.90153,   0.00176,276548200.56513,   0.00027,   0.00154,  -0.00071,  -5.66360,   1.00000
243116163.62720,544914533.80135,-34373435.28778,   0.00031,   0.00356,  -0.00116,476554704.48072,   0.00177,276554706.37704,   0.00027,   0.00155,  -0.00072,  -1.89632,   1.00000
242782132.34433,544910203.98248,-34325452.67039,   0.00031,   0.00356,  -0.00116,476561164.00092,   0.00177,276561165.06560,   0.00026,   0.00156,  -0.00072,  -1.06468,   1.00000
242468228.98070,544908615.48247,-34271018.81222,   0.00031,   0.00357,  -0.00116,476567647.38176,   0.00178,276567652.26235,   0.00026,   0.00156,  -0.00072,  -4.88059,   1.00000
242153125.15519,544904734.22702,-34224283.28471,   0.00030,   0.00358,  -0.00117,476574050.69891,   0.00179,276574059.15202,   0.00026,   0.00157,  -0.00072,  -8.45311,   1.00000
241839431.79031,544902140.68998,-34171646.51737,   0.00030,   0.00358,  -0.00117,476580458.98727,   0.00179,276580461.66042,   0.00026,   0.00157,  -0.00072,  -2.67315,   1.00000
241544732.96959,544899351.46536,-34124655.85436,   0.00030,   0.00359,  -0.00117,476586895.87446,   0.00180,276586905.04239,   0.00026,   0.00158,  -0.00072,  -9.16793,   1.00000
241247743.13179,544895233.72644,-34080785.41772,   0.00030,   0.00359,  -0.00117,476593163.74478,   0.00180,276593172.75294,   0.00026,   0.00159,  -0.00072,  -9.00815,   1.00000
240953114.23151,544891504.91563,-34035554.28251,   0.00030,   0.00360,  -0.00117,476599524.99486,   0.00181,276599530.99154,   0.00026,   0.00159,  -0.00073,  -5.99668,   1.00000
240674311.81348,544886527.56170,-33998925.30388,   0.00029,   0.00361,  -0.00117,476605752.18229,   0.00182,276605752.19081,   0.00026,   0.00160,  -0.00073,  -0.00852,   1.00000
240415523.48122,544884449.12511,-33955817.89158,   0.00029,   0.00361,  -0.00117,476612000.96304,   0.00182,276612001.00260,   0.00026,   0.00160,  -0.00073,  -0.03956,   1.00000
240138154.58178,544879151.40469,-33919418.75195,   0.00029,   0.00362,  -0.00117,476618222.41542,   0.00183,276618225.30076,   0.00026,   0.00161,  -0.00073,  -2.88534,   1.00000
239897946.62690,544877801.06017,-33877484.40108,   0.00029,   0.00363,  -0.00117,476624410.93076,   0.00183,276624420.54918,   0.00026,   0.00161,  -0.00073,  -9.61843,   1.00000
239637479.61464,544872676.29674,-33843732.78611,   0.00029,   0.00363,  -0.00117,476630501.43575,   0.00184,276630502.30078,   0.00026,   0.00162,  -0.00073,  -0.86503,   1.00000
239415215.56556,544870649.72509,-33809002.57352,   0.00029,   0.00364,  -0.00117,476636645.97040,   0.00184,276636649.78020,   0.00026,   0.00163,  -0.00073,  -3.80980,   1.00000
239174779.63529,544866889.22588,-33774908.91876,   0.00029,   0.00364,  -0.00117,476642756.62651,   0.00185,276642766.22940,   0.00026,   0.00163,  -0.00074,  -9.60289,   1.00000
238952113.29035,544864089.49122,-33741854.23855,   0.00028,   0.00365,  -0.00118,476648823.56452,   0.00186,276648827.10265,   0.00026,   0.00164,  -0.00074,  -3.53813,   1.00000
238747157.06035,544862252.22427,-33709833.55674,   0.00028,   0.00366,  -0.00118,476654826.71481,   0.00186,276654832.28182,   0.00026,   0.00164,  -0.00074,  -5.56701,   1.00000
238542211.37236,544858863.39573,-33683948.59511,   0.00028,   0.00366,  -0.00118,476660838.17105,   0.00187,276660844.61378,   0.00026,   0.00165,  -0.00074,  -6.44273,   1.00000
238336661.19194,544856284.24489,-33653563.64893,   0.00028,   0.00367,  -0.00118,476666753.58338,   0.00187,276666762.78320,   0.00026,   0.00165,  -0.00074,  -9.19982,   1.00000
238148238.44076,544853261.65884,-33630248.65577,   0.00028,   0.00367,  -0.00118,476672630.44348,   0.00188,276672631.16505,   0.00026,   0.00166,  -0.00074,  -0.72158,   1.00000
237979636.32224,544853317.82958,-33600425.15709,   0.00028,   0.00368,  -0.00118,476678525.36079,   0.00188,276678525.97556,   0.00026,   0.00166,  -0.00074,  -0.61478,   1.00000
237792137.12822,544850162.06671,-33577259.59284,   0.00028,   0.00368,  -0.00118,476684394.76966,   0.00189,276684395.74830,   0.00026,   0.00167,  -0.00074,  -0.97864,   1.00000
237641050.85207,544849747.22105,-33554569.82014,   0.00027,   0.00369,  -0.00118,476690231.78399,   0.00189,276690241.15464,   0.00026,   0.00167,  -0.00075,  -9.37066,   1.00000
237488656.15820,544848727.62139,-33533410.62128,   0.00027,   0.00369,  -0.00118,476695998.03843,   0.00190,276695998.10080,   0.00026,   0.00168,  -0.00075,  -0.06237,   1.00000
237334928.56581,544847062.00812,-33513772.82625,   0.00027,   0.00370,  -0.00118,476701656.86976,   0.00190,276701666.78092,   0.00026,   0.00168,  -0.00075,  -9.91116,   1.00000
237201627.77229,544846212.06174,-33498248.49445,   0.00027,   0.00371,  -0.00118,476707453.88113,   0.00191,276707462.71582,   0.00025,   0.00169,  -0.00075,  -8.83469,   1.00000
237065739.46752,544845622.02197,-33479646.41556,   0.00027,   0.00371,  -0.00119,476713065.22671,   0.00192,276713075.10763,   0.00025,   0.00169,  -0.00075,  -9.88092,   1.00000
236949038.76337,544846740.04966,-33460572.90944,   0.00027,   0.00372,  -0.00119,476718717.48840,   0.00192,276718719.52255,   0.00025,   0.00170,  -0.00075,  -2.03414,   1.00000
236830372.16940,544845777.95958,-33449058.78087,   0.00027,   0.00372,  -0.00119,476724277.93554,   0.00193,276724281.58795,   0.00025,   0.00170,  -0.00075,  -3.65241,   1.00000
236730852.68793,544846535.26095,-33437054.20053,   0.00027,   0.00373,  -0.00119,476729869.53268,   0.00193,276729875.58767,   0.00025,   0.00171,  -0.00075,  -6.05499,   1.00000
236629840.45798,544846692.05198,-33426542.83901,   0.00027,   0.00373,  -0.00119,476735371.79376,   0.00194,276735380.87675,   0.00025,   0.00171,  -0.00076,  -9.08299,   1.00000
236548460.17967,544850048.72884,-33409492.95035,   0.00027,   0.00374,  -0.00119,476740906.79861,   0.00194,276740911.68867,   0.00025,   0.00172,  -0.00076,  -4.89006,   1.00000
236464492.73387,544849889.15547,-33406042.63252,   0.00027,   0.00374,  -0.00119,476746364.88856,   0.00195,276746366.09212,   0.00025,   0.00172,  -0.00076,  -1.20355,   1.00000
236398353.00131,544852333.43127,-33397491.82318,   0.00026,   0.00375,  -0.00119,476751748.47650,   0.00195,276751757.18680,   0.00025,   0.00173,  -0.00076,  -8.71030,   1.00000
236332384.29800,544854784.91963,-33388965.59487,   0.00026,   0.00375,  -0.00119,476757140.66184,   0.00196,276757148.16160,   0.00025,   0.00173,  -0.00076,  -7.49977,   1.00000
236283680.31187,544858395.20707,-33381399.94609,   0.00026,   0.00376,  -0.00120,476762472.44103,   0.00196,276762481.85931,   0.00025,   0.00174,  -0.00076,  -9.41828,   1.00000
236234584.92498,544860557.99130,-33379903.76165,   0.00026,   0.00376,  -0.00120,476767818.68706,   0.00197,276767821.55695,   0.00025,   0.00174,  -0.00076,  -2.86989,   1.00000
236203227.40940,544865334.76024,-33373301.18340,   0.00026,   0.00377,  -0.00120,476773089.40813,   0.00197,276773097.73586,   0.00025,   0.00175,  -0.00076,  -8.32773,   1.00000
236188536.35695,544869837.87708,-33373702.87855,   0.00026,   0.00377,  -0.00120,476778321.18593,   0.00198,276778322.58706,   0.00025,   0.00175,  -0.00076,  -1.40113,   1.00000
236173883.30169,544874334.14374,-33374104.02184,   0.00026,   0.00378,  -0.00120,476783544.40356,   0.00198,276783547.17066,   0.00025,   0.00176,  -0.00077,  -2.76710,   1.00000
236158021.32942,544879697.45857,-33369913.85784,   0.00026,   0.00378,  -0.00120,476788672.24276,   0.00199,276788676.45185,   0.00025,   0.00176,  -0.00077,  -4.20908,   1.00000
236160553.70542,544885370.36798,-33371264.31624,   0.00026,   0.00379,  -0.00120,476793841.23708,   0.00199,276793843.17978,   0.00025,   0.00177,  -0.00077,  -1.94271,   1.00000
236161313.56203,544890442.55060,-33374068.42686,   0.00026,   0.00379,  -0.00120,476798912.62069,   0.00200,276798920.79650,   0.00025,   0.00177,  -0.00077,  -8.17582,   1.00000
236179181.76670,544896698.15028,-33377804.54452,   0.00026,   0.00380,  -0.00120,476803937.42837,   0.00200,276803940.81042,   0.00025,   0.00178,  -0.00077,  -3.38205,   1.00000
236215360.09041,544903248.02217,-33387060.09742,   0.00026,   0.00380,  -0.00121,476808993.67316,   0.00201,276808998.21689,   0.00025,   0.00178,  -0.00077,  -4.54374,   1.00000
236250212.20154,544910658.97977,-33391702.05040,   0.00026,   0.00381,  -0.00121,476813954.82688,   0.00201,276813960.19665,   0.00025,   0.00179,  -0.00077,  -5.36977,   1.00000
236302092.03691,544919230.43781,-33397270.52118,   0.00026,   0.00381,  -0.00121,476818860.04347,   0.00201,276818864.53715,   0.00025,   0.00179,  -0.00077,  -4.49368,   1.00000
236353337.25411,544926331.05365,-33408874.03596,   0.00026,   0.00381,  -0.00121,476823770.37814,   0.00202,276823774.57136,   0.00025,   0.00180,  -0.00077,  -4.19321,   1.00000
236423852.95059,544936633.64717,-33413879.59457,   0.00026,   0.00382,  -0.00121,476828707.65361,   0.00202,276828709.49132,   0.00025,   0.00180,  -0.00078,  -1.83771,   1.00000
236490176.78805,544944274.86442,-33427839.30152,   0.00026,   0.00382,  -0.00121,476833471.81541,   0.00203,276833472.61806,   0.00024,   0.00180,  -0.00078,  -0.80266,   1.00000
236575212.38024,544953638.21958,-33441242.99166,   0.00026,   0.00383,  -0.00121,476838260.23172,   0.00203,276838266.89310,   0.00024,   0.00181,  -0.00078,  -6.66138,   1.00000
236660583.13770,544964445.58555,-33448565.35026,   0.00026,   0.00383,  -0.00121,476843050.33609,   0.00204,276843054.35143,   0.00024,   0.00181,  -0.00078,  -4.01535,   1.00000
236760606.61125,544974323.25346,-33464317.04017,   0.00026,   0.00384,  -0.00121,476847698.99030,   0.00204,276847701.72003,   0.00024,   0.00182,  -0.00078,  -2.72972,   1.00000
236881002.73666,544986489.49487,-33478045.31610,   0.00026,   0.00384,  -0.00122,476852467.36758,   0.00205,276852468.84534,   0.00024,   0.00182,  -0.00078,  -1.47776,   1.00000
236997656.37308,544997431.56570,-33494663.15774,   0.00026,   0.00384,  -0.00122,476857057.10336,   0.00205,276857058.03270,   0.00024,   0.00183,  -0.00078,  -0.92934,   1.00000
237114055.21572,545008330.45282,-33511240.47978,   0.00026,   0.00385,  -0.00122,476861646.39157,   0.00206,276861646.64154,   0.00024,   0.00183,  -0.00078,  -0.24997,   1.00000
237246791.42878,545018850.55657,-33534765.19126,   0.00026,   0.00385,  -0.00122,476866181.82862,   0.00206,276866183.98584,   0.00024,   0.00183,  -0.00078,  -2.15722,   1.00000
237398600.32834,545032493.01122,-33551658.31187,   0.00026,   0.00386,  -0.00122,476870741.63548,   0.00206,276870746.27186,   0.00024,   0.00184,  -0.00078,  -4.63638,   1.00000
237548361.69419,545045479.52672,-33569974.58228,   0.00026,   0.00386,  -0.00122,476875211.94341,   0.00207,276875219.33536,   0.00024,   0.00184,  -0.00079,  -7.39195,   1.00000
237714396.55645,545058049.39736,-33595234.43628,   0.00026,   0.00386,  -0.00122,476879634.26090,   0.00207,276879641.20399,   0.00024,   0.00185,  -0.00079,  -6.94310,   1.00000
237899425.52223,545073704.02731,-33613856.29489,   0.00026,   0.00387,  -0.00122,476884087.00179,   0.00208,276884088.04099,   0.00024,   0.00185,  -0.00079,  -1.03921,   1.00000
238082353.37045,545088659.88801,-33633898.16601,   0.00026,   0.00387,  -0.00123,476888436.11558,   0.00208,276888445.77929,   0.00024,   0.00185,  -0.00079,  -9.66371,   1.00000
238262680.87543,545101481.07911,-33661410.17675,   0.00026,   0.00387,  -0.00123,476892714.50377,   0.00208,276892720.58068,   0.00024,   0.00186,  -0.00079,  -6.07691,   1.00000
238461433.72561,545115874.12170,-33688325.61515,   0.00026,   0.00388,  -0.00123,476897020.90970,   0.00209,276897026.74586,   0.00024,   0.00186,  -0.00079,  -5.83616,   1.00000
238677426.69305,545132702.02383,-33710067.03172,   0.00026,   0.00388,  -0.00123,476901260.38960,   0.00209,276901269.54840,   0.00024,   0.00187,  -0.00079,  -9.15880,   1.00000
238892429.18561,545147934.44991,-33737802.61112,   0.00026,   0.00388,  -0.00123,476905511.40245,   0.00210,276905518.01538,   0.00024,   0.00187,  -0.00079,  -6.61293,   1.00000
239124115.23208,545164101.57011,-33766411.36592,   0.00026,   0.00389,  -0.00123,476909706.64438,   0.00210,276909709.46395,   0.00024,   0.00187,  -0.00079,  -2.81958,   1.00000
239372451.99964,545181167.11426,-33795890.47072,   0.00026,   0.00389,  -0.00123,476913838.79517,   0.00210,276913844.01260,   0.00024,   0.00188,  -0.00079,  -5.21743,   1.00000
239601489.18905,545196453.25106,-33825834.32458,   0.00027,   0.00389,  -0.00123,476917944.05627,   0.00211,276917946.04091,   0.00024,   0.00188,  -0.00079,  -1.98464,   1.00000
239865967.58231,545214234.24107,-33856109.61138,   0.00027,   0.00390,  -0.00124,476922019.05704,   0.00211,276922023.37547,   0.00024,   0.00188,  -0.00080,  -4.31842,   1.00000
240128286.10364,545231259.70340,-33887791.42023,   0.00027,   0.00390,  -0.00124,476926010.66008,   0.00212,276926011.89391,   0.00024,   0.00189,  -0.00080,  -1.23383,   1.00000
240408813.14603,545249683.19145,-33918855.72978,   0.00027,   0.00390,  -0.00124,476930027.96680,   0.00212,276930032.19980,   0.00024,   0.00189,  -0.00080,  -4.23300,   1.00000
240687169.90450,545267324.92409,-33951326.68053,   0.00027,   0.00391,  -0.00124,476933955.44796,   0.00212,276933963.81177,   0.00024,   0.00190,  -0.00080,  -8.36381,   1.00000
240982123.26226,545285759.04018,-33984661.57115,   0.00027,   0.00391,  -0.00124,476937830.76221,   0.00213,276937838.98959,   0.00024,   0.00190,  -0.00080,  -8.22738,   1.00000
241294657.78650,545304035.24512,-34023418.56917,   0.00027,   0.00391,  -0.00124,476941748.21486,   0.00213,276941752.41985,   0.00024,   0.00190,  -0.00080,  -4.20498,   1.00000
241605543.50711,545322976.12800,-34057522.71208,   0.00027,   0.00392,  -0.00124,476945570.76463,   0.00213,276945571.08146,   0.00024,   0.00191,  -0.00080,  -0.31683,   1.00000
241914262.46343,545341090.00126,-34093033.66183,   0.00027,   0.00392,  -0.00124,476949297.18066,   0.00214,276949301.32607,   0.00024,   0.00191,  -0.00080,  -4.14540,   1.00000
242259215.83345,545360488.75555,-34133408.48958,   0.00028,   0.00392,  -0.00125,476953094.88965,   0.00214,276953102.49306,   0.00024,   0.00191,  -0.00080,  -7.60341,   1.00000
242583819.58749,545379023.56711,-34169683.36176,   0.00028,   0.00393,  -0.00125,476956773.71854,   0.00214,276956776.59419,   0.00024,   0.00192,  -0.00080,  -2.87565,   1.00000
242944582.16796,545398750.81213,-34210812.26740,   0.00028,   0.00393,  -0.00125,476960517.01289,   0.00215,276960521.92239,   0.00024,   0.00192,  -0.00080,  -4.90950,   1.00000
243303684.72136,545419080.20645,-34247290.78798,   0.00028,   0.00393,  -0.00125,476964165.21540,   0.00215,276964172.80560,   0.00024,   0.00192,  -0.00080,  -7.59019,   1.00000
243660055.87701,545437030.37482,-34291226.07773,   0.00028,   0.00393,  -0.00125,476967739.15361,   0.00215,276967741.87178,   0.00024,   0.00193,  -0.00081,  -2.71816,   1.00000
244034924.40280,545457588.33760,-34328453.11142,   0.00028,   0.00394,  -0.00125,476971332.20721,   0.00216,276971337.36963,   0.00024,   0.00193,  -0.00081,  -5.16242,   1.00000
244424269.92895,545476594.74183,-34374081.55399,   0.00028,   0.00394,  -0.00125,476974792.99894,   0.00216,276974795.90199,   0.00023,   0.00193,  -0.00081,  -2.90305,   1.00000
244814259.50330,545495772.90313,-34418095.66126,   0.00028,   0.00394,  -0.00126,476978335.07688,   0.00216,276978342.71252,   0.00023,   0.00194,  -0.00081,  -7.63564,   1.00000
245219862.39005,545516355.08086,-34458409.50298,   0.00029,   0.00394,  -0.00126,476981734.45455,   0.00217,276981740.23213,   0.00023,   0.00194,  -0.00081,  -5.77758,   1.00000
245642711.03141,545536388.41971,-34504104.05231,   0.00029,   0.00395,  -0.00126,476985172.45774,   0.00217,276985177.30038,   0.00023,   0.00194,  -0.00081,  -4.84264,   1.00000
246064722.45913,545555978.76149,-34549686.45061,   0.00029,   0.00395,  -0.00126,476988611.60717,   0.00217,276988614.76663,   0.00023,   0.00195,  -0.00081,  -3.15946,   1.00000
246502359.07332,545576856.95505,-34591569.41685,   0.00029,   0.00395,  -0.00126,476991894.69277,   0.00218,276991903.56883,   0.00023,   0.00195,  -0.00081,  -8.87605,   1.00000
246938585.58423,545595759.36151,-34639394.06678,   0.00029,   0.00395,  -0.00126,476995194.34692,   0.00218,276995199.20874,   0.00023,   0.00195,  -0.00081,  -4.86182,   1.00000
247391210.29943,545614929.19217,-34688047.90834,   0.00030,   0.00395,  -0.00126,476998434.17309,   0.00218,276998440.75946,   0.00023,   0.00195,  -0.00081,  -6.58637,   1.00000
247842963.81906,545633595.23815,-34736584.25337,   0.00030,   0.00396,  -0.00126,477001675.49059,   0.00219,277001682.97337,   0.00023,   0.00196,  -0.00081,  -7.48278,   1.00000
248311102.71009,545652471.18429,-34785948.18036,   0.00030,   0.00396,  -0.00127,477004866.63637,   0.00219,277004871.36817,   0.00023,   0.00196,  -0.00081,  -4.73179,   1.00000
248796845.27387,545672045.67064,-34834610.57236,   0.00030,   0.00396,  -0.00127,477008090.50665,   0.00219,277008093.89988,   0.00023,   0.00196,  -0.00081,  -3.39323,   1.00000
249279778.06592,545691475.32660,-34880161.98857,   0.00030,   0.00396,  -0.00127,477011133.24102,   0.00220,277011135.57631,   0.00023,   0.00197,  -0.00082,  -2.33529,   1.00000
249779695.99175,545710000.07647,-34931058.38213,   0.00031,   0.00397,  -0.00127,477014212.90515,   0.00220,277014218.08405,   0.00023,   0.00197,  -0.00082,  -5.17890,   1.00000
250278661.95768,545727915.91258,-34981829.12785,   0.00031,   0.00397,  -0.00127,477017294.61043,   0.00220,277017301.63767,   0.00023,   0.00197,  -0.00082,  -7.02724,   1.00000
250793957.34034,545745834.84990,-35033418.86182,   0.00031,   0.00397,  -0.00127,477020323.44741,   0.00220,277020332.31310,   0.00023,   0.00197,  -0.00082,  -8.86569,   1.00000
251325564.24711,545763706.37797,-35085825.25386,   0.00031,   0.00397,  -0.00127,477023308.01937,   0.00221,277023310.33121,   0.00023,   0.00198,  -0.00082,  -2.31184,   1.00000
251855047.07633,545780340.76657,-35139639.86924,   0.00031,   0.00397,  -0.00128,477026199.02728,   0.00221,277026202.25365,   0.00023,   0.00198,  -0.00082,  -3.22637,   1.00000
252401936.83458,545797376.99869,-35192724.48945,   0.00032,   0.00397,  -0.00128,477029121.70408,   0.00221,277029129.43205,   0.00023,   0.00198,  -0.00082,  -7.72798,   1.00000
252946729.45843,545813159.92778,-35247220.99081,   0.00032,   0.00398,  -0.00128,477031969.11495,   0.00222,277031970.66136,   0.00023,   0.00199,  -0.00082,  -1.54641,   1.00000
253508863.31585,545829248.88493,-35300978.47434,   0.00032,   0.00398,  -0.00128,477034838.88742,   0.00222,277034847.49937,   0.00023,   0.00199,  -0.00082,  -8.61194,   1.00000
254068919.81540,545844045.55920,-35356149.89899,   0.00032,   0.00398,  -0.00128,477037632.74269,   0.00222,277037638.63283,   0.00023,   0.00199,  -0.00082,  -5.89014,   1.00000
254645263.84437,545858542.04016,-35412128.51504,   0.00033,   0.00398,  -0.00128,477040378.15992,   0.00222,277040378.35768,   0.00023,   0.00199,  -0.00082,  -0.19776,   1.00000
255237870.12956,545872658.89190,-35468910.10634,   0.00033,   0.00398,  -0.00128,477043065.15120,   0.00223,277043067.02234,   0.00023,   0.00200,  -0.00082,  -1.87113,   1.00000
255829389.58160,545885927.91511,-35525548.38169,   0.00033,   0.00398,  -0.00129,477045755.57612,   0.00223,277045757.71460,   0.00023,   0.00200,  -0.00082,  -2.13849,   1.00000
256438080.20043,545899264.29078,-35581424.89787,   0.00033,   0.00398,  -0.00129,477048477.41695,   0.00223,277048484.88652,   0.00023,   0.00200,  -0.00082,  -7.46957,   1.00000
257062077.50738,545911535.05498,-35639661.58298,   0.00034,   0.00399,  -0.00129,477051065.29099,   0.00223,277051074.56512,   0.00023,   0.00200,  -0.00082,  -9.27413,   1.00000
257666717.04623,545922007.41638,-35698372.96676,   0.00034,   0.00399,  -0.00129,477053629.41505,   0.00224,277053631.99286,   0.00023,   0.00201,  -0.00083,  -2.57781,   1.00000
258306446.81694,545934304.61064,-35751213.32133,   0.00034,   0.00399,  -0.00129,477056163.10901,   0.00224,277056167.60237,   0.00023,   0.00201,  -0.00083,  -4.49336,   1.00000
258944382.78921,545944047.44588,-35809948.30090,   0.00034,   0.00399,  -0.00129,477058706.14454,   0.00224,277058712.27703,   0.00023,   0.00201,  -0.00083,  -6.13249,   1.00000
259598518.24242,545953066.80244,-35869471.98388,   0.00035,   0.00399,  -0.00129,477061203.32096,   0.00224,277061207.50621,   0.00023,   0.00201,  -0.00083,  -4.18525,   1.00000
260250691.71813,545960513.89029,-35930416.02270,   0.00035,   0.00399,  -0.00129,477063610.29015,   0.00225,277063618.71051,   0.00023,   0.00201,  -0.00083,  -8.42035,   1.00000
260919815.92602,545967675.82865,-35990565.21927,   0.00035,   0.00399,  -0.00130,477066064.88855,   0.00225,277066067.75663,   0.00023,   0.00202,  -0.00083,  -2.86808,   1.00000
261587005.46542,545973216.25551,-36052136.77696,   0.00036,   0.00399,  -0.00130,477068428.31055,   0.00225,277068433.08430,   0.00023,   0.00202,  -0.00083,  -4.77375,   1.00000
262271069.17150,545978357.61102,-36112902.64492,   0.00036,   0.00399,  -0.00130,477070831.55562,   0.00225,277070836.68020,   0.00023,   0.00202,  -0.00083,  -5.12457,   1.00000
262971274.88956,545982482.06807,-36174443.83486,   0.00036,   0.00399,  -0.00130,477073185.08352,   0.00225,277073192.19327,   0.00023,   0.00202,  -0.00083,  -7.10975,   1.00000
263669582.72948,545984895.68499,-36237409.58657,   0.00037,   0.00400,  -0.00130,477075460.60519,   0.00226,277075464.51511,   0.00023,   0.00203,  -0.00083,  -3.90992,   1.00000
264384700.06536,545987775.09063,-36295109.48984,   0.00037,   0.00400,  -0.00130,477077678.09762,   0.00226,277077682.76680,   0.00023,   0.00203,  -0.00083,  -4.66918,   1.00000
265097884.71780,545987825.28276,-36358682.69079,   0.00037,   0.00400,  -0.00130,477079907.03418,   0.00226,277079911.23864,   0.00023,   0.00203,  -0.00083,  -4.20446,   1.00000
265827206.76739,545986638.59746,-36423022.51610,   0.00038,   0.00400,  -0.00131,477082089.39516,   0.00226,277082092.73066,   0.00023,   0.00203,  -0.00083,  -3.33550,   1.00000
266555219.56576,545984156.12858,-36487186.82852,   0.00038,   0.00400,  -0.00131,477084270.97620,   0.00226,277084278.14094,   0.00023,   0.00203,  -0.00083,  -7.16474,   1.00000
267300023.91197,545981934.53281,-36546077.39823,   0.00038,   0.00400,  -0.00131,477086405.99266,   0.00227,277086410.47557,   0.00023,   0.00204,  -0.00083,  -4.48291,   1.00000
268060252.12310,545976658.53539,-36611766.47387,   0.00039,   0.00400,  -0.00131,477088497.05946,   0.00227,277088503.38697,   0.00023,   0.00204,  -0.00083,  -6.32751,   1.00000
268819116.35283,545969980.52964,-36677272.27739,   0.00039,   0.00400,  -0.00131,477090595.31732,   0.00227,277090600.65679,   0.00023,   0.00204,  -0.00083,  -5.33947,   1.00000
269576920.86896,545962985.08808,-36738176.35370,   0.00039,   0.00400,  -0.00131,477092609.17394,   0.00227,277092609.53670,   0.00023,   0.00204,  -0.00083,  -0.36277,   1.00000
270350150.66103,545952770.64011,-36805872.08551,   0.00040,   0.00400,  -0.00131,477094576.15405,   0.00227,277094579.82456,   0.00023,   0.00204,  -0.00083,  -3.67050,   1.00000
271140467.03991,545943027.11050,-36866658.20598,   0.00040,   0.00400,  -0.00131,477096579.14420,   0.00228,277096584.61833,   0.00023,   0.00204,  -0.00084,  -5.47413,   1.00000
271928391.56977,545929607.43829,-36934917.49687,   0.00040,   0.00400,  -0.00132,477098512.62600,   0.00228,277098514.96094,   0.00023,   0.00205,  -0.00084,  -2.33494,   1.00000
272733074.73426,545915990.73058,-36997883.14435,   0.00041,   0.00400,  -0.00132,477100390.23490,   0.00228,277100394.45194,   0.00023,   0.00205,  -0.00084,  -4.21704,   1.00000
273553312.35499,545899372.72604,-37065991.20841,   0.00041,   0.00400,  -0.00132,477102317.46884,   0.00228,277102322.58494,   0.00023,   0.00205,  -0.00084,  -5.11610,   1.00000
274372765.21411,545882745.44870,-37127865.66136,   0.00041,   0.00400,  -0.00132,477104247.45974,   0.00228,277104249.39863,   0.00023,   0.00205,  -0.00084,  -1.93890,   1.00000
275189731.88991,545861742.81688,-37198850.49037,   0.00042,   0.00400,  -0.00132,477106012.94408,   0.00229,277106016.97356,   0.00023,   0.00205,  -0.00084,  -4.02948,   1.00000
276023570.61170,545840843.50548,-37262891.61367,   0.00042,   0.00400,  -0.00132,477107816.57415,   0.00229,277107820.51359,   0.00023,   0.00205,  -0.00084,  -3.93944,   1.00000
276855845.97796,545817689.53715,-37328377.03512,   0.00043,   0.00400,  -0.00132,477109541.58718,   0.00229,277109544.21505,   0.00023,   0.00206,  -0.00084,  -2.62787,   1.00000
277703466.20225,545791217.83640,-37398973.26378,   0.00043,   0.00400,  -0.00133,477111313.21289,   0.00229,277111317.77232,   0.00023,   0.00206,  -0.00084,  -4.55944,   1.00000
278567775.82618,545764068.35615,-37464252.89431,   0.00043,   0.00400,  -0.00133,477113039.14729,   0.00229,277113042.73120,   0.00023,   0.00206,  -0.00084,  -3.58391,   1.00000
279430524.31096,545735070.85838,-37529322.23471,   0.00044,   0.00400,  -0.00133,477114764.57856,   0.00229,277114773.95241,   0.00023,   0.00206,  -0.00084,  -9.37385,   1.00000
280309288.64537,545703058.96060,-37596760.23295,   0.00044,   0.00400,  -0.00133,477116378.60277,   0.00230,277116378.64929,   0.00023,   0.00206,  -0.00084,  -0.04652,   1.00000
281186380.13455,545669682.52300,-37662324.26568,   0.00045,   0.00400,  -0.00133,477118069.27362,   0.00230,277118075.15197,   0.00023,   0.00206,  -0.00084,  -5.87834,   1.00000
282062160.09398,545633275.54467,-37730997.47170,   0.00045,   0.00400,  -0.00133,477119605.26668,   0.00230,277119607.97762,   0.00023,   0.00207,  -0.00084,  -2.71094,   1.00000
282971070.01822,545594592.07927,-37797962.59019,   0.00045,   0.00400,  -0.00133,477121219.17232,   0.00230,277121223.71528,   0.00023,   0.00207,  -0.00084,  -4.54296,   1.00000
283861016.86027,545554080.90867,-37865453.56738,   0.00046,   0.00400,  -0.00133,477122807.72526,   0.00230,277122808.29318,   0.00023,   0.00207,  -0.00084,  -0.56791,   1.00000
284784389.09782,545509919.67968,-37934553.63691,   0.00046,   0.00400,  -0.00134,477124305.18562,   0.00230,277124306.81126,   0.00023,   0.00207,  -0.00084,  -1.62563,   1.00000
285688567.89973,545464502.69439,-38002509.08087,   0.00047,   0.00400,  -0.00134,477125854.46888,   0.00230,277125859.10063,   0.00023,   0.00207,  -0.00084,  -4.63175,   1.00000
286608954.31896,545415541.07775,-38072828.58864,   0.00047,   0.00399,  -0.00134,477127287.08130,   0.00231,277127287.76507,   0.00023,   0.00207,  -0.00084,  -0.68377,   1.00000
287545616.45028,545365747.90956,-38136120.68662,   0.00048,   0.00399,  -0.00134,477128747.26040,   0.00231,277128755.99226,   0.00023,   0.00207,  -0.00084,  -8.73187,   1.00000
288480203.90534,545311495.32940,-38206890.77580,   0.00048,   0.00399,  -0.00134,477130153.23637,   0.00231,277130154.18948,   0.00023,   0.00207,  -0.00084,  -0.95311,   1.00000
289430183.70172,545254582.62093,-38276643.93003,   0.00048,   0.00399,  -0.00134,477131597.68160,   0.00231,277131599.28666,   0.00023,   0.00208,  -0.00084,  -1.60506,   1.00000
290379667.11755,545196472.34220,-38341818.09538,   0.00049,   0.00399,  -0.00134,477132957.80303,   0.00231,277132961.33199,   0.00023,   0.00208,  -0.00084,  -3.52896,   1.00000
291343648.19843,545133874.66416,-38411989.62713,   0.00049,   0.00399,  -0.00134,477134376.97578,   0.00231,277134377.57502,   0.00023,   0.00208,  -0.00085,  -0.59923,   1.00000
292307735.38629,545069370.39974,-38479277.86686,   0.00050,   0.00399,  -0.00135,477135622.12449,   0.00231,277135627.09262,   0.00023,   0.00208,  -0.00085,  -4.96813,   1.00000
293286423.68195,545002532.08139,-38543825.86576,   0.00050,   0.00399,  -0.00135,477137005.79249,   0.00231,277137008.75191,   0.00023,   0.00208,  -0.00085,  -2.95941,   1.00000
294263741.72095,544930296.33777,-38617547.26637,   0.00051,   0.00399,  -0.00135,477138234.11202,   0.00232,277138237.97266,   0.00023,   0.00208,  -0.00085,  -3.86064,   1.00000
295256936.16110,544856630.40294,-38684182.53042,   0.00051,   0.00399,  -0.00135,477139502.28376,   0.00232,277139509.06119,   0.00023,   0.00208,  -0.00085,  -6.77742,   1.00000
296248271.18405,544780446.12803,-38750559.52220,   0.00052,   0.00399,  -0.00135,477140781.02018,   0.00232,277140789.28713,   0.00023,   0.00208,  -0.00085,  -8.26695,   1.00000
297238504.52737,544701101.96594,-38818389.16793,   0.00052,   0.00398,  -0.00135,477141991.55659,   0.00232,277141994.87084,   0.00023,   0.00209,  -0.00085,  -3.31425,   1.00000
298244435.92952,544617764.49378,-38886850.53045,   0.00053,   0.00398,  -0.00135,477143161.35622,   0.00232,277143166.22481,   0.00023,   0.00209,  -0.00085,  -4.86858,   1.00000
299265180.62568,544530968.63526,-38954218.02425,   0.00053,   0.00398,  -0.00135,477144379.36385,   0.00232,277144387.46743,   0.00023,   0.00209,  -0.00085,  -8.10358,   1.00000
300284852.03377,544440814.24392,-39023032.31416,   0.00054,   0.00398,  -0.00136,477145527.46738,   0.00232,277145535.06259,   0.00023,   0.00209,  -0.00085,  -7.59522,   1.00000
301302592.82239,544347970.05274,-39091574.61346,   0.00054,   0.00398,  -0.00136,477146690.00719,   0.00232,277146692.54767,   0.00023,   0.00209,  -0.00085,  -2.54047,   1.00000
302336894.57056,544250071.46359,-39162450.41978,   0.00055,   0.00398,  -0.00136,477147727.85714,   0.00232,277147734.14911,   0.00023,   0.00209,  -0.00085,  -6.29197,   1.00000
303369088.55424,544151812.54489,-39225300.74462,   0.00055,   0.00398,  -0.00136,477148857.52221,   0.00233,277148862.37305,   0.00023,   0.00209,  -0.00085,  -4.85083,   1.00000
304415970.92893,544047282.47411,-39294768.69922,   0.00056,   0.00397,  -0.00136,477149959.38368,   0.00233,277149965.64582,   0.00023,   0.00209,  -0.00085,  -6.26214,   1.00000
305461904.13171,543939160.00051,-39365682.64414,   0.00056,   0.00397,  -0.00136,477150986.60947,   0.00233,277150996.57295,   0.00023,   0.00209,  -0.00085,  -9.96348,   1.00000
306523086.03032,543828763.95127,-39429427.19076,   0.00057,   0.00397,  -0.00136,477152066.91127,   0.00233,277152072.52828,   0.00023,   0.00209,  -0.00085,  -5.61701,   1.00000
307582480.68712,543712929.72989,-39500635.57041,   0.00057,   0.00397,  -0.00136,477153079.52953,   0.00233,277153083.59812,   0.00023,   0.00210,  -0.00085,  -4.06859,   1.00000
308658204.43376,543593891.79015,-39566398.62124,   0.00058,   0.00397,  -0.00136,477154054.23646,   0.00233,277154057.69689,   0.00023,   0.00210,  -0.00085,  -3.46042,   1.00000
309731809.94084,543471787.21436,-39631861.57024,   0.00058,   0.00397,  -0.00137,477155038.36392,   0.00233,277155043.24773,   0.00023,   0.00210,  -0.00085,  -4.88381,   1.00000
310803712.26805,543344110.73763,-39704788.36509,   0.00059,   0.00396,  -0.00137,477155964.26533,   0.00233,277155964.66392,   0.00023,   0.00210,  -0.00085,  -0.39859,   1.00000
311890561.31265,543213750.30632,-39770503.30556,   0.00059,   0.00396,  -0.00137,477156932.32051,   0.00233,277156932.66875,   0.00023,   0.00210,  -0.00085,  -0.34824,   1.00000
312976609.81016,543079433.55508,-39837662.43574,   0.00060,   0.00396,  -0.00137,477157822.43626,   0.00233,277157830.24112,   0.00023,   0.00210,  -0.00085,  -7.80487,   1.00000
314060497.05166,542941959.49717,-39904513.38853,   0.00060,   0.00396,  -0.00137,477158732.59054,   0.00234,277158739.66856,   0.00023,   0.00210,  -0.00085,  -7.07803,   1.00000
315159709.84349,542799019.51852,-39971904.51945,   0.00061,   0.00396,  -0.00137,477159612.97751,   0.00234,277159621.32424,   0.00023,   0.00210,  -0.00085,  -8.34673,   1.00000
316272664.42523,542651288.49359,-40038061.79986,   0.00061,   0.00395,  -0.00137,477160548.95476,   0.00234,277160557.79636,   0.00023,   0.00210,  -0.00085,  -8.84160,   1.00000
317385788.52123,542501138.32256,-40099644.89543,   0.00062,   0.00395,  -0.00137,477161415.91558,   0.00234,277161417.98980,   0.00023,   0.00210,  -0.00085,  -2.07422,   1.00000
318497302.99494,542344998.89005,-40168682.64078,   0.00062,   0.00395,  -0.00137,477162215.17647,   0.00234,277162216.11348,   0.00023,   0.00210,  -0.00085,  -0.93701,   1.00000
319606536.71155,542185473.21234,-40237392.34880,   0.00063,   0.00395,  -0.00138,477163019.89113,   0.00234,277163027.04271,   0.00023,   0.00210,  -0.00085,  -7.15158,   1.00000
320730197.48539,542022652.12665,-40298825.56570,   0.00064,   0.00395,  -0.00138,477163880.40716,   0.00234,277163886.80860,   0.00023,   0.00211,  -0.00085,  -6.40144,   1.00000
321869749.44811,541851050.72453,-40368540.62601,   0.00064,   0.00394,  -0.00138,477164638.31993,   0.00234,277164647.09382,   0.00023,   0.00211,  -0.00085,  -8.77389,   1.00000
322990381.14883,541680349.73947,-40431071.80121,   0.00065,   0.00394,  -0.00138,477165442.67826,   0.00234,277165451.82342,   0.00023,   0.00211,  -0.00085,  -9.14516,   1.00000
324143555.13161,541500652.43140,-40494916.96495,   0.00065,   0.00394,  -0.00138,477166186.17814,   0.00234,277166194.43727,   0.00023,   0.00211,  -0.00085,  -8.25914,   1.00000
325275841.28004,541318312.15938,-40563595.67045,   0.00066,   0.00394,  -0.00138,477166988.05841,   0.00234,277166995.38326,   0.00023,   0.00211,  -0.00085,  -7.32485,   1.00000
326426007.34772,541130339.52346,-40628521.48752,   0.00066,   0.00393,  -0.00138,477167681.96848,   0.00234,277167684.81177,   0.00023,   0.00211,  -0.00085,  -2.84329,   1.00000
327573700.19896,540938661.90226,-40693092.48529,   0.00067,   0.00393,  -0.00138,477168386.70505,   0.00234,277168388.32840,   0.00023,   0.00211,  -0.00085,  -1.62335,   1.00000
328734311.16581,540741268.57961,-40756327.57232,   0.00068,   0.00393,  -0.00138,477169145.21881,   0.00234,277169150.04831,   0.00023,   0.00211,  -0.00085,  -4.82950,   1.00000
329879037.35174,540541143.77938,-40821976.11552,   0.00068,   0.00393,  -0.00139,477169798.33746,   0.00235,277169801.22853,   0.00023,   0.00211,  -0.00085,  -2.89107,   1.00000
331051881.82227,540333101.25681,-40885284.08374,   0.00069,   0.00392,  -0.00139,477170554.57536,   0.00235,277170555.40958,   0.00023,   0.00211,  -0.00085,  -0.83422,   1.00000
332209945.85496,540124054.81133,-40945004.41799,   0.00069,   0.00392,  -0.00139,477171185.07651,   0.00235,277171192.43383,   0.00023,   0.00211,  -0.00086,  -7.35732,   1.00000
333381833.79428,539906140.95259,-41011161.85515,   0.00070,   0.00392,  -0.00139,477171808.66530,   0.00235,277171815.53108,   0.00023,   0.00211,  -0.00086,  -6.86578,   1.00000
334551086.81542,539684292.57699,-41076941.58969,   0.00070,   0.00392,  -0.00139,477172446.93711,   0.00235,277172453.63538,   0.00023,   0.00211,  -0.00086,  -6.69827,   1.00000
335733781.27709,539458038.51778,-41135322.28352,   0.00071,   0.00391,  -0.00139,477173138.72249,   0.00235,277173144.67895,   0.00023,   0.00211,  -0.00086,  -5.95646,   1.00000
336915026.20919,539224840.72820,-41201126.16989,   0.00072,   0.00391,  -0.00139,477173774.20632,   0.00235,277173778.19818,   0.00023,   0.00211,  -0.00086,  -3.99185,   1.00000
338096927.13648,538988262.35210,-41262345.63985,   0.00072,   0.00391,  -0.00139,477174336.41353,   0.00235,277174340.35987,   0.00023,   0.00211,  -0.00086,  -3.94634,   1.00000
339276113.22664,538747628.29240,-41323177.54131,   0.00073,   0.00390,  -0.00139,477174917.26418,   0.00235,277174918.01834,   0.00023,   0.00211,  -0.00086,  -0.75416,   1.00000
340466368.06463,538498663.27444,-41388580.61342,   0.00073,   0.00390,  -0.00139,477175562.92664,   0.00235,277175563.86319,   0.00023,   0.00212,  -0.00086,  -0.93655,   1.00000
341657316.77518,538246151.13398,-41449394.00154,   0.00074,   0.00390,  -0.00140,477176133.46106,   0.00235,277176139.12901,   0.00023,   0.00212,  -0.00086,  -5.66795,   1.00000
342862716.81666,537985690.57813,-41510569.88557,   0.00075,   0.00390,  -0.00140,477176689.08519,   0.00235,277176697.02698,   0.00023,   0.00212,  -0.00086,  -7.94180,   1.00000
344050540.90863,537723542.25236,-41572394.36621,   0.00075,   0.00389,  -0.00140,477177219.63725,   0.00235,277177225.22433,   0.00024,   0.00212,  -0.00086,  -5.58708,   1.00000
345250138.46640,537454561.49150,-41632748.84789,   0.00076,   0.00389,  -0.00140,477177806.83373,   0.00235,277177815.68174,   0.00024,   0.00212,  -0.00086,  -8.84801,   1.00000
346464026.58870,537177328.97569,-41693439.88722,   0.00076,   0.00389,  -0.00140,477178386.85896,   0.00235,277178389.98828,   0.00024,   0.00212,  -0.00086,  -3.12932,   1.00000
347664198.07237,536898918.55339,-41750609.92237,   0.00077,   0.00388,  -0.00140,477178846.64661,   0.00235,277178848.83627,   0.00024,   0.00212,  -0.00086,  -2.18966,   1.00000
348874797.72219,536611574.76488,-41812278.38223,   0.00078,   0.00388,  -0.00140,477179370.80976,   0.00235,277179378.06374,   0.00024,   0.00212,  -0.00086,  -7.25398,   1.00000
350082361.88193,536319814.75322,-41873519.08444,   0.00078,   0.00388,  -0.00140,477179914.83969,   0.00236,277179924.18875,   0.00024,   0.00212,  -0.00086,  -9.34906,   1.00000
351290828.27369,536024075.32517,-41930164.15987,   0.00079,   0.00387,  -0.00140,477180395.61702,   0.00236,277180401.79280,   0.00024,   0.00212,  -0.00086,  -6.17577,   1.00000
352509395.25312,535719160.61445,-41991273.21597,   0.00080,   0.00387,  -0.00140,477180947.37359,   0.00236,277180950.62865,   0.00024,   0.00212,  -0.00086,  -3.25506,   1.00000
353714671.13978,535413038.94298,-42048888.71688,   0.00080,   0.00387,  -0.00140,477181381.63908,   0.00236,277181384.42795,   0.00024,   0.00212,  -0.00086,  -2.78887,   1.00000
354945132.68112,535096465.43324,-42103837.75368,   0.00081,   0.00386,  -0.00141,477181923.45637,   0.00236,277181930.19781,   0.00024,   0.00212,  -0.00086,  -6.74144,   1.00000
356160182.39967,534774937.80482,-42167290.57032,   0.00081,   0.00386,  -0.00141,477182367.04839,   0.00236,277182375.55955,   0.00024,   0.00212,  -0.00086,  -8.51116,   1.00000
357373195.89563,534450661.77342,-42224302.60580,   0.00082,   0.00386,  -0.00141,477182821.52634,   0.00236,277182831.39265,   0.00024,   0.00212,  -0.00086,  -9.86630,   1.00000
358600079.40135,534117127.36862,-42281572.93981,   0.00083,   0.00385,  -0.00141,477183269.44891,   0.00236,277183275.16890,   0.00024,   0.00212,  -0.00086,  -5.72000,   1.00000
359823686.06618,533778882.77022,-42338385.42247,   0.00083,   0.00385,  -0.00141,477183730.07004,   0.00236,277183737.01119,   0.00024,   0.00212,  -0.00086,  -6.94116,   1.00000
361047202.83686,533434316.13252,-42396582.32902,   0.00084,   0.00385,  -0.00141,477184131.28141,   0.00236,277184139.69879,   0.00024,   0.00212,  -0.00086,  -8.41738,   1.00000
362281167.39168,533081773.97017,-42453162.49787,   0.00085,   0.00384,  -0.00141,477184605.38342,   0.00236,277184608.84441,   0.00024,   0.00212,  -0.00086,  -3.46099,   1.00000
363498048.78952,532727706.58329,-42510433.81524,   0.00085,   0.00384,  -0.00141,477185047.86468,   0.00236,277185048.00265,   0.00024,   0.00212,  -0.00086,  -0.13797,   1.00000
364729692.43520,532365708.32235,-42561926.36637,   0.00086,   0.00384,  -0.00141,477185464.58377,   0.00236,277185470.03018,   0.00024,   0.00212,  -0.00086,  -5.44641,   1.00000
365956739.20424,531997029.36089,-42618937.85990,   0.00086,   0.00383,  -0.00141,477185915.21490,   0.00236,277185917.75155,   0.00024,   0.00212,  -0.00086,  -2.53666,   1.00000
367183740.07231,531621722.76434,-42677321.08711,   0.00087,   0.00383,  -0.00141,477186298.86622,   0.00236,277186307.62650,   0.00024,   0.00212,  -0.00086,  -8.76028,   1.00000
368408484.67806,531243403.68925,-42729236.22421,   0.00088,   0.00382,  -0.00142,477186704.63736,   0.00236,277186709.03806,   0.00024,   0.00213,  -0.00086,  -4.40070,   1.00000
369645392.09027,530853011.21766,-42787317.58057,   0.00088,   0.00382,  -0.00142,477187101.22529,   0.00236,277187109.37302,   0.00024,   0.00213,  -0.00086,  -8.14773,   1.00000
370879931.40508,530459486.24912,-42838917.35808,   0.00089,   0.00382,  -0.00142,477187521.54547,   0.00236,277187521.71398,   0.00024,   0.00213,  -0.00086,  -0.16852,   1.00000
372097662.74315,530064543.66094,-42891232.95915,   0.00090,   0.00381,  -0.00142,477187894.71278,   0.00236,277187903.76619,   0.00024,   0.00213,  -0.00086,  -9.05341,   1.00000
373340552.21734,529653673.02262,-42948477.23011,   0.00090,   0.00381,  -0.00142,477188329.27394,   0.00236,277188335.31659,   0.00024,   0.00213,  -0.00086,  -6.04266,   1.00000
374571533.03538,529241224.56040,-43002302.82623,   0.00091,   0.00380,  -0.00142,477188646.60701,   0.00236,277188653.98244,   0.00024,   0.00213,  -0.00086,  -7.37543,   1.00000
375795187.09561,528825741.34754,-43053773.60140,   0.00092,   0.00380,  -0.00142,477189062.33200,   0.00236,277189067.53932,   0.00024,   0.00213,  -0.00086,  -5.20733,   1.00000
377018914.86467,528403207.86140,-43106603.55022,   0.00092,   0.00380,  -0.00142,477189423.61911,   0.00236,277189425.02591,   0.00024,   0.00213,  -0.00086,  -1.40680,   1.00000
378255600.23965,527969741.63409,-43159546.22354,   0.00093,   0.00379,  -0.00142,477189768.28335,   0.00236,277189777.09311,   0.00024,   0.00213,  -0.00086,  -8.80976,   1.00000
379488511.88356,527531115.19380,-43211975.16394,   0.00094,   0.00379,  -0.00142,477190145.18821,   0.00236,277190149.03608,   0.00024,   0.00213,  -0.00086,  -3.84786,   1.00000
380717608.38672,527087319.18967,-43263887.14683,   0.00094,   0.00378,  -0.00142,477190535.95661,   0.00237,277190540.89642,   0.00024,   0.00213,  -0.00086,  -4.93981,   1.00000
381946776.17272,526636169.72104,-43317142.53834,   0.00095,   0.00378,  -0.00142,477190876.23229,   0.00237,277190877.90300,   0.00024,   0.00213,  -0.00086,  -1.67071,   1.00000
383173365.57496,526181672.91031,-43363891.70065,   0.00096,   0.00378,  -0.00143,477191219.31371,   0.00237,277191227.81221,   0.00024,   0.00213,  -0.00086,  -8.49850,   1.00000
384394827.77379,525720146.29712,-43416106.86317,   0.00096,   0.00377,  -0.00143,477191602.77008,   0.00237,277191604.83644,   0.00024,   0.00213,  -0.00086,  -2.06636,   1.00000
385616409.21000,525251113.09718,-43469660.56479,   0.00097,   0.00377,  -0.00143,477191924.55929,   0.00237,277191927.62004,   0.00024,   0.00213,  -0.00086,  -3.06075,   1.00000
386850503.81712,524770429.67578,-43523260.42477,   0.00098,   0.00376,  -0.00143,477192239.72239,   0.00237,277192247.80532,   0.00024,   0.00213,  -0.00086,  -8.08293,   1.00000
388065503.80432,524292765.38621,-43569771.72022,   0.00098,   0.00376,  -0.00143,477192600.48949,   0.00237,277192603.92657,   0.00024,   0.00213,  -0.00086,  -3.43709,   1.00000
389291592.73801,523801452.93101,-43622297.88916,   0.00099,   0.00375,  -0.00143,477192957.82579,   0.00237,277192965.17367,   0.00024,   0.00213,  -0.00086,  -7.34788,   1.00000
390506949.97908,523308357.83023,-43671473.92412,   0.00100,   0.00375,  -0.00143,477193207.77459,   0.00237,277193214.43151,   0.00024,   0.00213,  -0.00086,  -6.65692,   1.00000
391724890.52160,522806429.68394,-43722916.83728,   0.00100,   0.00375,  -0.00143,477193610.30024,   0.00237,277193616.74659,   0.00024,   0.00213,  -0.00086,  -6.44635,   1.00000
392944268.82272,522298488.06995,-43769698.13007,   0.00101,   0.00374,  -0.00143,477193955.28664,   0.00237,277193959.06954,   0.00024,   0.00213,  -0.00086,  -3.78290,   1.00000
394163789.79748,521782567.41285,-43817796.38554,   0.00102,   0.00374,  -0.00143,477194241.85755,   0.00237,277194248.97419,   0.00024,   0.00213,  -0.00086,  -7.11664,   1.00000
395365982.36253,521263692.58761,-43872661.69253,   0.00102,   0.00373,  -0.00143,477194506.11014,   0.00237,277194514.65401,   0.00024,   0.00213,  -0.00086,  -8.54387,   1.00000
396577234.06311,520737028.92972,-43919661.41376,   0.00103,   0.00373,  -0.00143,477194839.91825,   0.00237,277194846.19269,   0.00024,   0.00213,  -0.00086,  -6.27444,   1.00000
397784285.21338,520204984.84199,-43966107.72566,   0.00104,   0.00372,  -0.00143,477195192.39301,   0.00237,277195198.60761,   0.00024,   0.00213,  -0.00086,  -6.21460,   1.00000
398991528.16260,519664783.18554,-44013865.18129,   0.00104,   0.00372,  -0.00143,477195496.03690,   0.00237,277195499.27450,   0.00024,   0.00213,  -0.00086,  -3.23760,   1.00000
400194531.12212,519119164.32409,-44061064.42525,   0.00105,   0.00371,  -0.00144,477195820.53940,   0.00237,277195820.98128,   0.00024,   0.00213,  -0.00086,  -0.44188,   1.00000
401396374.61302,518563382.66910,-44115546.83534,   0.00106,   0.00371,  -0.00144,477196095.96579,   0.00237,277196098.67080,   0.00024,   0.00213,  -0.00086,  -2.70501,   1.00000
402602194.84307,518002422.77106,-44160243.57503,   0.00106,   0.00371,  -0.00144,477196506.99194,   0.00237,277196515.74067,   0.00024,   0.00213,  -0.00086,  -8.74873,   1.00000
403801344.83950,517434598.88790,-44209482.12003,   0.00107,   0.00370,  -0.00144,477196750.04238,   0.00237,277196756.75102,   0.00024,   0.00213,  -0.00086,  -6.70864,   1.00000
404991587.89054,516864312.78976,-44256287.28574,   0.00108,   0.00370,  -0.00144,477197089.50287,   0.00237,277197090.94340,   0.00024,   0.00213,  -0.00086,  -1.44053,   1.00000
406182066.93019,516285525.19740,-44304389.10041,   0.00108,   0.00369,  -0.00144,477197370.01989,   0.00237,277197374.64267,   0.00024,   0.00213,  -0.00086,  -4.62278,   1.00000
407368162.52985,515701274.17390,-44351920.02936,   0.00109,   0.00369,  -0.00144,477197676.00427,   0.00237,277197679.65730,   0.00024,   0.00213,  -0.00086,  -3.65303,   1.00000
408549841.23340,515111569.69143,-44398878.26220,   0.00110,   0.00368,  -0.00144,477198002.04916,   0.00237,277198005.97839,   0.00024,   0.00213,  -0.00086,  -3.92924,   1.00000
409733193.16093,514515058.18435,-44441151.13603,   0.00110,   0.00368,  -0.00144,477198265.60867,   0.00237,277198275.17144,   0.00024,   0.00213,  -0.00086,  -9.56277,   1.00000
410910676.38607,513911204.99945,-44488823.38619,   0.00111,   0.00367,  -0.00144,477198570.78810,   0.00237,277198573.02220,   0.00024,   0.00214,  -0.00086,  -2.23410,   1.00000
412088420.32916,513298529.76538,-44537777.76741,   0.00112,   0.00367,  -0.00144,477198813.37422,   0.00237,277198821.51062,   0.00024,   0.00214,  -0.00086,  -8.13639,   1.00000
413256865.94928,512683709.98776,-44584286.78961,   0.00112,   0.00366,  -0.00144,477199158.01881,   0.00237,277199162.36321,   0.00024,   0.00214,  -0.00086,  -4.34440,   1.00000
414425579.45296,512060009.39120,-44632075.65091,   0.00113,   0.00366,  -0.00144,477199449.44093,   0.00237,277199454.06180,   0.00024,   0.00214,  -0.00086,  -4.62087,   1.00000
415589720.55438,511430805.08475,-44679278.02142,   0.00114,   0.00365,  -0.00144,477199761.63613,   0.00237,277199767.38742,   0.00024,   0.00214,  -0.00086,  -5.75129,   1.00000
416755595.31258,510794438.17437,-44721781.55593,   0.00114,   0.00365,  -0.00145,477200018.19689,   0.00237,277200024.79188,   0.00024,   0.00214,  -0.00086,  -6.59499,   1.00000
417915388.80414,510150664.03450,-44769665.91568,   0.00115,   0.00364,  -0.00145,477200301.82733,   0.00237,277200311.26772,   0.00024,   0.00214,  -0.00086,  -9.44039,   1.00000
419060172.67254,509506302.91980,-44818428.22034,   0.00115,   0.00364,  -0.00145,477200561.90291,   0.00237,277200564.18570,   0.00024,   0.00214,  -0.00086,  -2.28280,   1.00000
420210669.79351,508851535.83611,-44865128.72293,   0.00116,   0.00363,  -0.00145,477200887.63319,   0.00237,277200894.04680,   0.00024,   0.00214,  -0.00086,  -6.41361,   1.00000
421351228.05113,508192511.61397,-44914575.87310,   0.00117,   0.00363,  -0.00145,477201115.63507,   0.00238,277201120.37076,   0.00024,   0.00214,  -0.00086,  -4.73568,   1.00000
422493790.67975,507528666.69856,-44954115.99948,   0.00117,   0.00362,  -0.00145,477201485.79770,   0.00238,277201486.30625,   0.00024,   0.00214,  -0.00086,  -0.50856,   1.00000
423630088.54737,506854808.55618,-45004238.14406,   0.00118,   0.00362,  -0.00145,477201682.52285,   0.00238,277201686.63531,   0.00024,   0.00214,  -0.00086,  -4.11246,   1.00000
424766644.98606,506174288.50759,-45050405.17927,   0.00119,   0.00361,  -0.00145,477202028.23516,   0.00238,277202034.04790,   0.00024,   0.00214,  -0.00086,  -5.81274,   1.00000
425893544.55865,505489376.26432,-45099332.70681,   0.00119,   0.00361,  -0.00145,477202271.63192,   0.00238,277202278.12330,   0.00024,   0.00214,  -0.00087,  -6.49137,   1.00000
427012122.04598,504804857.05226,-45139839.20144,   0.00120,   0.00360,  -0.00145,477202596.49143,   0.00238,277202605.61663,   0.00024,   0.00214,  -0.00087,  -9.12521,   1.00000
428134676.43548,504104927.79833,-45189426.52991,   0.00121,   0.00360,  -0.00145,477202820.66948,   0.00238,277202824.40480,   0.00024,   0.00214,  -0.00087,  -3.73531,   1.00000
429247289.09686,503403605.33792,-45236556.25551,   0.00121,   0.00359,  -0.00145,477203133.07532,   0.00238,277203133.81112,   0.00024,   0.00214,  -0.00087,  -0.73580,   1.00000
430350626.11374,502697804.04969,-45286470.16920,   0.00122,   0.00359,  -0.00145,477203334.03617,   0.00238,277203339.78270,   0.00024,   0.00214,  -0.00087,  -5.74653,   1.00000
431453585.01410,501985650.84572,-45332395.39011,   0.00123,   0.00358,  -0.00145,477203687.33793,   0.00238,277203692.59710,   0.00024,   0.00214,  -0.00087,  -5.25918,   1.00000
432552618.03152,501264671.11685,-45382963.59880,   0.00123,   0.00358,  -0.00146,477203868.60600,   0.00238,277203873.78103,   0.00024,   0.00214,  -0.00087,  -5.17503,   1.00000
433652574.62305,500539212.98474,-45423559.31504,   0.00124,   0.00357,  -0.00146,477204191.12210,   0.00238,277204194.73241,   0.00024,   0.00214,  -0.00087,  -3.61031,   1.00000
434736721.38542,499811712.31643,-45471071.96026,   0.00125,   0.00357,  -0.00146,477204478.94251,   0.00238,277204487.56423,   0.00024,   0.00214,  -0.00087,  -8.62172,   1.00000
435821294.98178,499074370.19153,-45519830.10174,   0.00125,   0.00356,  -0.00146,477204730.30980,   0.00238,277204734.26074,   0.00024,   0.00214,  -0.00087,  -3.95094,   1.00000
436900983.50057,498331602.93777,-45567980.69984,   0.00126,   0.00356,  -0.00146,477204998.96014,   0.00238,277205002.80708,   0.00024,   0.00214,  -0.00087,  -3.84694,   1.00000
437966663.78752,497588730.45803,-45617103.84152,   0.00127,   0.00355,  -0.00146,477205225.80929,   0.00238,277205235.38659,   0.00024,   0.00214,  -0.00087,  -9.57729,   1.00000
439041870.53900,496830554.04976,-45665884.02673,   0.00127,   0.00354,  -0.00146,477205476.31463,   0.00238,277205480.11918,   0.00024,   0.00214,  -0.00087,  -3.80455,   1.00000
440097822.42852,496077002.08347,-45713802.00737,   0.00128,   0.00354,  -0.00146,477205754.37703,   0.00238,277205755.89690,   0.00024,   0.00214,  -0.00087,  -1.51987,   1.00000
441154242.76871,495313364.28550,-45762957.97647,   0.00129,   0.00353,  -0.00146,477205980.22901,   0.00238,277205986.21715,   0.00024,   0.00214,  -0.00087,  -5.98814,   1.00000
442205755.33390,494544385.56024,-45811507.65981,   0.00129,   0.00353,  -0.00146,477206232.64891,   0.00238,277206238.21891,   0.00024,   0.00214,  -0.00087,  -5.57000,   1.00000
443252329.64142,493770082.55014,-45859449.35042,   0.00130,   0.00352,  -0.00146,477206506.70407,   0.00238,277206511.90751,   0.00024,   0.00214,  -0.00087,  -5.20344,   1.00000
444289062.16814,492989049.94393,-45916199.20807,   0.00130,   0.00352,  -0.00146,477206688.46660,   0.00238,277206689.44075,   0.00024,   0.00214,  -0.00087,  -0.97415,   1.00000
445325688.19151,492204169.93273,-45962920.38061,   0.00131,   0.00351,  -0.00146,477207002.15538,   0.00238,277207006.44895,   0.00024,   0.00214,  -0.00087,  -4.29357,   1.00000
446354213.10111,491414340.28459,-46012496.07783,   0.00132,   0.00351,  -0.00146,477207214.54318,   0.00238,277207219.91910,   0.00024,   0.00214,  -0.00087,  -5.37593,   1.00000
447377792.30399,490619234.42168,-46061464.54693,   0.00132,   0.00350,  -0.00147,477207447.36696,   0.00238,277207454.98971,   0.00025,   0.00214,  -0.00087,  -7.62276,   1.00000
448386398.41774,489822496.35300,-46117430.61253,   0.00133,   0.00350,  -0.00147,477207656.51309,   0.00238,277207659.73263,   0.00025,   0.00214,  -0.00087,  -3.21954,   1.00000
449400048.16982,489016944.17337,-46165184.40901,   0.00134,   0.00349,  -0.00147,477207931.06452,   0.00238,277207937.81656,   0.00025,   0.00214,  -0.00087,  -6.75204,   1.00000
450398804.23325,488209827.03763,-46219944.83631,   0.00134,   0.00349,  -0.00147,477208178.53448,   0.00238,277208185.28433,   0.00025,   0.00214,  -0.00087,  -6.74985,   1.00000
451399764.78773,487393973.77001,-46269970.90015,   0.00135,   0.00348,  -0.00147,477208380.92002,   0.00238,277208381.11119,   0.00025,   0.00214,  -0.00087,  -0.19118,   1.00000
452394065.59569,486571077.41033,-46325345.32100,   0.00136,   0.00347,  -0.00147,477208601.03821,   0.00238,277208605.91154,   0.00025,   0.00214,  -0.00087,  -4.87333,   1.00000
453375356.93433,485748497.24980,-46381787.85203,   0.00136,   0.00347,  -0.00147,477208790.01532,   0.00238,277208792.19914,   0.00025,   0.00214,  -0.00087,  -2.18383,   1.00000
454353402.05571,484922618.41793,-46431672.17612,   0.00137,   0.00346,  -0.00147,477208988.75038,   0.00238,277208992.28652,   0.00025,   0.00214,  -0.00087,  -3.53614,   1.00000
455324815.41422,484089828.38167,-46486911.61015,   0.00137,   0.00346,  -0.00147,477209216.77599,   0.00238,277209220.99577,   0.00025,   0.00214,  -0.00087,  -4.21977,   1.00000
456291260.12043,483251973.57546,-46541547.93456,   0.00138,   0.00345,  -0.00147,477209470.88346,   0.00238,277209470.88513,   0.00025,   0.00214,  -0.00087,  -0.00167,   1.00000
457244971.69429,482414582.98116,-46597281.05991,   0.00139,   0.00345,  -0.00147,477209672.44912,   0.00238,277209681.43016,   0.00025,   0.00214,  -0.00087,  -8.98104,   1.00000
458199317.34056,481566340.29472,-46654235.35216,   0.00139,   0.00344,  -0.00147,477209848.14634,   0.00238,277209848.31511,   0.00025,   0.00214,  -0.00087,  -0.16877,   1.00000
459148692.27816,480713032.30203,-46710585.88887,   0.00140,   0.00344,  -0.00148,477210034.89602,   0.00238,277210036.40549,   0.00025,   0.00214,  -0.00087,  -1.50947,   1.00000
460080024.10311,479866253.09489,-46766243.09571,   0.00140,   0.00343,  -0.00148,477210243.63245,   0.00238,277210248.82773,   0.00025,   0.00214,  -0.00087,  -5.19528,   1.00000
461017754.36820,479001169.49963,-46827346.37350,   0.00141,   0.00342,  -0.00148,477210485.87327,   0.00238,277210486.41294,   0.00025,   0.00214,  -0.00087,  -0.53967,   1.00000
461937419.43255,478144001.86840,-46885359.05956,   0.00142,   0.00342,  -0.00148,477210614.23330,   0.00238,277210615.03491,   0.00025,   0.00214,  -0.00087,  -0.80161,   1.00000
462857807.62383,477274586.61620,-46946994.45715,   0.00142,   0.00341,  -0.00148,477210826.76102,   0.00238,277210833.22947,   0.00025,   0.00214,  -0.00087,  -6.46845,   1.00000
463773287.55403,476401351.75885,-47005632.55797,   0.00143,   0.00341,  -0.00148,477210936.15138,   0.00238,277210939.47738,   0.00025,   0.00214,  -0.00087,  -3.32600,   1.00000
464676536.25658,475527728.27707,-47067821.93418,   0.00143,   0.00340,  -0.00148,477211133.17157,   0.00238,277211137.62121,   0.00025,   0.00214,  -0.00087,  -4.44964,   1.00000
465574872.89459,474649292.56780,-47129419.11557,   0.00144,   0.00340,  -0.00148,477211353.16302,   0.00238,277211356.34242,   0.00025,   0.00214,  -0.00087,  -3.17940,   1.00000
466466791.88694,473765134.82742,-47193990.18558,   0.00145,   0.00339,  -0.00148,477211469.36072,   0.00238,277211470.34276,   0.00025,   0.00214,  -0.00087,  -0.98204,   1.00000
467353816.47536,472876136.22153,-47257969.65498,   0.00145,   0.00338,  -0.00148,477211598.85984,   0.00239,277211604.95177,   0.00025,   0.00214,  -0.00087,  -6.09193,   1.00000
468230379.78374,471988960.61889,-47319560.59802,   0.00146,   0.00338,  -0.00148,477211818.44102,   0.00239,277211823.08104,   0.00025,   0.00214,  -0.00087,  -4.64003,   1.00000
469100762.68721,471095963.06301,-47384145.68544,   0.00146,   0.00337,  -0.00148,477211932.14680,   0.00239,277211936.17529,   0.00025,   0.00214,  -0.00087,  -4.02849,   1.00000
469964502.87220,470196439.15907,-47454093.40691,   0.00147,   0.00337,  -0.00149,477212072.89771,   0.00239,277212077.16916,   0.00025,   0.00214,  -0.00087,  -4.27145,   1.00000
470818444.40933,469299549.97318,-47519305.47046,   0.00147,   0.00336,  -0.00149,477212158.58135,   0.00239,277212168.09789,   0.00025,   0.00214,  -0.00087,  -9.51655,   1.00000
471665794.98940,468396220.20413,-47589887.02925,   0.00148,   0.00336,  -0.00149,477212277.43454,   0.00239,277212286.64960,   0.00025,   0.00214,  -0.00087,  -9.21506,   1.00000
472508327.07059,467488257.62112,-47659888.29115,   0.00149,   0.00335,  -0.00149,477212416.52617,   0.00239,277212425.25884,   0.00025,   0.00214,  -0.00087,  -8.73266,   1.00000
473339501.91603,466581237.30297,-47731127.12431,   0.00149,   0.00334,  -0.00149,477212516.70362,   0.00239,277212520.66070,   0.00025,   0.00214,  -0.00087,  -3.95708,   1.00000
474165908.10493,465669649.54924,-47801791.81350,   0.00150,   0.00334,  -0.00149,477212628.25559,   0.00239,277212635.88821,   0.00025,   0.00215,  -0.00087,  -7.63262,   1.00000
474987544.83822,464753534.51222,-47871882.98131,   0.00150,   0.00333,  -0.00149,477212768.92045,   0.00239,277212770.87557,   0.00025,   0.00215,  -0.00087,  -1.95512,   1.00000
475803578.34492,463831195.82783,-47945018.61016,   0.00151,   0.00333,  -0.00149,477212798.54443,   0.00239,277212800.21149,   0.00025,   0.00215,  -0.00087,  -1.66706,   1.00000
476607469.76388,462909810.99657,-48021740.95434,   0.00151,   0.00332,  -0.00149,477212910.99101,   0.00239,277212918.73910,   0.00025,   0.00215,  -0.00087,  -7.74808,   1.00000
477408470.11448,461985767.61609,-48091951.71006,   0.00152,   0.00332,  -0.00149,477213040.20580,   0.00239,277213049.10686,   0.00025,   0.00215,  -0.00087,  -8.90106,   1.00000
478202224.94396,461053600.23825,-48171169.32826,   0.00153,   0.00331,  -0.00150,477213073.42214,   0.00239,277213081.20797,   0.00025,   0.00215,  -0.00087,  -7.78583,   1.00000
478979642.95946,460129977.38712,-48249904.85188,   0.00153,   0.00330,  -0.00150,477213120.24153,   0.00239,277213129.89171,   0.00025,   0.00215,  -0.00087,  -9.65018,   1.00000
479763984.95847,459188944.09739,-48327990.16017,   0.00154,   0.00330,  -0.00150,477213195.41085,   0.00239,277213200.90872,   0.00025,   0.00215,  -0.00087,  -5.49787,   1.00000
480526115.51956,458262113.39162,-48407483.57061,   0.00154,   0.00329,  -0.00150,477213214.84797,   0.00239,277213223.40599,   0.00025,   0.00215,  -0.00087,  -8.55803,   1.00000
481295096.29110,457317820.64810,-48486317.97357,   0.00155,   0.00329,  -0.00150,477213268.21834,   0.00239,277213268.51709,   0.00025,   0.00215,  -0.00087,  -0.29876,   1.00000
482046128.92290,456380641.95409,-48570642.11972,   0.00155,   0.00328,  -0.00150,477213328.41658,   0.00239,277213336.74682,   0.00025,   0.00215,  -0.00087,  -8.33024,   1.00000
482782869.14029,455428120.08308,-48656954.78117,   0.00156,   0.00328,  -0.00150,477204017.73517,   0.00239,277213336.74682,   0.00025,   0.00215,  -0.00087,-9319.01165,   0.00000
483498259.97866,454535359.61535,-48739727.27487,   0.00156,   0.00327,  -0.00150,477213357.01627,   0.00239,277213336.74682,   0.00025,   0.00215,  -0.00087,  -2.94235,   0.00000
483528857.14283,454497176.37743,-48743267.44262,   0.00156,   0.00327,  -0.00150,477213354.92342,   0.00239,277213355.25212,   0.00025,   0.00215,  -0.00087,  -0.32870,   9.00000
484265331.13562,453544408.42064,-48829548.09432,   0.00157,   0.00326,  -0.00150,477213351.15677,   0.00239,277213356.34628,   0.00025,   0.00215,  -0.00087,  -5.18951,   1.00000
484980493.18764,452582638.76447,-48915860.75577,   0.00157,   0.00326,  -0.00150,477201903.42015,   0.00239,277213356.34628,   0.00025,   0.00215,  -0.00087,-11452.92613,   0.00000
485704903.02482,451642447.27367,-49002173.41722,   0.00158,   0.00325,  -0.00151,477209430.90595,   0.00239,277213356.34628,   0.00025,   0.00215,  -0.00087,-3925.44033,   0.00000
486398486.91148,450671429.83235,-49094651.26877,   0.00158,   0.00325,  -0.00151,477193020.19396,   0.00239,277213356.34628,   0.00025,   0.00215,  -0.00087,-20336.15233,   0.00000
487101318.58329,449721990.55639,-49187129.12033,   0.00159,   0.00324,  -0.00151,477195462.85873,   0.00239,277213356.34628,   0.00025,   0.00215,  -0.00087,-17893.48755,   0.00000
487773324.30459,448741725.32991,-49279606.97188,   0.00159,   0.00324,  -0.00151,477172031.68960,   0.00239,277213356.34628,   0.00025,   0.00215,  -0.00087,-41324.65669,   0.00000
488454577.81104,447783038.26879,-49372084.82344,   0.00160,   0.00323,  -0.00151,477167326.32977,   0.00239,277213356.34628,   0.00025,   0.00215,  -0.00087,-46030.01651,   0.00000
489105005.36698,446793525.25716,-49464562.67499,   0.00160,   0.00322,  -0.00151,477136709.75916,   0.00239,277213356.34628,   0.00025,   0.00215,  -0.00087,-76646.58712,   0.00000
489764680.70807,445825590.41089,-49563205.71665,   0.00161,   0.00322,  -0.00151,477126613.88561,   0.00239,277213356.34628,   0.00025,   0.00215,  -0.00087,-86742.46067,   0.00000
490415108.26400,444836077.39925,-49661848.75831,   0.00161,   0.00321,  -0.00151,477106569.62395,   0.00239,277213356.34628,   0.00025,   0.00215,  -0.00087,-106786.72233,   0.00000
491053205.43973,443858894.76783,-49760491.79996,   0.00162,   0.00321,  -0.00152,477089043.71301,   0.00239,277213356.34628,   0.00025,   0.00215,  -0.00087,-124312.63327,   0.00000
491669724.45009,442872464.35125,-49859134.84162,   0.00162,   0.00320,  -0.00152,477059697.61522,   0.00239,277213356.34628,   0.00025,   0.00215,  -0.00087,-153658.73106,   0.00000
492276995.67530,441864455.76930,-49963943.07338,   0.00163,   0.00320,  -0.00152,477022345.16206,   0.00239,277213356.34628,   0.00025,   0.00215,  -0.00087,-191011.18423,   0.00000
492871936.52030,440868777.56756,-50062586.11504,   0.00163,   0.00319,  -0.00152,476985287.27593,   0.00239,277213356.34628,   0.00025,   0.00215,  -0.00087,-228069.07035,   0.00000
493466877.36530,439873099.36583,-50167394.34680,   0.00164,   0.00318,  -0.00152,476954295.70133,   0.00239,277213356.34628,   0.00025,   0.00215,  -0.00087,-259060.64495,   0.00000
494061818.21030,438877421.16409,-50272202.57857,   0.00164,   0.00318,  -0.00152,476927434.10862,   0.00239,277213356.34628,   0.00025,   0.00215,  -0.00087,-285922.23766,   0.00000
494625933.10478,437850917.01183,-50383176.00043,   0.00165,   0.00317,  -0.00152,476876518.72554,   0.00239,277213356.34628,   0.00025,   0.00215,  -0.00087,-336837.62074,   0.00000
495177717.61906,436836743.23979,-50487984.23219,   0.00165,   0.00317,  -0.00153,476825545.07559,   0.00239,277213356.34628,   0.00025,   0.00215,  -0.00087,-387811.27069,   0.00000
495729502.13333,435822569.46774,-50598957.65406,   0.00165,   0.00316,  -0.00153,476780567.46175,   0.00239,277213356.34628,   0.00025,   0.00215,  -0.00087,-432788.88454,   0.00000
496259708.48225,434799147.91053,-50709931.07592,   0.00166,   0.00316,  -0.00153,476723389.63531,   0.00239,277213356.34628,   0.00025,   0.00215,  -0.00087,-489966.71098,   0.00000
496799162.61632,433797304.51869,-50820904.49779,   0.00166,   0.00315,  -0.00153,476684030.31335,   0.00239,277213356.34628,   0.00025,   0.00215,  -0.00087,-529326.03294,   0.00000
497307790.79987,432764635.17633,-50938043.10976,   0.00167,   0.00314,  -0.00153,476620495.04952,   0.00239,277213356.34628,   0.00025,   0.00215,  -0.00087,-592861.29676,   0.00000
497816418.98342,431731965.83397,-51055181.72173,   0.00167,   0.00314,  -0.00153,476560920.43108,   0.00239,277213356.34628,   0.00025,   0.00215,  -0.00087,-652435.91521,   0.00000
498312716.78676,430711626.87182,-51172320.33370,   0.00168,   0.00313,  -0.00153,476502683.51903,   0.00239,277213356.34628,   0.00025,   0.00215,  -0.00087,-710672.82726,   0.00000
498799766.80495,429669709.74431,-51289458.94567,   0.00168,   0.00313,  -0.00154,476434614.20182,   0.00239,277213356.34628,   0.00025,   0.00215,  -0.00087,-778742.14447,   0.00000
499274486.44293,428640122.99700,-51412762.74774,   0.00168,   0.00312,  -0.00154,476369716.81420,   0.00239,277213356.34628,   0.00025,   0.00215,  -0.00087,-843639.53209,   0.00000
499718380.13039,427579710.29917,-51529901.35971,   0.00169,   0.00312,  -0.00154,476276621.40269,   0.00239,277213356.34628,   0.00025,   0.00215,  -0.00087,-936734.94359,   0.00000
500171521.60300,426540875.76671,-51659370.35188,   0.00169,   0.00311,  -0.00154,476204937.50049,   0.00239,277213356.34628,   0.00025,   0.00215,  -0.00087,-1008418.84580,   0.00000
500624663.07562,425502041.23425,-51782674.15396,   0.00170,   0.00311,  -0.00154,476135023.25581,   0.00239,277213356.34628,   0.00025,   0.00215,  -0.00087,-1078333.09047,   0.00000
501034648.21751,424444711.13148,-51905977.95603,   0.00170,   0.00310,  -0.00154,476035940.48675,   0.00239,277213356.34628,   0.00025,   0.00215,  -0.00087,-1177415.85954,   0.00000
501466211.52477,423396628.81386,-52035446.94821,   0.00170,   0.00309,  -0.00155,475959059.56878,   0.00239,277213356.34628,   0.00025,   0.00215,  -0.00087,-1254296.77750,   0.00000
501854618.50130,422330050.92593,-52171081.13049,   0.00171,   0.00309,  -0.00155,475854923.85399,   0.00239,277213356.34628,   0.00025,   0.00215,  -0.00087,-1358432.49229,   0.00000
502264603.64319,421272720.82315,-52300550.12266,   0.00171,   0.00308,  -0.00155,475768960.59123,   0.00239,277213356.34628,   0.00025,   0.00215,  -0.00087,-1444395.75505,   0.00000
502640680.23951,420218473.31543,-52436184.30494,   0.00172,   0.00308,  -0.00155,475668981.27174,   0.00239,277213356.34628,   0.00025,   0.00215,  -0.00087,-1544375.07454,   0.00000
503007509.05068,419142647.64235,-52571818.48722,   0.00172,   0.00307,  -0.00155,475559252.25326,   0.00239,277213356.34628,   0.00025,   0.00215,  -0.00087,-1654104.09302,   0.00000
503362007.48164,418079152.34947,-52707452.66950,   0.00172,   0.00307,  -0.00155,475449843.29903,   0.00239,277213356.34628,   0.00025,   0.00215,  -0.00087,-1763513.04726,   0.00000
503716505.91260,417015657.05659,-52849252.04189,   0.00173,   0.00306,  -0.00156,475346018.39071,   0.00239,277213356.34628,   0.00025,   0.00215,  -0.00087,-1867337.95557,   0.00000
504049426.17819,415942913.97856,-52991051.41427,   0.00173,   0.00306,  -0.00156,475229101.79800,   0.00239,277213356.34628,   0.00025,   0.00215,  -0.00087,-1984254.54829,   0.00000
504382346.44379,414870170.90053,-53132850.78665,   0.00173,   0.00305,  -0.00156,475115690.47652,   0.00239,277213356.34628,   0.00025,   0.00215,  -0.00087,-2097665.86976,   0.00000
504693688.54402,413788180.03734,-53274650.15904,   0.00174,   0.00304,  -0.00156,474989115.01689,   0.00239,277213356.34628,   0.00025,   0.00215,  -0.00087,-2224241.32940,   0.00000
505005030.64426,412706189.17415,-53422614.72152,   0.00174,   0.00304,  -0.00156,474868092.35697,   0.00239,277213356.34628,   0.00025,   0.00215,  -0.00087,-2345263.98932,   0.00000
505282464.19892,411627280.90601,-53570579.28401,   0.00174,   0.00303,  -0.00157,474730198.19661,   0.00239,277213356.34628,   0.00025,   0.00215,  -0.00087,-2483158.14967,   0.00000
505581475.91895,410557620.42303,-53724709.03660,   0.00175,   0.00303,  -0.00157,474614468.67933,   0.00239,277213356.34628,   0.00025,   0.00215,  -0.00087,-2598887.66696,   0.00000
505828083.52309,409447886.20438,-53878838.78919,   0.00175,   0.00302,  -0.00157,474455656.33086,   0.00239,277213356.34628,   0.00025,   0.00215,  -0.00087,-2757700.01542,   0.00000
506083938.91239,408359730.15109,-54032968.54178,   0.00175,   0.00302,  -0.00157,474313194.81372,   0.00239,277213356.34628,   0.00025,   0.00215,  -0.00087,-2900161.53256,   0.00000
506349042.08685,407293152.26316,-54187098.29438,   0.00176,   0.00301,  -0.00157,474186979.65090,   0.00239,277213356.34628,   0.00025,   0.00215,  -0.00087,-3026376.69539,   0.00000
506561741.14542,406186500.63955,-54347393.23707,   0.00176,   0.00301,  -0.00158,474019669.79794,   0.00239,277213356.34628,   0.00025,   0.00215,  -0.00087,-3193686.54835,   0.00000
506774440.20400,405079849.01595,-54507688.17976,   0.00176,   0.00300,  -0.00158,473855640.26610,   0.00239,277213356.34628,   0.00025,   0.00215,  -0.00087,-3357716.08019,   0.00000
506996387.04773,403994775.55771,-54667983.12246,   0.00177,   0.00299,  -0.00158,473707703.86336,   0.00239,277213356.34628,   0.00025,   0.00215,  -0.00087,-3505652.48293,   0.00000
507196755.72610,402900454.31432,-54834443.25526,   0.00177,   0.00299,  -0.00158,473548276.62902,   0.00239,277213356.34628,   0.00025,   0.00215,  -0.00087,-3665079.71727,   0.00000
507375546.23910,401796885.28577,-55000903.38806,   0.00177,   0.00298,  -0.00158,473375185.15258,   0.00239,277213356.34628,   0.00025,   0.00215,  -0.00087,-3838171.19370,   0.00000
507554336.75211,400693316.25721,-55173528.71096,   0.00178,   0.00298,  -0.00159,473207420.57411,   0.00239,277213356.34628,   0.00025,   0.00215,  -0.00087,-4005935.77218,   0.00000
507711549.09975,399580499.44351,-55346154.03386,   0.00178,   0.00297,  -0.00159,473025949.14158,   0.00239,277213356.34628,   0.00025,   0.00215,  -0.00087,-4187407.20470,   0.00000
507856431.06719,398480013.01001,-55518779.35676,   0.00178,   0.00297,  -0.00159,472843359.54910,   0.00239,277213356.34628,   0.00025,   0.00215,  -0.00087,-4369996.79718,   0.00000
508001313.03462,397379526.57651,-55691404.67966,   0.00178,   0.00296,  -0.00159,472663832.52658,   0.00239,277213356.34628,   0.00025,   0.00215,  -0.00087,-4549523.81971,   0.00000
508124616.83670,396269792.35786,-55870195.19267,   0.00179,   0.00296,  -0.00160,472472617.51088,   0.00239,277213356.34628,   0.00025,   0.00215,  -0.00087,-4740738.83540,   0.00000
508247920.63877,395160058.13920,-56048985.70567,   0.00179,   0.00295,  -0.00160,472284457.61995,   0.00239,277213356.34628,   0.00025,   0.00215,  -0.00087,-4928898.72633,   0.00000
508328068.11012,394031828.35023,-56233941.40878,   0.00179,   0.00295,  -0.00160,472067619.09870,   0.00239,277213356.34628,   0.00025,   0.00215,  -0.00087,-5145737.24758,   0.00000
508439041.53198,392934424.51179,-56418897.11189,   0.00180,   0.00294,  -0.00160,471883242.54061,   0.00239,277213356.34628,   0.00025,   0.00215,  -0.00087,-5330113.80567,   0.00000
508497610.83797,391796946.93767,-56603852.81500,   0.00180,   0.00294,  -0.00160,471655430.23132,   0.00239,277213356.34628,   0.00025,   0.00215,  -0.00087,-5557926.11496,   0.00000
508565427.92911,390681047.52891,-56794973.70821,   0.00180,   0.00293,  -0.00161,471445233.69976,   0.00239,277213356.34628,   0.00025,   0.00215,  -0.00087,-5768122.64653,   0.00000
508620914.64004,389577478.50036,-56986094.60143,   0.00180,   0.00293,  -0.00161,471233315.94840,   0.00239,277213356.34628,   0.00025,   0.00215,  -0.00087,-5980040.39789,   0.00000
508667153.56582,388452331.30644,-57177215.49464,   0.00181,   0.00292,  -0.00161,471011939.41095,   0.00239,277213356.34628,   0.00025,   0.00215,  -0.00087,-6201416.93533,   0.00000
508701062.11139,387339514.49274,-57374501.57796,   0.00181,   0.00292,  -0.00161,470790981.17372,   0.00239,277213356.34628,   0.00025,   0.00215,  -0.00087,-6422375.17256,   0.00000
508713392.49159,386217449.89388,-57571787.66127,   0.00181,   0.00291,  -0.00162,470555817.44509,   0.00239,277213356.34628,   0.00025,   0.00215,  -0.00087,-6657538.90120,   0.00000
508725722.87180,385095385.29501,-57775238.93469,   0.00181,   0.00291,  -0.00162,470325762.98778,   0.00239,277213356.34628,   0.00025,   0.00215,  -0.00087,-6887593.35851,   0.00000
508716475.08665,383964072.91100,-57978690.20811,   0.00181,   0.00290,  -0.00162,470081479.25071,   0.00239,277213356.34628,   0.00025,   0.00215,  -0.00087,-7131877.09558,   0.00000
508694896.92128,382845090.90719,-58182141.48153,   0.00182,   0.00290,  -0.00163,469835080.09914,   0.00239,277213356.34628,   0.00025,   0.00215,  -0.00087,-7378276.24714,   0.00000
508642492.80540,381695282.95286,-58391757.94506,   0.00182,   0.00289,  -0.00163,469564507.27274,   0.00239,277213356.34628,   0.00025,   0.00215,  -0.00087,-7648849.07354,   0.00000
508599336.47468,380567053.16389,-58601374.40858,   0.00182,   0.00289,  -0.00163,469308831.73106,   0.00239,277213356.34628,   0.00025,   0.00215,  -0.00087,-7904524.61522,   0.00000
508565427.92911,379460401.54029,-58810990.87210,   0.00182,   0.00288,  -0.00163,469067955.92155,   0.00239,277213356.34628,   0.00025,   0.00215,  -0.00087,-8145400.42473,   0.00000
508479115.26766,378313676.18101,-59026772.52573,   0.00182,   0.00288,  -0.00164,468785798.11595,   0.00239,277213356.34628,   0.00025,   0.00215,  -0.00087,-8427558.23033,   0.00000
508402050.39136,377188528.98710,-59248719.36946,   0.00183,   0.00287,  -0.00164,468520695.33929,   0.00239,277213356.34628,   0.00025,   0.00215,  -0.00087,-8692661.00699,   0.00000
508324985.51506,376063381.79319,-59464501.02309,   0.00183,   0.00287,  -0.00164,468255940.23741,   0.00239,277213356.34628,   0.00025,   0.00215,  -0.00087,-8957416.10887,   0.00000
508204764.30804,374919739.02896,-59692613.05692,   0.00183,   0.00286,  -0.00165,467964229.11584,   0.00239,277213356.34628,   0.00025,   0.00215,  -0.00087,-9249127.23044,   0.00000
508093790.88618,373797674.43010,-59914559.90065,   0.00183,   0.00286,  -0.00165,467684709.80467,   0.00239,277213356.34628,   0.00025,   0.00215,  -0.00087,-9528646.54161,   0.00000
507961239.29895,372666362.04608,-60142671.93449,   0.00183,   0.00285,  -0.00165,467392975.85981,   0.00239,277213356.34628,   0.00025,   0.00215,  -0.00087,-9820380.48648,   0.00000
507828687.71172,371535049.66206,-60376949.15843,   0.00183,   0.00285,  -0.00165,467106241.07439,   0.00239,277213356.34628,   0.00025,   0.00215,  -0.00087,-10107115.27190,   0.00000
507674557.95913,370394489.49289,-60605061.19226,   0.00184,   0.00284,  -0.00166,466802523.82378,   0.00239,277213356.34628,   0.00025,   0.00215,  -0.00087,-10410832.52250,   0.00000
507508097.82633,369266259.70393,-60845503.60630,   0.00184,   0.00284,  -0.00166,466500748.96892,   0.00239,277213356.34628,   0.00025,   0.00215,  -0.00087,-10712607.37737,   0.00000
507341637.69353,368138029.91496,-61079780.83024,   0.00184,   0.00283,  -0.00166,466199114.42613,   0.00239,277213356.34628,   0.00025,   0.00215,  -0.00087,-11014241.92015,   0.00000
507153599.39537,367000552.34084,-61320223.24428,   0.00184,   0.00283,  -0.00167,465885218.73376,   0.00239,277213356.34628,   0.00025,   0.00215,  -0.00087,-11328137.61252,   0.00000
506943982.93185,365853826.98156,-61566830.84843,   0.00184,   0.00282,  -0.00167,465559074.99385,   0.00239,277213356.34628,   0.00025,   0.00215,  -0.00087,-11654281.35244,   0.00000
506743614.25348,364728679.78765,-61813438.45257,   0.00184,   0.00282,  -0.00167,465247111.27402,   0.00239,277213356.34628,   0.00025,   0.00215,  -0.00087,-11966245.07226,   0.00000
506500089.24439,363585037.02342,-62060046.05672,   0.00184,   0.00281,  -0.00168,464903123.02812,   0.00239,277213356.34628,   0.00025,   0.00215,  -0.00087,-12310233.31817,   0.00000
506278142.40066,362450642.04436,-62312818.85097,   0.00185,   0.00281,  -0.00168,464581370.48782,   0.00239,277213356.34628,   0.00025,   0.00215,  -0.00087,-12631985.85846,   0.00000
506022287.01136,361319329.66034,-62565591.64522,   0.00185,   0.00280,  -0.00168,464239096.99207,   0.00239,277213356.34628,   0.00025,   0.00215,  -0.00087,-12974259.35421,   0.00000
505766431.62206,360188017.27632,-62824529.62957,   0.00185,   0.00280,  -0.00169,463901764.92854,   0.00239,277213356.34628,   0.00025,   0.00215,  -0.00087,-13311591.41774,   0.00000
505488998.06739,359047457.10715,-63083467.61392,   0.00185,   0.00279,  -0.00169,463549604.60466,   0.00239,277213356.34628,   0.00025,   0.00215,  -0.00087,-13663751.74162,   0.00000
505211564.51273,357906896.93797,-63348570.78838,   0.00185,   0.00279,  -0.00169,463202431.66895,   0.00239,277213356.34628,   0.00025,   0.00215,  -0.00087,-14010924.67733,   0.00000
504900222.41249,356769419.36385,-63613673.96284,   0.00185,   0.00278,  -0.00170,462834519.61124,   0.00239,277213356.34628,   0.00025,   0.00215,  -0.00087,-14378836.73504,   0.00000
504588880.31226,355631941.78973,-63878777.13729,   0.00185,   0.00278,  -0.00170,462469012.31394,   0.00239,277213356.34628,   0.00025,   0.00215,  -0.00087,-14744344.03235,   0.00000
504286785.99718,354516042.38097,-64150045.50185,   0.00185,   0.00278,  -0.00170,462119807.25107,   0.00239,277213356.34628,   0.00025,   0.00215,  -0.00087,-15093549.09522,   0.00000
503953865.73159,353369317.02170,-64427479.05652,   0.00185,   0.00277,  -0.00171,461746943.49493,   0.00239,277213356.34628,   0.00025,   0.00215,  -0.00087,-15466412.85135,   0.00000
503608615.08578,352234922.04263,-64704912.61118,   0.00185,   0.00277,  -0.00171,461370473.01309,   0.00239,277213356.34628,   0.00025,   0.00215,  -0.00087,-15842883.33320,   0.00000
503251034.05977,351112857.44377,-64982346.16584,   0.00185,   0.00276,  -0.00171,460990291.98450,   0.00239,277213356.34628,   0.00025,   0.00215,  -0.00087,-16223064.36179,   0.00000
502884205.24860,349969214.67954,-65265944.91061,   0.00185,   0.00276,  -0.00172,460603859.53828,   0.00239,277213356.34628,   0.00025,   0.00215,  -0.00087,-16609496.80800,   0.00000
502505046.05723,348837902.29552,-65549543.65538,   0.00185,   0.00275,  -0.00172,460213673.47319,   0.00239,277213356.34628,   0.00025,   0.00215,  -0.00087,-16999682.87309,   0.00000
502104308.70049,347697342.12635,-65839307.59025,   0.00186,   0.00275,  -0.00172,459811144.06229,   0.00239,277213356.34628,   0.00025,   0.00215,  -0.00087,-17402212.28400,   0.00000
501691240.96355,346569112.33739,-66129071.52512,   0.00186,   0.00274,  -0.00173,459404750.88969,   0.00239,277213356.34628,   0.00025,   0.00215,  -0.00087,-17808605.45660,   0.00000
501278173.22661,345440882.54842,-66425000.65009,   0.00186,   0.00274,  -0.00173,459003352.77825,   0.00239,277213356.34628,   0.00025,   0.00215,  -0.00087,-18210003.56804,   0.00000
500865105.48966,344312652.75946,-66720929.77507,   0.00186,   0.00274,  -0.00174,458604307.66815,   0.00239,277213356.34628,   0.00025,   0.00215,  -0.00087,-18609048.67813,   0.00000
500418129.20715,343187505.56554,-67023024.09015,   0.00186,   0.00273,  -0.00174,458186616.77058,   0.00239,277213356.34628,   0.00025,   0.00215,  -0.00087,-19026739.57570,   0.00000
499971152.92464,342062358.37163,-67325118.40523,   0.00186,   0.00273,  -0.00174,457771246.13632,   0.00239,277213356.34628,   0.00025,   0.00215,  -0.00087,-19442110.20996,   0.00000
499502598.47676,340927963.39256,-67627212.72030,   0.00186,   0.00272,  -0.00175,457340833.73455,   0.00239,277213356.34628,   0.00025,   0.00215,  -0.00087,-19872522.61173,   0.00000
499034044.02888,339793568.41349,-67935472.22549,   0.00186,   0.00272,  -0.00175,456915498.54881,   0.00239,277213356.34628,   0.00025,   0.00215,  -0.00087,-20297857.79748,   0.00000
498553159.20080,338671503.81463,-68249896.92077,   0.00186,   0.00271,  -0.00176,456488813.85657,   0.00239,277213356.34628,   0.00025,   0.00215,  -0.00087,-20724542.48971,   0.00000
498059943.99251,337561769.59597,-68564321.61606,   0.00186,   0.00271,  -0.00176,456057955.35174,   0.00239,277213356.34628,   0.00025,   0.00215,  -0.00087,-21155400.99454,   0.00000
497535902.83370,336421209.42680,-68878746.31134,   0.00186,   0.00271,  -0.00176,455601162.94456,   0.00239,277213356.34628,   0.00025,   0.00215,  -0.00087,-21612193.40172,   0.00000
497021109.46005,335302227.42299,-69199336.19673,   0.00186,   0.00270,  -0.00177,455160330.29661,   0.00239,277213356.34628,   0.00025,   0.00215,  -0.00087,-22053026.04967,   0.00000
496493985.70619,334195575.79939,-69526091.27222,   0.00186,   0.00270,  -0.00177,454718043.84153,   0.00239,277213356.34628,   0.00025,   0.00215,  -0.00087,-22495312.50475,   0.00000
495957614.16717,333067346.01042,-69852846.34772,   0.00186,   0.00269,  -0.00178,454267306.96048,   0.00239,277213356.34628,   0.00025,   0.00215,  -0.00087,-22946049.38580,   0.00000
495387334.08258,331942198.81651,-70179601.42321,   0.00186,   0.00269,  -0.00178,453794890.39777,   0.00239,277213356.34628,   0.00025,   0.00215,  -0.00087,-23418465.94851,   0.00000
494847879.94851,330847877.57311,-70512521.68881,   0.00185,   0.00269,  -0.00179,453355730.88514,   0.00239,277213356.34628,   0.00025,   0.00215,  -0.00087,-23857625.46115,   0.00000
494256021.69857,329713482.59404,-70851607.14451,   0.00185,   0.00268,  -0.00179,452876332.00152,   0.00239,277213356.34628,   0.00025,   0.00215,  -0.00087,-24337024.34476,   0.00000
493673411.23377,328600665.78034,-71190692.60021,   0.00185,   0.00268,  -0.00179,452409954.62047,   0.00239,277213356.34628,   0.00025,   0.00215,  -0.00087,-24803401.72582,   0.00000
493078470.38877,327500179.34684,-71529778.05591,   0.00185,   0.00267,  -0.00180,451939139.03858,   0.00239,277213356.34628,   0.00025,   0.00215,  -0.00087,-25274217.30770,   0.00000
492461951.37841,326390445.12818,-71875028.70171,   0.00185,   0.00267,  -0.00180,451456177.23089,   0.00239,277213356.34628,   0.00025,   0.00215,  -0.00087,-25757179.11540,   0.00000
491845432.36804,325280710.90953,-72226444.53762,   0.00185,   0.00267,  -0.00181,450978509.69250,   0.00239,277213356.34628,   0.00025,   0.00215,  -0.00087,-26234846.65378,   0.00000
491207335.19232,324161728.90572,-72577860.37352,   0.00185,   0.00266,  -0.00181,450485838.90725,   0.00239,277213356.34628,   0.00025,   0.00215,  -0.00087,-26727517.43904,   0.00000
490556907.63638,323055077.28212,-72929276.20943,   0.00185,   0.00266,  -0.00182,449988667.48516,   0.00239,277213356.34628,   0.00025,   0.00215,  -0.00087,-27224688.86112,   0.00000
489915727.86560,321970003.82388,-73286857.23544,   0.00185,   0.00266,  -0.00182,449507313.98778,   0.00239,277213356.34628,   0.00025,   0.00215,  -0.00087,-27706042.35850,   0.00000
489243722.14431,320854104.41512,-73650603.45156,   0.00185,   0.00265,  -0.00183,449003512.05158,   0.00239,277213356.34628,   0.00025,   0.00215,  -0.00087,-28209844.29471,   0.00000
488559386.04280,319750535.38657,-74014349.66767,   0.00185,   0.00265,  -0.00183,448495178.55311,   0.00239,277213356.34628,   0.00025,   0.00215,  -0.00087,-28718177.79318,   0.00000
487884297.72646,318668544.52338,-74378095.88379,   0.00185,   0.00264,  -0.00184,447999613.42202,   0.00239,277213356.34628,   0.00025,   0.00215,  -0.00087,-29213742.92426,   0.00000
487187631.24475,317577305.87503,-74748007.29000,   0.00185,   0.00264,  -0.00184,447492113.49458,   0.00239,277213356.34628,   0.00025,   0.00215,  -0.00087,-29721242.85170,   0.00000
486490964.76303,316486067.22669,-75124083.88633,   0.00184,   0.00264,  -0.00185,446990113.20699,   0.00239,277213356.34628,   0.00025,   0.00215,  -0.00087,-30223243.13930,   0.00000
485751141.95060,315376333.00804,-75500160.48265,   0.00184,   0.00263,  -0.00185,446455834.46045,   0.00239,277213356.34628,   0.00025,   0.00215,  -0.00087,-30757521.88583,   0.00000
485020566.92332,314288176.95474,-75876237.07897,   0.00184,   0.00263,  -0.00186,445934287.54477,   0.00239,277213356.34628,   0.00025,   0.00215,  -0.00087,-31279068.80152,   0.00000
484299239.68119,313221599.06681,-76258478.86540,   0.00184,   0.00263,  -0.00186,445428566.88201,   0.00239,277213356.34628,   0.00025,   0.00215,  -0.00087,-31784789.46428,   0.00000
483525508.32319,312114947.44321,-76646885.84192,   0.00184,   0.00262,  -0.00187,444883528.94519,   0.00239,277213356.34628,   0.00025,   0.00215,  -0.00087,-32329827.40109,   0.00000
482791850.70085,311060699.93549,-77035292.81845,   0.00184,   0.00262,  -0.00187,444378744.05087,   0.00239,277213356.34628,   0.00025,   0.00215,  -0.00087,-32834612.29541,   0.00000
482005788.96264,309966378.69209,-77423699.79498,   0.00184,   0.00262,  -0.00188,443831539.51634,   0.00239,277213356.34628,   0.00025,   0.00215,  -0.00087,-33381816.82995,   0.00000
481228975.00958,308893635.61406,-77824437.15172,   0.00184,   0.00261,  -0.00188,443303469.32102,   0.00239,277213356.34628,   0.00025,   0.00215,  -0.00087,-33909887.02526,   0.00000
480430582.89116,307811644.75087,-78219009.31835,   0.00183,   0.00261,  -0.00189,442757344.34254,   0.00239,277213356.34628,   0.00025,   0.00215,  -0.00087,-34456012.00374,   0.00000
479619860.39253,306741984.26789,-78619746.67509,   0.00183,   0.00261,  -0.00189,442209793.45354,   0.00239,277213356.34628,   0.00025,   0.00215,  -0.00087,-35003562.89274,   0.00000
478809137.89390,305672323.78491,-79026649.22193,   0.00183,   0.00260,  -0.00190,441668079.09450,   0.00239,277213356.34628,   0.00025,   0.00215,  -0.00087,-35545277.25178,   0.00000
477986085.01507,304614993.68214,-79433551.76877,   0.00183,   0.00260,  -0.00190,441121673.71009,   0.00239,277213356.34628,   0.00025,   0.00215,  -0.00087,-36091682.63619,   0.00000
477163032.13623,303557663.57936,-79846619.50571,   0.00183,   0.00260,  -0.00191,440581169.72126,   0.00239,277213356.34628,   0.00025,   0.00215,  -0.00087,-36632186.62502,   0.00000
476318401.09203,302491085.69143,-80259687.24266,   0.00183,   0.00259,  -0.00191,440025974.28945,   0.00239,277213356.34628,   0.00025,   0.00215,  -0.00087,-37187382.05683,   0.00000
475461439.66763,301436838.18371,-80678920.16970,   0.00182,   0.00259,  -0.00192,439469474.99521,   0.00239,277213356.34628,   0.00025,   0.00215,  -0.00087,-37743881.35107,   0.00000
474604478.24322,300382590.67599,-81098153.09675,   0.00182,   0.00259,  -0.00192,438915618.46866,   0.00239,277213356.34628,   0.00025,   0.00215,  -0.00087,-38297737.87762,   0.00000
473725938.65345,299319095.38311,-81523551.21390,   0.00182,   0.00258,  -0.00193,438350584.12687,   0.00239,277213356.34628,   0.00025,   0.00215,  -0.00087,-38862772.21941,   0.00000
472835068.68348,298267930.47044,-81948949.33105,   0.00182,   0.00258,  -0.00193,437780897.28008,   0.00239,277213356.34628,   0.00025,   0.00215,  -0.00087,-39432459.06621,   0.00000
471953446.49866,297238343.72314,-82380512.63831,   0.00182,   0.00258,  -0.00194,437227257.24410,   0.00239,277213356.34628,   0.00025,   0.00215,  -0.00087,-39986099.10218,   0.00000
471050246.14848,296199509.19067,-82812075.94556,   0.00181,   0.00257,  -0.00195,436659079.48336,   0.00239,277213356.34628,   0.00025,   0.00215,  -0.00087,-40554276.86293,   0.00000
470147045.79829,295160674.65821,-83249804.44292,   0.00181,   0.00257,  -0.00195,436097167.07463,   0.00239,277213356.34628,   0.00025,   0.00215,  -0.00087,-41116189.27165,   0.00000
469231515.06790,294134170.50596,-83693698.13038,   0.00181,   0.00257,  -0.00196,435534163.81797,   0.00239,277213356.34628,   0.00025,   0.00215,  -0.00087,-41679192.52832,   0.00000
468294406.17215,293098418.56854,-84137591.81784,   0.00181,   0.00257,  -0.00196,434956764.53721,   0.00239,277213356.34628,   0.00025,   0.00215,  -0.00087,-42256591.80908,   0.00000
467335719.11103,292053418.84598,-84581485.50531,   0.00181,   0.00256,  -0.00197,434365010.52949,   0.00239,277213356.34628,   0.00025,   0.00215,  -0.00087,-42848345.81679,   0.00000
466407858.00044,291039245.07393,-85031544.38287,   0.00180,   0.00256,  -0.00197,433806675.73145,   0.00239,277213356.34628,   0.00025,   0.00215,  -0.00087,-43406680.61483,   0.00000
465436840.55911,290006575.73157,-85481603.26044,   0.00180,   0.00256,  -0.00198,433216845.99662,   0.00239,277213356.34628,   0.00025,   0.00215,  -0.00087,-43996510.34967,   0.00000
464475070.90295,288995484.55457,-85937827.32811,   0.00180,   0.00255,  -0.00199,432643287.13357,   0.00239,277213356.34628,   0.00025,   0.00215,  -0.00087,-44570069.21271,   0.00000
463491723.08142,287975145.59242,-86400216.58588,   0.00180,   0.00255,  -0.00199,432059206.22869,   0.00239,277213356.34628,   0.00025,   0.00215,  -0.00087,-45154150.11760,   0.00000
462517623.04504,286976384.79563,-86862605.84365,   0.00179,   0.00255,  -0.00200,431487773.37686,   0.00239,277213356.34628,   0.00025,   0.00215,  -0.00087,-45725582.96942,   0.00000
461521944.84331,285968376.21369,-87331160.29153,   0.00179,   0.00255,  -0.00200,430905942.50487,   0.00239,277213356.34628,   0.00025,   0.00215,  -0.00087,-46307413.84141,   0.00000
460513936.26136,284972698.01195,-87799714.73940,   0.00179,   0.00254,  -0.00201,430319642.75362,   0.00239,277213356.34628,   0.00025,   0.00215,  -0.00087,-46893713.59267,   0.00000
459496679.89426,283955441.64485,-88268269.18728,   0.00179,   0.00254,  -0.00202,429726856.31202,   0.00239,277213356.34628,   0.00025,   0.00215,  -0.00087,-47486500.03427,   0.00000
458476340.93211,282972093.82332,-88742988.82526,   0.00178,   0.00254,  -0.00202,429142989.12152,   0.00239,277213356.34628,   0.00025,   0.00215,  -0.00087,-48070367.22476,   0.00000
457456001.96996,281988746.00179,-89223873.65334,   0.00178,   0.00254,  -0.00203,428566098.93063,   0.00239,277213356.34628,   0.00025,   0.00215,  -0.00087,-48647257.41565,   0.00000
456414084.84244,280996150.39510,-89704758.48143,   0.00178,   0.00253,  -0.00204,427975330.63862,   0.00239,277213356.34628,   0.00025,   0.00215,  -0.00087,-49238025.70766,   0.00000
455350589.54956,279994307.00326,-90191808.49961,   0.00177,   0.00253,  -0.00204,427374643.08755,   0.00239,277213356.34628,   0.00025,   0.00215,  -0.00087,-49838713.25873,   0.00000
454305589.82700,279035619.94215,-90678858.51780,   0.00177,   0.00253,  -0.00205,426796169.60590,   0.00239,277213356.34628,   0.00025,   0.00215,  -0.00087,-50417186.74038,   0.00000
453229764.15391,278046106.93051,-91172073.72609,   0.00177,   0.00253,  -0.00205,426198458.82962,   0.00239,277213356.34628,   0.00025,   0.00215,  -0.00087,-51014897.51666,   0.00000
452163186.26598,277078172.08424,-91665288.93438,   0.00177,   0.00252,  -0.00206,425613541.73905,   0.00239,277213356.34628,   0.00025,   0.00215,  -0.00087,-51599814.60723,   0.00000
451084277.99785,276122567.61818,-92164669.33278,   0.00176,   0.00252,  -0.00207,425028384.90105,   0.00239,277213356.34628,   0.00025,   0.00215,  -0.00087,-52184971.44523,   0.00000
449996121.94456,275145384.98675,-92664049.73117,   0.00176,   0.00252,  -0.00207,424437291.91414,   0.00239,277213356.34628,   0.00025,   0.00215,  -0.00087,-52776064.43214,   0.00000
448904883.29621,274202110.90090,-93169595.31967,   0.00176,   0.00252,  -0.00208,423855453.84275,   0.00239,277213356.34628,   0.00025,   0.00215,  -0.00087,-53357902.50353,   0.00000
447782818.69735,273228010.86452,-93675140.90817,   0.00175,   0.00252,  -0.00209,423250854.53196,   0.00239,277213356.34628,   0.00025,   0.00215,  -0.00087,-53962501.81432,   0.00000
446679249.66880,272297067.15887,-94186851.68677,   0.00175,   0.00251,  -0.00209,422672549.75272,   0.00239,277213356.34628,   0.00025,   0.00215,  -0.00087,-54540806.59357,   0.00000
445566432.85509,271344545.28786,-94698562.46537,   0.00175,   0.00251,  -0.00210,422088545.71655,   0.00239,277213356.34628,   0.00025,   0.00215,  -0.00087,-55124810.62973,   0.00000
444419707.49582,270395106.01190,-95216438.43408,   0.00174,   0.00251,  -0.00211,421487824.60227,   0.00239,277213356.34628,   0.00025,   0.00215,  -0.00087,-55725531.74401,   0.00000
443303808.08706,269476492.68646,-95740479.59289,   0.00174,   0.00251,  -0.00211,420921143.77311,   0.00239,277213356.34628,   0.00025,   0.00215,  -0.00087,-56292212.57318,   0.00000
442144752.34757,268539383.79071,-96258355.56159,   0.00174,   0.00251,  -0.00212,420320254.54378,   0.00239,277213356.34628,   0.00025,   0.00215,  -0.00087,-56893101.80251,   0.00000
440994944.39325,267623853.06032,-96788561.91051,   0.00173,   0.00250,  -0.00213,419740847.02197,   0.00239,277213356.34628,   0.00025,   0.00215,  -0.00087,-57472509.32431,   0.00000
439835888.65376,266686744.16456,-97318768.25942,   0.00173,   0.00250,  -0.00213,419156122.84176,   0.00239,277213356.34628,   0.00025,   0.00215,  -0.00087,-58057233.50453,   0.00000
438673750.31923,265783543.81438,-97848974.60833,   0.00173,   0.00250,  -0.00214,418576818.44458,   0.00239,277213356.34628,   0.00025,   0.00215,  -0.00087,-58636537.90171,   0.00000
437511611.98469,264880343.46420,-98385346.14735,   0.00172,   0.00250,  -0.00215,418005753.46839,   0.00239,277213356.34628,   0.00025,   0.00215,  -0.00087,-59207602.87789,   0.00000
436327895.48479,263967895.32886,-98921717.68636,   0.00172,   0.00250,  -0.00216,417421902.38200,   0.00239,277213356.34628,   0.00025,   0.00215,  -0.00087,-59791453.96428,   0.00000
435131848.60469,263067777.57373,-99464254.41548,   0.00172,   0.00249,  -0.00216,416838849.70455,   0.00239,277213356.34628,   0.00025,   0.00215,  -0.00087,-60374506.64173,   0.00000
433935801.72458,262167659.81860,-100012956.33471,   0.00171,   0.00249,  -0.00217,416264342.12877,   0.00239,277213356.34628,   0.00025,   0.00215,  -0.00087,-60949014.21751,   0.00000
432727424.46427,261279872.44367,-100561658.25393,   0.00171,   0.00249,  -0.00218,415686385.02253,   0.00239,277213356.34628,   0.00025,   0.00215,  -0.00087,-61526971.32375,   0.00000
431519047.20396,260392085.06875,-101110360.17316,   0.00170,   0.00249,  -0.00218,415112631.00631,   0.00239,277213356.34628,   0.00025,   0.00215,  -0.00087,-62100725.33998,   0.00000
430310669.94364,259504297.69383,-101665227.28248,   0.00170,   0.00249,  -0.00219,414547633.34293,   0.00239,277213356.34628,   0.00025,   0.00215,  -0.00087,-62665723.00335,   0.00000
429089962.30312,258628840.69911,-102220094.39181,   0.00170,   0.00249,  -0.00220,413979319.02088,   0.00239,277213356.34628,   0.00025,   0.00215,  -0.00087,-63234037.32540,   0.00000
427856924.28240,257765714.08460,-102781126.69124,   0.00169,   0.00248,  -0.00221,413412318.89242,   0.00239,277213356.34628,   0.00025,   0.00215,  -0.00087,-63801037.45387,   0.00000
426623886.26167,256902587.47009,-103348324.18078,   0.00169,   0.00248,  -0.00221,412854366.39764,   0.00239,277213356.34628,   0.00025,   0.00215,  -0.00087,-64358989.94865,   0.00000
425369270.07558,256030213.07043,-103909356.48021,   0.00168,   0.00248,  -0.00222,412279715.93428,   0.00239,277213356.34628,   0.00025,   0.00215,  -0.00087,-64933640.41201,   0.00000
424123901.67464,255179416.83613,-104482719.15985,   0.00168,   0.00248,  -0.00223,411727876.95522,   0.00239,277213356.34628,   0.00025,   0.00215,  -0.00087,-65485479.39106,   0.00000
422878533.27371,254328620.60182,-105056081.83948,   0.00168,   0.00248,  -0.00223,411180651.42431,   0.00239,277213356.34628,   0.00025,   0.00215,  -0.00087,-66032704.92198,   0.00000
421599256.32721,253480906.96257,-105629444.51912,   0.00167,   0.00248,  -0.00224,410614027.90201,   0.00239,277213356.34628,   0.00025,   0.00215,  -0.00087,-66599328.44428,   0.00000
420350805.33122,252664019.27384,-106208972.38886,   0.00167,   0.00248,  -0.00225,410082210.83818,   0.00239,277213356.34628,   0.00025,   0.00215,  -0.00087,-67131145.50810,   0.00000
419071528.38471,251816305.63459,-106788500.25861,   0.00166,   0.00247,  -0.00226,409529858.46470,   0.00239,277213356.34628,   0.00025,   0.00215,  -0.00087,-67683497.88158,   0.00000
417789168.84316,251002500.54091,-107374193.31845,   0.00166,   0.00247,  -0.00226,408988472.91124,   0.00239,277213356.34628,   0.00025,   0.00215,  -0.00087,-68224883.43504,   0.00000
416497561.51645,250167117.28187,-107959886.37830,   0.00166,   0.00247,  -0.00227,408443168.87324,   0.00239,277213356.34628,   0.00025,   0.00215,  -0.00087,-68770187.47305,   0.00000
415215201.97489,249353312.18819,-108551744.62825,   0.00165,   0.00247,  -0.00228,407916530.86440,   0.00239,277213356.34628,   0.00025,   0.00215,  -0.00087,-69296825.48188,   0.00000
413920512.05313,248551837.47472,-109143602.87819,   0.00165,   0.00247,  -0.00229,407387383.84834,   0.00239,277213356.34628,   0.00025,   0.00215,  -0.00087,-69825972.49794,   0.00000
412625822.13136,247750362.76124,-109741626.31825,   0.00164,   0.00247,  -0.00230,406868268.43725,   0.00239,277213356.34628,   0.00025,   0.00215,  -0.00087,-70345087.90903,   0.00000
411318801.82939,246961218.42798,-110339649.75830,   0.00164,   0.00247,  -0.00230,406346800.91029,   0.00239,277213356.34628,   0.00025,   0.00215,  -0.00087,-70866555.43599,   0.00000
409990203.36206,246162826.30956,-110943838.38846,   0.00163,   0.00247,  -0.00231,405819371.78975,   0.00239,277213356.34628,   0.00025,   0.00215,  -0.00087,-71393984.55653,   0.00000
408683183.06009,245373681.97629,-111548027.01861,   0.00163,   0.00246,  -0.00232,405313431.22171,   0.00239,277213356.34628,   0.00025,   0.00215,  -0.00087,-71899925.12457,   0.00000
407342254.21254,244587620.23808,-112152215.64877,   0.00162,   0.00246,  -0.00233,404789206.73013,   0.00239,277213356.34628,   0.00025,   0.00215,  -0.00087,-72424149.61615,   0.00000
406032151.31552,243832384.45038,-112762569.46903,   0.00162,   0.00246,  -0.00233,404300313.14564,   0.00239,277213356.34628,   0.00025,   0.00215,  -0.00087,-72913043.20065,   0.00000
404700470.25314,243067900.87753,-113379088.47939,   0.00162,   0.00246,  -0.00234,403805936.53981,   0.00239,277213356.34628,   0.00025,   0.00215,  -0.00087,-73407419.80647,   0.00000
403347211.02539,242294169.51952,-113995607.48976,   0.00161,   0.00246,  -0.00235,403301072.75158,   0.00239,277213356.34628,   0.00025,   0.00215,  -0.00087,-73912283.59470,   0.00000
402003199.58280,241542016.32688,-114612126.50012,   0.00161,   0.00246,  -0.00236,402810468.27461,   0.00239,277213356.34628,   0.00025,   0.00215,  -0.00087,-74402888.07167,   0.00000
400668435.92536,240811441.29960,-115234810.70059,   0.00160,   0.00246,  -0.00237,402339392.87724,   0.00239,277213356.34628,   0.00025,   0.00215,  -0.00087,-74873963.46905,   0.00000
399312094.10256,240071618.48716,-115857494.90106,   0.00160,   0.00246,  -0.00238,401858068.42859,   0.00239,277213356.34628,   0.00025,   0.00215,  -0.00087,-75355287.91769,   0.00000
397955752.27976,239331795.67473,-116486344.29163,   0.00159,   0.00246,  -0.00238,401387879.26458,   0.00239,277213356.34628,   0.00025,   0.00215,  -0.00087,-75825477.08170,   0.00000
396587080.07675,238604303.24250,-117115193.68220,   0.00159,   0.00246,  -0.00239,400916259.91796,   0.00239,277213356.34628,   0.00025,   0.00215,  -0.00087,-76297096.42832,   0.00000
395218407.87374,237876810.81027,-117750208.26287,   0.00158,   0.00246,  -0.00240,400455999.13455,   0.00239,277213356.34628,   0.00025,   0.00215,  -0.00087,-76757357.21173,   0.00000
393858983.45589,237170896.54340,-118385222.84355,   0.00158,   0.00246,  -0.00241,400010284.56947,   0.00239,277213356.34628,   0.00025,   0.00215,  -0.00087,-77203071.77681,   0.00000
392477980.87268,236455734.49138,-119026402.61432,   0.00157,   0.00246,  -0.00242,399560338.57570,   0.00239,277213356.34628,   0.00025,   0.00215,  -0.00087,-77653017.77058,   0.00000
391106226.07462,235762150.60472,-119667582.38510,   0.00157,   0.00246,  -0.00242,399125065.08553,   0.00239,277213356.34628,   0.00025,   0.00215,  -0.00087,-78088291.26075,   0.00000
389712893.11120,235059318.93291,-120308762.15588,   0.00156,   0.00245,  -0.00243,398680285.43515,   0.00239,277213356.34628,   0.00025,   0.00215,  -0.00087,-78533070.91114,   0.00000
388328807.93293,234378065.42645,-120956107.11676,   0.00156,   0.00245,  -0.00244,398255854.21623,   0.00239,277213356.34628,   0.00025,   0.00215,  -0.00087,-78957502.13005,   0.00000
386944722.75466,233696811.92000,-121603452.07764,   0.00155,   0.00245,  -0.00245,397837741.98010,   0.00239,277213356.34628,   0.00025,   0.00215,  -0.00087,-79375614.36619,   0.00000
385548307.19619,233027888.79376,-122256962.22863,   0.00155,   0.00245,  -0.00246,397424559.53766,   0.00239,277213356.34628,   0.00025,   0.00215,  -0.00087,-79788796.80862,   0.00000
384151891.63771,232358965.66751,-122910472.37962,   0.00154,   0.00245,  -0.00247,397017860.09762,   0.00239,277213356.34628,   0.00025,   0.00215,  -0.00087,-80195496.24866,   0.00000
382733897.91388,231680794.75611,-123563982.53060,   0.00154,   0.00245,  -0.00248,396602202.41301,   0.00239,277213356.34628,   0.00025,   0.00215,  -0.00087,-80611153.93327,   0.00000
381346730.14056,231033449.79523,-124223657.87169,   0.00153,   0.00245,  -0.00248,396222771.18528,   0.00239,277213356.34628,   0.00025,   0.00215,  -0.00087,-80990585.16100,   0.00000
379925653.82167,230389187.42940,-124883333.21278,   0.00153,   0.00245,  -0.00249,395827561.18245,   0.00239,277213356.34628,   0.00025,   0.00215,  -0.00087,-81385795.16383,   0.00000
378526155.66815,229754172.84873,-125549173.74397,   0.00152,   0.00245,  -0.00250,395460303.63685,   0.00239,277213356.34628,   0.00025,   0.00215,  -0.00087,-81753052.70944,   0.00000
377114327.13441,229131488.64826,-126215014.27516,   0.00152,   0.00245,  -0.00251,395092871.53624,   0.00239,277213356.34628,   0.00025,   0.00215,  -0.00087,-82120484.81004,   0.00000
375680920.43532,228499556.66264,-126887019.99646,   0.00151,   0.00245,  -0.00252,394722972.65147,   0.00239,277213356.34628,   0.00025,   0.00215,  -0.00087,-82490383.69481,   0.00000
374269091.90159,227876872.46217,-127552860.52765,   0.00151,   0.00245,  -0.00253,394369304.99286,   0.00239,277213356.34628,   0.00025,   0.00215,  -0.00087,-82844051.35343,   0.00000
372844932.98764,227266518.64191,-128231031.43905,   0.00150,   0.00245,  -0.00254,394027710.83842,   0.00239,277213356.34628,   0.00025,   0.00215,  -0.00087,-83185645.50786,   0.00000
371408443.69350,226668495.20186,-128903037.16035,   0.00150,   0.00245,  -0.00254,393680358.53230,   0.00239,277213356.34628,   0.00025,   0.00215,  -0.00087,-83532997.81398,   0.00000
369993532.56471,226079719.54696,-129587373.26185,   0.00149,   0.00245,  -0.00255,393367362.11899,   0.00239,277213356.34628,   0.00025,   0.00215,  -0.00087,-83845994.22730,   0.00000
368557043.27057,225481696.10691,-130265544.17325,   0.00149,   0.00245,  -0.00256,393040402.74641,   0.00239,277213356.34628,   0.00025,   0.00215,  -0.00087,-84172953.59988,   0.00000
367108223.59621,224896003.04706,-130949880.27476,   0.00148,   0.00245,  -0.00257,392720130.98126,   0.00239,277213356.34628,   0.00025,   0.00215,  -0.00087,-84493225.36503,   0.00000
