# sigma_xx, sigma_yy, sigma_xy, epsilon_xx, epsilon_yy, epsilon_xy, vonMises, epsPlastic, hardening, epsilonP__xx, epsilonP__yy, epsilonP__xy, yieldValue, iteration
   0.00000,   0.00000,   0.00000,   0.00000,   0.00000,   0.00000,   0.00000,   0.00000,274640135.82653,   0.00000,   0.00000,   0.00000,-474640135.82653,   0.00000
   0.00000,   0.00000,   0.00000,   0.00000,   0.00000,   0.00000,   0.00000,   0.00000,274640135.82653,   0.00000,   0.00000,   0.00000,-474640135.82653,   0.00000
-3532455.36787,-2894720.12516,104628.43826,  -0.00001,  -0.00001,   0.00000,3265733.79422,   0.00000,274640135.82653,   0.00000,   0.00000,   0.00000,-471374402.03231,   0.00000
-7047472.66271,-5781966.79044,204274.56993,  -0.00002,  -0.00001,   0.00000,6517280.28435,   0.00000,274640135.82653,   0.00000,   0.00000,   0.00000,-468122855.54218,   0.00000
-10579928.03058,-8676686.91559,303920.70161,  -0.00003,  -0.00002,   0.00000,9782543.29054,   0.00000,274640135.82653,   0.00000,   0.00000,   0.00000,-464857592.53599,   0.00000
-14087471.86554,-11546495.50783,398584.52670,  -0.00004,  -0.00003,   0.00001,13022829.96654,   0.00000,274640135.82653,   0.00000,   0.00000,   0.00000,-461617305.85999,   0.00000
-17612453.77354,-14423777.55994,488266.04521,  -0.00005,  -0.00003,   0.00001,16276393.41814,   0.00000,274640135.82653,   0.00000,   0.00000,   0.00000,-458363742.40839,   0.00000
-21137435.68154,-17301059.61205,572965.25713,  -0.00006,  -0.00004,   0.00001,19529533.62670,   0.00000,274640135.82653,   0.00000,   0.00000,   0.00000,-455110602.19983,   0.00000
-24644979.51649,-20170868.20429,657664.46905,  -0.00007,  -0.00004,   0.00001,22768967.33320,   0.00000,274640135.82653,   0.00000,   0.00000,   0.00000,-451871168.49333,   0.00000
-28169961.42449,-23048150.25640,737381.37439,  -0.00008,  -0.00005,   0.00001,26021714.91551,   0.00000,274640135.82653,   0.00000,   0.00000,   0.00000,-448618420.91102,   0.00000
-31670031.79957,-25900520.77560,817098.27973,  -0.00009,  -0.00006,   0.00001,29249966.20238,   0.00000,274640135.82653,   0.00000,   0.00000,   0.00000,-445390169.62415,   0.00000
-35187540.24770,-28760364.75467,886850.57191,  -0.00010,  -0.00006,   0.00001,32491146.31668,   0.00000,274640135.82653,   0.00000,   0.00000,   0.00000,-442148989.50985,   0.00000
-38705048.69582,-31620208.73373,956602.86408,  -0.00011,  -0.00007,   0.00001,35732365.48590,   0.00000,274640135.82653,   0.00000,   0.00000,   0.00000,-438907770.34063,   0.00000
-42205119.07090,-34472579.25293,1026355.15625,  -0.00012,  -0.00007,   0.00001,38959872.93110,   0.00000,274640135.82653,   0.00000,   0.00000,   0.00000,-435680262.89543,   0.00000
-45715154.05915,-37314985.15895,1086142.83526,  -0.00014,  -0.00008,   0.00001,42189598.85545,   0.00000,274640135.82653,   0.00000,   0.00000,   0.00000,-432450536.97108,   0.00000
-49207750.97435,-40149917.60510,1145930.51426,  -0.00015,  -0.00009,   0.00001,45405626.99411,   0.00000,274640135.82653,   0.00000,   0.00000,   0.00000,-429234508.83242,   0.00000
-52717785.96260,-42992323.51113,1200735.88668,  -0.00016,  -0.00009,   0.00002,48635069.94750,   0.00000,274640135.82653,   0.00000,   0.00000,   0.00000,-426005065.87903,   0.00000
-56202909.41793,-45809817.88424,1255541.25910,  -0.00017,  -0.00010,   0.00002,51840047.72555,   0.00000,274640135.82653,   0.00000,   0.00000,   0.00000,-422800088.10098,   0.00000
-59695506.33313,-48644750.33039,1305364.32494,  -0.00018,  -0.00010,   0.00002,55055464.19490,   0.00000,274640135.82653,   0.00000,   0.00000,   0.00000,-419584671.63163,   0.00000
-63180629.78846,-51462244.70350,1350205.08419,  -0.00019,  -0.00011,   0.00002,58259820.98327,   0.00000,274640135.82653,   0.00000,   0.00000,   0.00000,-416380314.84326,   0.00000
-66675717.85696,-54269774.46344,1390063.53686,  -0.00020,  -0.00012,   0.00002,61466905.17407,   0.00000,274640135.82653,   0.00000,   0.00000,   0.00000,-413173230.65246,   0.00000
-70160841.31229,-57087268.83654,1429921.98953,  -0.00021,  -0.00012,   0.00002,64671037.85900,   0.00000,274640135.82653,   0.00000,   0.00000,   0.00000,-409969097.96753,   0.00000
-73638491.30774,-59887325.13661,1464798.13562,  -0.00022,  -0.00013,   0.00002,67864156.54318,   0.00000,274640135.82653,   0.00000,   0.00000,   0.00000,-406775979.28335,   0.00000
-77091229.77028,-62662469.90375,1494691.97512,  -0.00023,  -0.00013,   0.00002,71032515.71577,   0.00000,274640135.82653,   0.00000,   0.00000,   0.00000,-403607620.11076,   0.00000
-80568879.76573,-65462526.20382,1524585.81463,  -0.00024,  -0.00014,   0.00002,74225449.85739,   0.00000,274640135.82653,   0.00000,   0.00000,   0.00000,-400414685.96914,   0.00000
-84039056.30131,-68245144.43084,1544515.04096,  -0.00025,  -0.00015,   0.00002,77407117.03340,   0.00000,274640135.82653,   0.00000,   0.00000,   0.00000,-397233018.79313,   0.00000
-87491794.76384,-71020289.19799,1569426.57388,  -0.00026,  -0.00015,   0.00002,80575383.09867,   0.00000,274640135.82653,   0.00000,   0.00000,   0.00000,-394064752.72786,   0.00000
-90954497.83955,-73785469.35196,1584373.49363,  -0.00027,  -0.00016,   0.00002,83746203.31736,   0.00000,274640135.82653,   0.00000,   0.00000,   0.00000,-390893932.50917,   0.00000
-94399762.84221,-76543176.04607,1599320.41338,  -0.00028,  -0.00016,   0.00002,86903330.40396,   0.00000,274640135.82653,   0.00000,   0.00000,   0.00000,-387736805.42257,   0.00000
-97845027.84487,-79300882.74017,1609285.02655,  -0.00029,  -0.00017,   0.00002,90060267.55672,   0.00000,274640135.82653,   0.00000,   0.00000,   0.00000,-384579868.26981,   0.00000
-101282819.38765,-82041151.36123,1614267.33313,  -0.00030,  -0.00018,   0.00002,93206322.10951,   0.00000,274640135.82653,   0.00000,   0.00000,   0.00000,-381433813.71702,   0.00000
-104720610.93043,-84781419.98229,1619249.63972,  -0.00031,  -0.00018,   0.00002,96352474.48794,   0.00000,274640135.82653,   0.00000,   0.00000,   0.00000,-378287661.33859,   0.00000
-108140964.40017,-87514215.14347,1619249.63972,  -0.00032,  -0.00019,   0.00002,99484673.78157,   0.00000,274640135.82653,   0.00000,   0.00000,   0.00000,-375155462.04496,   0.00000
-111578755.94296,-90254483.76453,1614267.33313,  -0.00033,  -0.00019,   0.00002,102630527.51364,   0.00000,274640135.82653,   0.00000,   0.00000,   0.00000,-372009608.31289,   0.00000
-114984162.49295,-92952402.77963,1609285.02655,  -0.00034,  -0.00020,   0.00002,105741297.59123,   0.00000,274640135.82653,   0.00000,   0.00000,   0.00000,-368898838.23529,   0.00000
-118397042.50281,-95667759.86777,1599320.41338,  -0.00035,  -0.00020,   0.00002,108862636.37112,   0.00000,274640135.82653,   0.00000,   0.00000,   0.00000,-365777499.45541,   0.00000
-121802449.05280,-98365678.88287,1584373.49363,  -0.00036,  -0.00021,   0.00002,111973182.07846,   0.00000,274640135.82653,   0.00000,   0.00000,   0.00000,-362666953.74807,   0.00000
-125207855.60279,-101063597.89796,1569426.57388,  -0.00037,  -0.00022,   0.00002,115083842.70494,   0.00000,274640135.82653,   0.00000,   0.00000,   0.00000,-359556293.12159,   0.00000
-128605788.69290,-103744078.84002,1549497.34754,  -0.00038,  -0.00022,   0.00002,118183740.52440,   0.00000,274640135.82653,   0.00000,   0.00000,   0.00000,-356456395.30213,   0.00000
-131993757.16985,-106434524.39524,1524585.81463,  -0.00039,  -0.00023,   0.00002,121280419.82636,   0.00000,274640135.82653,   0.00000,   0.00000,   0.00000,-353359716.00017,   0.00000
-135366778.72705,-109090093.80438,1494691.97512,  -0.00040,  -0.00023,   0.00002,124355703.81835,   0.00000,274640135.82653,   0.00000,   0.00000,   0.00000,-350284432.00818,   0.00000
-138739800.28424,-111745663.21351,1464798.13562,  -0.00041,  -0.00024,   0.00002,127431123.88189,   0.00000,274640135.82653,   0.00000,   0.00000,   0.00000,-347209011.94464,   0.00000
-142112821.84144,-114401232.62265,1429921.98953,  -0.00042,  -0.00024,   0.00002,130506506.34303,   0.00000,274640135.82653,   0.00000,   0.00000,   0.00000,-344133629.48350,   0.00000
-145468405.32559,-117049328.57191,1395045.84345,  -0.00043,  -0.00025,   0.00002,133568190.65194,   0.00000,274640135.82653,   0.00000,   0.00000,   0.00000,-341071945.17459,   0.00000
-148816515.34986,-119679986.44813,1350205.08419,  -0.00044,  -0.00025,   0.00002,136619050.71431,   0.00000,274640135.82653,   0.00000,   0.00000,   0.00000,-338021085.11222,   0.00000
-152157151.91426,-122293206.25130,1305364.32494,  -0.00045,  -0.00026,   0.00002,139659418.37300,   0.00000,274640135.82653,   0.00000,   0.00000,   0.00000,-334980717.45353,   0.00000
-155497788.47867,-124906426.05447,1260523.56569,  -0.00046,  -0.00027,   0.00002,142699934.24032,   0.00000,274640135.82653,   0.00000,   0.00000,   0.00000,-331940201.58621,   0.00000
-158838425.04307,-127519645.85765,1210700.49985,  -0.00047,  -0.00027,   0.00002,145740464.61722,   0.00000,274640135.82653,   0.00000,   0.00000,   0.00000,-328899671.20931,   0.00000
-162154150.07455,-130107954.12790,1155895.12743,  -0.00048,  -0.00028,   0.00002,148756551.70390,   0.00000,274640135.82653,   0.00000,   0.00000,   0.00000,-325883584.12263,   0.00000
-165469875.10603,-132696262.39816,1096107.44842,  -0.00049,  -0.00028,   0.00001,151772685.32447,   0.00000,274640135.82653,   0.00000,   0.00000,   0.00000,-322867450.50206,   0.00000
-168778126.67764,-135267132.59537,1036319.76942,  -0.00050,  -0.00029,   0.00001,154778363.60705,   0.00000,274640135.82653,   0.00000,   0.00000,   0.00000,-319861772.21948,   0.00000
-172068940.17620,-137830529.33271,971549.78383,  -0.00051,  -0.00029,   0.00001,157770255.78428,   0.00000,274640135.82653,   0.00000,   0.00000,   0.00000,-316869880.04224,   0.00000
-175359753.67476,-140393926.07004,901797.49166,  -0.00052,  -0.00030,   0.00001,160762225.38055,   0.00000,274640135.82653,   0.00000,   0.00000,   0.00000,-313877910.44598,   0.00000
-178643093.71345,-142939884.73434,832045.19949,  -0.00053,  -0.00030,   0.00001,163743760.95911,   0.00000,274640135.82653,   0.00000,   0.00000,   0.00000,-310896374.86742,   0.00000
-181918960.29226,-145468405.32559,757310.60073,  -0.00054,  -0.00031,   0.00001,166714800.08572,   0.00000,274640135.82653,   0.00000,   0.00000,   0.00000,-307925335.74081,   0.00000
-185177388.79803,-147989452.45696,677593.69539,  -0.00055,  -0.00031,   0.00001,169672096.65878,   0.00000,274640135.82653,   0.00000,   0.00000,   0.00000,-304968039.16775,   0.00000
-188435817.30380,-150510499.58834,597876.79005,  -0.00056,  -0.00032,   0.00001,172629577.69895,   0.00000,274640135.82653,   0.00000,   0.00000,   0.00000,-302010558.12758,   0.00000
-191686772.34969,-153014108.64667,513177.57813,  -0.00057,  -0.00032,   0.00001,175576608.86921,   0.00000,274640135.82653,   0.00000,   0.00000,   0.00000,-299063526.95732,   0.00000
-194920289.32254,-155510244.24512,428478.36620,  -0.00058,  -0.00033,   0.00001,178509955.56275,   0.00000,274640135.82653,   0.00000,   0.00000,   0.00000,-296130180.26378,   0.00000
-198146332.83552,-157988941.77054,333814.54111,  -0.00059,  -0.00033,   0.00000,181432852.02517,   0.00000,274640135.82653,   0.00000,   0.00000,   0.00000,-293207283.80136,   0.00000
-201372376.34849,-160467639.29595,239150.71602,  -0.00060,  -0.00034,   0.00000,184355957.17142,   0.00000,274640135.82653,   0.00000,   0.00000,   0.00000,-290284178.65511,   0.00000
-204573508.32855,-162921425.28844,144486.89093,  -0.00061,  -0.00034,   0.00000,187254816.23742,   0.00000,274640135.82653,   0.00000,   0.00000,   0.00000,-287385319.58911,   0.00000
-207774640.30860,-165375211.28094,44840.75925,  -0.00062,  -0.00035,   0.00000,190153865.73459,   0.00000,274640135.82653,   0.00000,   0.00000,   0.00000,-284486270.09194,   0.00000
-210968298.82878,-167811559.20039,-59787.67900,  -0.00063,  -0.00035,  -0.00000,193042570.60909,   0.00000,274640135.82653,   0.00000,   0.00000,   0.00000,-281597565.21744,   0.00000
-214137045.81605,-170222995.58692,-164416.11726,  -0.00064,  -0.00036,  -0.00000,195907055.28502,   0.00000,274640135.82653,   0.00000,   0.00000,   0.00000,-278733080.54151,   0.00000
-217313266.26318,-172651870.04650,-279009.16869,  -0.00065,  -0.00036,  -0.00000,198782332.35533,   0.00000,274640135.82653,   0.00000,   0.00000,   0.00000,-275857803.47120,   0.00000
-220474539.79057,-175045868.35999,-388619.91353,  -0.00066,  -0.00037,  -0.00001,201636739.04616,   0.00000,274640135.82653,   0.00000,   0.00000,   0.00000,-273003396.78037,   0.00000
-223625848.70479,-177449831.28664,-508195.27154,  -0.00067,  -0.00037,  -0.00001,204488064.43384,   0.00000,274640135.82653,   0.00000,   0.00000,   0.00000,-270152071.39269,   0.00000
-226762210.69925,-179818918.06721,-627770.62955,  -0.00068,  -0.00038,  -0.00001,207318572.24450,   0.00000,274640135.82653,   0.00000,   0.00000,   0.00000,-267321563.58203,   0.00000
-229898572.69372,-182188004.84778,-747345.98756,  -0.00069,  -0.00038,  -0.00001,210149318.67289,   0.00000,274640135.82653,   0.00000,   0.00000,   0.00000,-264490817.15364,   0.00000
-233017496.61515,-184549618.16848,-871903.65216,  -0.00070,  -0.00039,  -0.00001,212966443.16877,   0.00000,274640135.82653,   0.00000,   0.00000,   0.00000,-261673692.65776,   0.00000
-236128947.07669,-186893793.41613,-1001443.62333,  -0.00071,  -0.00039,  -0.00001,215773361.83712,   0.00000,274640135.82653,   0.00000,   0.00000,   0.00000,-258866773.98941,   0.00000
-239240397.53824,-189237968.66378,-1135965.90109,  -0.00072,  -0.00039,  -0.00001,218580605.27271,   0.00000,274640135.82653,   0.00000,   0.00000,   0.00000,-256059530.55382,   0.00000
-242326936.46687,-191557232.37852,-1270488.17885,  -0.00073,  -0.00040,  -0.00002,221363688.42747,   0.00000,274640135.82653,   0.00000,   0.00000,   0.00000,-253276447.39906,   0.00000
-245396037.32246,-193869022.63337,-1409992.76320,  -0.00074,  -0.00040,  -0.00002,224133191.19522,   0.00000,274640135.82653,   0.00000,   0.00000,   0.00000,-250506944.63131,   0.00000
-248475102.79121,-196170848.27506,-1549497.34754,  -0.00075,  -0.00041,  -0.00002,226906389.41283,   0.00000,274640135.82653,   0.00000,   0.00000,   0.00000,-247733746.41370,   0.00000
-251529256.72705,-198447762.38383,-1693984.23847,  -0.00076,  -0.00041,  -0.00002,229655550.68637,   0.00000,274640135.82653,   0.00000,   0.00000,   0.00000,-244984585.14016,   0.00000
-254565972.58984,-200717203.03273,-1838471.12940,  -0.00077,  -0.00042,  -0.00002,232391049.56223,   0.00000,274640135.82653,   0.00000,   0.00000,   0.00000,-242249086.26430,   0.00000
-257595214.99276,-202969205.60858,-1987940.32691,  -0.00078,  -0.00042,  -0.00003,235116466.40999,   0.00000,274640135.82653,   0.00000,   0.00000,   0.00000,-239523669.41654,   0.00000
-260624457.39567,-205221208.18444,-2142391.83101,  -0.00079,  -0.00043,  -0.00003,237842291.40459,   0.00000,274640135.82653,   0.00000,   0.00000,   0.00000,-236797844.42193,   0.00000
-263636261.72555,-207465737.30041,-2296843.33511,  -0.00079,  -0.00043,  -0.00003,240554454.75012,   0.00000,274640135.82653,   0.00000,   0.00000,   0.00000,-234085681.07641,   0.00000
-266640592.59554,-209692828.34335,-2456277.14579,  -0.00080,  -0.00043,  -0.00003,243256588.31382,   0.00000,274640135.82653,   0.00000,   0.00000,   0.00000,-231383547.51271,   0.00000
-269620011.93262,-211895007.85336,-2620693.26305,  -0.00081,  -0.00044,  -0.00003,245934777.41339,   0.00000,274640135.82653,   0.00000,   0.00000,   0.00000,-228705358.41314,   0.00000
-272599431.26970,-214097187.36338,-2785109.38031,  -0.00082,  -0.00044,  -0.00004,248613263.03429,   0.00000,274640135.82653,   0.00000,   0.00000,   0.00000,-226026872.79224,   0.00000
-275571377.14691,-216281928.80035,-2949525.49758,  -0.00083,  -0.00045,  -0.00004,251281608.47687,   0.00000,274640135.82653,   0.00000,   0.00000,   0.00000,-223358527.34966,   0.00000
-278518411.49119,-218441758.70440,-3123906.22801,  -0.00084,  -0.00045,  -0.00004,253926233.81234,   0.00000,274640135.82653,   0.00000,   0.00000,   0.00000,-220713902.01419,   0.00000
-281465445.83548,-220601588.60845,-3298286.95844,  -0.00085,  -0.00045,  -0.00004,256571178.61682,   0.00000,274640135.82653,   0.00000,   0.00000,   0.00000,-218068957.20971,   0.00000
-284395042.10672,-222753945.05263,-3472667.68887,  -0.00086,  -0.00046,  -0.00005,259202470.45764,   0.00000,274640135.82653,   0.00000,   0.00000,   0.00000,-215437665.36889,   0.00000
-287317164.91808,-224888863.42377,-3652030.72588,  -0.00087,  -0.00046,  -0.00005,261823863.45271,   0.00000,274640135.82653,   0.00000,   0.00000,   0.00000,-212816272.37382,   0.00000
-290214376.19653,-226998870.26198,-3831393.76290,  -0.00088,  -0.00047,  -0.00005,264421206.51615,   0.00000,274640135.82653,   0.00000,   0.00000,   0.00000,-210218929.31037,   0.00000
-293111587.47498,-229108877.10020,-4015739.10650,  -0.00089,  -0.00047,  -0.00005,267019085.62588,   0.00000,274640135.82653,   0.00000,   0.00000,   0.00000,-207621050.20065,   0.00000
-296001325.29355,-231201445.86537,-4205066.75668,  -0.00090,  -0.00047,  -0.00005,269607133.65771,   0.00000,274640135.82653,   0.00000,   0.00000,   0.00000,-205033002.16882,   0.00000
-298873625.03908,-233286541.17067,-4394394.40686,  -0.00090,  -0.00048,  -0.00006,272181542.19101,   0.00000,274640135.82653,   0.00000,   0.00000,   0.00000,-202458593.63552,   0.00000
-301721013.25169,-235346724.94305,-4588704.36363,  -0.00091,  -0.00048,  -0.00006,274732173.37431,   0.00000,274640135.82653,   0.00000,   0.00000,   0.00000,-199907962.45222,   0.00000
-304568401.46430,-237406908.71542,-4783014.32039,  -0.00092,  -0.00049,  -0.00006,277283141.33799,   0.00000,274640135.82653,   0.00000,   0.00000,   0.00000,-197356994.48854,   0.00000
-307408316.21703,-239449654.41476,-4982306.58374,  -0.00093,  -0.00049,  -0.00006,279824346.56947,   0.00000,274640135.82653,   0.00000,   0.00000,   0.00000,-194815789.25706,   0.00000
-310223319.43685,-241467488.58118,-5181598.84709,  -0.00094,  -0.00049,  -0.00007,282341560.91554,   0.00000,274640135.82653,   0.00000,   0.00000,   0.00000,-192298574.91099,   0.00000
-313038322.65667,-243485322.74759,-5385873.41703,  -0.00095,  -0.00050,  -0.00007,284859403.42240,   0.00000,274640135.82653,   0.00000,   0.00000,   0.00000,-189780732.40413,   0.00000
-315828414.34356,-245478245.38109,-5595130.29355,  -0.00096,  -0.00050,  -0.00007,287353558.73315,   0.00000,274640135.82653,   0.00000,   0.00000,   0.00000,-187286577.09338,   0.00000
-318618506.03046,-247471168.01459,-5804387.17006,  -0.00097,  -0.00050,  -0.00008,289848081.37441,   0.00000,274640135.82653,   0.00000,   0.00000,   0.00000,-184792054.45212,   0.00000
-321383686.18444,-249439179.11517,-6013644.04658,  -0.00098,  -0.00051,  -0.00008,292318638.99596,   0.00000,274640135.82653,   0.00000,   0.00000,   0.00000,-182321496.83057,   0.00000
-324148866.33842,-251407190.21575,-6227883.22968,  -0.00098,  -0.00051,  -0.00008,294789868.77344,   0.00000,274640135.82653,   0.00000,   0.00000,   0.00000,-179850267.05309,   0.00000
-326889134.95948,-253350289.78341,-6447104.71937,  -0.00099,  -0.00052,  -0.00008,297237471.21897,   0.00000,274640135.82653,   0.00000,   0.00000,   0.00000,-177402664.60756,   0.00000
-329621930.12066,-255275951.27802,-6666326.20905,  -0.00100,  -0.00052,  -0.00009,299675150.88692,   0.00000,274640135.82653,   0.00000,   0.00000,   0.00000,-174964984.93961,   0.00000
-332337287.20880,-257194139.31277,-6885547.69873,  -0.00101,  -0.00052,  -0.00009,302099201.45917,   0.00000,274640135.82653,   0.00000,   0.00000,   0.00000,-172540934.36736,   0.00000
-335045170.83706,-259094889.27446,-7109751.49500,  -0.00102,  -0.00053,  -0.00009,304513681.80818,   0.00000,274640135.82653,   0.00000,   0.00000,   0.00000,-170126454.01835,   0.00000
-337735616.39229,-260988165.77629,-7338937.59786,  -0.00103,  -0.00053,  -0.00010,306914890.85868,   0.00000,274640135.82653,   0.00000,   0.00000,   0.00000,-167725244.96785,   0.00000
-340418588.48763,-262864004.20507,-7568123.70071,  -0.00104,  -0.00053,  -0.00010,309306217.70017,   0.00000,274640135.82653,   0.00000,   0.00000,   0.00000,-165333918.12636,   0.00000
-343084122.50994,-264732369.17397,-7802292.11014,  -0.00104,  -0.00054,  -0.00010,311684290.77412,   0.00000,274640135.82653,   0.00000,   0.00000,   0.00000,-162955845.05241,   0.00000
-345742183.07236,-266583296.06983,-8036460.51958,  -0.00105,  -0.00054,  -0.00010,314052502.35962,   0.00000,274640135.82653,   0.00000,   0.00000,   0.00000,-160587633.46691,   0.00000
-348375332.10187,-268409311.43277,-8270628.92902,  -0.00106,  -0.00054,  -0.00011,316396835.28746,   0.00000,274640135.82653,   0.00000,   0.00000,   0.00000,-158243300.53906,   0.00000
-351008481.13138,-270235326.79572,-8509779.64504,  -0.00107,  -0.00055,  -0.00011,318741969.49376,   0.00000,274640135.82653,   0.00000,   0.00000,   0.00000,-155898166.33277,   0.00000
-353616718.62797,-272036430.62574,-8753912.66764,  -0.00108,  -0.00055,  -0.00011,321063648.35753,   0.00000,274640135.82653,   0.00000,   0.00000,   0.00000,-153576487.46900,   0.00000
-356224956.12456,-273837534.45576,-8993063.38366,  -0.00109,  -0.00055,  -0.00012,323385337.50475,   0.00000,274640135.82653,   0.00000,   0.00000,   0.00000,-151254798.32178,   0.00000
-358808282.08823,-275613726.75287,-9242178.71285,  -0.00110,  -0.00055,  -0.00012,325684011.66723,   0.00000,274640135.82653,   0.00000,   0.00000,   0.00000,-148956124.15930,   0.00000
-361391608.05191,-277389919.04997,-9491294.04203,  -0.00110,  -0.00056,  -0.00012,327983119.45253,   0.00000,274640135.82653,   0.00000,   0.00000,   0.00000,-146657016.37400,   0.00000
-363942549.02278,-279123761.74112,-9740409.37122,  -0.00111,  -0.00056,  -0.00013,330248189.61045,   0.00000,274640135.82653,   0.00000,   0.00000,   0.00000,-144391946.21608,   0.00000
-366500963.45354,-280875042.50530,-9994507.00699,  -0.00112,  -0.00056,  -0.00013,332524348.78880,   0.00000,274640135.82653,   0.00000,   0.00000,   0.00000,-142115787.03773,   0.00000
-369034466.35137,-282601411.73657,-10248604.64276,  -0.00113,  -0.00057,  -0.00013,334776695.41317,   0.00000,274640135.82653,   0.00000,   0.00000,   0.00000,-139863440.41336,   0.00000
-371543057.71628,-284302869.43492,-10507684.58512,  -0.00114,  -0.00057,  -0.00014,337005700.52264,   0.00000,274640135.82653,   0.00000,   0.00000,   0.00000,-137634435.30389,   0.00000
-374051649.08120,-286004327.13327,-10766764.52747,  -0.00114,  -0.00057,  -0.00014,339235155.55722,   0.00000,274640135.82653,   0.00000,   0.00000,   0.00000,-135404980.26931,   0.00000
-376552766.98624,-287688346.75857,-11030826.77641,  -0.00115,  -0.00057,  -0.00014,341455363.99675,   0.00000,274640135.82653,   0.00000,   0.00000,   0.00000,-133184771.82978,   0.00000
-379028973.35836,-289347454.85096,-11294889.02535,  -0.00116,  -0.00058,  -0.00015,343651810.80869,   0.00000,274640135.82653,   0.00000,   0.00000,   0.00000,-130988325.01784,   0.00000
-381487741.65744,-290999089.48347,-11558951.27429,  -0.00117,  -0.00058,  -0.00015,345834656.60250,   0.00000,274640135.82653,   0.00000,   0.00000,   0.00000,-128805479.22403,   0.00000
-383946509.95652,-292650724.11598,-11827995.82981,  -0.00118,  -0.00058,  -0.00015,348018460.90239,   0.00000,274640135.82653,   0.00000,   0.00000,   0.00000,-126621674.92414,   0.00000
-386390331.33584,-294267482.60241,-12097040.38533,  -0.00118,  -0.00059,  -0.00016,350182444.62155,   0.00000,274640135.82653,   0.00000,   0.00000,   0.00000,-124457691.20498,   0.00000
-388824188.10200,-295894205.70200,-12371067.24744,  -0.00119,  -0.00059,  -0.00016,352343491.26890,   0.00000,274640135.82653,   0.00000,   0.00000,   0.00000,-122296644.55763,   0.00000
-391225659.87537,-297478579.19563,-12645094.10954,  -0.00120,  -0.00059,  -0.00016,354470681.15105,   0.00000,274640135.82653,   0.00000,   0.00000,   0.00000,-120169454.67548,   0.00000
-393627131.64873,-299062952.68926,-12924103.27823,  -0.00121,  -0.00059,  -0.00017,356598897.26189,   0.00000,274640135.82653,   0.00000,   0.00000,   0.00000,-118041238.56464,   0.00000
-396011165.34905,-300639852.72302,-13198130.14034,  -0.00122,  -0.00060,  -0.00017,358712973.86187,   0.00000,274640135.82653,   0.00000,   0.00000,   0.00000,-115927161.96466,   0.00000
-398387725.58950,-302199314.68373,-13482121.61561,  -0.00122,  -0.00060,  -0.00018,360818528.97808,   0.00000,274640135.82653,   0.00000,   0.00000,   0.00000,-113821606.84845,   0.00000
-400739374.29703,-303733865.11152,-13761130.78430,  -0.00123,  -0.00060,  -0.00018,362899840.21950,   0.00000,274640135.82653,   0.00000,   0.00000,   0.00000,-111740295.60703,   0.00000
-403091023.00455,-305268415.53932,-14050104.56616,  -0.00124,  -0.00060,  -0.00018,364982789.67231,   0.00000,274640135.82653,   0.00000,   0.00000,   0.00000,-109657346.15422,   0.00000
-405425233.63904,-306795492.50723,-14334096.04143,  -0.00125,  -0.00061,  -0.00019,367051575.38533,   0.00000,274640135.82653,   0.00000,   0.00000,   0.00000,-107588560.44120,   0.00000
-407727059.28073,-308280219.86919,-14623069.82329,  -0.00125,  -0.00061,  -0.00019,369087203.60343,   0.00000,274640135.82653,   0.00000,   0.00000,   0.00000,-105552932.22310,   0.00000
-410036358.38229,-309782385.30419,-14912043.60515,  -0.00126,  -0.00061,  -0.00019,371133409.18395,   0.00000,274640135.82653,   0.00000,   0.00000,   0.00000,-103506726.64258,   0.00000
-412330710.56411,-311249674.59310,-15205999.69359,  -0.00127,  -0.00061,  -0.00020,373160612.33849,   0.00000,274640135.82653,   0.00000,   0.00000,   0.00000,-101479523.48804,   0.00000
-414607624.67288,-312709490.42214,-15499955.78203,  -0.00128,  -0.00061,  -0.00020,375174245.76869,   0.00000,274640135.82653,   0.00000,   0.00000,   0.00000,-99465890.05784,   0.00000
-416867100.70861,-314161832.79130,-15793911.87047,  -0.00128,  -0.00062,  -0.00021,377174293.13713,   0.00000,274640135.82653,   0.00000,   0.00000,   0.00000,-97465842.68940,   0.00000
-419119103.28446,-315596737.08742,-16092850.26549,  -0.00129,  -0.00062,  -0.00021,379165453.64737,   0.00000,274640135.82653,   0.00000,   0.00000,   0.00000,-95474682.17916,   0.00000
-421346194.32739,-317006729.85062,-16391788.66052,  -0.00130,  -0.00062,  -0.00021,381133015.16991,   0.00000,274640135.82653,   0.00000,   0.00000,   0.00000,-93507120.65662,   0.00000
-423573285.37033,-318416722.61382,-16695709.36213,  -0.00131,  -0.00062,  -0.00022,383101762.11872,   0.00000,274640135.82653,   0.00000,   0.00000,   0.00000,-91538373.70781,   0.00000
-425782938.34022,-319819241.91714,-16994647.75715,  -0.00131,  -0.00062,  -0.00022,385056275.98837,   0.00000,274640135.82653,   0.00000,   0.00000,   0.00000,-89583859.83816,   0.00000
-427967679.77719,-321196849.68755,-17298568.45876,  -0.00132,  -0.00063,  -0.00022,386987857.79753,   0.00000,274640135.82653,   0.00000,   0.00000,   0.00000,-87652278.02900,   0.00000
-430144947.75429,-322557019.38491,-17607471.46695,  -0.00133,  -0.00063,  -0.00023,388910662.92440,   0.00000,274640135.82653,   0.00000,   0.00000,   0.00000,-85729472.90213,   0.00000
-432322215.73138,-323917189.08227,-17916374.47515,  -0.00134,  -0.00063,  -0.00023,390834026.31210,   0.00000,274640135.82653,   0.00000,   0.00000,   0.00000,-83806109.51443,   0.00000
-434474572.17556,-325252447.24672,-18225277.48334,  -0.00134,  -0.00063,  -0.00024,392733844.55452,   0.00000,274640135.82653,   0.00000,   0.00000,   0.00000,-81906291.27201,   0.00000
-436609490.54670,-326580231.95128,-18534180.49153,  -0.00135,  -0.00063,  -0.00024,394620088.16253,   0.00000,274640135.82653,   0.00000,   0.00000,   0.00000,-80020047.66400,   0.00000
-438736935.45795,-327890578.58281,-18848065.80631,  -0.00136,  -0.00064,  -0.00025,396497630.76135,   0.00000,274640135.82653,   0.00000,   0.00000,   0.00000,-78142505.06518,   0.00000
-440864380.36921,-329200925.21433,-19161951.12108,  -0.00136,  -0.00064,  -0.00025,398375740.02569,   0.00000,274640135.82653,   0.00000,   0.00000,   0.00000,-76264395.80084,   0.00000
-442949475.67451,-330478886.85306,-19475836.43586,  -0.00137,  -0.00064,  -0.00025,400216201.09327,   0.00000,274640135.82653,   0.00000,   0.00000,   0.00000,-74423934.73325,   0.00000
-445052009.05285,-331764321.95167,-19794704.05722,  -0.00138,  -0.00064,  -0.00026,402072094.27107,   0.00000,274640135.82653,   0.00000,   0.00000,   0.00000,-72568041.55546,   0.00000
-447112192.82523,-333017372.05748,-20113571.67858,  -0.00138,  -0.00064,  -0.00026,403890359.98962,   0.00000,274640135.82653,   0.00000,   0.00000,   0.00000,-70749775.83691,   0.00000
-449164903.13773,-334252984.09025,-20432439.29994,  -0.00139,  -0.00064,  -0.00027,405699287.75980,   0.00000,274640135.82653,   0.00000,   0.00000,   0.00000,-68940848.06673,   0.00000
-451217613.45023,-335488596.12302,-20756289.22788,  -0.00140,  -0.00065,  -0.00027,407509557.87743,   0.00000,274640135.82653,   0.00000,   0.00000,   0.00000,-67130577.94910,   0.00000
-453252885.68969,-336716734.69591,-21080139.15582,  -0.00141,  -0.00065,  -0.00027,409306270.35249,   0.00000,274640135.82653,   0.00000,   0.00000,   0.00000,-65333865.47404,   0.00000
-455263246.39624,-337919961.73589,-21403989.08377,  -0.00141,  -0.00065,  -0.00028,411079526.98103,   0.00000,274640135.82653,   0.00000,   0.00000,   0.00000,-63560608.84550,   0.00000
-457273607.10278,-339123188.77586,-21727839.01171,  -0.00142,  -0.00065,  -0.00028,412853366.34078,   0.00000,274640135.82653,   0.00000,   0.00000,   0.00000,-61786769.48575,   0.00000
-459276494.34944,-340308977.74279,-22056671.24624,  -0.00143,  -0.00065,  -0.00029,414618709.82904,   0.00000,274640135.82653,   0.00000,   0.00000,   0.00000,-60021425.99749,   0.00000
-461254470.06319,-341469855.17680,-22385503.48076,  -0.00143,  -0.00065,  -0.00029,416360640.97591,   0.00000,274640135.82653,   0.00000,   0.00000,   0.00000,-58279494.85062,   0.00000
-463222481.16377,-342640697.22398,-22714335.71529,  -0.00144,  -0.00066,  -0.00030,418098868.30131,   0.00000,274640135.82653,   0.00000,   0.00000,   0.00000,-56541267.52522,   0.00000
-465175545.34459,-343776663.12508,-23043167.94982,  -0.00145,  -0.00066,  -0.00030,419817994.03741,   0.00000,274640135.82653,   0.00000,   0.00000,   0.00000,-54822141.78912,   0.00000
-467111171.45238,-344905155.56630,-23376982.49093,  -0.00145,  -0.00066,  -0.00030,421524390.16791,   0.00000,274640135.82653,   0.00000,   0.00000,   0.00000,-53115745.65862,   0.00000
-469046797.56016,-346033648.00751,-23710797.03204,  -0.00146,  -0.00066,  -0.00031,423231396.63372,   0.00000,274640135.82653,   0.00000,   0.00000,   0.00000,-51408739.19281,   0.00000
-470957512.13503,-347137228.91581,-24044611.57315,  -0.00147,  -0.00066,  -0.00031,424915024.76759,   0.00000,274640135.82653,   0.00000,   0.00000,   0.00000,-49725111.05894,   0.00000
-472850788.63685,-348233336.36424,-24383408.42085,  -0.00147,  -0.00066,  -0.00032,426585945.57140,   0.00000,274640135.82653,   0.00000,   0.00000,   0.00000,-48054190.25513,   0.00000
-474736591.67880,-349312005.73962,-24717222.96196,  -0.00148,  -0.00066,  -0.00032,428246822.67144,   0.00000,274640135.82653,   0.00000,   0.00000,   0.00000,-46393313.15509,   0.00000
-476622394.72075,-350390675.11500,-25056019.80965,  -0.00149,  -0.00066,  -0.00033,429909178.87603,   0.00000,274640135.82653,   0.00000,   0.00000,   0.00000,-44730956.95050,   0.00000
-478490759.68965,-351461871.03050,-25394816.65735,  -0.00149,  -0.00067,  -0.00033,431557975.67012,   0.00000,274640135.82653,   0.00000,   0.00000,   0.00000,-43082160.15641,   0.00000
-480326739.66576,-352490717.34005,-25738595.81162,  -0.00150,  -0.00067,  -0.00033,433174550.92551,   0.00000,274640135.82653,   0.00000,   0.00000,   0.00000,-41465584.90102,   0.00000
-482170193.10175,-353537001.72263,-26077392.65932,  -0.00150,  -0.00067,  -0.00034,434800636.54199,   0.00000,274640135.82653,   0.00000,   0.00000,   0.00000,-39839499.28454,   0.00000
-484006173.07786,-354565848.03218,-26421171.81360,  -0.00151,  -0.00067,  -0.00034,436418482.55786,   0.00000,274640135.82653,   0.00000,   0.00000,   0.00000,-38221653.26867,   0.00000
-485799803.44801,-355562309.34892,-26764950.96788,  -0.00152,  -0.00067,  -0.00035,437998850.07312,   0.00000,274640135.82653,   0.00000,   0.00000,   0.00000,-36641285.75341,   0.00000
-487618345.35107,-356583682.19859,-27108730.12215,  -0.00152,  -0.00067,  -0.00035,439603773.62673,   0.00000,274640135.82653,   0.00000,   0.00000,   0.00000,-35036362.19980,   0.00000
-489404502.26134,-357562705.44230,-27452509.27643,  -0.00153,  -0.00067,  -0.00036,441175677.10539,   0.00000,274640135.82653,   0.00000,   0.00000,   0.00000,-33464458.72114,   0.00000
-491180694.55845,-358551693.29917,-27801270.73729,  -0.00154,  -0.00067,  -0.00036,442744682.28162,   0.00000,274640135.82653,   0.00000,   0.00000,   0.00000,-31895453.54491,   0.00000
-492941939.93580,-359505805.00996,-28150032.19816,  -0.00154,  -0.00067,  -0.00037,444294906.54520,   0.00000,274640135.82653,   0.00000,   0.00000,   0.00000,-30345229.28133,   0.00000
-494693220.69999,-360469881.33391,-28498793.65902,  -0.00155,  -0.00068,  -0.00037,445841289.15238,   0.00000,274640135.82653,   0.00000,   0.00000,   0.00000,-28798846.67415,   0.00000
-496419589.93126,-361409046.12495,-28847555.11988,  -0.00155,  -0.00068,  -0.00038,447364417.13982,   0.00000,274640135.82653,   0.00000,   0.00000,   0.00000,-27275718.68671,   0.00000
-498155923.77569,-362338246.30282,-29196316.58074,  -0.00156,  -0.00068,  -0.00038,448892704.35820,   0.00000,274640135.82653,   0.00000,   0.00000,   0.00000,-25747431.46833,   0.00000
-499857381.47404,-363252499.56093,-29545078.04160,  -0.00157,  -0.00068,  -0.00038,450393241.41951,   0.00000,274640135.82653,   0.00000,   0.00000,   0.00000,-24246894.40702,   0.00000
-501558839.17239,-364166752.81905,-29898821.80905,  -0.00157,  -0.00068,  -0.00039,451895405.86106,   0.00000,274640135.82653,   0.00000,   0.00000,   0.00000,-22744729.96547,   0.00000
-503260296.87074,-365081006.07717,-30252565.57650,  -0.00158,  -0.00068,  -0.00039,453398219.09262,   0.00000,274640135.82653,   0.00000,   0.00000,   0.00000,-21241916.73391,   0.00000
-504929369.57629,-365952909.72932,-30606309.34394,  -0.00158,  -0.00068,  -0.00040,454868186.30325,   0.00000,274640135.82653,   0.00000,   0.00000,   0.00000,-19771949.52328,   0.00000
-506605915.74172,-366842251.45452,-30960053.11139,  -0.00159,  -0.00068,  -0.00040,456348453.76295,   0.00000,274640135.82653,   0.00000,   0.00000,   0.00000,-18291682.06358,   0.00000
-508257550.37423,-367706681.64680,-31313796.87883,  -0.00160,  -0.00068,  -0.00041,457805532.50806,   0.00000,274640135.82653,   0.00000,   0.00000,   0.00000,-16834603.31847,   0.00000
-509891746.93370,-368563638.37921,-31667540.64628,  -0.00160,  -0.00068,  -0.00041,459249051.26604,   0.00000,274640135.82653,   0.00000,   0.00000,   0.00000,-15391084.56049,   0.00000
-511518470.03329,-369403157.03857,-32026266.72031,  -0.00161,  -0.00068,  -0.00042,460684648.30244,   0.00000,274640135.82653,   0.00000,   0.00000,   0.00000,-13955487.52408,   0.00000
-513145193.13289,-370242675.69793,-32380010.48776,  -0.00161,  -0.00068,  -0.00042,462119869.78906,   0.00000,274640135.82653,   0.00000,   0.00000,   0.00000,-12520266.03747,   0.00000
-514754478.15944,-371074720.89741,-32738736.56178,  -0.00162,  -0.00068,  -0.00043,463542577.95327,   0.00000,274640135.82653,   0.00000,   0.00000,   0.00000,-11097557.87326,   0.00000
-516356289.72611,-371889328.02386,-33097462.63581,  -0.00162,  -0.00069,  -0.00043,464956366.47905,   0.00000,274640135.82653,   0.00000,   0.00000,   0.00000,-9683769.34748,   0.00000
-517940663.21974,-372696461.69042,-33456188.70984,  -0.00163,  -0.00069,  -0.00043,466356602.09162,   0.00000,274640135.82653,   0.00000,   0.00000,   0.00000,-8283533.73491,   0.00000
-519507598.64033,-373496121.89711,-33814914.78387,  -0.00164,  -0.00069,  -0.00044,467743273.72449,   0.00000,274640135.82653,   0.00000,   0.00000,   0.00000,-6896862.10204,   0.00000
-521067060.60104,-374278344.03076,-34173640.85790,  -0.00164,  -0.00069,  -0.00044,469121047.35509,   0.00000,274640135.82653,   0.00000,   0.00000,   0.00000,-5519088.47144,   0.00000
-522626522.56175,-375060566.16441,-34532366.93193,  -0.00165,  -0.00069,  -0.00045,470499483.55952,   0.00000,274640135.82653,   0.00000,   0.00000,   0.00000,-4140652.26701,   0.00000
-524168546.44942,-375835314.83818,-34896075.31255,  -0.00165,  -0.00069,  -0.00045,471865453.81070,   0.00000,274640135.82653,   0.00000,   0.00000,   0.00000,-2774682.01583,   0.00000
-525703096.87721,-376592625.43891,-35254801.38658,  -0.00166,  -0.00069,  -0.00046,473221454.72213,   0.00000,274640135.82653,   0.00000,   0.00000,   0.00000,-1418681.10440,   0.00000
-527220209.23196,-377342462.57976,-35618509.76719,  -0.00166,  -0.00069,  -0.00046,474565006.85265,   0.00000,274640135.82653,   0.00000,   0.00000,   0.00000,-75128.97388,   0.00000
-527305037.30451,-377384453.88478,-35638800.86760,  -0.00166,  -0.00069,  -0.00046,474640155.53744,   0.00000,274640135.82653,   0.00000,   0.00000,   0.00000,  -0.56147,   0.00000
-527319424.04919,-377149901.33620,-35866048.93532,  -0.00167,  -0.00069,  -0.00047,474645630.65866,   0.00001,274645639.61534,  -0.00000,  -0.00000,  -0.00000,  -8.95668,   1.00000
-527337537.45222,-376887478.97860,-36110540.00063,  -0.00167,  -0.00069,  -0.00047,474651502.10789,   0.00001,274651504.49858,  -0.00001,  -0.00000,  -0.00000,  -2.39069,   1.00000
-527351945.82225,-376631731.58895,-36356736.86853,  -0.00168,  -0.00069,  -0.00048,474657241.00402,   0.00002,274657249.95239,  -0.00001,  -0.00000,  -0.00000,  -8.94837,   1.00000
-527368864.42931,-376366064.56635,-36602956.88488,  -0.00168,  -0.00069,  -0.00048,474662953.05689,   0.00002,274662959.29145,  -0.00002,  -0.00001,  -0.00001,  -6.23455,   1.00000
-527382062.47437,-376111214.98276,-36847487.56814,  -0.00169,  -0.00069,  -0.00049,474668715.63063,   0.00003,274668715.87331,  -0.00002,  -0.00001,  -0.00001,  -0.24267,   1.00000
-527397742.33149,-375846410.22845,-37092054.37971,  -0.00170,  -0.00069,  -0.00049,474674431.55747,   0.00003,274674436.43098,  -0.00003,  -0.00001,  -0.00001,  -4.87351,   1.00000
-527409748.62998,-375588207.78634,-37338417.42449,  -0.00170,  -0.00069,  -0.00050,474680034.09498,   0.00004,274680037.18062,  -0.00003,  -0.00001,  -0.00001,  -3.08564,   1.00000
-527425747.33888,-375316942.50004,-37583523.11965,  -0.00171,  -0.00069,  -0.00050,474685654.96209,   0.00004,274685664.68177,  -0.00004,  -0.00001,  -0.00001,  -9.71968,   1.00000
-527439596.80619,-375049187.50998,-37829142.99454,  -0.00171,  -0.00069,  -0.00051,474691227.29130,   0.00005,274691235.05250,  -0.00004,  -0.00001,  -0.00001,  -7.76119,   1.00000
-527451297.22132,-374784909.59082,-38075291.37376,  -0.00172,  -0.00069,  -0.00051,474696741.18788,   0.00005,274696748.25118,  -0.00005,  -0.00002,  -0.00002,  -7.06330,   1.00000
-527461051.90835,-374520159.53889,-38325492.66597,  -0.00172,  -0.00069,  -0.00052,474702268.83206,   0.00006,274702272.40408,  -0.00005,  -0.00002,  -0.00002,  -3.57202,   1.00000
-527474575.04302,-374246253.50543,-38570921.60764,  -0.00173,  -0.00069,  -0.00052,474707752.23440,   0.00006,274707755.33659,  -0.00006,  -0.00002,  -0.00002,  -3.10219,   1.00000
-527482922.87413,-373986267.16168,-38816017.99341,  -0.00173,  -0.00069,  -0.00052,474713221.20911,   0.00007,274713222.53039,  -0.00006,  -0.00002,  -0.00002,  -1.32128,   1.00000
-527496710.48035,-373705717.06427,-39062133.60243,  -0.00174,  -0.00069,  -0.00053,474718608.16670,   0.00007,274718612.27139,  -0.00006,  -0.00002,  -0.00002,  -4.10468,   1.00000
-527503954.01743,-373438183.79415,-39312782.02438,  -0.00174,  -0.00069,  -0.00053,474723987.78499,   0.00008,274723991.74726,  -0.00007,  -0.00002,  -0.00002,  -3.96227,   1.00000
-527511974.48371,-373171955.34689,-39557788.23098,  -0.00175,  -0.00069,  -0.00054,474729367.45405,   0.00008,274729371.36488,  -0.00007,  -0.00002,  -0.00002,  -3.91083,   1.00000
-527519461.20064,-372897670.95791,-39809176.75990,  -0.00175,  -0.00069,  -0.00054,474734650.24944,   0.00009,274734657.62489,  -0.00008,  -0.00003,  -0.00003,  -7.37544,   1.00000
-527527740.12846,-372624705.41211,-40054936.93616,  -0.00176,  -0.00069,  -0.00055,474739942.33190,   0.00009,274739943.96826,  -0.00008,  -0.00003,  -0.00003,  -1.63636,   1.00000
-527536846.66253,-372344553.29720,-40302271.21580,  -0.00176,  -0.00069,  -0.00055,474745130.18442,   0.00010,274745131.36772,  -0.00009,  -0.00003,  -0.00003,  -1.18330,   1.00000
-527540949.87174,-372074417.63135,-40552752.46990,  -0.00177,  -0.00069,  -0.00056,474750367.60989,   0.00010,274750371.61725,  -0.00009,  -0.00003,  -0.00003,  -4.00737,   1.00000
-527548835.93352,-371795030.18627,-40798558.42083,  -0.00177,  -0.00069,  -0.00056,474755569.20698,   0.00011,274755570.37280,  -0.00010,  -0.00003,  -0.00003,  -1.16583,   1.00000
-527553131.43154,-371518025.28539,-41049884.33336,  -0.00178,  -0.00069,  -0.00057,474760709.18302,   0.00011,274760717.36127,  -0.00010,  -0.00003,  -0.00003,  -8.17825,   1.00000
-527558269.70134,-371242347.36173,-41295609.57824,  -0.00178,  -0.00069,  -0.00057,474765858.18929,   0.00011,274765864.23718,  -0.00010,  -0.00003,  -0.00004,  -6.04789,   1.00000
-527561359.47058,-370966102.57098,-41545422.05332,  -0.00178,  -0.00069,  -0.00058,474771020.76061,   0.00012,274771022.58971,  -0.00011,  -0.00003,  -0.00004,  -1.82910,   1.00000
-527563764.27645,-370694088.19654,-41791103.56539,  -0.00179,  -0.00069,  -0.00058,474776108.12787,   0.00012,274776117.43373,  -0.00011,  -0.00004,  -0.00004,  -9.30586,   1.00000
-527566967.65757,-370414713.38288,-42038482.45940,  -0.00179,  -0.00069,  -0.00059,474781107.62881,   0.00013,274781113.00913,  -0.00012,  -0.00004,  -0.00004,  -5.38033,   1.00000
-527569619.11018,-370131847.45373,-42288477.03218,  -0.00180,  -0.00069,  -0.00059,474786178.81628,   0.00013,274786183.68563,  -0.00012,  -0.00004,  -0.00004,  -4.86935,   1.00000
-527570084.00334,-369856081.44007,-42535874.38485,  -0.00180,  -0.00069,  -0.00060,474791125.00979,   0.00014,274791127.09602,  -0.00012,  -0.00004,  -0.00004,  -2.08624,   1.00000
-527571491.77575,-369577794.91662,-42781048.03859,  -0.00181,  -0.00069,  -0.00060,474796136.30737,   0.00014,274796139.65957,  -0.00013,  -0.00004,  -0.00004,  -3.35220,   1.00000
-527570777.51374,-369302732.35679,-43027002.49727,  -0.00181,  -0.00069,  -0.00061,474801087.40074,   0.00015,274801094.25124,  -0.00013,  -0.00004,  -0.00005,  -6.85050,   1.00000
-527570804.72483,-369020173.82709,-43274738.37200,  -0.00182,  -0.00069,  -0.00061,474805940.95611,   0.00015,274805949.47502,  -0.00014,  -0.00004,  -0.00005,  -8.51890,   1.00000
-527567417.47519,-368744852.18138,-43524069.16281,  -0.00182,  -0.00069,  -0.00061,474810920.69220,   0.00016,274810921.41116,  -0.00014,  -0.00005,  -0.00005,  -0.71897,   1.00000
-527566269.78867,-368462972.96815,-43770374.12996,  -0.00183,  -0.00069,  -0.00062,474815787.66679,   0.00016,274815787.86021,  -0.00014,  -0.00005,  -0.00005,  -0.19342,   1.00000
-527562996.00789,-368184259.78726,-44017510.71201,  -0.00183,  -0.00069,  -0.00062,474820593.99677,   0.00016,274820596.18654,  -0.00015,  -0.00005,  -0.00005,  -2.18978,   1.00000
-527559145.24581,-367905881.75998,-44263943.34537,  -0.00184,  -0.00069,  -0.00063,474825406.96062,   0.00017,274825410.08161,  -0.00015,  -0.00005,  -0.00005,  -3.12099,   1.00000
-527554722.32365,-367627840.73209,-44509673.65480,  -0.00184,  -0.00069,  -0.00063,474830226.54211,   0.00017,274830229.53648,  -0.00016,  -0.00005,  -0.00006,  -2.99437,   1.00000
-527551297.52239,-367351150.16079,-44749888.84920,  -0.00184,  -0.00069,  -0.00064,474835045.86792,   0.00018,274835048.18604,  -0.00016,  -0.00005,  -0.00006,  -2.31812,   1.00000
-527546990.24994,-367065783.96560,-44996826.18472,  -0.00185,  -0.00069,  -0.00064,474839773.21340,   0.00018,274839773.53113,  -0.00016,  -0.00005,  -0.00006,  -0.31773,   1.00000
-527537778.39476,-366794313.14268,-45243632.44599,  -0.00185,  -0.00069,  -0.00065,474844477.20816,   0.00019,274844481.77276,  -0.00017,  -0.00005,  -0.00006,  -4.56460,   1.00000
-527533913.67968,-366510607.15924,-45484375.66622,  -0.00186,  -0.00069,  -0.00065,474849202.93904,   0.00019,274849211.80535,  -0.00017,  -0.00005,  -0.00006,  -8.86631,   1.00000
-527523602.66831,-366239794.24715,-45729823.35916,  -0.00186,  -0.00069,  -0.00066,474853927.84936,   0.00019,274853930.93181,  -0.00018,  -0.00006,  -0.00006,  -3.08244,   1.00000
-527515548.65700,-365962226.10958,-45972424.26294,  -0.00187,  -0.00069,  -0.00066,474858538.82802,   0.00020,274858543.75762,  -0.00018,  -0.00006,  -0.00006,  -4.92960,   1.00000
-527506882.17829,-365681206.47958,-46217549.69985,  -0.00187,  -0.00069,  -0.00067,474863230.95957,   0.00020,274863232.65289,  -0.00018,  -0.00006,  -0.00007,  -1.69333,   1.00000
-527495004.73371,-365415129.27711,-46457772.44078,  -0.00187,  -0.00069,  -0.00067,474867892.40409,   0.00021,274867897.48999,  -0.00019,  -0.00006,  -0.00007,  -5.08590,   1.00000
-527483788.44393,-365141202.95000,-46700018.13056,  -0.00188,  -0.00069,  -0.00068,474872462.02963,   0.00021,274872462.24456,  -0.00019,  -0.00006,  -0.00007,  -0.21493,   1.00000
-527473577.50285,-364864870.11820,-46939965.37304,  -0.00188,  -0.00069,  -0.00068,474877090.53115,   0.00022,274877096.61504,  -0.00019,  -0.00006,  -0.00007,  -6.08389,   1.00000
-527461290.46352,-364591550.33492,-47180906.62189,  -0.00189,  -0.00069,  -0.00069,474881664.97592,   0.00022,274881672.06391,  -0.00020,  -0.00006,  -0.00007,  -7.08799,   1.00000
-527446931.53622,-364321218.33098,-47422855.56428,  -0.00189,  -0.00069,  -0.00069,474886184.99651,   0.00022,274886188.51562,  -0.00020,  -0.00006,  -0.00007,  -3.51911,   1.00000
-527433605.55135,-364048503.04416,-47662490.45843,  -0.00190,  -0.00069,  -0.00069,474890771.93344,   0.00023,274890774.61104,  -0.00021,  -0.00006,  -0.00007,  -2.67760,   1.00000
-527422546.49129,-363768891.87644,-47899429.26141,  -0.00190,  -0.00069,  -0.00070,474895251.53163,   0.00023,274895253.70422,  -0.00021,  -0.00007,  -0.00008,  -2.17259,   1.00000
-527406624.85681,-363499458.83418,-48139455.77585,  -0.00190,  -0.00069,  -0.00070,474899782.48233,   0.00024,274899786.02570,  -0.00021,  -0.00007,  -0.00008,  -3.54336,   1.00000
-527390325.47603,-363234036.43621,-48375741.66037,  -0.00191,  -0.00069,  -0.00071,474904244.11134,   0.00024,274904252.23845,  -0.00022,  -0.00007,  -0.00008,  -8.12711,   1.00000
-527373546.90311,-362968905.85040,-48611405.67121,  -0.00191,  -0.00069,  -0.00071,474908719.20563,   0.00024,274908723.52481,  -0.00022,  -0.00007,  -0.00008,  -4.31917,   1.00000
-527354569.68380,-362702971.58695,-48851233.53283,  -0.00192,  -0.00069,  -0.00072,474913199.76724,   0.00025,274913206.94881,  -0.00022,  -0.00007,  -0.00008,  -7.18158,   1.00000
-527336815.45059,-362438410.55736,-49085642.65012,  -0.00192,  -0.00069,  -0.00072,474917679.28742,   0.00025,274917688.54046,  -0.00023,  -0.00007,  -0.00008,  -9.25303,   1.00000
-527321355.45093,-362166838.03161,-49317470.60575,  -0.00192,  -0.00069,  -0.00073,474922058.10539,   0.00026,274922062.48118,  -0.00023,  -0.00007,  -0.00009,  -4.37579,   1.00000
-527301072.64288,-361905466.58101,-49552379.39755,  -0.00193,  -0.00069,  -0.00073,474926480.77354,   0.00026,274926489.62663,  -0.00024,  -0.00007,  -0.00009,  -8.85309,   1.00000
-527280330.85937,-361644377.95460,-49786676.58716,  -0.00193,  -0.00069,  -0.00074,474930916.71609,   0.00027,274930921.78045,  -0.00024,  -0.00007,  -0.00009,  -5.06436,   1.00000
-527259295.98421,-361387246.27137,-50017332.07641,  -0.00194,  -0.00069,  -0.00074,474935282.37727,   0.00027,274935287.07091,  -0.00024,  -0.00007,  -0.00009,  -4.69364,   1.00000
-527237813.53178,-361130385.43671,-50247395.12311,  -0.00194,  -0.00069,  -0.00075,474939653.67810,   0.00027,274939657.24728,  -0.00025,  -0.00008,  -0.00009,  -3.56919,   1.00000
-527215887.08109,-360873796.85504,-50476866.96007,  -0.00194,  -0.00069,  -0.00075,474944030.60607,   0.00028,274944032.30199,  -0.00025,  -0.00008,  -0.00009,  -1.69592,   1.00000
-527193512.01075,-360617476.74218,-50705747.90569,  -0.00195,  -0.00069,  -0.00075,474948405.82319,   0.00028,274948412.26083,  -0.00025,  -0.00008,  -0.00010,  -6.43765,   1.00000
-527169124.06984,-360363970.15811,-50935819.32998,  -0.00195,  -0.00069,  -0.00076,474952724.95118,   0.00029,274952732.19438,  -0.00026,  -0.00008,  -0.00010,  -7.24320,   1.00000
-527144303.11531,-360110723.90496,-51165306.66686,  -0.00196,  -0.00069,  -0.00076,474957049.63711,   0.00029,274957056.96045,  -0.00026,  -0.00008,  -0.00010,  -7.32334,   1.00000
-527120845.64432,-359858870.43475,-51389443.77961,  -0.00196,  -0.00069,  -0.00077,474961372.36950,   0.00029,274961379.13977,  -0.00026,  -0.00008,  -0.00010,  -6.77027,   1.00000
-527095172.59972,-359606151.39925,-51617778.45501,  -0.00196,  -0.00069,  -0.00077,474965708.04669,   0.00030,274965713.46992,  -0.00027,  -0.00008,  -0.00010,  -5.42323,   1.00000
-527069300.12160,-359357336.85090,-51842578.77437,  -0.00197,  -0.00069,  -0.00078,474969979.65514,   0.00030,274969980.09149,  -0.00027,  -0.00008,  -0.00010,  -0.43635,   1.00000
-527040514.02803,-359119908.81933,-52065671.28728,  -0.00197,  -0.00069,  -0.00078,474974287.06750,   0.00030,274974292.32775,  -0.00027,  -0.00008,  -0.00010,  -5.26025,   1.00000
-527013834.70585,-358871583.23736,-52289350.38939,  -0.00198,  -0.00069,  -0.00079,474978562.11645,   0.00031,274978568.21732,  -0.00028,  -0.00008,  -0.00011,  -6.10087,   1.00000
-526986104.83224,-358635822.92930,-52506558.54556,  -0.00198,  -0.00069,  -0.00079,474982872.18226,   0.00031,274982882.06428,  -0.00028,  -0.00009,  -0.00011,  -9.88201,   1.00000
-526957047.86185,-358390463.66331,-52730973.62363,  -0.00198,  -0.00069,  -0.00079,474987095.36166,   0.00032,274987101.90869,  -0.00028,  -0.00009,  -0.00011,  -6.54704,   1.00000
-526928576.54087,-358155228.77591,-52947071.59660,  -0.00199,  -0.00069,  -0.00080,474991415.67750,   0.00032,274991424.79624,  -0.00029,  -0.00009,  -0.00011,  -9.11873,   1.00000
-526898154.77790,-357922705.09882,-53164481.56448,  -0.00199,  -0.00069,  -0.00080,474995686.04777,   0.00032,274995686.82573,  -0.00029,  -0.00009,  -0.00011,  -0.77795,   1.00000
-526865758.65761,-357692854.93769,-53383212.10139,  -0.00199,  -0.00069,  -0.00081,474999884.98837,   0.00033,274999888.03682,  -0.00029,  -0.00009,  -0.00011,  -3.04845,   1.00000
-526836488.89336,-357461978.96545,-53594788.72845,  -0.00200,  -0.00069,  -0.00081,475004150.15122,   0.00033,275004151.12471,  -0.00030,  -0.00009,  -0.00012,  -0.97349,   1.00000
-526803381.30772,-357232594.42398,-53812464.26553,  -0.00200,  -0.00069,  -0.00082,475008351.87525,   0.00034,275008361.00501,  -0.00030,  -0.00009,  -0.00012,  -9.12976,   1.00000
-526771014.03176,-357013441.28762,-54021799.76944,  -0.00201,  -0.00069,  -0.00082,475012663.56279,   0.00034,275012673.55736,  -0.00030,  -0.00009,  -0.00012,  -9.99457,   1.00000
-526739131.62049,-356785701.58156,-54233685.82932,  -0.00201,  -0.00069,  -0.00083,475016880.79854,   0.00034,275016884.02104,  -0.00031,  -0.00009,  -0.00012,  -3.22249,   1.00000
-526702891.01655,-356571838.80891,-54445765.03669,  -0.00201,  -0.00069,  -0.00083,475021070.34563,   0.00035,275021074.13492,  -0.00031,  -0.00009,  -0.00012,  -3.78929,   1.00000
-526672256.59039,-356345737.20547,-54651872.58091,  -0.00202,  -0.00069,  -0.00083,475025281.72293,   0.00035,275025285.07158,  -0.00031,  -0.00009,  -0.00012,  -3.34865,   1.00000
-526635380.70366,-356132331.31783,-54862935.24177,  -0.00202,  -0.00069,  -0.00084,475029473.53227,   0.00036,275029483.43168,  -0.00032,  -0.00010,  -0.00012,  -9.89941,   1.00000
-526599386.66203,-355929252.38915,-55065635.28049,  -0.00202,  -0.00069,  -0.00084,475033781.22240,   0.00036,275033784.13389,  -0.00032,  -0.00010,  -0.00013,  -2.91149,   1.00000
-526563849.68862,-355717474.46529,-55270957.71400,  -0.00203,  -0.00069,  -0.00085,475037980.56869,   0.00036,275037982.43472,  -0.00033,  -0.00010,  -0.00013,  -1.86604,   1.00000
-526528023.26734,-355505921.91895,-55475782.81976,  -0.00203,  -0.00069,  -0.00085,475042184.35402,   0.00037,275042184.71426,  -0.00033,  -0.00010,  -0.00013,  -0.36024,   1.00000
-526491492.11409,-355307098.58011,-55674171.81206,  -0.00203,  -0.00069,  -0.00086,475046420.15349,   0.00037,275046423.64761,  -0.00033,  -0.00010,  -0.00013,  -3.49412,   1.00000
-526451118.57989,-355109623.34861,-55878754.50544,  -0.00204,  -0.00069,  -0.00086,475050599.44567,   0.00037,275050608.86428,  -0.00034,  -0.00010,  -0.00013,  -9.41862,   1.00000
-526414086.48318,-354911238.83018,-56076164.98159,  -0.00204,  -0.00069,  -0.00086,475054850.68739,   0.00038,275054855.38515,  -0.00034,  -0.00010,  -0.00013,  -4.69776,   1.00000
-526377109.97173,-354716611.29079,-56270324.96939,  -0.00205,  -0.00069,  -0.00087,475059027.84189,   0.00038,275059031.76657,  -0.00034,  -0.00010,  -0.00014,  -3.92468,   1.00000
-526337929.63520,-354520979.63205,-56468747.18015,  -0.00205,  -0.00069,  -0.00087,475063217.86100,   0.00039,275063220.01774,  -0.00035,  -0.00010,  -0.00014,  -2.15674,   1.00000
-526298153.91858,-354338118.30133,-56660744.68422,  -0.00205,  -0.00069,  -0.00088,475067438.72735,   0.00039,275067444.49364,  -0.00035,  -0.00010,  -0.00014,  -5.76629,   1.00000
-526256184.76111,-354154235.00345,-56857003.01028,  -0.00206,  -0.00069,  -0.00088,475071672.50240,   0.00039,275071680.80371,  -0.00035,  -0.00010,  -0.00014,  -8.30131,   1.00000
-526217962.74879,-353973010.69679,-57043345.20382,  -0.00206,  -0.00069,  -0.00088,475075898.94715,   0.00040,275075904.03997,  -0.00036,  -0.00011,  -0.00014,  -5.09282,   1.00000
-526175881.37484,-353793047.92603,-57235949.67033,  -0.00206,  -0.00069,  -0.00089,475080068.92376,   0.00040,275080073.23132,  -0.00036,  -0.00011,  -0.00014,  -4.30756,   1.00000
-526134960.52720,-353623602.71447,-57420145.38938,  -0.00207,  -0.00069,  -0.00089,475084337.90188,   0.00041,275084344.13037,  -0.00036,  -0.00011,  -0.00015,  -6.22849,   1.00000
-526092465.78640,-353444010.06932,-57611854.69154,  -0.00207,  -0.00069,  -0.00090,475088515.37297,   0.00041,275088520.14929,  -0.00037,  -0.00011,  -0.00015,  -4.77633,   1.00000
-526051507.01357,-353278479.97014,-57792435.80478,  -0.00207,  -0.00069,  -0.00090,475092719.96765,   0.00041,275092723.45268,  -0.00037,  -0.00011,  -0.00015,  -3.48504,   1.00000
-526006092.07320,-353123284.51789,-57976054.80044,  -0.00208,  -0.00069,  -0.00090,475096972.04695,   0.00042,275096979.18072,  -0.00037,  -0.00011,  -0.00015,  -7.13376,   1.00000
-525964795.93292,-352958109.63305,-58155770.75627,  -0.00208,  -0.00069,  -0.00091,475101183.56750,   0.00042,275101188.85926,  -0.00038,  -0.00011,  -0.00015,  -5.29175,   1.00000
-525919048.04419,-352803277.69631,-58338517.02976,  -0.00208,  -0.00069,  -0.00091,475105442.61643,   0.00043,275105451.00481,  -0.00038,  -0.00011,  -0.00015,  -8.38839,   1.00000
-525877208.15330,-352651127.38254,-58511408.04411,  -0.00209,  -0.00069,  -0.00092,475109692.59020,   0.00043,275109699.15890,  -0.00038,  -0.00011,  -0.00016,  -6.56869,   1.00000
-525833189.28812,-352497901.22184,-58688593.87915,  -0.00209,  -0.00069,  -0.00092,475113955.65738,   0.00043,275113958.90527,  -0.00039,  -0.00011,  -0.00016,  -3.24789,   1.00000
-525787135.51916,-352359762.16725,-58861432.41558,  -0.00209,  -0.00069,  -0.00092,475118183.74791,   0.00044,275118187.75226,  -0.00039,  -0.00011,  -0.00016,  -4.00435,   1.00000
-525742654.87795,-352219556.08105,-59031812.49194,  -0.00210,  -0.00069,  -0.00093,475122484.19572,   0.00044,275122485.56001,  -0.00039,  -0.00012,  -0.00016,  -1.36429,   1.00000
-525696348.26833,-352081729.51914,-59203837.91768,  -0.00210,  -0.00069,  -0.00093,475126718.48275,   0.00044,275126720.16938,  -0.00040,  -0.00012,  -0.00016,  -1.68664,   1.00000
-525651616.86745,-351941843.63629,-59373394.45844,  -0.00211,  -0.00069,  -0.00094,475131018.11532,   0.00045,275131023.80520,  -0.00040,  -0.00012,  -0.00016,  -5.68988,   1.00000
-525604917.25581,-351817050.59174,-59538637.90630,  -0.00211,  -0.00069,  -0.00094,475135288.70872,   0.00045,275135296.10148,  -0.00040,  -0.00012,  -0.00017,  -7.39276,   1.00000
-525558118.44416,-351692399.35653,-59703488.45061,  -0.00211,  -0.00069,  -0.00094,475139562.18179,   0.00046,275139571.09431,  -0.00041,  -0.00012,  -0.00017,  -8.91252,   1.00000
-525511229.43365,-351567895.08712,-59867948.00443,  -0.00212,  -0.00069,  -0.00095,475143845.51944,   0.00046,275143848.74598,  -0.00041,  -0.00012,  -0.00017,  -3.22654,   1.00000
-525465841.27363,-351454083.55536,-60023957.16369,  -0.00212,  -0.00069,  -0.00095,475148222.98882,   0.00046,275148227.17064,  -0.00041,  -0.00012,  -0.00017,  -4.18182,   1.00000
-525418655.28670,-351342594.22402,-60181675.53968,  -0.00212,  -0.00070,  -0.00096,475152534.08723,   0.00047,275152541.89060,  -0.00042,  -0.00012,  -0.00017,  -7.80338,   1.00000
-525371402.69464,-351231238.71941,-60339018.55935,  -0.00213,  -0.00070,  -0.00096,475156854.88861,   0.00047,275156859.08013,  -0.00042,  -0.00012,  -0.00018,  -4.19153,   1.00000
-525320165.07198,-351133661.88812,-60496792.91050,  -0.00213,  -0.00070,  -0.00096,475161148.42670,   0.00048,275161153.22247,  -0.00042,  -0.00012,  -0.00018,  -4.79577,   1.00000
-525272700.75368,-351035306.77239,-60647401.67097,  -0.00213,  -0.00070,  -0.00097,475165502.84921,   0.00048,275165507.11918,  -0.00043,  -0.00012,  -0.00018,  -4.26997,   1.00000
-525225183.71388,-350937066.09181,-60797649.70421,  -0.00214,  -0.00070,  -0.00097,475169859.71650,   0.00048,275169863.33355,  -0.00043,  -0.00012,  -0.00018,  -3.61705,   1.00000
-525175447.40639,-350850427.82850,-60946239.64725,  -0.00214,  -0.00070,  -0.00097,475174257.76215,   0.00049,275174262.56217,  -0.00043,  -0.00013,  -0.00018,  -4.80003,   1.00000
-525127793.32163,-350765187.37059,-61089786.76256,  -0.00214,  -0.00070,  -0.00098,475178654.09979,   0.00049,275178654.99133,  -0.00044,  -0.00013,  -0.00018,  -0.89154,   1.00000
-525078348.51435,-350682192.35370,-61235108.50420,  -0.00215,  -0.00070,  -0.00098,475182976.58759,   0.00050,275182983.27241,  -0.00044,  -0.00013,  -0.00019,  -6.68481,   1.00000
-525028475.33722,-350608640.22146,-61376654.97732,  -0.00215,  -0.00070,  -0.00099,475187415.68559,   0.00050,275187420.70509,  -0.00044,  -0.00013,  -0.00019,  -5.01950,   1.00000
-524980708.54670,-350536471.53804,-61513177.19356,  -0.00215,  -0.00070,  -0.00099,475191845.39549,   0.00050,275191851.12435,  -0.00045,  -0.00013,  -0.00019,  -5.72886,   1.00000
-524929035.07179,-350465216.84702,-61656184.37593,  -0.00216,  -0.00070,  -0.00099,475196219.67215,   0.00051,275196226.24267,  -0.00045,  -0.00013,  -0.00019,  -6.57053,   1.00000
-524881238.26204,-350406024.92799,-61786040.33569,  -0.00216,  -0.00070,  -0.00100,475200686.72902,   0.00051,275200692.24375,  -0.00045,  -0.00013,  -0.00019,  -5.51473,   1.00000
-524831303.70258,-350345582.42491,-61920259.28702,  -0.00216,  -0.00070,  -0.00100,475205167.51274,   0.00052,275205169.17663,  -0.00046,  -0.00013,  -0.00020,  -1.66389,   1.00000
-524779596.73876,-350300156.13134,-62050303.52132,  -0.00217,  -0.00070,  -0.00100,475209606.77165,   0.00052,275209613.16765,  -0.00046,  -0.00013,  -0.00020,  -6.39600,   1.00000
-524731814.42718,-350241120.30272,-62179204.49221,  -0.00217,  -0.00070,  -0.00101,475214079.43509,   0.00052,275214084.56394,  -0.00047,  -0.00013,  -0.00020,  -5.12885,   1.00000
-524677992.19518,-350207305.01207,-62307301.75912,  -0.00217,  -0.00070,  -0.00101,475218566.44019,   0.00053,275218572.77035,  -0.00047,  -0.00013,  -0.00020,  -6.33016,   1.00000
-524630262.63935,-350161181.89447,-62429581.96435,  -0.00218,  -0.00071,  -0.00101,475223075.06275,   0.00053,275223079.09798,  -0.00047,  -0.00014,  -0.00020,  -4.03523,   1.00000
-524576508.02182,-350140259.16989,-62551071.38170,  -0.00218,  -0.00071,  -0.00102,475227597.03086,   0.00054,275227602.07944,  -0.00048,  -0.00014,  -0.00021,  -5.04858,   1.00000
-524526699.13434,-350105681.93769,-62671427.14320,  -0.00218,  -0.00071,  -0.00102,475232145.66711,   0.00054,275232152.28476,  -0.00048,  -0.00014,  -0.00021,  -6.61765,   1.00000
-524474798.10604,-350082646.84828,-62790155.29218,  -0.00219,  -0.00071,  -0.00103,475236739.69016,   0.00055,275236744.76449,  -0.00048,  -0.00014,  -0.00021,  -5.07433,   1.00000
-524423302.26463,-350063052.97424,-62906095.73644,  -0.00219,  -0.00071,  -0.00103,475241253.90858,   0.00055,275241262.98109,  -0.00049,  -0.00014,  -0.00021,  -9.07251,   1.00000
-524373711.58532,-350054197.13629,-63013573.19483,  -0.00219,  -0.00071,  -0.00103,475245876.30664,   0.00055,275245880.45244,  -0.00049,  -0.00014,  -0.00021,  -4.14580,   1.00000
-524321984.36470,-350043973.48106,-63125449.19263,  -0.00220,  -0.00071,  -0.00104,475250505.39202,   0.00056,275250508.53509,  -0.00049,  -0.00014,  -0.00021,  -3.14307,   1.00000
-524270679.95645,-350037174.92272,-63234567.71167,  -0.00220,  -0.00071,  -0.00104,475255061.67126,   0.00056,275255062.09505,  -0.00050,  -0.00014,  -0.00022,  -0.42379,   1.00000
-524219108.93538,-350039747.23183,-63339885.13113,  -0.00220,  -0.00071,  -0.00104,475259715.91811,   0.00057,275259724.21329,  -0.00050,  -0.00014,  -0.00022,  -8.29517,   1.00000
-524167684.21615,-350055142.20646,-63438932.65393,  -0.00221,  -0.00071,  -0.00105,475264415.93307,   0.00057,275264418.82330,  -0.00051,  -0.00014,  -0.00022,  -2.89023,   1.00000
-524116235.74012,-350057586.45853,-63543739.70805,  -0.00221,  -0.00072,  -0.00105,475269080.06402,   0.00058,275269083.12334,  -0.00051,  -0.00014,  -0.00022,  -3.05932,   1.00000
-524060988.28078,-350086475.57496,-63643120.41214,  -0.00221,  -0.00072,  -0.00105,475273748.24638,   0.00058,275273754.28259,  -0.00051,  -0.00015,  -0.00022,  -6.03621,   1.00000
-524011951.55111,-350102978.23273,-63736744.63091,  -0.00222,  -0.00072,  -0.00106,475278438.09359,   0.00058,275278442.65023,  -0.00052,  -0.00015,  -0.00023,  -4.55665,   1.00000
-523960869.66287,-350130924.01032,-63828779.67217,  -0.00222,  -0.00072,  -0.00106,475283171.16136,   0.00059,275283172.76475,  -0.00052,  -0.00015,  -0.00023,  -1.60340,   1.00000
-523907738.93396,-350170277.40136,-63919223.72565,  -0.00222,  -0.00072,  -0.00106,475287939.35896,   0.00059,275287944.61916,  -0.00052,  -0.00015,  -0.00023,  -5.26020,   1.00000
-523854690.65815,-350209502.05339,-64009437.25070,  -0.00223,  -0.00072,  -0.00107,475292716.18737,   0.00060,275292717.27063,  -0.00053,  -0.00015,  -0.00023,  -1.08326,   1.00000
-523803913.27899,-350249944.33411,-64094762.00244,  -0.00223,  -0.00072,  -0.00107,475297472.27702,   0.00060,275297481.30181,  -0.00053,  -0.00015,  -0.00024,  -9.02479,   1.00000
-523752958.58875,-350299665.77800,-64176293.63151,  -0.00224,  -0.00072,  -0.00107,475302347.06301,   0.00061,275302353.35648,  -0.00054,  -0.00015,  -0.00024,  -6.29347,   1.00000
-523702447.63054,-350352702.75116,-64255174.92680,  -0.00224,  -0.00072,  -0.00107,475307147.56789,   0.00061,275307150.06368,  -0.00054,  -0.00015,  -0.00024,  -2.49579,   1.00000
-523647672.66570,-350415713.12870,-64337138.09286,  -0.00224,  -0.00073,  -0.00108,475311988.55521,   0.00061,275311997.85286,  -0.00054,  -0.00015,  -0.00024,  -9.29766,   1.00000
-523597173.48336,-350490664.26093,-64405993.60754,  -0.00225,  -0.00073,  -0.00108,475316926.59974,   0.00062,275316934.47943,  -0.00055,  -0.00015,  -0.00024,  -7.87968,   1.00000
-523544790.27261,-350554640.76513,-64482911.23817,  -0.00225,  -0.00073,  -0.00108,475321770.20450,   0.00062,275321773.71172,  -0.00055,  -0.00015,  -0.00025,  -3.50722,   1.00000
-523494460.74037,-350629181.39815,-64551379.01556,  -0.00225,  -0.00073,  -0.00109,475326709.36563,   0.00063,275326711.29664,  -0.00055,  -0.00016,  -0.00025,  -1.93101,   1.00000
-523440222.86813,-350717111.04301,-64620517.44153,  -0.00226,  -0.00073,  -0.00109,475331621.02874,   0.00063,275331623.76934,  -0.00056,  -0.00016,  -0.00025,  -2.74060,   1.00000
-523387946.73633,-350802672.23669,-64687241.67004,  -0.00226,  -0.00073,  -0.00109,475336601.79954,   0.00064,275336603.05912,  -0.00056,  -0.00016,  -0.00025,  -1.25958,   1.00000
-523335857.86100,-350900842.76603,-64747758.14117,  -0.00226,  -0.00073,  -0.00110,475341608.27433,   0.00064,275341614.06502,  -0.00057,  -0.00016,  -0.00025,  -5.79069,   1.00000
-523281976.10879,-351000853.46556,-64810342.63439,  -0.00227,  -0.00074,  -0.00110,475346554.60380,   0.00065,275346558.85783,  -0.00057,  -0.00016,  -0.00026,  -4.25403,   1.00000
-523230168.00739,-351111310.58775,-64864493.07461,  -0.00227,  -0.00074,  -0.00110,475351594.60450,   0.00065,275351601.69441,  -0.00057,  -0.00016,  -0.00026,  -7.08991,   1.00000
-523178451.12642,-351221456.42120,-64918493.69716,  -0.00227,  -0.00074,  -0.00110,475356643.02983,   0.00066,275356644.60523,  -0.00058,  -0.00016,  -0.00026,  -1.57541,   1.00000
-523128705.21410,-351329156.27356,-64970104.91725,  -0.00228,  -0.00074,  -0.00111,475361751.97464,   0.00066,275361754.04066,  -0.00058,  -0.00016,  -0.00026,  -2.06603,   1.00000
-523075007.13218,-351450135.55954,-65022423.38132,  -0.00228,  -0.00074,  -0.00111,475366832.38724,   0.00067,275366838.20277,  -0.00059,  -0.00016,  -0.00027,  -5.81554,   1.00000
-523021503.94167,-351583614.77449,-65068561.67114,  -0.00228,  -0.00074,  -0.00111,475371953.27086,   0.00067,275371953.76880,  -0.00059,  -0.00016,  -0.00027,  -0.49794,   1.00000
-522969969.97684,-351714562.26824,-65112321.68734,  -0.00229,  -0.00075,  -0.00112,475377126.12812,   0.00067,275377135.70903,  -0.00059,  -0.00017,  -0.00027,  -9.58091,   1.00000
-522918863.42223,-351848665.93619,-65153554.03661,  -0.00229,  -0.00075,  -0.00112,475382239.64164,   0.00068,275382241.48573,  -0.00060,  -0.00017,  -0.00027,  -1.84409,   1.00000
-522867592.43699,-351991678.39238,-65191028.52566,  -0.00229,  -0.00075,  -0.00112,475387452.54809,   0.00068,275387454.57915,  -0.00060,  -0.00017,  -0.00027,  -2.03106,   1.00000
-522814243.74897,-352145704.90244,-65226995.44181,  -0.00230,  -0.00075,  -0.00112,475392704.35412,   0.00069,275392708.58040,  -0.00061,  -0.00017,  -0.00028,  -4.22627,   1.00000
-522763212.55786,-352300668.95214,-65258207.49884,  -0.00230,  -0.00075,  -0.00113,475397948.24769,   0.00069,275397952.66147,  -0.00061,  -0.00017,  -0.00028,  -4.41378,   1.00000
-522710002.56011,-352453780.26104,-65293963.38364,  -0.00231,  -0.00076,  -0.00113,475403200.00727,   0.00070,275403206.13524,  -0.00061,  -0.00017,  -0.00028,  -6.12796,   1.00000
-522659195.61464,-352620645.33547,-65318925.39193,  -0.00231,  -0.00076,  -0.00113,475408474.33787,   0.00070,275408481.13827,  -0.00062,  -0.00017,  -0.00028,  -6.80040,   1.00000
-522604042.14279,-352797027.63383,-65347047.39476,  -0.00231,  -0.00076,  -0.00114,475413803.63162,   0.00071,275413806.57048,  -0.00062,  -0.00017,  -0.00029,  -2.93886,   1.00000
-522553130.35124,-352972105.97498,-65368183.66131,  -0.00232,  -0.00076,  -0.00114,475419184.54974,   0.00071,275419188.17579,  -0.00063,  -0.00017,  -0.00029,  -3.62605,   1.00000
-522502579.63040,-353150223.47034,-65386851.29299,  -0.00232,  -0.00076,  -0.00114,475424488.49771,   0.00072,275424493.41390,  -0.00063,  -0.00018,  -0.00029,  -4.91619,   1.00000
-522449598.75613,-353335614.14402,-65406439.59240,  -0.00232,  -0.00077,  -0.00114,475429907.18679,   0.00072,275429915.23915,  -0.00063,  -0.00018,  -0.00029,  -8.05236,   1.00000
-522396742.23067,-353533219.07458,-65419910.19551,  -0.00233,  -0.00077,  -0.00115,475435363.97447,   0.00073,275435368.05174,  -0.00064,  -0.00018,  -0.00030,  -4.07727,   1.00000
-522346168.78538,-353731609.65038,-65428680.23375,  -0.00233,  -0.00077,  -0.00115,475440803.06894,   0.00073,275440810.59069,  -0.00064,  -0.00018,  -0.00030,  -7.52175,   1.00000
-522293444.14018,-353940750.36658,-65435999.42603,  -0.00233,  -0.00077,  -0.00115,475446288.33760,   0.00074,275446293.69792,  -0.00065,  -0.00018,  -0.00030,  -5.36032,   1.00000
-522240753.13951,-354149236.09876,-65443275.35686,  -0.00234,  -0.00077,  -0.00115,475451773.32024,   0.00074,275451776.10082,  -0.00065,  -0.00018,  -0.00030,  -2.78059,   1.00000
-522185884.84130,-354368407.98883,-65449098.64429,  -0.00234,  -0.00078,  -0.00116,475457295.41425,   0.00075,275457299.13033,  -0.00066,  -0.00018,  -0.00031,  -3.71609,   1.00000
-522135266.32640,-354586086.21088,-65447992.12443,  -0.00234,  -0.00078,  -0.00116,475462876.92742,   0.00075,275462877.74674,  -0.00066,  -0.00018,  -0.00031,  -0.81932,   1.00000
-522084661.08909,-354803064.15102,-65446863.44732,  -0.00235,  -0.00078,  -0.00116,475468448.98487,   0.00076,275468455.55314,  -0.00066,  -0.00018,  -0.00031,  -6.56826,   1.00000
-522029904.88981,-355045613.94786,-65440498.94368,  -0.00235,  -0.00078,  -0.00116,475474035.26179,   0.00076,275474039.55784,  -0.00067,  -0.00019,  -0.00031,  -4.29605,   1.00000
-521977117.72445,-355272433.42787,-65437929.06798,  -0.00236,  -0.00079,  -0.00117,475479652.83088,   0.00077,275479656.90908,  -0.00067,  -0.00019,  -0.00032,  -4.07820,   1.00000
-521926342.20267,-355521693.26695,-65420984.46003,  -0.00236,  -0.00079,  -0.00117,475485393.83571,   0.00077,275485402.79250,  -0.00068,  -0.00019,  -0.00032,  -8.95679,   1.00000
-521871328.87519,-355770955.98895,-65410946.82430,  -0.00236,  -0.00079,  -0.00117,475491084.39954,   0.00078,275491091.33262,  -0.00068,  -0.00019,  -0.00032,  -6.93308,   1.00000
-521818557.61050,-356020808.36334,-65396267.55204,  -0.00237,  -0.00079,  -0.00117,475496765.27198,   0.00078,275496769.21953,  -0.00069,  -0.00019,  -0.00032,  -3.94755,   1.00000
-521765513.74250,-356278839.97608,-65377938.98877,  -0.00237,  -0.00080,  -0.00118,475502550.87563,   0.00079,275502553.38039,  -0.00069,  -0.00019,  -0.00033,  -2.50476,   1.00000
-521714685.45710,-356537410.99696,-65354990.54284,  -0.00237,  -0.00080,  -0.00118,475508317.06356,   0.00080,275508326.79849,  -0.00070,  -0.00019,  -0.00033,  -9.73493,   1.00000
-521661574.50431,-356806359.95345,-65330661.79955,  -0.00238,  -0.00080,  -0.00118,475514137.96498,   0.00080,275514140.49182,  -0.00070,  -0.00019,  -0.00033,  -2.52684,   1.00000
-521606144.22280,-357085615.17714,-65304950.92779,  -0.00238,  -0.00080,  -0.00118,475519994.54753,   0.00081,275519994.55656,  -0.00070,  -0.00020,  -0.00033,  -0.00903,   1.00000
-521552902.25525,-357365317.52068,-65274637.29744,  -0.00239,  -0.00081,  -0.00118,475525831.39320,   0.00081,275525837.80765,  -0.00071,  -0.00020,  -0.00034,  -6.41445,   1.00000
-521501635.09728,-357641763.38508,-65242139.26829,  -0.00239,  -0.00081,  -0.00119,475531736.21836,   0.00082,275531745.42602,  -0.00071,  -0.00020,  -0.00034,  -9.20766,   1.00000
-521446005.78216,-357930748.97031,-65210521.10354,  -0.00239,  -0.00081,  -0.00119,475537627.10770,   0.00082,275537627.64284,  -0.00072,  -0.00020,  -0.00034,  -0.53515,   1.00000
-521392253.84809,-358229004.71726,-65170657.28428,  -0.00240,  -0.00081,  -0.00119,475543602.35715,   0.00083,275543606.24345,  -0.00072,  -0.00020,  -0.00034,  -3.88631,   1.00000
-521338429.75899,-358526198.81962,-65130873.84746,  -0.00240,  -0.00082,  -0.00119,475549577.06630,   0.00083,275549583.41049,  -0.00073,  -0.00020,  -0.00035,  -6.34419,   1.00000
-521284436.60135,-358834910.97190,-65085105.87676,  -0.00240,  -0.00082,  -0.00120,475555586.44294,   0.00084,275555591.22470,  -0.00073,  -0.00020,  -0.00035,  -4.78176,   1.00000
-521232384.73038,-359140170.31224,-65037203.07320,  -0.00241,  -0.00082,  -0.00120,475561653.99458,   0.00084,275561663.04263,  -0.00074,  -0.00021,  -0.00035,  -9.04805,   1.00000
-521178209.83743,-359446671.94219,-64991635.40368,  -0.00241,  -0.00083,  -0.00120,475567662.25444,   0.00085,275567667.81755,  -0.00074,  -0.00021,  -0.00035,  -5.56312,   1.00000
-521121278.23110,-359771941.79181,-64941089.06089,  -0.00242,  -0.00083,  -0.00120,475573819.39387,   0.00086,275573820.01649,  -0.00075,  -0.00021,  -0.00036,  -0.62261,   1.00000
-521066449.61830,-360097418.18323,-64886007.28737,  -0.00242,  -0.00083,  -0.00120,475579955.54448,   0.00086,275579961.11671,  -0.00075,  -0.00021,  -0.00036,  -5.57223,   1.00000
-521013734.99118,-360423114.96627,-64826406.78372,  -0.00242,  -0.00083,  -0.00121,475586090.62417,   0.00087,275586090.98236,  -0.00076,  -0.00021,  -0.00036,  -0.35820,   1.00000
-520956272.76397,-360757238.03944,-64770161.83615,  -0.00243,  -0.00084,  -0.00121,475592260.68258,   0.00087,275592270.58367,  -0.00076,  -0.00021,  -0.00037,  -9.90108,   1.00000
-520902979.46300,-361089145.44783,-64707182.58418,  -0.00243,  -0.00084,  -0.00121,475598498.41237,   0.00088,275598504.18268,  -0.00077,  -0.00021,  -0.00037,  -5.77032,   1.00000
-520847290.15505,-361434662.76035,-64640496.70721,  -0.00244,  -0.00084,  -0.00121,475604701.28393,   0.00088,275604703.19968,  -0.00077,  -0.00022,  -0.00037,  -1.91575,   1.00000
-520788876.35273,-361786047.20584,-64574974.21477,  -0.00244,  -0.00085,  -0.00121,475611007.61615,   0.00089,275611017.04943,  -0.00078,  -0.00022,  -0.00037,  -9.43328,   1.00000
-520732526.81697,-362137501.14392,-64504961.62083,  -0.00244,  -0.00085,  -0.00121,475617312.98935,   0.00090,275617319.57696,  -0.00078,  -0.00022,  -0.00038,  -6.58761,   1.00000
-520678218.03205,-362489016.81236,-64430470.83154,  -0.00245,  -0.00085,  -0.00122,475623606.88605,   0.00090,275623610.79364,  -0.00079,  -0.00022,  -0.00038,  -3.90759,   1.00000
-520621168.83559,-362846281.51825,-64357181.56904,  -0.00245,  -0.00086,  -0.00122,475630014.52622,   0.00091,275630016.55513,  -0.00079,  -0.00022,  -0.00038,  -2.02891,   1.00000
-520561598.40085,-363216977.27215,-64280200.39178,  -0.00246,  -0.00086,  -0.00122,475636386.89704,   0.00091,275636388.01616,  -0.00080,  -0.00022,  -0.00038,  -1.11911,   1.00000
-520506114.17612,-363585157.74828,-64196559.01949,  -0.00246,  -0.00086,  -0.00122,475642805.86142,   0.00092,275642813.09862,  -0.00080,  -0.00022,  -0.00039,  -7.23720,   1.00000
-520450437.74980,-363951875.27983,-64113133.68109,  -0.00246,  -0.00087,  -0.00122,475649234.83134,   0.00093,275649236.07578,  -0.00081,  -0.00023,  -0.00039,  -1.24444,   1.00000
-520389560.95443,-364338949.16709,-64027067.18531,  -0.00247,  -0.00087,  -0.00123,475655731.83966,   0.00093,275655741.27958,  -0.00081,  -0.00023,  -0.00039,  -9.43992,   1.00000
-520333079.69739,-364711054.88437,-63940460.03237,  -0.00247,  -0.00087,  -0.00123,475662262.83154,   0.00094,275662267.00078,  -0.00082,  -0.00023,  -0.00040,  -4.16924,   1.00000
-520273946.62185,-365096460.62203,-63850186.75083,  -0.00248,  -0.00088,  -0.00123,475668758.35088,   0.00094,275668758.69218,  -0.00082,  -0.00023,  -0.00040,  -0.34130,   1.00000
-520216343.77707,-365490057.39274,-63751885.11517,  -0.00248,  -0.00088,  -0.00123,475675344.75651,   0.00095,275675345.83453,  -0.00083,  -0.00023,  -0.00040,  -1.07802,   1.00000
-520156297.17539,-365880586.87673,-63658499.59529,  -0.00248,  -0.00088,  -0.00123,475681931.31386,   0.00096,275681940.06831,  -0.00083,  -0.00023,  -0.00040,  -8.75445,   1.00000
-520097769.86102,-366279211.07736,-63557108.41035,  -0.00249,  -0.00089,  -0.00123,475688624.98753,   0.00096,275688629.57850,  -0.00084,  -0.00023,  -0.00041,  -4.59098,   1.00000
-520034280.82271,-366689510.29864,-63456739.51832,  -0.00249,  -0.00089,  -0.00124,475695288.80508,   0.00097,275695294.53945,  -0.00084,  -0.00024,  -0.00041,  -5.73437,   1.00000
-519977383.86193,-367086125.70500,-63351239.83580,  -0.00250,  -0.00089,  -0.00124,475701964.34649,   0.00097,275701970.17163,  -0.00085,  -0.00024,  -0.00041,  -5.82514,   1.00000
-519912911.30128,-367505195.11905,-63245347.13080,  -0.00250,  -0.00090,  -0.00124,475708660.49049,   0.00098,275708663.65883,  -0.00085,  -0.00024,  -0.00042,  -3.16834,   1.00000
-519850274.70474,-367919867.93116,-63137580.55681,  -0.00250,  -0.00090,  -0.00124,475715414.03599,   0.00099,275715419.22873,  -0.00086,  -0.00024,  -0.00042,  -5.19274,   1.00000
-519791645.33012,-368331565.63996,-63023297.55033,  -0.00251,  -0.00091,  -0.00124,475722223.96386,   0.00099,275722227.51854,  -0.00086,  -0.00024,  -0.00042,  -3.55468,   1.00000
-519727937.42422,-368754804.31719,-62910068.01565,  -0.00251,  -0.00091,  -0.00124,475729009.79066,   0.00100,275729011.46043,  -0.00087,  -0.00025,  -0.00043,  -1.66977,   1.00000
-519666061.86983,-369173558.33654,-62795006.88333,  -0.00252,  -0.00091,  -0.00124,475735852.64869,   0.00101,275735857.18251,  -0.00087,  -0.00025,  -0.00043,  -4.53382,   1.00000
-519603369.89668,-369602571.34304,-62674189.81775,  -0.00252,  -0.00092,  -0.00125,475742728.12833,   0.00101,275742733.73459,  -0.00088,  -0.00025,  -0.00043,  -5.60627,   1.00000
-519537684.12385,-370040340.57651,-62552299.35479,  -0.00253,  -0.00092,  -0.00125,475749648.20476,   0.00102,275749650.19824,  -0.00088,  -0.00025,  -0.00043,  -1.99348,   1.00000
-519473770.38248,-370477551.61051,-62426092.93415,  -0.00253,  -0.00092,  -0.00125,475756550.16258,   0.00102,275756555.06992,  -0.00089,  -0.00025,  -0.00044,  -4.90735,   1.00000
-519407366.58350,-370911374.16830,-62304917.76024,  -0.00253,  -0.00093,  -0.00125,475763458.23038,   0.00103,275763466.37889,  -0.00089,  -0.00025,  -0.00044,  -8.14851,   1.00000
-519344353.13236,-371353993.57833,-62171215.11146,  -0.00254,  -0.00093,  -0.00125,475770455.22425,   0.00104,275770463.55863,  -0.00090,  -0.00026,  -0.00044,  -8.33437,   1.00000
-519278842.73673,-371793170.63676,-62042578.43363,  -0.00254,  -0.00094,  -0.00125,475777464.23778,   0.00104,275777466.96222,  -0.00090,  -0.00026,  -0.00045,  -2.72444,   1.00000
-519212348.73781,-372242309.00527,-61908234.99647,  -0.00255,  -0.00094,  -0.00125,475784494.09195,   0.00105,275784501.38901,  -0.00091,  -0.00026,  -0.00045,  -7.29707,   1.00000
-519142733.30626,-372699916.66239,-61772876.66646,  -0.00255,  -0.00094,  -0.00126,475791568.71540,   0.00106,275791575.72342,  -0.00092,  -0.00026,  -0.00045,  -7.00802,   1.00000
-519079768.62958,-373143525.71582,-61632560.07635,  -0.00256,  -0.00095,  -0.00126,475798654.23798,   0.00106,275798659.36205,  -0.00092,  -0.00026,  -0.00046,  -5.12407,   1.00000
-519008784.98027,-373604664.06739,-61494517.66928,  -0.00256,  -0.00095,  -0.00126,475805830.40685,   0.00107,275805834.45896,  -0.00093,  -0.00026,  -0.00046,  -4.05211,   1.00000
-518941574.66803,-374066426.42912,-61347546.52614,  -0.00256,  -0.00096,  -0.00126,475812981.46766,   0.00108,275812989.03142,  -0.00093,  -0.00027,  -0.00046,  -7.56375,   1.00000
-518871848.69191,-374524582.93069,-61205703.67543,  -0.00257,  -0.00096,  -0.00126,475820144.95581,   0.00108,275820149.49776,  -0.00094,  -0.00027,  -0.00046,  -4.54195,   1.00000
-518800993.20550,-374992410.72041,-61058209.64643,  -0.00257,  -0.00097,  -0.00126,475827340.97393,   0.00109,275827341.09392,  -0.00094,  -0.00027,  -0.00047,  -0.11999,   1.00000
-518731912.09750,-375455167.97091,-60909090.39212,  -0.00258,  -0.00097,  -0.00126,475834587.30229,   0.00110,275834593.16761,  -0.00095,  -0.00027,  -0.00047,  -5.86532,   1.00000
-518659412.38770,-375930316.56970,-60756426.86797,  -0.00258,  -0.00097,  -0.00126,475841803.65020,   0.00110,275841813.07384,  -0.00095,  -0.00027,  -0.00047,  -9.42365,   1.00000
-518588696.04532,-376400320.58780,-60602171.36767,  -0.00259,  -0.00098,  -0.00127,475849088.55996,   0.00111,275849093.21046,  -0.00096,  -0.00028,  -0.00048,  -4.65050,   1.00000
-518516907.13005,-376875528.45058,-60444936.99399,  -0.00259,  -0.00098,  -0.00127,475856474.96282,   0.00112,275856476.37566,  -0.00097,  -0.00028,  -0.00048,  -1.41284,   1.00000
-518444455.55725,-377352634.81622,-60285581.62512,  -0.00259,  -0.00099,  -0.00127,475863780.13676,   0.00112,275863784.69996,  -0.00097,  -0.00028,  -0.00048,  -4.56321,   1.00000
-518370892.99171,-377834813.54370,-60123281.70678,  -0.00260,  -0.00099,  -0.00127,475871186.70519,   0.00113,275871195.94424,  -0.00098,  -0.00028,  -0.00049,  -9.23905,   1.00000
-518294599.62786,-378317470.03237,-59963555.06618,  -0.00260,  -0.00100,  -0.00127,475878537.31910,   0.00114,275878541.03630,  -0.00098,  -0.00028,  -0.00049,  -3.71720,   1.00000
-518217170.17327,-378805072.42360,-59800901.22932,  -0.00261,  -0.00100,  -0.00127,475885983.23666,   0.00114,275885989.00634,  -0.00099,  -0.00029,  -0.00049,  -5.76969,   1.00000
-518143550.82546,-379288672.05746,-59632055.45208,  -0.00261,  -0.00100,  -0.00127,475893478.41478,   0.00115,275893488.08508,  -0.00099,  -0.00029,  -0.00050,  -9.67030,   1.00000
-518069191.44194,-379774132.49386,-59461108.56568,  -0.00262,  -0.00101,  -0.00127,475900904.99671,   0.00116,275900912.58863,  -0.00100,  -0.00029,  -0.00050,  -7.59192,   1.00000
-517991631.09185,-380262987.62592,-59292002.03542,  -0.00262,  -0.00101,  -0.00127,475908445.97599,   0.00117,275908448.10942,  -0.00101,  -0.00029,  -0.00050,  -2.13343,   1.00000
-517912602.32842,-380760883.16174,-59117374.10351,  -0.00263,  -0.00102,  -0.00127,475916006.97626,   0.00117,275916015.08309,  -0.00101,  -0.00030,  -0.00051,  -8.10684,   1.00000
-517835064.77176,-381257579.44363,-58938639.38325,  -0.00263,  -0.00102,  -0.00127,475923567.89880,   0.00118,275923570.26278,  -0.00102,  -0.00030,  -0.00051,  -2.36398,   1.00000
-517754983.73972,-381750293.46625,-58765202.67291,  -0.00264,  -0.00103,  -0.00128,475931129.36453,   0.00119,275931130.48947,  -0.00102,  -0.00030,  -0.00051,  -1.12494,   1.00000
-517673368.79253,-382251931.16299,-58586266.66527,  -0.00264,  -0.00103,  -0.00128,475938717.30252,   0.00119,275938722.29491,  -0.00103,  -0.00030,  -0.00052,  -4.99239,   1.00000
-517593527.08758,-382747906.25789,-58405947.98443,  -0.00264,  -0.00104,  -0.00128,475946367.27496,   0.00120,275946373.05461,  -0.00104,  -0.00030,  -0.00052,  -5.77965,   1.00000
-517515136.01168,-383242630.60566,-58221549.31578,  -0.00265,  -0.00104,  -0.00128,475954004.31718,   0.00121,275954012.07841,  -0.00104,  -0.00031,  -0.00052,  -7.76122,   1.00000
-517430102.26262,-383754822.22638,-58035030.40317,  -0.00265,  -0.00105,  -0.00128,475961733.40178,   0.00121,275961734.19546,  -0.00105,  -0.00031,  -0.00052,  -0.79368,   1.00000
-517347560.75056,-384254218.83385,-57850534.52591,  -0.00266,  -0.00105,  -0.00128,475969403.97379,   0.00122,275969409.55466,  -0.00105,  -0.00031,  -0.00053,  -5.58088,   1.00000
-517265696.70132,-384759235.52653,-57658637.57401,  -0.00266,  -0.00106,  -0.00128,475977175.65093,   0.00123,275977178.61196,  -0.00106,  -0.00031,  -0.00053,  -2.96103,   1.00000
-517180925.66734,-385264595.91206,-57469375.33311,  -0.00267,  -0.00106,  -0.00128,475984879.69713,   0.00124,275984882.11060,  -0.00107,  -0.00032,  -0.00053,  -2.41346,   1.00000
-517094827.65850,-385774061.18795,-57277455.77767,  -0.00267,  -0.00107,  -0.00128,475992685.04107,   0.00124,275992687.41657,  -0.00107,  -0.00032,  -0.00054,  -2.37551,   1.00000
-517010104.64505,-386282094.04426,-57081508.91364,  -0.00268,  -0.00107,  -0.00128,476000477.52029,   0.00125,276000481.04333,  -0.00108,  -0.00032,  -0.00054,  -3.52304,   1.00000
-516924811.38377,-386787335.26715,-56886262.29076,  -0.00268,  -0.00107,  -0.00128,476008270.44374,   0.00126,276008271.02344,  -0.00108,  -0.00032,  -0.00054,  -0.57970,   1.00000
-516838151.32601,-387296517.18812,-56688422.06904,  -0.00269,  -0.00108,  -0.00128,476016157.83885,   0.00127,276016162.57306,  -0.00109,  -0.00033,  -0.00055,  -4.73421,   1.00000
-516745387.05541,-387815884.85104,-56491863.38987,  -0.00269,  -0.00108,  -0.00128,476024030.85352,   0.00127,276024032.29682,  -0.00110,  -0.00033,  -0.00055,  -1.44330,   1.00000
-516659508.19941,-388320682.83857,-56290738.91158,  -0.00270,  -0.00109,  -0.00129,476031899.11567,   0.00128,276031908.48429,  -0.00110,  -0.00033,  -0.00055,  -9.36862,   1.00000
-516569872.35859,-388832474.89930,-56088996.69990,  -0.00270,  -0.00109,  -0.00129,476039821.11761,   0.00129,276039824.43643,  -0.00111,  -0.00033,  -0.00056,  -3.31882,   1.00000
-516478335.51463,-389352509.35540,-55881922.07846,  -0.00271,  -0.00110,  -0.00129,476047769.95858,   0.00129,276047772.39717,  -0.00111,  -0.00034,  -0.00056,  -2.43858,   1.00000
-516388585.71329,-389866355.34800,-55673718.55824,  -0.00271,  -0.00110,  -0.00129,476055773.46175,   0.00130,276055777.89995,  -0.00112,  -0.00034,  -0.00056,  -4.43820,   1.00000
-516295838.73327,-390380496.96378,-55468178.71442,  -0.00271,  -0.00111,  -0.00129,476063709.96710,   0.00131,276063718.32646,  -0.00113,  -0.00034,  -0.00057,  -8.35937,   1.00000
-516201666.82070,-390898169.30184,-55260179.82589,  -0.00272,  -0.00112,  -0.00129,476071754.53328,   0.00132,276071759.79073,  -0.00113,  -0.00034,  -0.00057,  -5.25745,   1.00000
-516108774.68727,-391414190.61364,-55048237.39395,  -0.00272,  -0.00112,  -0.00129,476079786.30756,   0.00132,276079789.67656,  -0.00114,  -0.00035,  -0.00057,  -3.36900,   1.00000
-516015282.54759,-391927224.41684,-54837094.95461,  -0.00273,  -0.00113,  -0.00129,476087811.82192,   0.00133,276087815.69540,  -0.00115,  -0.00035,  -0.00058,  -3.87347,   1.00000
-515923056.22436,-392438620.83955,-54622021.41912,  -0.00273,  -0.00113,  -0.00129,476095824.49130,   0.00134,276095830.19151,  -0.00115,  -0.00035,  -0.00058,  -5.70021,   1.00000
-515824191.53499,-392961631.44967,-54407984.83937,  -0.00274,  -0.00114,  -0.00129,476103991.75008,   0.00135,276103996.79641,  -0.00116,  -0.00035,  -0.00058,  -5.04632,   1.00000
-515731735.72227,-393474616.27871,-54186636.29645,  -0.00274,  -0.00114,  -0.00129,476112092.61064,   0.00135,276112100.48490,  -0.00116,  -0.00036,  -0.00059,  -7.87426,   1.00000
-515631050.63352,-393996163.69836,-53971385.64195,  -0.00275,  -0.00115,  -0.00129,476120187.51302,   0.00136,276120190.81078,  -0.00117,  -0.00036,  -0.00059,  -3.29777,   1.00000
-515534042.79799,-394512595.26608,-53750398.60505,  -0.00275,  -0.00115,  -0.00129,476128323.02392,   0.00137,276128330.40866,  -0.00118,  -0.00036,  -0.00059,  -7.38474,   1.00000
-515438908.11980,-395022599.44297,-53528456.55621,  -0.00276,  -0.00116,  -0.00129,476136526.34381,   0.00138,276136526.48948,  -0.00118,  -0.00036,  -0.00060,  -0.14566,   1.00000
-515337309.17842,-395542419.25897,-53307880.40621,  -0.00276,  -0.00116,  -0.00129,476144696.49242,   0.00138,276144701.96721,  -0.00119,  -0.00037,  -0.00060,  -5.47478,   1.00000
-515235122.64841,-396059132.22755,-53088168.67718,  -0.00277,  -0.00117,  -0.00129,476152867.49380,   0.00139,276152873.44522,  -0.00120,  -0.00037,  -0.00060,  -5.95142,   1.00000
-515136637.45776,-396570650.46117,-52862783.57184,  -0.00277,  -0.00117,  -0.00129,476161092.83137,   0.00140,276161093.87179,  -0.00120,  -0.00037,  -0.00060,  -1.04042,   1.00000
-515035897.47309,-397089788.42169,-52632242.55613,  -0.00278,  -0.00118,  -0.00129,476169338.64645,   0.00141,276169346.89781,  -0.00121,  -0.00038,  -0.00061,  -8.25136,   1.00000
-514932778.75490,-397604474.58160,-52407371.55541,  -0.00278,  -0.00118,  -0.00129,476177598.88713,   0.00142,276177603.03846,  -0.00121,  -0.00038,  -0.00061,  -4.15133,   1.00000
-514830844.80389,-398117327.79029,-52178651.88583,  -0.00279,  -0.00119,  -0.00129,476185846.48107,   0.00142,276185847.86178,  -0.00122,  -0.00038,  -0.00061,  -1.38071,   1.00000
-514724838.75043,-398636388.44212,-51949554.89515,  -0.00279,  -0.00119,  -0.00129,476194128.28942,   0.00143,276194132.64984,  -0.00123,  -0.00038,  -0.00062,  -4.36042,   1.00000
-514622518.25160,-399150072.28920,-51714877.95719,  -0.00280,  -0.00120,  -0.00129,476202464.23627,   0.00144,276202466.07521,  -0.00123,  -0.00039,  -0.00062,  -1.83894,   1.00000
-514517850.16771,-399659292.42239,-51485913.27306,  -0.00280,  -0.00120,  -0.00129,476210799.98330,   0.00145,276210802.42947,  -0.00124,  -0.00039,  -0.00062,  -2.44617,   1.00000
-514411812.21716,-400170162.91511,-51254865.26024,  -0.00281,  -0.00121,  -0.00129,476219063.85002,   0.00145,276219067.76516,  -0.00125,  -0.00039,  -0.00063,  -3.91514,   1.00000
-514305938.78452,-400684878.42154,-51016990.62301,  -0.00281,  -0.00122,  -0.00129,476227422.46541,   0.00146,276227425.76886,  -0.00125,  -0.00040,  -0.00063,  -3.30346,   1.00000
-514200296.23968,-401191563.20161,-50783136.36365,  -0.00282,  -0.00122,  -0.00129,476235839.90160,   0.00147,276235846.20002,  -0.00126,  -0.00040,  -0.00063,  -6.29842,   1.00000
-514093246.32352,-401699902.82231,-50547207.99812,  -0.00282,  -0.00123,  -0.00129,476244193.10093,   0.00148,276244195.82876,  -0.00127,  -0.00040,  -0.00064,  -2.72782,   1.00000
-513983744.55922,-402215489.25718,-50306224.64661,  -0.00283,  -0.00123,  -0.00129,476252574.68698,   0.00149,276252578.55560,  -0.00127,  -0.00040,  -0.00064,  -3.86862,   1.00000
-513874533.55189,-402722983.97165,-50069315.02888,  -0.00283,  -0.00124,  -0.00129,476261022.37694,   0.00149,276261023.33871,  -0.00128,  -0.00041,  -0.00064,  -0.96177,   1.00000
-513763853.91848,-403232114.72147,-49830320.40726,  -0.00284,  -0.00124,  -0.00129,476269391.36227,   0.00150,276269397.74813,  -0.00129,  -0.00041,  -0.00065,  -6.38587,   1.00000
-513655200.62280,-403734428.07058,-49590647.61374,  -0.00284,  -0.00125,  -0.00129,476277820.05847,   0.00151,276277827.18821,  -0.00129,  -0.00041,  -0.00065,  -7.12974,   1.00000
-513544032.29754,-404243867.92056,-49345966.77320,  -0.00285,  -0.00125,  -0.00129,476286284.92395,   0.00152,276286289.85244,  -0.00130,  -0.00042,  -0.00065,  -4.92849,   1.00000
-513434268.42952,-404739765.80724,-49108344.07835,  -0.00285,  -0.00126,  -0.00129,476294707.96581,   0.00152,276294710.68904,  -0.00131,  -0.00042,  -0.00066,  -2.72323,   1.00000
-513324579.18220,-405239116.85779,-48864061.40519,  -0.00286,  -0.00127,  -0.00129,476303218.32432,   0.00153,276303223.91722,  -0.00131,  -0.00042,  -0.00066,  -5.59290,   1.00000
-513209691.23403,-405749142.01070,-48616459.62568,  -0.00286,  -0.00127,  -0.00129,476311706.73076,   0.00154,276311711.54836,  -0.00132,  -0.00043,  -0.00066,  -4.81760,   1.00000
-513098909.06914,-406242000.55327,-48374296.16233,  -0.00287,  -0.00128,  -0.00129,476320211.39893,   0.00155,276320216.02592,  -0.00133,  -0.00043,  -0.00066,  -4.62699,   1.00000
-512982896.39483,-406745543.27587,-48128796.62144,  -0.00287,  -0.00128,  -0.00129,476328694.57524,   0.00156,276328695.21106,  -0.00133,  -0.00043,  -0.00067,  -0.63582,   1.00000
-512868973.58688,-407242118.77982,-47882735.48905,  -0.00288,  -0.00129,  -0.00129,476337221.92385,   0.00156,276337228.89641,  -0.00134,  -0.00044,  -0.00067,  -6.97256,   1.00000
-512756130.55548,-407736690.81628,-47632963.63223,  -0.00288,  -0.00129,  -0.00129,476345744.45958,   0.00157,276345751.74577,  -0.00135,  -0.00044,  -0.00067,  -7.28618,   1.00000
-512641152.71784,-408226830.08950,-47389065.48939,  -0.00289,  -0.00130,  -0.00129,476354273.73043,   0.00158,276354276.71839,  -0.00135,  -0.00044,  -0.00068,  -2.98797,   1.00000
-512528837.58618,-408716196.07050,-47136660.23165,  -0.00289,  -0.00131,  -0.00129,476362777.33100,   0.00159,276362784.61083,  -0.00136,  -0.00045,  -0.00068,  -7.27984,   1.00000
-512410653.69305,-409209980.28886,-46888941.23385,  -0.00290,  -0.00131,  -0.00129,476371337.21364,   0.00160,276371339.00289,  -0.00136,  -0.00045,  -0.00068,  -1.78925,   1.00000
-512294634.82178,-409696748.43183,-46640737.86249,  -0.00290,  -0.00132,  -0.00129,476379940.49111,   0.00160,276379947.46783,  -0.00137,  -0.00045,  -0.00069,  -6.97672,   1.00000
-512176991.11314,-410185288.81997,-46390412.39249,  -0.00291,  -0.00132,  -0.00129,476388481.65041,   0.00161,276388487.03290,  -0.00138,  -0.00046,  -0.00069,  -5.38249,   1.00000
-512061540.42612,-410666819.36376,-46139636.58833,  -0.00291,  -0.00133,  -0.00129,476397073.64564,   0.00162,276397080.49908,  -0.00138,  -0.00046,  -0.00069,  -6.85344,   1.00000
-511944425.28563,-411150157.28865,-45886731.99583,  -0.00292,  -0.00133,  -0.00129,476405596.06291,   0.00163,276405605.34432,  -0.00139,  -0.00046,  -0.00069,  -9.28141,   1.00000
-511825705.23188,-411635179.95909,-45632227.39236,  -0.00292,  -0.00134,  -0.00129,476414219.10520,   0.00164,276414228.48721,  -0.00140,  -0.00047,  -0.00070,  -9.38202,   1.00000
-511706490.22455,-412116969.98688,-45378867.13300,  -0.00293,  -0.00135,  -0.00129,476422843.24112,   0.00164,276422847.28378,  -0.00140,  -0.00047,  -0.00070,  -4.04266,   1.00000
-511590628.17238,-412586896.35836,-45127820.45415,  -0.00293,  -0.00135,  -0.00129,476431410.52369,   0.00165,276431417.22118,  -0.00141,  -0.00047,  -0.00070,  -6.69748,   1.00000
-511470444.95641,-413062327.71782,-44876734.04289,  -0.00294,  -0.00136,  -0.00129,476440021.26824,   0.00166,276440027.47168,  -0.00142,  -0.00048,  -0.00071,  -6.20344,   1.00000
-511351300.66957,-413535746.34171,-44621979.01111,  -0.00294,  -0.00136,  -0.00129,476448619.96470,   0.00167,276448627.44365,  -0.00142,  -0.00048,  -0.00071,  -7.47895,   1.00000
-511227805.31654,-414014568.27833,-44367218.48076,  -0.00295,  -0.00137,  -0.00129,476457262.29391,   0.00168,276457267.77833,  -0.00143,  -0.00048,  -0.00071,  -5.48442,   1.00000
-511111995.64866,-414478878.50951,-44108480.24411,  -0.00296,  -0.00138,  -0.00129,476465906.61408,   0.00168,276465910.81053,  -0.00144,  -0.00049,  -0.00072,  -4.19644,   1.00000
-510991462.47392,-414942812.31415,-43857210.15653,  -0.00296,  -0.00138,  -0.00129,476474492.86725,   0.00169,276474497.94807,  -0.00144,  -0.00049,  -0.00072,  -5.08082,   1.00000
-510870836.40090,-415409368.01487,-43599664.16655,  -0.00297,  -0.00139,  -0.00129,476483174.28767,   0.00170,276483177.08845,  -0.00145,  -0.00049,  -0.00072,  -2.80078,   1.00000
-510746954.84707,-415876676.07581,-43344762.08806,  -0.00297,  -0.00139,  -0.00129,476491784.70693,   0.00171,276491794.64952,  -0.00146,  -0.00050,  -0.00072,  -9.94259,   1.00000
-510630851.58003,-416329580.86853,-43085901.11504,  -0.00298,  -0.00140,  -0.00129,476500412.06629,   0.00172,276500414.71157,  -0.00146,  -0.00050,  -0.00073,  -2.64529,   1.00000
-510510340.96951,-416787839.02042,-42827104.47213,  -0.00298,  -0.00140,  -0.00129,476509067.92448,   0.00172,276509075.28653,  -0.00147,  -0.00050,  -0.00073,  -7.36205,   1.00000
-510389404.39437,-417242981.93272,-42569507.82907,  -0.00299,  -0.00141,  -0.00129,476517724.79542,   0.00173,276517731.58765,  -0.00148,  -0.00051,  -0.00073,  -6.79223,   1.00000
-510268046.97309,-417695024.49106,-42313106.83900,  -0.00299,  -0.00142,  -0.00129,476526374.82095,   0.00174,276526383.67178,  -0.00148,  -0.00051,  -0.00074,  -8.85083,   1.00000
-510146290.55744,-418143994.73678,-42057898.79028,  -0.00300,  -0.00142,  -0.00128,476535025.80825,   0.00175,276535031.52977,  -0.00149,  -0.00051,  -0.00074,  -5.72152,   1.00000
-510021539.17169,-418599345.00550,-41797951.00839,  -0.00300,  -0.00143,  -0.00128,476543708.32866,   0.00176,276543714.42562,  -0.00150,  -0.00052,  -0.00074,  -6.09696,   1.00000
-509900390.48937,-419043255.35528,-41540321.22209,  -0.00301,  -0.00143,  -0.00128,476552340.67632,   0.00177,276552348.34037,  -0.00150,  -0.00052,  -0.00074,  -7.66405,   1.00000
-509780241.19087,-419485234.15796,-41279070.89539,  -0.00301,  -0.00144,  -0.00128,476560969.05022,   0.00177,276560972.57098,  -0.00151,  -0.00053,  -0.00075,  -3.52076,   1.00000
-509658313.45702,-419923095.18401,-41023868.68474,  -0.00302,  -0.00145,  -0.00128,476569595.41837,   0.00178,276569598.14122,  -0.00152,  -0.00053,  -0.00075,  -2.72285,   1.00000
-509533338.74171,-420367290.61762,-40763949.32493,  -0.00302,  -0.00145,  -0.00128,476578253.71912,   0.00179,276578259.04086,  -0.00152,  -0.00053,  -0.00075,  -5.32174,   1.00000
-509412047.17184,-420800211.73922,-40506334.32078,  -0.00303,  -0.00146,  -0.00128,476586869.36537,   0.00180,276586870.95325,  -0.00153,  -0.00054,  -0.00075,  -1.58789,   1.00000
-509289222.52460,-421234300.63053,-40247506.77614,  -0.00303,  -0.00146,  -0.00128,476595577.13398,   0.00181,276595580.15094,  -0.00154,  -0.00054,  -0.00076,  -3.01696,   1.00000
-509168548.43821,-421662349.66155,-39987487.82171,  -0.00304,  -0.00147,  -0.00128,476604174.21528,   0.00181,276604178.61608,  -0.00154,  -0.00054,  -0.00076,  -4.40080,   1.00000
-509046346.87660,-422091531.52065,-39726301.10639,  -0.00304,  -0.00148,  -0.00128,476612871.29127,   0.00182,276612874.25420,  -0.00155,  -0.00055,  -0.00076,  -2.96293,   1.00000
-508924962.22631,-422513696.64297,-39468740.71599,  -0.00305,  -0.00148,  -0.00128,476621462.38388,   0.00183,276621464.62589,  -0.00156,  -0.00055,  -0.00077,  -2.24200,   1.00000
-508802063.45412,-422936964.45856,-39210033.15174,  -0.00306,  -0.00149,  -0.00128,476630145.45068,   0.00184,276630152.14349,  -0.00156,  -0.00056,  -0.00077,  -6.69281,   1.00000
-508681320.80587,-423354373.09242,-38950076.48036,  -0.00306,  -0.00149,  -0.00128,476638725.92685,   0.00185,276638729.36504,  -0.00157,  -0.00056,  -0.00077,  -3.43819,   1.00000
-508559061.41608,-423772843.72940,-38689016.67672,  -0.00307,  -0.00150,  -0.00128,476647398.40315,   0.00185,276647403.65698,  -0.00158,  -0.00056,  -0.00077,  -5.25382,   1.00000
-508437650.81849,-424184491.69516,-38431530.73498,  -0.00307,  -0.00151,  -0.00128,476655964.98657,   0.00186,276655972.99735,  -0.00158,  -0.00057,  -0.00078,  -8.01078,   1.00000
-508318902.26403,-424589165.27155,-38173992.39496,  -0.00308,  -0.00151,  -0.00127,476664586.83961,   0.00187,276664594.34204,  -0.00159,  -0.00057,  -0.00078,  -7.50243,   1.00000
-508193989.14073,-425004220.35608,-37913090.34155,  -0.00308,  -0.00152,  -0.00127,476673195.21091,   0.00188,276673195.84025,  -0.00160,  -0.00057,  -0.00078,  -0.62934,   1.00000
-508075904.81340,-425404239.22955,-37653193.71275,  -0.00309,  -0.00152,  -0.00127,476681798.51839,   0.00189,276681804.30922,  -0.00160,  -0.00058,  -0.00078,  -5.79083,   1.00000
-507953346.67470,-425809444.00432,-37393536.46262,  -0.00309,  -0.00153,  -0.00127,476690447.33575,   0.00189,276690453.85372,  -0.00161,  -0.00058,  -0.00079,  -6.51797,   1.00000
-507831679.41155,-426208065.95054,-37137380.90197,  -0.00310,  -0.00153,  -0.00127,476698990.31319,   0.00190,276698998.84393,  -0.00162,  -0.00059,  -0.00079,  -8.53073,   1.00000
-507713982.58885,-426600745.87210,-36876368.67648,  -0.00310,  -0.00154,  -0.00127,476707583.88456,   0.00191,276707590.77453,  -0.00162,  -0.00059,  -0.00079,  -6.88997,   1.00000
-507591786.32130,-426998584.40282,-36615622.69706,  -0.00311,  -0.00155,  -0.00127,476716215.25353,   0.00192,276716223.91569,  -0.00163,  -0.00059,  -0.00079,  -8.66216,   1.00000
-507470503.18631,-427389980.14068,-36358344.32427,  -0.00311,  -0.00155,  -0.00127,476724748.73458,   0.00193,276724752.70309,  -0.00164,  -0.00060,  -0.00080,  -3.96852,   1.00000
-507351987.78641,-427774442.38887,-36101096.38448,  -0.00312,  -0.00156,  -0.00127,476733328.89803,   0.00193,276733333.19519,  -0.00164,  -0.00060,  -0.00080,  -4.29717,   1.00000
-507231362.79385,-428161432.43219,-35841434.46032,  -0.00312,  -0.00156,  -0.00127,476741844.21788,   0.00194,276741849.90343,  -0.00165,  -0.00061,  -0.00080,  -5.68556,   1.00000
-507113529.68883,-428541498.83131,-35581835.79258,  -0.00313,  -0.00157,  -0.00127,476750413.98899,   0.00195,276750418.20074,  -0.00166,  -0.00061,  -0.00080,  -4.21175,   1.00000
-506995435.45861,-428918909.71950,-35323497.87729,  -0.00313,  -0.00158,  -0.00126,476758976.62029,   0.00196,276758982.79689,  -0.00166,  -0.00061,  -0.00081,  -6.17660,   1.00000
-506878280.76327,-429290167.67216,-35068543.40509,  -0.00314,  -0.00158,  -0.00126,476767433.49451,   0.00197,276767443.47290,  -0.00167,  -0.00062,  -0.00081,  -9.97839,   1.00000
-506760874.60605,-429663313.81112,-34807842.21653,  -0.00314,  -0.00159,  -0.00126,476775993.74643,   0.00197,276775996.16587,  -0.00168,  -0.00062,  -0.00081,  -2.41943,   1.00000
-506640121.99189,-430038111.06717,-34549562.10330,  -0.00315,  -0.00159,  -0.00126,476784485.75277,   0.00198,276784490.24213,  -0.00168,  -0.00063,  -0.00081,  -4.48935,   1.00000
-506526518.93051,-430398304.36288,-34292330.16301,  -0.00316,  -0.00160,  -0.00126,476792986.14787,   0.00199,276792990.60076,  -0.00169,  -0.00063,  -0.00081,  -4.45288,   1.00000
-506409581.03633,-430760279.34831,-34037483.34010,  -0.00316,  -0.00161,  -0.00126,476801426.43887,   0.00200,276801432.49483,  -0.00170,  -0.00063,  -0.00082,  -6.05596,   1.00000
-506291242.61219,-431123130.05430,-33781816.31745,  -0.00317,  -0.00161,  -0.00126,476809966.04589,   0.00201,276809970.88812,  -0.00170,  -0.00064,  -0.00082,  -4.84223,   1.00000
-506174999.90168,-431481010.97663,-33524569.66723,  -0.00317,  -0.00162,  -0.00126,476818396.23103,   0.00201,276818401.46146,  -0.00171,  -0.00064,  -0.00082,  -5.23043,   1.00000
-506061671.34716,-431832093.76633,-33267461.98903,  -0.00318,  -0.00162,  -0.00126,476826879.88633,   0.00202,276826883.31750,  -0.00172,  -0.00065,  -0.00082,  -3.43117,   1.00000
-505949318.04090,-432177426.53509,-33013618.00488,  -0.00318,  -0.00163,  -0.00126,476835257.84673,   0.00203,276835261.88117,  -0.00172,  -0.00065,  -0.00083,  -4.03444,   1.00000
-505833516.08954,-432528875.70633,-32755224.42323,  -0.00319,  -0.00163,  -0.00125,476843670.91485,   0.00204,276843678.01679,  -0.00173,  -0.00065,  -0.00083,  -7.10194,   1.00000
-505719579.99195,-432872643.39544,-32501880.03763,  -0.00319,  -0.00164,  -0.00125,476852140.81242,   0.00205,276852149.56263,  -0.00174,  -0.00066,  -0.00083,  -8.75021,   1.00000
-505607727.52595,-433211690.18558,-32246865.33624,  -0.00320,  -0.00165,  -0.00125,476860509.38093,   0.00205,276860513.83027,  -0.00174,  -0.00066,  -0.00083,  -4.44935,   1.00000
-505496739.27482,-433549267.95861,-31988209.32897,  -0.00320,  -0.00165,  -0.00125,476868867.20049,   0.00206,276868870.67793,  -0.00175,  -0.00067,  -0.00083,  -3.47744,   1.00000
-505384486.54903,-433883616.17045,-31735686.20503,  -0.00321,  -0.00166,  -0.00125,476877221.49621,   0.00207,276877228.39451,  -0.00175,  -0.00067,  -0.00084,  -6.89830,   1.00000
-505272063.27366,-434215653.51950,-31484390.36244,  -0.00321,  -0.00166,  -0.00125,476885576.46060,   0.00208,276885582.86627,  -0.00176,  -0.00067,  -0.00084,  -6.40568,   1.00000
-505160515.04421,-434546261.73522,-31229436.19999,  -0.00322,  -0.00167,  -0.00125,476893928.68351,   0.00209,276893930.07617,  -0.00177,  -0.00068,  -0.00084,  -1.39266,   1.00000
-505053169.08648,-434867092.40948,-30976582.01175,  -0.00322,  -0.00168,  -0.00125,476902227.30821,   0.00209,276902228.89418,  -0.00177,  -0.00068,  -0.00084,  -1.58597,   1.00000
-504946663.47686,-435186554.46535,-30720070.28083,  -0.00323,  -0.00168,  -0.00124,476910515.32834,   0.00210,276910520.61365,  -0.00178,  -0.00069,  -0.00084,  -5.28531,   1.00000
-504838964.18696,-435502955.70218,-30469688.22985,  -0.00323,  -0.00169,  -0.00124,476918807.37933,   0.00211,276918813.13723,  -0.00179,  -0.00069,  -0.00085,  -5.75790,   1.00000
-504728884.91802,-435822414.45549,-30216639.68801,  -0.00324,  -0.00169,  -0.00124,476927037.27521,   0.00212,276927044.63288,  -0.00179,  -0.00069,  -0.00085,  -7.35767,   1.00000
-504621873.35867,-436135258.96415,-29963818.42769,  -0.00324,  -0.00170,  -0.00124,476935319.52644,   0.00212,276935327.11812,  -0.00180,  -0.00070,  -0.00085,  -7.59168,   1.00000
-504519124.39413,-436438545.53392,-29713056.04375,  -0.00325,  -0.00170,  -0.00124,476943555.52931,   0.00213,276943561.29299,  -0.00181,  -0.00070,  -0.00085,  -5.76368,   1.00000
-504412969.48128,-436744163.43834,-29464486.65207,  -0.00326,  -0.00171,  -0.00124,476951733.00434,   0.00214,276951738.58751,  -0.00181,  -0.00071,  -0.00085,  -5.58318,   1.00000
-504307632.80911,-437048497.07444,-29212223.82837,  -0.00326,  -0.00171,  -0.00124,476959900.18571,   0.00215,276959909.22820,  -0.00182,  -0.00071,  -0.00086,  -9.04249,   1.00000
-504205408.18761,-437346303.99421,-28960217.75977,  -0.00327,  -0.00172,  -0.00124,476968127.00260,   0.00216,276968130.73650,  -0.00182,  -0.00071,  -0.00086,  -3.73390,   1.00000
-504099758.74178,-437646491.10807,-28710387.88857,  -0.00327,  -0.00173,  -0.00123,476976295.51069,   0.00216,276976295.59883,  -0.00183,  -0.00072,  -0.00086,  -0.08814,   1.00000
-503998415.49704,-437937297.02414,-28462560.86206,  -0.00328,  -0.00173,  -0.00123,476984409.88526,   0.00217,276984412.35896,  -0.00184,  -0.00072,  -0.00086,  -2.47370,   1.00000
-503897861.08259,-438226897.41480,-28211030.51447,  -0.00328,  -0.00174,  -0.00123,476992514.06421,   0.00218,276992522.71866,  -0.00184,  -0.00073,  -0.00086,  -8.65445,   1.00000
-503801629.21257,-438507233.82877,-27961495.28114,  -0.00329,  -0.00174,  -0.00123,477000579.19046,   0.00219,277000584.96791,  -0.00185,  -0.00073,  -0.00087,  -5.77745,   1.00000
-503696558.64230,-438796606.94948,-27718194.02486,  -0.00329,  -0.00175,  -0.00123,477008636.64519,   0.00219,277008639.81481,  -0.00186,  -0.00073,  -0.00087,  -3.16961,   1.00000
-503600974.81252,-439073829.38214,-27466122.46000,  -0.00330,  -0.00175,  -0.00123,477016692.20046,   0.00220,277016693.13862,  -0.00186,  -0.00074,  -0.00087,  -0.93816,   1.00000
-503504327.72281,-439348375.78321,-27220160.30550,  -0.00330,  -0.00176,  -0.00123,477024743.73483,   0.00221,277024747.29131,  -0.00187,  -0.00074,  -0.00087,  -3.55648,   1.00000
-503405122.56029,-439626288.24973,-26971371.88683,  -0.00331,  -0.00176,  -0.00122,477032734.64980,   0.00222,277032741.94936,  -0.00187,  -0.00075,  -0.00087,  -7.29956,   1.00000
-503309401.96376,-439894353.91760,-26729425.73802,  -0.00331,  -0.00177,  -0.00122,477040689.16294,   0.00222,277040692.09244,  -0.00188,  -0.00075,  -0.00087,  -2.92950,   1.00000
-503214434.10077,-440161348.84391,-26483726.91813,  -0.00332,  -0.00178,  -0.00122,477048633.79571,   0.00223,277048636.33037,  -0.00189,  -0.00075,  -0.00088,  -2.53467,   1.00000
-503120196.93253,-440427263.00458,-26234292.54844,  -0.00332,  -0.00178,  -0.00122,477056568.53078,   0.00224,277056574.72584,  -0.00189,  -0.00076,  -0.00088,  -6.19505,   1.00000
-503029470.93260,-440683466.39356,-25991683.42569,  -0.00333,  -0.00179,  -0.00122,477064459.01218,   0.00225,277064468.61438,  -0.00190,  -0.00076,  -0.00088,  -9.60220,   1.00000
-502939480.74255,-440938672.55152,-25745319.05052,  -0.00333,  -0.00179,  -0.00122,477072354.66724,   0.00225,277072356.72713,  -0.00190,  -0.00077,  -0.00088,  -2.05989,   1.00000
-502849338.80491,-441192131.33162,-25500122.28957,  -0.00334,  -0.00180,  -0.00121,477080235.88259,   0.00226,277080242.47053,  -0.00191,  -0.00077,  -0.00088,  -6.58794,   1.00000
-502760233.71988,-441441276.09896,-25257637.76646,  -0.00334,  -0.00180,  -0.00121,477088019.66247,   0.00227,277088027.37135,  -0.00192,  -0.00077,  -0.00088,  -7.70888,   1.00000
-502666472.03222,-441695855.96198,-25015583.50685,  -0.00335,  -0.00181,  -0.00121,477095851.90632,   0.00228,277095855.30325,  -0.00192,  -0.00078,  -0.00089,  -3.39694,   1.00000
-502585866.11631,-441930690.56520,-24770345.01639,  -0.00335,  -0.00181,  -0.00121,477103635.67984,   0.00228,277103640.07622,  -0.00193,  -0.00078,  -0.00089,  -4.39638,   1.00000
-502496374.02701,-442174860.03051,-24531287.10946,  -0.00336,  -0.00182,  -0.00121,477111413.65911,   0.00229,277111418.08929,  -0.00193,  -0.00079,  -0.00089,  -4.43018,   1.00000
-502408738.82481,-442415560.40691,-24289931.33937,  -0.00336,  -0.00182,  -0.00121,477119091.51762,   0.00230,277119092.48423,  -0.00194,  -0.00079,  -0.00089,  -0.96661,   1.00000
-502324366.72982,-442650091.58016,-24048902.05568,  -0.00337,  -0.00183,  -0.00121,477126812.41027,   0.00230,277126817.63130,  -0.00195,  -0.00079,  -0.00089,  -5.22103,   1.00000
-502245213.94751,-442876676.86898,-23804762.46666,  -0.00337,  -0.00183,  -0.00120,477134482.79237,   0.00231,277134492.20835,  -0.00195,  -0.00080,  -0.00089,  -9.41598,   1.00000
-502161735.46224,-443105629.61252,-23567452.92777,  -0.00338,  -0.00184,  -0.00120,477142106.82977,   0.00232,277142114.83781,  -0.00196,  -0.00080,  -0.00090,  -8.00804,   1.00000
-502078913.23435,-443333723.06727,-23326325.82820,  -0.00338,  -0.00184,  -0.00120,477149728.78065,   0.00233,277149732.42889,  -0.00196,  -0.00081,  -0.00090,  -3.64823,   1.00000
-502000528.09269,-443553276.05472,-23086970.88335,  -0.00339,  -0.00185,  -0.00120,477157295.61772,   0.00233,277157302.63038,  -0.00197,  -0.00081,  -0.00090,  -7.01266,   1.00000
-501922020.48165,-443771371.65642,-22848719.37753,  -0.00339,  -0.00185,  -0.00120,477164870.23258,   0.00234,277164870.79047,  -0.00197,  -0.00081,  -0.00090,  -0.55789,   1.00000
-501844117.73163,-443988643.23365,-22606646.88336,  -0.00340,  -0.00186,  -0.00120,477172428.29586,   0.00235,277172434.15480,  -0.00198,  -0.00082,  -0.00090,  -5.85894,   1.00000
-501769932.31636,-444196853.82660,-22371247.88172,  -0.00340,  -0.00186,  -0.00119,477179948.07185,   0.00236,277179952.98807,  -0.00199,  -0.00082,  -0.00090,  -4.91622,   1.00000
-501692906.96880,-444408897.42699,-22132738.48570,  -0.00341,  -0.00187,  -0.00119,477187409.43235,   0.00236,277187414.54555,  -0.00199,  -0.00083,  -0.00090,  -5.11319,   1.00000
-501620345.00161,-444612582.92982,-21895940.42377,  -0.00341,  -0.00187,  -0.00119,477194822.68657,   0.00237,277194828.86274,  -0.00200,  -0.00083,  -0.00091,  -6.17617,   1.00000
-501547648.54048,-444814919.78997,-21660216.49872,  -0.00342,  -0.00188,  -0.00119,477202236.48279,   0.00238,277202241.35445,  -0.00200,  -0.00083,  -0.00091,  -4.87166,   1.00000
-501475520.32787,-445016521.79787,-21420638.80026,  -0.00342,  -0.00188,  -0.00119,477209641.18292,   0.00238,277209649.36460,  -0.00201,  -0.00084,  -0.00091,  -8.18168,   1.00000
-501403706.60764,-445213872.43051,-21188376.03911,  -0.00343,  -0.00189,  -0.00118,477216958.17749,   0.00239,277216960.44029,  -0.00201,  -0.00084,  -0.00091,  -2.26281,   1.00000
-501335916.78913,-445405910.16373,-20951539.31601,  -0.00343,  -0.00189,  -0.00118,477224315.13438,   0.00240,277224319.57980,  -0.00202,  -0.00085,  -0.00091,  -4.44542,   1.00000
-501269128.26609,-445594389.86172,-20717047.23921,  -0.00344,  -0.00190,  -0.00118,477231574.81623,   0.00240,277231579.26044,  -0.00203,  -0.00085,  -0.00091,  -4.44421,   1.00000
-501202872.07034,-445782213.02644,-20478674.62693,  -0.00344,  -0.00190,  -0.00118,477238832.53462,   0.00241,277238834.71625,  -0.00203,  -0.00085,  -0.00091,  -2.18163,   1.00000
-501140416.43644,-445961332.45884,-20246872.53670,  -0.00345,  -0.00191,  -0.00118,477246044.21004,   0.00242,277246045.72545,  -0.00204,  -0.00086,  -0.00091,  -1.51541,   1.00000
-501074978.95332,-446144462.48954,-20011829.59334,  -0.00345,  -0.00191,  -0.00118,477253191.46349,   0.00242,277253200.42193,  -0.00204,  -0.00086,  -0.00092,  -8.95844,   1.00000
-501012246.23589,-446321203.28967,-19782101.63442,  -0.00346,  -0.00192,  -0.00117,477260404.19946,   0.00243,277260408.25676,  -0.00205,  -0.00087,  -0.00092,  -4.05730,   1.00000
-500951797.62286,-446495683.58571,-19544738.17823,  -0.00346,  -0.00192,  -0.00117,477267507.85121,   0.00244,277267512.06823,  -0.00205,  -0.00087,  -0.00092,  -4.21702,   1.00000
-500890547.34673,-446668453.82239,-19313346.32055,  -0.00347,  -0.00193,  -0.00117,477274614.64242,   0.00244,277274616.85613,  -0.00206,  -0.00087,  -0.00092,  -2.21372,   1.00000
-500833783.93713,-446833254.15830,-19083517.02173,  -0.00347,  -0.00193,  -0.00117,477281665.84439,   0.00245,277281674.83162,  -0.00206,  -0.00088,  -0.00092,  -8.98723,   1.00000
-500773990.34641,-447002166.16046,-18850379.02713,  -0.00348,  -0.00194,  -0.00117,477288673.53662,   0.00246,277288676.89649,  -0.00207,  -0.00088,  -0.00092,  -3.35987,   1.00000
-500718678.81211,-447163151.43028,-18618784.94217,  -0.00348,  -0.00194,  -0.00116,477295625.75928,   0.00246,277295632.24993,  -0.00207,  -0.00088,  -0.00092,  -6.49065,   1.00000
-500666723.85987,-447318432.45876,-18387584.08290,  -0.00349,  -0.00195,  -0.00116,477302633.60042,   0.00247,277302638.30125,  -0.00208,  -0.00089,  -0.00092,  -4.70083,   1.00000
-500607559.78386,-447481990.57426,-18158581.38874,  -0.00349,  -0.00195,  -0.00116,477309538.65035,   0.00248,277309539.02945,  -0.00208,  -0.00089,  -0.00092,  -0.37910,   1.00000
-500556426.68578,-447633040.74411,-17930484.28687,  -0.00349,  -0.00196,  -0.00116,477316443.17075,   0.00248,277316445.09958,  -0.00209,  -0.00090,  -0.00093,  -1.92883,   1.00000
-500506838.02464,-447781484.71758,-17699519.51499,  -0.00350,  -0.00196,  -0.00116,477323241.52142,   0.00249,277323250.38937,  -0.00210,  -0.00090,  -0.00093,  -8.86795,   1.00000
-500457084.60778,-447928963.13960,-17469531.72418,  -0.00350,  -0.00196,  -0.00115,477330053.69995,   0.00250,277330054.46037,  -0.00210,  -0.00090,  -0.00093,  -0.76042,   1.00000
-500407143.14631,-448075458.72850,-17240516.18848,  -0.00351,  -0.00197,  -0.00115,477336853.39144,   0.00250,277336857.43358,  -0.00211,  -0.00091,  -0.00093,  -4.04214,   1.00000
-500361705.58088,-448214240.92530,-17012959.81360,  -0.00351,  -0.00197,  -0.00115,477343610.54683,   0.00251,277343613.86361,  -0.00211,  -0.00091,  -0.00093,  -3.31678,   1.00000
-500317763.52710,-448350509.74469,-16782456.17438,  -0.00352,  -0.00198,  -0.00115,477350261.63512,   0.00252,277350269.89235,  -0.00212,  -0.00091,  -0.00093,  -8.25723,   1.00000
-500273091.01292,-448485404.82925,-16557848.54642,  -0.00352,  -0.00198,  -0.00115,477356922.26449,   0.00252,277356926.94318,  -0.00212,  -0.00092,  -0.00093,  -4.67869,   1.00000
-500228774.03624,-448619881.23278,-16329232.53806,  -0.00353,  -0.00199,  -0.00114,477363574.77252,   0.00253,277363580.95266,  -0.00213,  -0.00092,  -0.00093,  -6.18014,   1.00000
-500188955.63369,-448746745.40256,-16102029.86140,  -0.00353,  -0.00199,  -0.00114,477370184.46627,   0.00254,277370188.57051,  -0.00213,  -0.00092,  -0.00093,  -4.10424,   1.00000
-500150070.57147,-448870729.42029,-15876743.82570,  -0.00354,  -0.00200,  -0.00114,477376696.96943,   0.00254,277376698.11068,  -0.00214,  -0.00093,  -0.00093,  -1.14125,   1.00000
-500111497.54530,-448994337.89247,-15647431.16786,  -0.00354,  -0.00200,  -0.00114,477383201.45371,   0.00255,277383204.82360,  -0.00214,  -0.00093,  -0.00093,  -3.36989,   1.00000
-500072205.78243,-449116667.66640,-15423994.10210,  -0.00355,  -0.00200,  -0.00114,477389702.75915,   0.00255,277389712.62222,  -0.00215,  -0.00094,  -0.00094,  -9.86307,   1.00000
-500037927.29123,-449231937.03789,-15196962.05572,  -0.00355,  -0.00201,  -0.00113,477396164.92201,   0.00256,277396172.23621,  -0.00215,  -0.00094,  -0.00094,  -7.31421,   1.00000
-500004563.49823,-449344427.47401,-14971771.84719,  -0.00355,  -0.00201,  -0.00113,477402529.90347,   0.00257,277402534.01712,  -0.00216,  -0.00094,  -0.00094,  -4.11366,   1.00000
-499970981.99490,-449456156.08594,-14747478.74713,  -0.00356,  -0.00202,  -0.00113,477408889.47185,   0.00257,277408895.06042,  -0.00216,  -0.00095,  -0.00094,  -5.58857,   1.00000
-499942370.18312,-449560873.84016,-14519553.71802,  -0.00356,  -0.00202,  -0.00113,477415203.25971,   0.00258,277415208.16377,  -0.00217,  -0.00095,  -0.00094,  -4.90406,   1.00000
-499913050.39492,-449664449.70632,-14297477.20115,  -0.00357,  -0.00202,  -0.00112,477421514.11614,   0.00258,277421522.38040,  -0.00217,  -0.00095,  -0.00094,  -8.26425,   1.00000
-499880404.78421,-449772433.14536,-14071795.85065,  -0.00357,  -0.00203,  -0.00112,477427775.77203,   0.00259,277427782.58105,  -0.00217,  -0.00096,  -0.00094,  -6.80902,   1.00000
-499856960.21378,-449866359.99184,-13847802.36050,  -0.00358,  -0.00203,  -0.00112,477433949.57748,   0.00260,277433951.38360,  -0.00218,  -0.00096,  -0.00094,  -1.80612,   1.00000
-499824976.06128,-449970986.60860,-13624729.68115,  -0.00358,  -0.00204,  -0.00112,477440108.96752,   0.00260,277440113.49132,  -0.00218,  -0.00096,  -0.00094,  -4.52380,   1.00000
-499806230.63734,-450057283.03911,-13397907.92538,  -0.00359,  -0.00204,  -0.00112,477446231.32257,   0.00261,277446234.09415,  -0.00219,  -0.00097,  -0.00094,  -2.77158,   1.00000
-499783198.64385,-450147274.51236,-13177340.80438,  -0.00359,  -0.00204,  -0.00111,477452297.73561,   0.00261,277452304.37390,  -0.00219,  -0.00097,  -0.00094,  -6.63829,   1.00000
-499760366.16182,-450237017.84848,-12952666.55356,  -0.00359,  -0.00205,  -0.00111,477458368.48910,   0.00262,277458372.50622,  -0.00220,  -0.00097,  -0.00094,  -4.01712,   1.00000
-499738416.74030,-450324198.63880,-12729636.76425,  -0.00360,  -0.00205,  -0.00111,477464342.07659,   0.00262,277464343.37639,  -0.00220,  -0.00098,  -0.00094,  -1.29980,   1.00000
-499720932.82831,-450404116.52464,-12507807.67209,  -0.00360,  -0.00205,  -0.00111,477470260.21316,   0.00263,277470268.50456,  -0.00221,  -0.00098,  -0.00094,  -8.29140,   1.00000
-499703604.13058,-450483813.39067,-12281855.46102,  -0.00361,  -0.00206,  -0.00110,477476182.52116,   0.00264,277476191.69202,  -0.00221,  -0.00098,  -0.00095,  -9.17086,   1.00000
-499685622.61498,-450562577.03805,-12061699.42147,  -0.00361,  -0.00206,  -0.00110,477482114.03133,   0.00264,277482115.99474,  -0.00222,  -0.00099,  -0.00095,  -1.96342,   1.00000
-499673628.60412,-450632579.17756,-11838488.01651,  -0.00362,  -0.00207,  -0.00110,477487895.06049,   0.00265,277487896.43385,  -0.00222,  -0.00099,  -0.00095,  -1.37337,   1.00000
-499656627.74624,-450708658.39328,-11615754.15633,  -0.00362,  -0.00207,  -0.00110,477493716.48898,   0.00265,277493721.95752,  -0.00222,  -0.00099,  -0.00095,  -5.46854,   1.00000
-499648832.35383,-450770946.50456,-11394500.47359,  -0.00362,  -0.00207,  -0.00110,477499454.16540,   0.00266,277499456.49942,  -0.00223,  -0.00100,  -0.00095,  -2.33401,   1.00000
-499637148.39284,-450837455.63358,-11174414.85967,  -0.00363,  -0.00208,  -0.00109,477505134.39880,   0.00266,277505139.51595,  -0.00223,  -0.00100,  -0.00095,  -5.11716,   1.00000
-499629158.10609,-450899040.47237,-10949805.90505,  -0.00363,  -0.00208,  -0.00109,477510865.94414,   0.00267,277510872.26450,  -0.00224,  -0.00100,  -0.00095,  -6.32036,   1.00000
-499623135.99459,-450956362.75337,-10727337.05479,  -0.00364,  -0.00208,  -0.00109,477516402.07864,   0.00267,277516411.62636,  -0.00224,  -0.00101,  -0.00095,  -9.54772,   1.00000
-499615692.35243,-451015080.90299,-10504998.56276,  -0.00364,  -0.00209,  -0.00109,477522037.52749,   0.00268,277522047.46731,  -0.00225,  -0.00101,  -0.00095,  -9.93982,   1.00000
-499613839.84152,-451064850.70934,-10284387.51589,  -0.00364,  -0.00209,  -0.00108,477527540.88735,   0.00268,277527541.26091,  -0.00225,  -0.00101,  -0.00095,  -0.37356,   1.00000
-499611677.04348,-451114167.02010,-10064543.74848,  -0.00365,  -0.00209,  -0.00108,477533034.58928,   0.00269,277533035.03131,  -0.00225,  -0.00101,  -0.00095,  -0.44203,   1.00000
-499605927.99507,-451168057.47356,-9840830.54460,  -0.00365,  -0.00210,  -0.00108,477538468.78958,   0.00269,277538476.32664,  -0.00226,  -0.00102,  -0.00095,  -7.53707,   1.00000
-499607920.04453,-451209877.58203,-9622810.35895,  -0.00366,  -0.00210,  -0.00108,477543918.81179,   0.00270,277543924.70502,  -0.00226,  -0.00102,  -0.00095,  -5.89324,   1.00000
-499607447.47870,-451254448.98030,-9401475.08766,  -0.00366,  -0.00210,  -0.00107,477549221.63450,   0.00270,277549224.19043,  -0.00227,  -0.00102,  -0.00095,  -2.55593,   1.00000
-499610265.09830,-451293849.56391,-9180582.48605,  -0.00366,  -0.00211,  -0.00107,477554567.68028,   0.00271,277554574.97921,  -0.00227,  -0.00103,  -0.00095,  -7.29893,   1.00000
-499614200.58902,-451331259.83423,-8956034.81467,  -0.00367,  -0.00211,  -0.00107,477559818.90193,   0.00271,277559828.25703,  -0.00228,  -0.00103,  -0.00095,  -9.35509,   1.00000
-499617528.12700,-451368019.14115,-8737195.65216,  -0.00367,  -0.00211,  -0.00107,477565079.20895,   0.00272,277565082.73409,  -0.00228,  -0.00103,  -0.00095,  -3.52514,   1.00000
-499630305.54349,-451391456.80686,-8514621.30612,  -0.00368,  -0.00212,  -0.00106,477570240.21554,   0.00272,277570245.77052,  -0.00228,  -0.00104,  -0.00095,  -5.55498,   1.00000
-499634380.40300,-451425875.20740,-8292808.24998,  -0.00368,  -0.00212,  -0.00106,477575396.59863,   0.00273,277575403.12610,  -0.00229,  -0.00104,  -0.00095,  -6.52747,   1.00000
-499647625.92247,-451446737.70125,-8072191.10994,  -0.00368,  -0.00212,  -0.00106,477580461.44722,   0.00273,277580470.17254,  -0.00229,  -0.00104,  -0.00095,  -8.72532,   1.00000
-499656929.16213,-451472019.62057,-7852542.53667,  -0.00369,  -0.00212,  -0.00106,477585485.23446,   0.00274,277585486.29976,  -0.00229,  -0.00104,  -0.00095,  -1.06529,   1.00000
-499669739.89307,-451492414.26253,-7628382.53369,  -0.00369,  -0.00213,  -0.00105,477590544.88484,   0.00274,277590552.94756,  -0.00230,  -0.00105,  -0.00095,  -8.06272,   1.00000
-499683102.57454,-451510421.05285,-7410365.44905,  -0.00370,  -0.00213,  -0.00105,477595514.87601,   0.00275,277595524.44076,  -0.00230,  -0.00105,  -0.00095,  -9.56475,   1.00000
-499697519.09190,-451526494.05615,-7188520.82933,  -0.00370,  -0.00213,  -0.00105,477600398.90295,   0.00275,277600398.96415,  -0.00231,  -0.00105,  -0.00096,  -0.06120,   1.00000
-499711562.56230,-451542227.33521,-6967364.45096,  -0.00370,  -0.00214,  -0.00105,477605265.19600,   0.00276,277605273.94319,  -0.00231,  -0.00106,  -0.00096,  -8.74720,   1.00000
-499730240.31044,-451551265.88401,-6742127.74107,  -0.00371,  -0.00214,  -0.00104,477610097.30628,   0.00276,277610103.21848,  -0.00231,  -0.00106,  -0.00096,  -5.91220,   1.00000
-499753076.13718,-451553220.77744,-6522737.06595,  -0.00371,  -0.00214,  -0.00104,477614881.96702,   0.00277,277614888.56406,  -0.00232,  -0.00106,  -0.00096,  -6.59704,   1.00000
-499772147.75824,-451559839.16090,-6299258.50740,  -0.00371,  -0.00214,  -0.00104,477619617.82607,   0.00277,277619622.49202,  -0.00232,  -0.00106,  -0.00096,  -4.66596,   1.00000
-499795599.39527,-451559576.74114,-6076631.05304,  -0.00372,  -0.00215,  -0.00104,477624307.94126,   0.00278,277624311.73051,  -0.00232,  -0.00107,  -0.00096,  -3.78925,   1.00000
-499819821.04664,-451557206.79579,-5855031.71703,  -0.00372,  -0.00215,  -0.00103,477628900.31544,   0.00278,277628905.24229,  -0.00233,  -0.00107,  -0.00096,  -4.92685,   1.00000
-499843661.49653,-451554570.29866,-5634081.92524,  -0.00373,  -0.00215,  -0.00103,477633494.16651,   0.00278,277633499.32075,  -0.00233,  -0.00107,  -0.00096,  -5.15423,   1.00000
-499872055.96326,-451545242.45464,-5408971.92999,  -0.00373,  -0.00215,  -0.00103,477638043.44100,   0.00279,277638048.12887,  -0.00234,  -0.00107,  -0.00096,  -4.68788,   1.00000
-499899873.80975,-451535505.54923,-5189481.37603,  -0.00373,  -0.00216,  -0.00102,477642592.85870,   0.00279,277642598.23632,  -0.00234,  -0.00108,  -0.00096,  -5.37762,   1.00000
-499928629.72696,-451523838.68196,-4965970.26666,  -0.00374,  -0.00216,  -0.00102,477647045.77701,   0.00280,277647052.12201,  -0.00234,  -0.00108,  -0.00096,  -6.34500,   1.00000
-499961748.03076,-451505342.61608,-4743233.10440,  -0.00374,  -0.00216,  -0.00102,477651461.15774,   0.00280,277651461.51512,  -0.00235,  -0.00108,  -0.00096,  -0.35738,   1.00000
-499990855.91722,-451491364.71505,-4521272.04268,  -0.00374,  -0.00216,  -0.00102,477655817.75232,   0.00281,277655820.60747,  -0.00235,  -0.00108,  -0.00096,  -2.85515,   1.00000
-500024464.40273,-451470681.74124,-4295087.50282,  -0.00375,  -0.00217,  -0.00101,477660129.14195,   0.00281,277660134.75635,  -0.00235,  -0.00109,  -0.00096,  -5.61440,   1.00000
-500057651.31283,-451449766.06214,-4069527.06920,  -0.00375,  -0.00217,  -0.00101,477664442.22174,   0.00281,277664449.71021,  -0.00236,  -0.00109,  -0.00096,  -7.48847,   1.00000
-500096350.28412,-451420188.06922,-3844938.96364,  -0.00375,  -0.00217,  -0.00101,477668617.27861,   0.00282,277668624.16047,  -0.00236,  -0.00109,  -0.00096,  -6.88186,   1.00000
-500129864.90627,-451396999.79647,-3620845.77782,  -0.00376,  -0.00217,  -0.00101,477672842.26922,   0.00282,277672844.58281,  -0.00236,  -0.00109,  -0.00096,  -2.31359,   1.00000
-500168891.10783,-451365141.15948,-3397667.00155,  -0.00376,  -0.00217,  -0.00100,477676920.70127,   0.00283,277676924.59979,  -0.00236,  -0.00110,  -0.00096,  -3.89852,   1.00000
-500207490.68809,-451333079.75996,-3175071.43101,  -0.00376,  -0.00218,  -0.00100,477681000.84744,   0.00283,277681005.51244,  -0.00237,  -0.00110,  -0.00096,  -4.66500,   1.00000
-500250517.23258,-451294297.81671,-2948174.91765,  -0.00377,  -0.00218,  -0.00100,477685034.86341,   0.00283,277685041.87960,  -0.00237,  -0.00110,  -0.00096,  -7.01620,   1.00000
-500293093.90120,-451255317.92918,-2721865.36021,  -0.00377,  -0.00218,  -0.00099,477689070.70558,   0.00284,277689079.23431,  -0.00237,  -0.00110,  -0.00096,  -8.52873,   1.00000
-500336412.89616,-451214291.48753,-2496296.10029,  -0.00377,  -0.00218,  -0.00099,477693015.80063,   0.00284,277693021.43541,  -0.00238,  -0.00110,  -0.00096,  -5.63479,   1.00000
-500384113.48165,-451166523.85613,-2266393.65777,  -0.00378,  -0.00218,  -0.00099,477696914.18464,   0.00285,277696919.31851,  -0.00238,  -0.00111,  -0.00096,  -5.13387,   1.00000
-500427709.09512,-451123259.22180,-2042102.71718,  -0.00378,  -0.00219,  -0.00099,477700762.46508,   0.00285,277700767.50149,  -0.00238,  -0.00111,  -0.00096,  -5.03641,   1.00000
-500475675.06819,-451073239.25235,-1813448.64563,  -0.00378,  -0.00219,  -0.00098,477704563.90171,   0.00285,277704571.46788,  -0.00239,  -0.00111,  -0.00096,  -7.56617,   1.00000
-500523174.09439,-451023033.24936,-1585353.01222,  -0.00379,  -0.00219,  -0.00098,477708367.27845,   0.00286,277708376.56693,  -0.00239,  -0.00111,  -0.00096,  -9.28848,   1.00000
-500576166.74693,-450964151.28943,-1357938.26473,  -0.00379,  -0.00219,  -0.00098,477712036.96316,   0.00286,277712041.64685,  -0.00239,  -0.00112,  -0.00096,  -4.68369,   1.00000
-500623918.40297,-450911717.68578,-1131026.21787,  -0.00379,  -0.00219,  -0.00097,477715743.43194,   0.00286,277715752.98156,  -0.00239,  -0.00112,  -0.00096,  -9.54963,   1.00000
-500677208.54697,-450850628.97641,-899766.92903,  -0.00380,  -0.00219,  -0.00097,477719322.57429,   0.00287,277719324.21630,  -0.00240,  -0.00112,  -0.00096,  -1.64202,   1.00000
-500729996.93270,-450789346.22839,-669038.66835,  -0.00380,  -0.00220,  -0.00097,477722889.74386,   0.00287,277722896.77572,  -0.00240,  -0.00112,  -0.00096,  -7.03186,   1.00000
-500787063.07877,-450721252.40637,-438853.37615,  -0.00380,  -0.00220,  -0.00096,477726423.21198,   0.00287,277726425.57666,  -0.00240,  -0.00112,  -0.00096,  -2.36468,   1.00000
-500840084.87698,-450657734.01408,-209197.68064,  -0.00381,  -0.00220,  -0.00096,477729900.03057,   0.00288,277729904.62954,  -0.00241,  -0.00113,  -0.00096,  -4.59897,   1.00000
-500897379.83047,-450587392.33070,19944.21507,  -0.00381,  -0.00220,  -0.00096,477733335.90889,   0.00288,277733339.99500,  -0.00241,  -0.00113,  -0.00096,  -4.08611,   1.00000
-500958926.77812,-450510225.00999,253557.74315,  -0.00381,  -0.00220,  -0.00096,477736730.01796,   0.00288,277736731.75342,  -0.00241,  -0.00113,  -0.00096,  -1.73547,   1.00000
-501016418.21797,-450437629.95157,486676.72026,  -0.00381,  -0.00220,  -0.00095,477740067.79221,   0.00289,277740073.86239,  -0.00241,  -0.00113,  -0.00096,  -6.07018,   1.00000
-501078157.75222,-450358195.93830,719314.29127,  -0.00382,  -0.00221,  -0.00095,477743364.07210,   0.00289,277743372.43158,  -0.00242,  -0.00113,  -0.00096,  -8.35947,   1.00000
-501140615.63381,-450276677.96203,951515.84801,  -0.00382,  -0.00221,  -0.00095,477746572.88372,   0.00289,277746576.36572,  -0.00242,  -0.00113,  -0.00096,  -3.48200,   1.00000
-501202555.93775,-450194986.01805,1183237.33593,  -0.00382,  -0.00221,  -0.00094,477749777.60696,   0.00290,277749781.79498,  -0.00242,  -0.00114,  -0.00096,  -4.18802,   1.00000
-501268686.11408,-450106407.22192,1419492.28987,  -0.00383,  -0.00221,  -0.00094,477752939.30669,   0.00290,277752943.95306,  -0.00242,  -0.00114,  -0.00096,  -4.64637,   1.00000
-501330769.00042,-450022398.97800,1655319.22194,  -0.00383,  -0.00221,  -0.00094,477756051.16690,   0.00290,277756056.53922,  -0.00243,  -0.00114,  -0.00096,  -5.37231,   1.00000
-501397075.97069,-449931522.00100,1890726.51261,  -0.00383,  -0.00221,  -0.00093,477759120.58692,   0.00290,277759125.77743,  -0.00243,  -0.00114,  -0.00096,  -5.19052,   1.00000
-501467594.25344,-449833777.31070,2125728.12139,  -0.00383,  -0.00221,  -0.00093,477762147.23871,   0.00291,277762151.71726,  -0.00243,  -0.00114,  -0.00096,  -4.47855,   1.00000
-501533991.22382,-449740536.67891,2365319.77991,  -0.00384,  -0.00221,  -0.00093,477765122.75636,   0.00291,277765128.41131,  -0.00243,  -0.00115,  -0.00096,  -5.65495,   1.00000
-501604591.49814,-449640407.69275,2604525.08819,  -0.00384,  -0.00221,  -0.00092,477768060.95965,   0.00291,277768061.88609,  -0.00243,  -0.00115,  -0.00096,  -0.92644,   1.00000
-501675878.18160,-449538114.87329,2843451.70666,  -0.00384,  -0.00222,  -0.00092,477770897.57621,   0.00292,277770901.04548,  -0.00244,  -0.00115,  -0.00096,  -3.46927,   1.00000
-501746613.81315,-449435639.77607,3081938.61052,  -0.00385,  -0.00222,  -0.00092,477773736.64329,   0.00292,277773741.93055,  -0.00244,  -0.00115,  -0.00096,  -5.28725,   1.00000
-501821540.54827,-449326261.16676,3320082.05708,  -0.00385,  -0.00222,  -0.00092,477776537.49367,   0.00292,277776539.68883,  -0.00244,  -0.00115,  -0.00096,  -2.19516,   1.00000
-501897041.27801,-449214597.96575,3562985.76709,  -0.00385,  -0.00222,  -0.00091,477779239.87337,   0.00292,277779243.61081,  -0.00244,  -0.00115,  -0.00096,  -3.73744,   1.00000
-501971968.21042,-449102741.38654,3805462.80537,  -0.00385,  -0.00222,  -0.00091,477781944.83356,   0.00293,277781949.37721,  -0.00245,  -0.00115,  -0.00096,  -4.54365,   1.00000
-502042854.41558,-448995421.49552,4047646.94124,  -0.00386,  -0.00222,  -0.00091,477784599.48373,   0.00293,277784605.74264,  -0.00245,  -0.00116,  -0.00096,  -6.25891,   1.00000
-502122648.25505,-448874400.58005,4289660.21005,  -0.00386,  -0.00222,  -0.00090,477787172.48139,   0.00293,277787174.31610,  -0.00245,  -0.00116,  -0.00096,  -1.83470,   1.00000
-502201703.40273,-448753048.88004,4536241.08102,  -0.00386,  -0.00222,  -0.00090,477789741.07284,   0.00293,277789745.37411,  -0.00245,  -0.00116,  -0.00096,  -4.30127,   1.00000
-502281591.75171,-448629583.04731,4777731.95198,  -0.00386,  -0.00222,  -0.00090,477792213.50472,   0.00294,277792221.75205,  -0.00245,  -0.00116,  -0.00096,  -8.24733,   1.00000
-502360739.54276,-448505777.99892,5023805.21179,  -0.00387,  -0.00222,  -0.00089,477794691.33095,   0.00294,277794700.65244,  -0.00246,  -0.00116,  -0.00096,  -9.32149,   1.00000
-502444019.66859,-448374981.31342,5269632.13770,  -0.00387,  -0.00222,  -0.00089,477797128.39991,   0.00294,277797136.77728,  -0.00246,  -0.00116,  -0.00096,  -8.37737,   1.00000
-502523077.21127,-448248537.16785,5520222.19688,  -0.00387,  -0.00222,  -0.00089,477799517.06681,   0.00294,277799524.26087,  -0.00246,  -0.00116,  -0.00096,  -7.19406,   1.00000
-502606438.81716,-448115231.81324,5765614.84280,  -0.00387,  -0.00222,  -0.00088,477801862.09942,   0.00295,277801868.37521,  -0.00246,  -0.00117,  -0.00096,  -6.27579,   1.00000
-502690290.44438,-447979447.55598,6015974.72394,  -0.00388,  -0.00222,  -0.00088,477804113.40865,   0.00295,277804119.17188,  -0.00246,  -0.00117,  -0.00096,  -5.76323,   1.00000
-502773528.98429,-447843431.08172,6265965.05425,  -0.00388,  -0.00223,  -0.00088,477806367.56657,   0.00295,277806372.08481,  -0.00246,  -0.00117,  -0.00096,  -4.51824,   1.00000
-502860652.85007,-447700172.55278,6520745.06163,  -0.00388,  -0.00223,  -0.00087,477808580.90462,   0.00295,277808583.21072,  -0.00247,  -0.00117,  -0.00096,  -2.30610,   1.00000
-502948654.20737,-447554733.77675,6770601.44577,  -0.00388,  -0.00223,  -0.00087,477810695.34874,   0.00295,277810699.64147,  -0.00247,  -0.00117,  -0.00096,  -4.29273,   1.00000
-503035802.83058,-447408855.22024,7025081.39883,  -0.00389,  -0.00223,  -0.00087,477812814.06598,   0.00296,277812819.09849,  -0.00247,  -0.00117,  -0.00096,  -5.03251,   1.00000
-503123623.04377,-447260580.95460,7279655.78223,  -0.00389,  -0.00223,  -0.00086,477814842.35101,   0.00296,277814844.65627,  -0.00247,  -0.00117,  -0.00096,  -2.30526,   1.00000
-503210800.54861,-447112040.34650,7533889.52669,  -0.00389,  -0.00223,  -0.00086,477816865.67983,   0.00296,277816872.49522,  -0.00247,  -0.00117,  -0.00096,  -6.81539,   1.00000
-503301793.02871,-446956155.12637,7792977.39614,  -0.00389,  -0.00223,  -0.00086,477818853.41731,   0.00296,277818858.87258,  -0.00247,  -0.00117,  -0.00096,  -5.45526,   1.00000
-503393705.33276,-446798044.95658,8047250.65852,  -0.00390,  -0.00223,  -0.00085,477820747.65441,   0.00296,277820750.47471,  -0.00248,  -0.00118,  -0.00096,  -2.82030,   1.00000
-503484691.56420,-446639420.71127,8306175.42775,  -0.00390,  -0.00223,  -0.00085,477822638.06383,   0.00296,277822645.42528,  -0.00248,  -0.00118,  -0.00096,  -7.36145,   1.00000
-503571659.40882,-446485215.57855,8565057.99728,  -0.00390,  -0.00223,  -0.00084,477824490.40947,   0.00297,277824491.15067,  -0.00248,  -0.00118,  -0.00096,  -0.74120,   1.00000
-503667058.48904,-446316649.82107,8829098.52013,  -0.00390,  -0.00223,  -0.00084,477826247.17200,   0.00297,277826251.13484,  -0.00248,  -0.00118,  -0.00096,  -3.96284,   1.00000
-503762073.99826,-446148035.21170,9087858.29780,  -0.00390,  -0.00223,  -0.00084,477828007.23599,   0.00297,277828012.49933,  -0.00248,  -0.00118,  -0.00096,  -5.26334,   1.00000
-503856111.87717,-445978858.65349,9351283.22954,  -0.00391,  -0.00223,  -0.00083,477829770.56207,   0.00297,277829777.43833,  -0.00248,  -0.00118,  -0.00096,  -6.87626,   1.00000
-503947455.30183,-445811801.26211,9615309.22315,  -0.00391,  -0.00223,  -0.00083,477831392.41218,   0.00297,277831397.00538,  -0.00248,  -0.00118,  -0.00096,  -4.59320,   1.00000
-504045818.67383,-445632513.28656,9883972.11175,  -0.00391,  -0.00223,  -0.00083,477833023.08189,   0.00297,277833027.37322,  -0.00249,  -0.00118,  -0.00096,  -4.29132,   1.00000
-504140467.47391,-445457847.14484,10147706.93099,  -0.00391,  -0.00223,  -0.00082,477834600.14536,   0.00298,277834607.44628,  -0.00249,  -0.00118,  -0.00096,  -7.30091,   1.00000
-504238765.46313,-445275592.11297,10416426.75264,  -0.00391,  -0.00223,  -0.00082,477836139.80978,   0.00298,277836146.76421,  -0.00249,  -0.00118,  -0.00096,  -6.95443,   1.00000
-504333036.70466,-445097661.03299,10685220.68911,  -0.00392,  -0.00223,  -0.00082,477837636.20439,   0.00298,277837636.95273,  -0.00249,  -0.00118,  -0.00096,  -0.74834,   1.00000
-504431262.20922,-444912376.87105,10954054.62015,  -0.00392,  -0.00223,  -0.00081,477839076.97815,   0.00298,277839085.28175,  -0.00249,  -0.00119,  -0.00096,  -8.30360,   1.00000
-504533080.13796,-444719423.77653,11227911.28875,  -0.00392,  -0.00223,  -0.00081,477840488.17382,   0.00298,277840493.08160,  -0.00249,  -0.00119,  -0.00095,  -4.90778,   1.00000
-504630848.01425,-444530739.00278,11501885.19564,  -0.00392,  -0.00223,  -0.00081,477841843.06497,   0.00298,277841851.85189,  -0.00249,  -0.00119,  -0.00095,  -8.78692,   1.00000
-504732551.87170,-444334652.00782,11775938.79613,  -0.00392,  -0.00223,  -0.00080,477843161.82665,   0.00298,277843168.84387,  -0.00249,  -0.00119,  -0.00095,  -7.01722,   1.00000
-504833520.23699,-444138172.31144,12049743.11045,  -0.00393,  -0.00222,  -0.00080,477844484.31105,   0.00299,277844488.59841,  -0.00249,  -0.00119,  -0.00095,  -4.28737,   1.00000
-504935109.28269,-443938896.46390,12324057.26291,  -0.00393,  -0.00222,  -0.00079,477845707.67281,   0.00299,277845714.79292,  -0.00250,  -0.00119,  -0.00095,  -7.12011,   1.00000
-505035547.01638,-443738858.67151,12603103.05960,  -0.00393,  -0.00222,  -0.00079,477846937.67338,   0.00299,277846945.29202,  -0.00250,  -0.00119,  -0.00095,  -7.61863,   1.00000
-505136599.31661,-443535971.09053,12882703.18532,  -0.00393,  -0.00222,  -0.00079,477848073.79877,   0.00299,277848082.25701,  -0.00250,  -0.00119,  -0.00095,  -8.45825,   1.00000
-505236900.06104,-443332650.55090,13162079.26444,  -0.00393,  -0.00222,  -0.00078,477849213.83140,   0.00299,277849222.06969,  -0.00250,  -0.00119,  -0.00095,  -8.23829,   1.00000
-505340633.18739,-443121423.37994,13446576.86117,  -0.00393,  -0.00222,  -0.00078,477850313.41062,   0.00299,277850321.97308,  -0.00250,  -0.00119,  -0.00095,  -8.56246,   1.00000
-505444966.50908,-442907266.42048,13731698.18652,  -0.00394,  -0.00222,  -0.00078,477851327.27675,   0.00299,277851328.38243,  -0.00250,  -0.00119,  -0.00095,  -1.10568,   1.00000
-505548500.45007,-442692621.91969,14016612.31334,  -0.00394,  -0.00222,  -0.00077,477852329.59552,   0.00299,277852337.82475,  -0.00250,  -0.00119,  -0.00095,  -8.22923,   1.00000
-505648023.30525,-442482132.21832,14301795.01353,  -0.00394,  -0.00222,  -0.00077,477853292.67749,   0.00299,277853298.10959,  -0.00250,  -0.00119,  -0.00095,  -5.43211,   1.00000
-505756002.75363,-442256880.59074,14587604.99248,  -0.00394,  -0.00222,  -0.00076,477854167.38956,   0.00299,277854172.60896,  -0.00250,  -0.00119,  -0.00095,  -5.21940,   1.00000
-505858075.63678,-442037857.76380,14877770.99600,  -0.00394,  -0.00222,  -0.00076,477855087.34948,   0.00300,277855096.32751,  -0.00250,  -0.00119,  -0.00095,  -8.97803,   1.00000
-505960741.91599,-441815777.57769,15168674.06643,  -0.00394,  -0.00222,  -0.00076,477855920.84033,   0.00300,277855926.54390,  -0.00250,  -0.00119,  -0.00095,  -5.70358,   1.00000
-506067200.29004,-441585992.55630,15459832.99006,  -0.00395,  -0.00222,  -0.00075,477856706.97324,   0.00300,277856715.51201,  -0.00250,  -0.00120,  -0.00095,  -8.53877,   1.00000
-506172324.01584,-441355235.60271,15755778.21453,  -0.00395,  -0.00222,  -0.00075,477857503.77427,   0.00300,277857509.49684,  -0.00250,  -0.00120,  -0.00095,  -5.72257,   1.00000
-506278002.59075,-441121312.87251,16052532.21929,  -0.00395,  -0.00222,  -0.00074,477858203.62143,   0.00300,277858210.08071,  -0.00251,  -0.00120,  -0.00095,  -6.45928,   1.00000
-506382846.30659,-440886826.80608,16349123.84846,  -0.00395,  -0.00221,  -0.00074,477858908.44410,   0.00300,277858913.84455,  -0.00251,  -0.00120,  -0.00095,  -5.40044,   1.00000
-506491438.07734,-440644544.80509,16646021.41053,  -0.00395,  -0.00221,  -0.00074,477859574.16303,   0.00300,277859576.50004,  -0.00251,  -0.00120,  -0.00095,  -2.33701,   1.00000
-506595996.06584,-440406255.95613,16943326.57345,  -0.00395,  -0.00221,  -0.00073,477860185.15005,   0.00300,277860190.02168,  -0.00251,  -0.00120,  -0.00095,  -4.87163,   1.00000
-506703718.08713,-440159642.77590,17245926.65176,  -0.00395,  -0.00221,  -0.00073,477860761.58617,   0.00300,277860764.56477,  -0.00251,  -0.00120,  -0.00095,  -2.97860,   1.00000
-506807398.23826,-439916978.04608,17548967.14902,  -0.00396,  -0.00221,  -0.00072,477861283.36772,   0.00300,277861289.98178,  -0.00251,  -0.00120,  -0.00095,  -6.61406,   1.00000
-506914780.27703,-439666407.97259,17852374.09766,  -0.00396,  -0.00221,  -0.00072,477861764.48109,   0.00300,277861774.41917,  -0.00251,  -0.00120,  -0.00095,  -9.93808,   1.00000
-507020692.97040,-439414704.94481,18160607.67129,  -0.00396,  -0.00221,  -0.00072,477862261.36031,   0.00300,277862264.36419,  -0.00251,  -0.00120,  -0.00095,  -3.00388,   1.00000
-507127109.80643,-439159578.82498,18469842.79048,  -0.00396,  -0.00221,  -0.00071,477862656.52293,   0.00300,277862660.93896,  -0.00251,  -0.00120,  -0.00095,  -4.41604,   1.00000
-507232632.34785,-438903787.29156,18778962.17927,  -0.00396,  -0.00221,  -0.00071,477863058.52582,   0.00300,277863060.89581,  -0.00251,  -0.00120,  -0.00095,  -2.36998,   1.00000
-507341791.56615,-438639976.12286,19088499.34146,  -0.00396,  -0.00220,  -0.00070,477863414.80096,   0.00300,277863420.06397,  -0.00251,  -0.00120,  -0.00095,  -5.26301,   1.00000
-507446266.16096,-438379468.61186,19403525.63542,  -0.00396,  -0.00220,  -0.00070,477863722.68007,   0.00300,277863732.38234,  -0.00251,  -0.00120,  -0.00095,  -9.70227,   1.00000
-507549823.37448,-438118260.76220,19718448.45250,  -0.00396,  -0.00220,  -0.00070,477864038.59455,   0.00300,277864048.16063,  -0.00251,  -0.00120,  -0.00095,  -9.56608,   1.00000
-507658399.20004,-437846090.12583,20035056.51462,  -0.00397,  -0.00220,  -0.00069,477864221.48575,   0.00300,277864226.27887,  -0.00251,  -0.00120,  -0.00095,  -4.79313,   1.00000
-507764616.66250,-437576063.30694,20350335.96867,  -0.00397,  -0.00220,  -0.00069,477864503.37935,   0.00300,277864504.89957,  -0.00251,  -0.00120,  -0.00095,  -1.52022,   1.00000
-507867520.62889,-437306330.61337,20672422.60609,  -0.00397,  -0.00220,  -0.00068,477864636.26172,   0.00300,277864639.76418,  -0.00251,  -0.00120,  -0.00095,  -3.50246,   1.00000
-507972558.46872,-437031327.45157,20993733.76511,  -0.00397,  -0.00220,  -0.00068,477864824.36667,   0.00301,277864831.07872,  -0.00251,  -0.00120,  -0.00095,  -6.71205,   1.00000
-508078052.32638,-436752610.00107,21316266.14068,  -0.00397,  -0.00220,  -0.00067,477864922.09332,   0.00301,277864928.92198,  -0.00251,  -0.00120,  -0.00095,  -6.82866,   1.00000
-508187066.96144,-436465635.83171,21639332.90385,  -0.00397,  -0.00219,  -0.00067,477864977.97144,   0.00301,277864986.24732,  -0.00251,  -0.00120,  -0.00095,  -8.27588,   1.00000
-508286812.37499,-436189217.87523,21967405.87248,  -0.00397,  -0.00219,  -0.00067,477865034.33615,   0.00301,277865041.02661,  -0.00251,  -0.00120,  -0.00095,  -6.69046,   1.00000
-508386458.50666,-435890279.48021,22296238.10700,  -0.00397,  -0.00219,  -0.00066,477857487.28782,   0.00301,277865041.02661,  -0.00251,  -0.00120,  -0.00095,-7553.73879,   0.00000
-508493578.09821,-435608779.15823,22625070.34153,  -0.00397,  -0.00219,  -0.00066,477862053.42710,   0.00301,277865041.02661,  -0.00251,  -0.00120,  -0.00095,-2987.59951,   0.00000
-508593224.22989,-435309840.76320,22958884.88264,  -0.00398,  -0.00219,  -0.00065,477857113.50805,   0.00301,277865041.02661,  -0.00251,  -0.00120,  -0.00095,-7927.51856,   0.00000
-508667958.82864,-434985990.83526,23292699.42375,  -0.00398,  -0.00219,  -0.00065,477828544.58889,   0.00301,277865041.02661,  -0.00251,  -0.00120,  -0.00095,-36496.43772,   0.00000
-508725255.35436,-434654667.44744,23626513.96486,  -0.00398,  -0.00218,  -0.00064,477787500.01170,   0.00301,277865041.02661,  -0.00251,  -0.00120,  -0.00095,-77541.01491,   0.00000
-508799989.95311,-434330817.51950,23960328.50597,  -0.00398,  -0.00218,  -0.00064,477760887.11775,   0.00301,277865041.02661,  -0.00251,  -0.00120,  -0.00095,-104153.90886,   0.00000
-508849813.01895,-433982056.05864,24299125.35367,  -0.00398,  -0.00218,  -0.00064,477711431.29524,   0.00301,277865041.02661,  -0.00251,  -0.00120,  -0.00095,-153609.73137,   0.00000
-508899636.08479,-433633294.59777,24637922.20136,  -0.00398,  -0.00218,  -0.00063,477662987.47872,   0.00301,277865041.02661,  -0.00251,  -0.00120,  -0.00095,-202053.54789,   0.00000
-508932021.07758,-433277059.67704,24976719.04906,  -0.00398,  -0.00218,  -0.00063,477602085.77421,   0.00301,277865041.02661,  -0.00251,  -0.00120,  -0.00095,-262955.25241,   0.00000
-508956932.61050,-432903386.68325,25320498.20334,  -0.00398,  -0.00218,  -0.00062,477531888.50475,   0.00301,277865041.02661,  -0.00251,  -0.00120,  -0.00095,-333152.52186,   0.00000
-508974370.68354,-432512275.61643,25664277.35762,  -0.00398,  -0.00217,  -0.00062,477451652.70810,   0.00301,277865041.02661,  -0.00251,  -0.00120,  -0.00095,-413388.31851,   0.00000
-508981844.14342,-432131129.16277,26008056.51189,  -0.00398,  -0.00217,  -0.00061,477370074.92789,   0.00301,277865041.02661,  -0.00251,  -0.00120,  -0.00095,-494966.09872,   0.00000
-508981844.14342,-431732544.63607,26351835.66617,  -0.00398,  -0.00217,  -0.00061,477278470.86256,   0.00301,277865041.02661,  -0.00251,  -0.00120,  -0.00095,-586570.16405,   0.00000
-508974370.68354,-431316522.03633,26700597.12703,  -0.00399,  -0.00217,  -0.00060,477177705.35325,   0.00301,277865041.02661,  -0.00251,  -0.00120,  -0.00095,-687335.67336,   0.00000
-508949459.15063,-430893025.97671,27044376.28131,  -0.00399,  -0.00217,  -0.00060,477063700.30405,   0.00301,277865041.02661,  -0.00251,  -0.00120,  -0.00095,-801340.72256,   0.00000
-508941985.69075,-430477003.37697,27398120.04876,  -0.00399,  -0.00217,  -0.00060,476965979.17357,   0.00301,277865041.02661,  -0.00251,  -0.00120,  -0.00095,-899061.85304,   0.00000
-508899636.08479,-430046033.85748,27746881.50962,  -0.00399,  -0.00216,  -0.00059,476841513.51841,   0.00301,277865041.02661,  -0.00251,  -0.00120,  -0.00095,-1023527.50820,   0.00000
-508867251.09199,-429605099.72482,28100625.27707,  -0.00399,  -0.00216,  -0.00059,476721501.73273,   0.00301,277865041.02661,  -0.00251,  -0.00120,  -0.00095,-1143539.29388,   0.00000
-508809954.56628,-429139254.05924,28454369.04451,  -0.00399,  -0.00216,  -0.00058,476578113.46403,   0.00301,277865041.02661,  -0.00251,  -0.00120,  -0.00095,-1286927.56258,   0.00000
-508760131.50044,-428690846.46670,28808112.81196,  -0.00399,  -0.00216,  -0.00058,476446874.18285,   0.00301,277865041.02661,  -0.00251,  -0.00120,  -0.00095,-1418166.84376,   0.00000
-508685396.90169,-428217527.34124,29166838.88599,  -0.00399,  -0.00216,  -0.00057,476293181.09673,   0.00301,277865041.02661,  -0.00251,  -0.00120,  -0.00095,-1571859.92988,   0.00000
-508628100.37597,-427751681.67566,29525564.96002,  -0.00399,  -0.00215,  -0.00057,476154173.92241,   0.00301,277865041.02661,  -0.00251,  -0.00120,  -0.00095,-1710867.10420,   0.00000
-508528454.24430,-427253451.01729,29884291.03405,  -0.00399,  -0.00215,  -0.00056,475978335.34494,   0.00301,277865041.02661,  -0.00251,  -0.00120,  -0.00095,-1886705.68167,   0.00000
-508446246.18567,-426762693.81879,30247999.41466,  -0.00399,  -0.00215,  -0.00056,475818155.19932,   0.00301,277865041.02661,  -0.00251,  -0.00120,  -0.00095,-2046885.82729,   0.00000
-508346600.05399,-426264463.16042,30606725.48869,  -0.00399,  -0.00215,  -0.00055,475644702.17156,   0.00301,277865041.02661,  -0.00251,  -0.00120,  -0.00095,-2220338.85505,   0.00000
-508239480.46244,-425748794.42900,30975416.17589,  -0.00399,  -0.00215,  -0.00055,475463446.11566,   0.00301,277865041.02661,  -0.00251,  -0.00120,  -0.00095,-2401594.91095,   0.00000
-508132360.87089,-425233125.69758,31339124.55650,  -0.00399,  -0.00214,  -0.00054,475282460.70883,   0.00301,277865041.02661,  -0.00251,  -0.00120,  -0.00095,-2582580.31778,   0.00000
-508007803.20630,-424709983.50629,31707815.24370,  -0.00399,  -0.00214,  -0.00054,475090169.47330,   0.00301,277865041.02661,  -0.00251,  -0.00120,  -0.00095,-2774871.55331,   0.00000
-507875772.08183,-424169403.24195,32076505.93089,  -0.00399,  -0.00214,  -0.00053,474888224.79354,   0.00301,277865041.02661,  -0.00251,  -0.00120,  -0.00095,-2976816.23307,   0.00000
-507751214.41724,-423646261.05066,32445196.61809,  -0.00399,  -0.00214,  -0.00053,474698450.66457,   0.00301,277865041.02661,  -0.00251,  -0.00120,  -0.00095,-3166590.36204,   0.00000
-507611709.83289,-423088242.71328,32813887.30529,  -0.00400,  -0.00213,  -0.00053,474488162.53733,   0.00301,277865041.02661,  -0.00251,  -0.00120,  -0.00095,-3376878.48928,   0.00000
-507462240.63538,-422540188.98907,33187560.29907,  -0.00400,  -0.00213,  -0.00052,474277543.63297,   0.00301,277865041.02661,  -0.00251,  -0.00120,  -0.00095,-3587497.39364,   0.00000
-507305297.97799,-421974697.19181,33561233.29285,  -0.00400,  -0.00213,  -0.00052,474057359.47141,   0.00301,277865041.02661,  -0.00251,  -0.00120,  -0.00095,-3807681.55520,   0.00000
-507130917.24756,-421401731.93468,33939888.59321,  -0.00400,  -0.00213,  -0.00051,473826010.44404,   0.00301,277865041.02661,  -0.00251,  -0.00120,  -0.00095,-4039030.58257,   0.00000
-506973974.59017,-420836240.13743,34318543.89358,  -0.00400,  -0.00213,  -0.00051,473609562.80003,   0.00301,277865041.02661,  -0.00251,  -0.00120,  -0.00095,-4255478.22658,   0.00000
-506799593.85974,-420263274.88030,34697199.19394,  -0.00400,  -0.00212,  -0.00050,473380902.04583,   0.00301,277865041.02661,  -0.00251,  -0.00120,  -0.00095,-4484138.98078,   0.00000
-506617739.66943,-419672871.55012,35075854.49431,  -0.00400,  -0.00212,  -0.00050,473142767.44246,   0.00301,277865041.02661,  -0.00251,  -0.00120,  -0.00095,-4722273.58416,   0.00000
-506418447.40608,-419074994.76007,35459492.10126,  -0.00400,  -0.00212,  -0.00049,472893554.25240,   0.00301,277865041.02661,  -0.00251,  -0.00120,  -0.00095,-4971486.77421,   0.00000
-506219155.14273,-418477117.97002,35843129.70820,  -0.00400,  -0.00212,  -0.00049,472645732.05987,   0.00301,277865041.02661,  -0.00251,  -0.00120,  -0.00095,-5219308.96674,   0.00000
-506012389.41951,-417861803.10693,36226767.31515,  -0.00400,  -0.00211,  -0.00048,472388517.34018,   0.00301,277865041.02661,  -0.00251,  -0.00120,  -0.00095,-5476523.68643,   0.00000
-505805623.69628,-417246488.24384,36615387.22869,  -0.00400,  -0.00211,  -0.00048,472133879.78312,   0.00301,277865041.02661,  -0.00251,  -0.00120,  -0.00095,-5731161.24349,   0.00000
-505581419.90001,-416623699.92087,36999024.83563,  -0.00400,  -0.00211,  -0.00047,471865935.65359,   0.00301,277865041.02661,  -0.00251,  -0.00120,  -0.00095,-5999105.37302,   0.00000
-505357216.10375,-416000911.59790,37392627.05575,  -0.00400,  -0.00211,  -0.00047,471601778.42229,   0.00301,277865041.02661,  -0.00251,  -0.00120,  -0.00095,-6263262.60432,   0.00000
-505133012.30748,-415378123.27493,37781246.96928,  -0.00400,  -0.00210,  -0.00046,471337894.32784,   0.00301,277865041.02661,  -0.00251,  -0.00120,  -0.00095,-6527146.69877,   0.00000
-504901335.05133,-414737896.87892,38174849.18940,  -0.00400,  -0.00210,  -0.00046,471065940.97379,   0.00301,277865041.02661,  -0.00251,  -0.00120,  -0.00095,-6799100.05282,   0.00000
-504652219.72215,-414090197.02304,38568451.40951,  -0.00400,  -0.00210,  -0.00045,470781895.76554,   0.00301,277865041.02661,  -0.00251,  -0.00120,  -0.00095,-7083145.26107,   0.00000
-504403104.39296,-413442497.16715,38962053.62963,  -0.00400,  -0.00210,  -0.00045,470499347.49699,   0.00301,277865041.02661,  -0.00251,  -0.00120,  -0.00095,-7365693.52962,   0.00000
-504153989.06377,-412794797.31126,39360638.15633,  -0.00400,  -0.00209,  -0.00044,470219549.94995,   0.00301,277865041.02661,  -0.00251,  -0.00120,  -0.00095,-7645491.07666,   0.00000
-503897400.27471,-412129659.38233,39759222.68303,  -0.00400,  -0.00209,  -0.00044,469930600.80444,   0.00301,277865041.02661,  -0.00251,  -0.00120,  -0.00095,-7934440.22217,   0.00000
-503630846.87248,-411474486.06657,40162789.51631,  -0.00400,  -0.00209,  -0.00043,469641552.36340,   0.00301,277865041.02661,  -0.00251,  -0.00120,  -0.00095,-8223488.66321,   0.00000
-503356820.01037,-410801874.67776,40561374.04301,  -0.00400,  -0.00209,  -0.00042,469342112.31296,   0.00301,277865041.02661,  -0.00251,  -0.00120,  -0.00095,-8522928.71365,   0.00000
-503082793.14827,-410129263.28896,40964940.87629,  -0.00400,  -0.00208,  -0.00042,469045534.23261,   0.00301,277865041.02661,  -0.00251,  -0.00120,  -0.00095,-8819506.79400,   0.00000
-502783854.75324,-409431740.36723,41368507.70958,  -0.00400,  -0.00208,  -0.00041,468726302.04722,   0.00301,277865041.02661,  -0.00251,  -0.00120,  -0.00095,-9138738.97940,   0.00000
-502509827.89114,-408759128.97843,41777056.84944,  -0.00400,  -0.00208,  -0.00041,468434243.55560,   0.00301,277865041.02661,  -0.00251,  -0.00120,  -0.00095,-9430797.47101,   0.00000
-502218362.95599,-408079044.12975,42185605.98931,  -0.00400,  -0.00208,  -0.00040,468130192.26131,   0.00301,277865041.02661,  -0.00251,  -0.00120,  -0.00095,-9734848.76530,   0.00000
-501919424.56096,-407381521.20802,42594155.12918,  -0.00400,  -0.00207,  -0.00040,467817165.16752,   0.00301,277865041.02661,  -0.00251,  -0.00120,  -0.00095,-10047875.85909,   0.00000
-501603048.09289,-406676524.82642,43007686.57563,  -0.00400,  -0.00207,  -0.00039,467493542.81528,   0.00301,277865041.02661,  -0.00251,  -0.00120,  -0.00095,-10371498.21133,   0.00000
-501304109.69787,-405979001.90470,43416235.71550,  -0.00400,  -0.00207,  -0.00039,467183825.54703,   0.00301,277865041.02661,  -0.00251,  -0.00120,  -0.00095,-10681215.47958,   0.00000
-500987733.22980,-405274005.52310,43834749.46853,  -0.00400,  -0.00207,  -0.00038,466864947.08684,   0.00301,277865041.02661,  -0.00251,  -0.00120,  -0.00095,-11000093.93977,   0.00000
-500663883.30186,-404551571.06846,44248280.91498,  -0.00400,  -0.00206,  -0.00038,466535816.65468,   0.00301,277865041.02661,  -0.00251,  -0.00120,  -0.00095,-11329224.37193,   0.00000
-500330068.76075,-403839101.22698,44666794.66802,  -0.00400,  -0.00206,  -0.00037,466206734.97765,   0.00301,277865041.02661,  -0.00251,  -0.00120,  -0.00095,-11658306.04896,   0.00000
-500006218.83280,-403116666.77234,45085308.42105,  -0.00400,  -0.00206,  -0.00037,465882475.20814,   0.00301,277865041.02661,  -0.00251,  -0.00120,  -0.00095,-11982565.81847,   0.00000
-499672404.29169,-402404196.93086,45503822.17409,  -0.00400,  -0.00206,  -0.00036,465556838.89086,   0.00301,277865041.02661,  -0.00251,  -0.00120,  -0.00095,-12308202.13575,   0.00000
-499331116.29071,-401674289.01634,45927318.23370,  -0.00400,  -0.00205,  -0.00035,465223905.99960,   0.00301,277865041.02661,  -0.00251,  -0.00120,  -0.00095,-12641135.02701,   0.00000
-498989828.28972,-400944381.10183,46350814.29332,  -0.00400,  -0.00205,  -0.00035,464892752.74085,   0.00301,277865041.02661,  -0.00251,  -0.00120,  -0.00095,-12972288.28576,   0.00000
-498631102.21569,-400206999.72743,46779292.65952,  -0.00400,  -0.00205,  -0.00034,464551254.44274,   0.00301,277865041.02661,  -0.00251,  -0.00120,  -0.00095,-13313786.58387,   0.00000
-498289814.21470,-399477091.81291,47202788.71914,  -0.00400,  -0.00205,  -0.00034,464223685.04799,   0.00301,277865041.02661,  -0.00251,  -0.00120,  -0.00095,-13641355.97862,   0.00000
-497931088.14067,-398739710.43852,47631267.08534,  -0.00400,  -0.00204,  -0.00033,463885805.04955,   0.00301,277865041.02661,  -0.00251,  -0.00120,  -0.00095,-13979235.97706,   0.00000
-497564888.60677,-397984890.99108,48064727.75813,  -0.00400,  -0.00204,  -0.00033,463540869.87199,   0.00301,277865041.02661,  -0.00251,  -0.00120,  -0.00095,-14324171.15462,   0.00000
-497188724.45970,-397240036.15681,48493206.12433,  -0.00400,  -0.00204,  -0.00032,463193027.03651,   0.00301,277865041.02661,  -0.00251,  -0.00120,  -0.00095,-14672013.99010,   0.00000
-496822524.92579,-396485216.70937,48926666.79712,  -0.00400,  -0.00203,  -0.00032,462851831.64059,   0.00301,277865041.02661,  -0.00251,  -0.00120,  -0.00095,-15013209.38602,   0.00000
-496446360.77872,-395740361.87510,49365109.77649,  -0.00400,  -0.00203,  -0.00031,462510867.84102,   0.00301,277865041.02661,  -0.00251,  -0.00120,  -0.00095,-15354173.18559,   0.00000
-496062723.17177,-394978068.96779,49798570.44927,  -0.00400,  -0.00203,  -0.00030,462159817.22474,   0.00301,277865041.02661,  -0.00251,  -0.00120,  -0.00095,-15705223.80187,   0.00000
-495679085.56482,-394215776.06048,50237013.42864,  -0.00400,  -0.00203,  -0.00030,461812289.92216,   0.00301,277865041.02661,  -0.00251,  -0.00120,  -0.00095,-16052751.10445,   0.00000
-495302921.41775,-393470921.22621,50680438.71460,  -0.00400,  -0.00202,  -0.00029,461478681.67901,   0.00301,277865041.02661,  -0.00251,  -0.00120,  -0.00095,-16386359.34760,   0.00000
-494901845.73776,-392701154.85902,51118881.69397,  -0.00400,  -0.00202,  -0.00029,461121380.74058,   0.00301,277865041.02661,  -0.00251,  -0.00120,  -0.00095,-16743660.28603,   0.00000
-494518208.13081,-391938861.95171,51562306.97992,  -0.00400,  -0.00202,  -0.00028,460781336.94302,   0.00301,277865041.02661,  -0.00251,  -0.00120,  -0.00095,-17083704.08359,   0.00000
-494117132.45082,-391169095.58452,52005732.26587,  -0.00400,  -0.00202,  -0.00028,460429624.01843,   0.00301,277865041.02661,  -0.00251,  -0.00120,  -0.00095,-17435417.00818,   0.00000
-493716056.77083,-390399329.21733,52454139.85841,  -0.00400,  -0.00201,  -0.00027,460081594.87680,   0.00301,277865041.02661,  -0.00251,  -0.00120,  -0.00095,-17783446.14981,   0.00000
-493314981.09084,-389629562.85014,52902547.45095,  -0.00400,  -0.00201,  -0.00026,459735581.57488,   0.00301,277865041.02661,  -0.00251,  -0.00120,  -0.00095,-18129459.45173,   0.00000
-492896467.33780,-388852323.02308,53350955.04348,  -0.00400,  -0.00201,  -0.00026,459377941.90896,   0.00301,277865041.02661,  -0.00251,  -0.00120,  -0.00095,-18487099.11765,   0.00000
-492495391.65781,-388082556.65589,53804344.94260,  -0.00399,  -0.00200,  -0.00025,459037725.52270,   0.00301,277865041.02661,  -0.00251,  -0.00120,  -0.00095,-18827315.50391,   0.00000
-492076877.90478,-387305316.82883,54252752.53514,  -0.00399,  -0.00200,  -0.00025,458684155.58449,   0.00301,277865041.02661,  -0.00251,  -0.00120,  -0.00095,-19180885.44212,   0.00000
-491658364.15174,-386528077.00176,54711124.74085,  -0.00399,  -0.00200,  -0.00024,458336187.55763,   0.00301,277865041.02661,  -0.00251,  -0.00120,  -0.00095,-19528853.46898,   0.00000
-491239850.39871,-385750837.17470,55164514.63997,  -0.00399,  -0.00200,  -0.00023,457988522.21670,   0.00301,277865041.02661,  -0.00251,  -0.00120,  -0.00095,-19876518.80991,   0.00000
-490821336.64567,-384973597.34763,55622886.84567,  -0.00399,  -0.00199,  -0.00023,457644748.86215,   0.00301,277865041.02661,  -0.00251,  -0.00120,  -0.00095,-20220292.16446,   0.00000
-490385384.81959,-384188884.06069,56081259.05138,  -0.00399,  -0.00199,  -0.00022,457289441.57646,   0.00301,277865041.02661,  -0.00251,  -0.00120,  -0.00095,-20575599.45015,   0.00000
-489966871.06656,-383411644.23363,56544613.56366,  -0.00399,  -0.00199,  -0.00022,456951747.98905,   0.00301,277865041.02661,  -0.00251,  -0.00120,  -0.00095,-20913293.03756,   0.00000
-489530919.24048,-382626930.94669,57002985.76937,  -0.00399,  -0.00199,  -0.00021,456600697.66207,   0.00301,277865041.02661,  -0.00251,  -0.00120,  -0.00095,-21264343.36455,   0.00000
-489094967.41440,-381842217.65975,57471322.58824,  -0.00399,  -0.00198,  -0.00020,456255540.34313,   0.00301,277865041.02661,  -0.00251,  -0.00120,  -0.00095,-21609500.68348,   0.00000
-488659015.58833,-381057504.37281,57934677.10053,  -0.00399,  -0.00198,  -0.00020,455910682.71916,   0.00301,277865041.02661,  -0.00251,  -0.00120,  -0.00095,-21954358.30745,   0.00000
-488230537.22212,-380290229.15891,58403013.91940,  -0.00399,  -0.00198,  -0.00019,455580013.92946,   0.00301,277865041.02661,  -0.00251,  -0.00120,  -0.00095,-22285027.09715,   0.00000
-487777147.32300,-379498042.41210,58871350.73827,  -0.00399,  -0.00197,  -0.00019,455227794.53367,   0.00301,277865041.02661,  -0.00251,  -0.00120,  -0.00095,-22637246.49294,   0.00000
-487341195.49693,-378713329.12516,59344669.86373,  -0.00399,  -0.00197,  -0.00018,454893382.50041,   0.00301,277865041.02661,  -0.00251,  -0.00120,  -0.00095,-22971658.52620,   0.00000
-486887805.59781,-377921142.37834,59813006.68260,  -0.00399,  -0.00197,  -0.00017,454545615.64273,   0.00301,277865041.02661,  -0.00251,  -0.00120,  -0.00095,-23319425.38388,   0.00000
-486451853.77173,-377136429.09140,60291308.11464,  -0.00399,  -0.00197,  -0.00017,454217681.98951,   0.00301,277865041.02661,  -0.00251,  -0.00120,  -0.00095,-23647359.03710,   0.00000
-486005937.33248,-376361680.41763,60764627.24009,  -0.00399,  -0.00196,  -0.00016,453886433.05643,   0.00301,277865041.02661,  -0.00251,  -0.00120,  -0.00095,-23978607.97018,   0.00000
-485552547.43336,-375569493.67082,61242928.67213,  -0.00399,  -0.00196,  -0.00016,453549429.98760,   0.00301,277865041.02661,  -0.00251,  -0.00120,  -0.00095,-24315611.03901,   0.00000
-485089192.92107,-374787271.53717,61721230.10417,  -0.00399,  -0.00196,  -0.00015,453211098.34685,   0.00301,277865041.02661,  -0.00251,  -0.00120,  -0.00095,-24653942.67976,   0.00000
-484635803.02195,-373995084.79035,62199531.53621,  -0.00399,  -0.00196,  -0.00014,452878705.55416,   0.00301,277865041.02661,  -0.00251,  -0.00120,  -0.00095,-24986335.47245,   0.00000
-484189886.58271,-373220336.11658,62682815.27484,  -0.00399,  -0.00195,  -0.00014,452560669.23412,   0.00301,277865041.02661,  -0.00251,  -0.00120,  -0.00095,-25304371.79249,   0.00000
-483726532.07042,-372438113.98293,63166099.01346,  -0.00399,  -0.00195,  -0.00013,452231331.82251,   0.00301,277865041.02661,  -0.00251,  -0.00120,  -0.00095,-25633709.20410,   0.00000
-483263177.55813,-371655891.84928,63654365.05867,  -0.00398,  -0.00195,  -0.00012,451906437.27397,   0.00301,277865041.02661,  -0.00251,  -0.00120,  -0.00095,-25958603.75264,   0.00000
-482809787.65901,-370863705.10247,64137648.79729,  -0.00398,  -0.00195,  -0.00012,451585502.52466,   0.00301,277865041.02661,  -0.00251,  -0.00120,  -0.00095,-26279538.50195,   0.00000
-482346433.14672,-370081482.96882,64630897.14908,  -0.00398,  -0.00194,  -0.00011,451267504.83609,   0.00301,277865041.02661,  -0.00251,  -0.00120,  -0.00095,-26597536.19052,   0.00000
-481890552.09431,-369316698.90822,65119163.19429,  -0.00398,  -0.00194,  -0.00011,450959661.83359,   0.00301,277865041.02661,  -0.00251,  -0.00120,  -0.00095,-26905379.19302,   0.00000
-481427197.58202,-368534476.77457,65612411.54608,  -0.00398,  -0.00194,  -0.00010,450646482.75996,   0.00301,277865041.02661,  -0.00251,  -0.00120,  -0.00095,-27218558.26665,   0.00000
-480946404.99669,-367744781.18104,66105659.89787,  -0.00398,  -0.00193,  -0.00009,450322121.27700,   0.00301,277865041.02661,  -0.00251,  -0.00120,  -0.00095,-27542919.74961,   0.00000
-480490523.94428,-366979997.12044,66598908.24966,  -0.00398,  -0.00193,  -0.00009,450023659.97071,   0.00301,277865041.02661,  -0.00251,  -0.00120,  -0.00095,-27841381.05590,   0.00000
-480009731.35895,-366190301.52692,67097138.90803,  -0.00398,  -0.00193,  -0.00008,449706403.13254,   0.00301,277865041.02661,  -0.00251,  -0.00120,  -0.00095,-28158637.89407,   0.00000
-479553850.30653,-365425517.46631,67595369.56641,  -0.00398,  -0.00193,  -0.00007,449415055.62072,   0.00301,277865041.02661,  -0.00251,  -0.00120,  -0.00095,-28449985.40589,   0.00000
-479080531.18108,-364653259.94583,68098582.53137,  -0.00398,  -0.00192,  -0.00007,449114827.96992,   0.00301,277865041.02661,  -0.00251,  -0.00120,  -0.00095,-28750213.05669,   0.00000
-478607212.05562,-363881002.42535,68596813.18974,  -0.00398,  -0.00192,  -0.00006,448814821.06354,   0.00301,277865041.02661,  -0.00251,  -0.00120,  -0.00095,-29050219.96307,   0.00000
-478151331.00321,-363116218.36475,69100026.15470,  -0.00398,  -0.00192,  -0.00005,448533188.40799,   0.00301,277865041.02661,  -0.00251,  -0.00120,  -0.00095,-29331852.61862,   0.00000
-477685485.33763,-362361398.91731,69608221.42624,  -0.00398,  -0.00192,  -0.00005,448252539.41109,   0.00301,277865041.02661,  -0.00251,  -0.00120,  -0.00095,-29612501.61552,   0.00000
-477212166.21217,-361589141.39683,70111434.39120,  -0.00398,  -0.00191,  -0.00004,447962343.29395,   0.00301,277865041.02661,  -0.00251,  -0.00120,  -0.00095,-29902697.73266,   0.00000
-476728882.47355,-360826848.48952,70624611.96933,  -0.00398,  -0.00191,  -0.00003,447675517.73126,   0.00301,277865041.02661,  -0.00251,  -0.00120,  -0.00095,-30189523.29535,   0.00000
-476255563.34809,-360054590.96904,71132807.24087,  -0.00398,  -0.00191,  -0.00003,447392776.91729,   0.00301,277865041.02661,  -0.00251,  -0.00120,  -0.00095,-30472264.10932,   0.00000
-475789717.68251,-359299771.52160,71645984.81899,  -0.00397,  -0.00191,  -0.00002,447124687.12237,   0.00301,277865041.02661,  -0.00251,  -0.00120,  -0.00095,-30740353.90424,   0.00000
-475331345.47681,-358562390.14720,72159162.39712,  -0.00397,  -0.00190,  -0.00001,446868847.01037,   0.00301,277865041.02661,  -0.00251,  -0.00120,  -0.00095,-30996194.01624,   0.00000
-474848061.73819,-357800097.23989,72672339.97524,  -0.00397,  -0.00190,  -0.00001,446592337.20444,   0.00301,277865041.02661,  -0.00251,  -0.00120,  -0.00095,-31272703.82217,   0.00000
-474389689.53248,-357062715.86550,73190499.85995,  -0.00397,  -0.00190,  -0.00000,446344079.69879,   0.00301,277865041.02661,  -0.00251,  -0.00120,  -0.00095,-31520961.32782,   0.00000
-473906405.79386,-356300422.95818,73708659.74466,  -0.00397,  -0.00190,   0.00001,446075239.83040,   0.00301,277865041.02661,  -0.00251,  -0.00120,  -0.00095,-31789801.19621,   0.00000
-473448033.58815,-355563041.58379,74226819.62937,  -0.00397,  -0.00189,   0.00001,445832206.61053,   0.00301,277865041.02661,  -0.00251,  -0.00120,  -0.00095,-32032834.41608,   0.00000
-472972223.30941,-354818186.74952,74749961.82067,  -0.00397,  -0.00189,   0.00002,445580737.22896,   0.00301,277865041.02661,  -0.00251,  -0.00120,  -0.00095,-32284303.79765,   0.00000
-472503886.49053,-354090769.98829,75273104.01196,  -0.00397,  -0.00189,   0.00003,445341500.10127,   0.00301,277865041.02661,  -0.00251,  -0.00120,  -0.00095,-32523540.92534,   0.00000
-472028076.21179,-353345915.15402,75796246.20325,  -0.00397,  -0.00189,   0.00003,445095338.92898,   0.00301,277865041.02661,  -0.00251,  -0.00120,  -0.00095,-32769702.09763,   0.00000
-471559739.39292,-352618498.39280,76324370.70113,  -0.00397,  -0.00188,   0.00004,444863950.78344,   0.00301,277865041.02661,  -0.00251,  -0.00120,  -0.00095,-33001090.24318,   0.00000
-471091402.57404,-351891081.63157,76852495.19901,  -0.00397,  -0.00188,   0.00005,444635241.25607,   0.00301,277865041.02661,  -0.00251,  -0.00120,  -0.00095,-33229799.77054,   0.00000
-470640503.82821,-351171138.33022,77380619.69688,  -0.00397,  -0.00188,   0.00005,444422739.83244,   0.00301,277865041.02661,  -0.00251,  -0.00120,  -0.00095,-33442301.19417,   0.00000
-470172167.00934,-350443721.56899,77913726.50134,  -0.00397,  -0.00188,   0.00006,444202015.93920,   0.00301,277865041.02661,  -0.00251,  -0.00120,  -0.00095,-33663025.08741,   0.00000
-469693865.57730,-349726269.42093,78446833.30580,  -0.00397,  -0.00187,   0.00007,443979982.06328,   0.00301,277865041.02661,  -0.00251,  -0.00120,  -0.00095,-33885058.96333,   0.00000
-469233002.21831,-349016290.73275,78979940.11026,  -0.00397,  -0.00187,   0.00007,443774168.31480,   0.00301,277865041.02661,  -0.00251,  -0.00120,  -0.00095,-34090872.71181,   0.00000
-468772138.85931,-348306312.04457,79518029.22131,  -0.00396,  -0.00187,   0.00008,443573738.19830,   0.00301,277865041.02661,  -0.00251,  -0.00120,  -0.00095,-34291302.82831,   0.00000
-468311275.50031,-347596333.35638,80056118.33235,  -0.00396,  -0.00187,   0.00009,443376054.53780,   0.00301,277865041.02661,  -0.00251,  -0.00120,  -0.00095,-34488986.48881,   0.00000
-467857885.60119,-346903792.74124,80594207.44340,  -0.00396,  -0.00187,   0.00010,443190530.56086,   0.00301,277865041.02661,  -0.00251,  -0.00120,  -0.00095,-34674510.46575,   0.00000
-467404495.70207,-346211252.12610,81132296.55444,  -0.00396,  -0.00186,   0.00010,443007727.50308,   0.00301,277865041.02661,  -0.00251,  -0.00120,  -0.00095,-34857313.52353,   0.00000
-466933667.72991,-345511238.05109,81675367.97207,  -0.00396,  -0.00186,   0.00011,442816929.72867,   0.00301,277865041.02661,  -0.00251,  -0.00120,  -0.00095,-35048111.29794,   0.00000
-466480277.83079,-344818697.43594,82223421.69628,  -0.00396,  -0.00186,   0.00012,442645157.15376,   0.00301,277865041.02661,  -0.00251,  -0.00120,  -0.00095,-35219883.87285,   0.00000
-466034361.39154,-344143594.89385,82766493.11391,  -0.00396,  -0.00186,   0.00012,442482741.55933,   0.00301,277865041.02661,  -0.00251,  -0.00120,  -0.00095,-35382299.46728,   0.00000
-465571006.87925,-343461018.89187,83314546.83812,  -0.00396,  -0.00185,   0.00013,442312426.57206,   0.00301,277865041.02661,  -0.00251,  -0.00120,  -0.00095,-35552614.45455,   0.00000
-465125090.44001,-342785916.34978,83862600.56233,  -0.00396,  -0.00185,   0.00014,442158355.32088,   0.00301,277865041.02661,  -0.00251,  -0.00120,  -0.00095,-35706685.70573,   0.00000
-464686647.46064,-342128251.88072,84415636.59313,  -0.00396,  -0.00185,   0.00015,442019218.81228,   0.00301,277865041.02661,  -0.00251,  -0.00120,  -0.00095,-35845822.21433,   0.00000
-464223292.94835,-341445675.87875,84968672.62393,  -0.00396,  -0.00185,   0.00015,441860164.82040,   0.00301,277865041.02661,  -0.00251,  -0.00120,  -0.00095,-36004876.20621,   0.00000
-463792323.42886,-340805449.48274,85521708.65472,  -0.00396,  -0.00185,   0.00016,441735905.68294,   0.00301,277865041.02661,  -0.00251,  -0.00120,  -0.00095,-36129135.34367,   0.00000
-463336442.37644,-340140311.55381,86074744.68552,  -0.00396,  -0.00184,   0.00017,441591749.84578,   0.00301,277865041.02661,  -0.00251,  -0.00120,  -0.00095,-36273291.18083,   0.00000
-462897999.39708,-339482647.08475,86632763.02290,  -0.00395,  -0.00184,   0.00017,441466753.26560,   0.00301,277865041.02661,  -0.00251,  -0.00120,  -0.00095,-36398287.76101,   0.00000
-462467029.87758,-338842420.68874,87190781.36028,  -0.00395,  -0.00184,   0.00018,441353813.79591,   0.00301,277865041.02661,  -0.00251,  -0.00120,  -0.00095,-36511227.23070,   0.00000
-462026095.74492,-338212158.90590,87748799.69765,  -0.00395,  -0.00184,   0.00019,441239492.58137,   0.00301,277865041.02661,  -0.00251,  -0.00120,  -0.00095,-36625548.44524,   0.00000
-461595126.22543,-337571932.50989,88311800.34162,  -0.00395,  -0.00184,   0.00020,441135164.79102,   0.00301,277865041.02661,  -0.00251,  -0.00120,  -0.00095,-36729876.23559,   0.00000
-461154192.09276,-336941670.72704,88874800.98558,  -0.00395,  -0.00183,   0.00020,441029483.32422,   0.00301,277865041.02661,  -0.00251,  -0.00120,  -0.00095,-36835557.70239,   0.00000
-460730696.03315,-336318882.40408,89442783.93613,  -0.00395,  -0.00183,   0.00021,440943042.74399,   0.00301,277865041.02661,  -0.00251,  -0.00120,  -0.00095,-36921998.28262,   0.00000
-460314673.43340,-335713532.15415,90005784.58009,  -0.00395,  -0.00183,   0.00022,440865549.91566,   0.00301,277865041.02661,  -0.00251,  -0.00120,  -0.00095,-36999491.11095,   0.00000
-459881212.76062,-335100708.44435,90573767.53064,  -0.00395,  -0.00183,   0.00023,440780576.41851,   0.00301,277865041.02661,  -0.00251,  -0.00120,  -0.00095,-37084464.60810,   0.00000
-459465190.16088,-334495358.19443,91146732.78777,  -0.00395,  -0.00183,   0.00023,440714888.51196,   0.00301,277865041.02661,  -0.00251,  -0.00120,  -0.00095,-37150152.51465,   0.00000
-459049167.56113,-333890007.94450,91714715.73832,  -0.00395,  -0.00182,   0.00024,440648967.64741,   0.00301,277865041.02661,  -0.00251,  -0.00120,  -0.00095,-37216073.37920,   0.00000
-458623180.34822,-333294622.30774,92287680.99545,  -0.00395,  -0.00182,   0.00025,440584765.20052,   0.00301,277865041.02661,  -0.00251,  -0.00120,  -0.00095,-37280275.82609,   0.00000
-458214631.20836,-332706710.13086,92860646.25258,  -0.00395,  -0.00182,   0.00026,440536740.35623,   0.00301,277865041.02661,  -0.00251,  -0.00120,  -0.00095,-37328300.67038,   0.00000
-457813555.52836,-332136236.02702,93438593.81629,  -0.00395,  -0.00182,   0.00026,440503770.94354,   0.00301,277865041.02661,  -0.00251,  -0.00120,  -0.00095,-37361270.08307,   0.00000
-457405006.38850,-331548323.85014,94016541.38001,  -0.00395,  -0.00182,   0.00027,440464638.63460,   0.00301,277865041.02661,  -0.00251,  -0.00120,  -0.00095,-37400402.39201,   0.00000
-456993966.09534,-330987814.35947,94594488.94372,  -0.00394,  -0.00181,   0.00028,440433123.53207,   0.00301,277865041.02661,  -0.00251,  -0.00120,  -0.00095,-37431917.49454,   0.00000
-456592890.41535,-330417340.25563,95172436.50743,  -0.00394,  -0.00181,   0.00029,440408737.31235,   0.00301,277865041.02661,  -0.00251,  -0.00120,  -0.00095,-37456303.71426,   0.00000
-456199288.19523,-329864304.22484,95755366.37773,  -0.00394,  -0.00181,   0.00029,440399431.80434,   0.00301,277865041.02661,  -0.00251,  -0.00120,  -0.00095,-37465609.22227,   0.00000
-455805685.97512,-329311268.19404,96338296.24803,  -0.00394,  -0.00181,   0.00030,440392992.90544,   0.00301,277865041.02661,  -0.00251,  -0.00120,  -0.00095,-37472048.12117,   0.00000
-455419557.21488,-328775670.23629,96926208.42491,  -0.00394,  -0.00181,   0.00031,440401650.66672,   0.00301,277865041.02661,  -0.00251,  -0.00120,  -0.00095,-37463390.35989,   0.00000
-455033428.45463,-328240072.27853,97509138.29521,  -0.00394,  -0.00181,   0.00032,440409873.60494,   0.00301,277865041.02661,  -0.00251,  -0.00120,  -0.00095,-37455167.42167,   0.00000
-454647299.69439,-327704474.32078,98097050.47209,  -0.00394,  -0.00180,   0.00032,440424260.45294,   0.00301,277865041.02661,  -0.00251,  -0.00120,  -0.00095,-37440780.57367,   0.00000
-454268644.39403,-327186314.43607,98689944.95556,  -0.00394,  -0.00180,   0.00033,440453763.54016,   0.00301,277865041.02661,  -0.00251,  -0.00120,  -0.00095,-37411277.48645,   0.00000
-453907427.16671,-326675628.01124,99277857.13244,  -0.00394,  -0.00180,   0.00034,440495974.21023,   0.00301,277865041.02661,  -0.00251,  -0.00120,  -0.00095,-37369066.81638,   0.00000
-453528771.86634,-326157468.12653,99870751.61591,  -0.00394,  -0.00180,   0.00035,440531208.94645,   0.00301,277865041.02661,  -0.00251,  -0.00120,  -0.00095,-37333832.08016,   0.00000
-453157590.02586,-325656746.31486,100463646.09937,  -0.00394,  -0.00180,   0.00035,440578170.18715,   0.00301,277865041.02661,  -0.00251,  -0.00120,  -0.00095,-37286870.83946,   0.00000
-452786408.18537,-325156024.50320,101061522.88942,  -0.00394,  -0.00180,   0.00036,440631407.75446,   0.00301,277865041.02661,  -0.00251,  -0.00120,  -0.00095,-37233633.27215,   0.00000
-452440137.87780,-324680214.22445,101659399.67947,  -0.00394,  -0.00179,   0.00037,440709495.71274,   0.00301,277865041.02661,  -0.00251,  -0.00120,  -0.00095,-37155545.31387,   0.00000
-452076429.49718,-324196930.48583,102257276.46952,  -0.00394,  -0.00179,   0.00038,440777278.03083,   0.00301,277865041.02661,  -0.00251,  -0.00120,  -0.00095,-37087762.99578,   0.00000
-451730159.18961,-323721120.20708,102855153.25957,  -0.00393,  -0.00179,   0.00039,440861038.06252,   0.00301,277865041.02661,  -0.00251,  -0.00120,  -0.00095,-37004002.96409,   0.00000
-451391362.34192,-323262748.00137,103458012.35620,  -0.00393,  -0.00179,   0.00039,440959901.79340,   0.00301,277865041.02661,  -0.00251,  -0.00120,  -0.00095,-36905139.23321,   0.00000
-451035127.42118,-322796902.33579,104060871.45283,  -0.00393,  -0.00179,   0.00040,441048499.88613,   0.00301,277865041.02661,  -0.00251,  -0.00120,  -0.00095,-36816541.14048,   0.00000
-450703804.03336,-322355968.20313,104663730.54947,  -0.00393,  -0.00179,   0.00041,441161781.61974,   0.00301,277865041.02661,  -0.00251,  -0.00120,  -0.00095,-36703259.40687,   0.00000
-450372480.64554,-321915034.07047,105271571.95268,  -0.00393,  -0.00179,   0.00042,441281429.04066,   0.00301,277865041.02661,  -0.00251,  -0.00120,  -0.00095,-36583611.98595,   0.00000
-450041157.25772,-321474099.93781,105874431.04932,  -0.00393,  -0.00178,   0.00042,441400328.09497,   0.00301,277865041.02661,  -0.00251,  -0.00120,  -0.00095,-36464712.93164,   0.00000
-449717307.32978,-321050603.87819,106487254.75912,  -0.00393,  -0.00178,   0.00043,441537925.83220,   0.00301,277865041.02661,  -0.00251,  -0.00120,  -0.00095,-36327115.19441,   0.00000
-449393457.40184,-320627107.81857,107095096.16233,  -0.00393,  -0.00178,   0.00044,441674740.24490,   0.00301,277865041.02661,  -0.00251,  -0.00120,  -0.00095,-36190300.78171,   0.00000
-449077080.93377,-320221049.83200,107707919.87214,  -0.00393,  -0.00178,   0.00045,441826661.79504,   0.00301,277865041.02661,  -0.00251,  -0.00120,  -0.00095,-36038379.23157,   0.00000
-448760704.46570,-319814991.84542,108320743.58194,  -0.00393,  -0.00178,   0.00046,441981389.10233,   0.00301,277865041.02661,  -0.00251,  -0.00120,  -0.00095,-35883651.92428,   0.00000
-448461766.07068,-319416407.31872,108933567.29174,  -0.00393,  -0.00178,   0.00046,442151916.20328,   0.00301,277865041.02661,  -0.00251,  -0.00120,  -0.00095,-35713124.82333,   0.00000
-448152863.06248,-319027787.40519,109546391.00154,  -0.00393,  -0.00178,   0.00047,442320852.80937,   0.00301,277865041.02661,  -0.00251,  -0.00120,  -0.00095,-35544188.21724,   0.00000
-447861398.12733,-318646640.95153,110164197.01792,  -0.00393,  -0.00178,   0.00048,442509247.93833,   0.00301,277865041.02661,  -0.00251,  -0.00120,  -0.00095,-35355793.08828,   0.00000
-447577406.65206,-318282932.57092,110782003.03431,  -0.00393,  -0.00177,   0.00049,442709009.57458,   0.00301,277865041.02661,  -0.00251,  -0.00120,  -0.00095,-35156031.45203,   0.00000
-447275977.10374,-317911750.73043,111404791.35727,  -0.00393,  -0.00177,   0.00050,442902330.78858,   0.00301,277865041.02661,  -0.00251,  -0.00120,  -0.00095,-34962710.23803,   0.00000
-446999459.08835,-317565480.42286,112022597.37366,  -0.00393,  -0.00177,   0.00050,443116169.61509,   0.00301,277865041.02661,  -0.00251,  -0.00120,  -0.00095,-34748871.41152,   0.00000
-446722941.07295,-317219210.11529,112645385.69663,  -0.00392,  -0.00177,   0.00051,443336512.81585,   0.00301,277865041.02661,  -0.00251,  -0.00120,  -0.00095,-34528528.21076,   0.00000
-446463861.13059,-316880413.26760,113273156.32618,  -0.00392,  -0.00177,   0.00052,443576314.30956,   0.00301,277865041.02661,  -0.00251,  -0.00120,  -0.00095,-34288726.71705,   0.00000
-446194816.57507,-316551581.03307,113895944.64915,  -0.00392,  -0.00177,   0.00053,443810659.83138,   0.00301,277865041.02661,  -0.00251,  -0.00120,  -0.00095,-34054381.19523,   0.00000
-445925772.01955,-316222748.79854,114523715.27870,  -0.00392,  -0.00177,   0.00054,444051564.24059,   0.00301,277865041.02661,  -0.00251,  -0.00120,  -0.00095,-33813476.78602,   0.00000
-445681638.99695,-315918828.09693,115151485.90825,  -0.00392,  -0.00177,   0.00055,444316556.42069,   0.00301,277865041.02661,  -0.00251,  -0.00120,  -0.00095,-33548484.60592,   0.00000
-445420067.90130,-315607433.93545,115779256.53780,  -0.00392,  -0.00177,   0.00055,444571381.58475,   0.00301,277865041.02661,  -0.00251,  -0.00120,  -0.00095,-33293659.44186,   0.00000
-445183408.33857,-315320951.30689,116412009.47394,  -0.00392,  -0.00177,   0.00056,444854112.51212,   0.00301,277865041.02661,  -0.00251,  -0.00120,  -0.00095,-33010928.51449,   0.00000
-444946748.77584,-315034468.67832,117044762.41007,  -0.00392,  -0.00177,   0.00057,445139520.07632,   0.00301,277865041.02661,  -0.00251,  -0.00120,  -0.00095,-32725520.95029,   0.00000
-444710089.21312,-314747986.04975,117677515.34621,  -0.00392,  -0.00176,   0.00058,445427599.13217,   0.00301,277865041.02661,  -0.00251,  -0.00120,  -0.00095,-32437441.89444,   0.00000
-444480903.11026,-314478941.49423,118310268.28234,  -0.00392,  -0.00176,   0.00059,445726769.09925,   0.00301,277865041.02661,  -0.00251,  -0.00120,  -0.00095,-32138271.92736,   0.00000
-444259190.46729,-314227335.01175,118948003.52506,  -0.00392,  -0.00176,   0.00059,446040970.69218,   0.00301,277865041.02661,  -0.00251,  -0.00120,  -0.00095,-31824070.33443,   0.00000
-444054915.89735,-313983201.98915,119585738.76778,  -0.00392,  -0.00176,   0.00060,446370565.63062,   0.00301,277865041.02661,  -0.00251,  -0.00120,  -0.00095,-31494475.39599,   0.00000
-443833203.25438,-313731595.50667,120223474.01050,  -0.00392,  -0.00176,   0.00061,446690025.01044,   0.00301,277865041.02661,  -0.00251,  -0.00120,  -0.00095,-31175016.01617,   0.00000
-443636402.14432,-313504900.55711,120861209.25322,  -0.00392,  -0.00176,   0.00062,447033208.55342,   0.00301,277865041.02661,  -0.00251,  -0.00120,  -0.00095,-30831832.47319,   0.00000
-443439601.03426,-313278205.60755,121503926.80252,  -0.00392,  -0.00176,   0.00063,447383017.16993,   0.00301,277865041.02661,  -0.00251,  -0.00120,  -0.00095,-30482023.85668,   0.00000
-443232835.31104,-313061475.27116,122146644.35183,  -0.00392,  -0.00176,   0.00064,447731076.05454,   0.00301,277865041.02661,  -0.00251,  -0.00120,  -0.00095,-30133964.97207,   0.00000
-443060945.73390,-312859691.85452,122789361.90113,  -0.00392,  -0.00176,   0.00064,448107085.03113,   0.00301,277865041.02661,  -0.00251,  -0.00120,  -0.00095,-29757955.99548,   0.00000
-442879091.54359,-312667873.05104,123432079.45043,  -0.00392,  -0.00176,   0.00065,448481281.33223,   0.00301,277865041.02661,  -0.00251,  -0.00120,  -0.00095,-29383759.69438,   0.00000
-442697237.35328,-312476054.24757,124079779.30632,  -0.00392,  -0.00176,   0.00066,448862136.27574,   0.00301,277865041.02661,  -0.00251,  -0.00120,  -0.00095,-29002904.75087,   0.00000
-442532821.23602,-312291708.90397,124727479.16221,  -0.00392,  -0.00176,   0.00067,449258178.00665,   0.00301,277865041.02661,  -0.00251,  -0.00120,  -0.00095,-28606863.01996,   0.00000
-442375878.57863,-312124801.63341,125375179.01809,  -0.00391,  -0.00176,   0.00068,449665023.02893,   0.00301,277865041.02661,  -0.00251,  -0.00120,  -0.00095,-28200017.99768,   0.00000
-442208971.30808,-311967858.97603,126027861.18056,  -0.00391,  -0.00176,   0.00069,450074214.68209,   0.00301,277865041.02661,  -0.00251,  -0.00120,  -0.00095,-27790826.34452,   0.00000
-442059502.11056,-311818389.77851,126675561.03645,  -0.00391,  -0.00176,   0.00069,450494309.36206,   0.00301,277865041.02661,  -0.00251,  -0.00120,  -0.00095,-27370731.66455,   0.00000
-441927470.98610,-311676394.04088,127328243.19892,  -0.00391,  -0.00176,   0.00070,450933640.54848,   0.00301,277865041.02661,  -0.00251,  -0.00120,  -0.00095,-26931400.47813,   0.00000
-441785475.24846,-311544362.91641,127980925.36139,  -0.00391,  -0.00176,   0.00071,451371104.01815,   0.00301,277865041.02661,  -0.00251,  -0.00120,  -0.00095,-26493937.00846,   0.00000
-441668391.04374,-311437243.32486,128638589.83045,  -0.00391,  -0.00176,   0.00072,451836030.42172,   0.00301,277865041.02661,  -0.00251,  -0.00120,  -0.00095,-26029010.60489,   0.00000
-441526395.30610,-311305212.20039,129291271.99292,  -0.00391,  -0.00175,   0.00073,452278369.76018,   0.00301,277865041.02661,  -0.00251,  -0.00120,  -0.00095,-25586671.26643,   0.00000
-441416784.56126,-311215530.68188,129948936.46197,  -0.00391,  -0.00175,   0.00074,452756340.24680,   0.00301,277865041.02661,  -0.00251,  -0.00120,  -0.00095,-25108700.77981,   0.00000
-441307173.81642,-311125849.16337,130606600.93102,  -0.00391,  -0.00175,   0.00075,453236692.14243,   0.00301,277865041.02661,  -0.00251,  -0.00120,  -0.00095,-24628348.88418,   0.00000
-441197563.07158,-311036167.64487,131269247.70666,  -0.00391,  -0.00175,   0.00075,453723742.19550,   0.00301,277865041.02661,  -0.00251,  -0.00120,  -0.00095,-24141298.83111,   0.00000
-441112863.85965,-310971397.65928,131926912.17572,  -0.00391,  -0.00175,   0.00076,454229474.48769,   0.00301,277865041.02661,  -0.00251,  -0.00120,  -0.00095,-23635566.53892,   0.00000
-441028164.64773,-310906627.67369,132589558.95136,  -0.00391,  -0.00175,   0.00077,454741868.74860,   0.00301,277865041.02661,  -0.00251,  -0.00120,  -0.00095,-23123172.27801,   0.00000
-440933500.82264,-310851822.30127,133252205.72699,  -0.00391,  -0.00175,   0.00078,455252321.60271,   0.00301,277865041.02661,  -0.00251,  -0.00120,  -0.00095,-22612719.42390,   0.00000
-440856275.07059,-310804490.38872,133914852.50263,  -0.00391,  -0.00175,   0.00079,455777511.25887,   0.00301,277865041.02661,  -0.00251,  -0.00120,  -0.00095,-22087529.76774,   0.00000
-440779049.31854,-310757158.47618,134582481.58485,  -0.00391,  -0.00175,   0.00080,456309401.64421,   0.00301,277865041.02661,  -0.00251,  -0.00120,  -0.00095,-21555639.38240,   0.00000
-440734208.55929,-310752176.16959,135250110.66707,  -0.00391,  -0.00175,   0.00081,456872214.59912,   0.00301,277865041.02661,  -0.00251,  -0.00120,  -0.00095,-20992826.42749,   0.00000
-440664456.26712,-310722282.33009,135917739.74930,  -0.00391,  -0.00175,   0.00082,457416801.28327,   0.00301,277865041.02661,  -0.00251,  -0.00120,  -0.00095,-20448239.74334,   0.00000
