# sigma_xx, sigma_yy, sigma_xy, epsilon_xx, epsilon_yy, epsilon_xy, vonMises, epsPlastic, hardening, epsilonP__xx, epsilonP__yy, epsilonP__xy, yieldValue, iteration
   0.00000,   0.00000,   0.00000,   0.00000,   0.00000,   0.00000,1181185.37500,   0.00000,274640576.00000,   0.00000,   0.00000,   0.00000,-473459392.00000,   0.00000
   0.00000,   0.00000,   0.00000,   0.00000,   0.00000,   0.00000,1181185.37500,   0.00000,274640576.00000,   0.00000,   0.00000,   0.00000,-473459392.00000,   0.00000
1342424.46168,-2327690.12163,-123158.20749,   0.00001,  -0.00001,  -0.00000,4487209.50000,   0.00000,274640576.00000,   0.00000,   0.00000,   0.00000,-470153376.00000,   0.00000
2672533.10262,-4643064.42252,-246316.41499,   0.00002,  -0.00003,  -0.00000,7909805.00000,   0.00000,274640576.00000,   0.00000,   0.00000,   0.00000,-466730768.00000,   0.00000
4002641.74355,-6958438.72340,-375632.53286,   0.00003,  -0.00004,  -0.00000,10108057.00000,   0.00000,274640576.00000,   0.00000,   0.00000,   0.00000,-464532512.00000,   0.00000
5332750.38448,-9273813.02429,-511106.56110,   0.00004,  -0.00005,  -0.00001,12629411.00000,   0.00000,274640576.00000,   0.00000,   0.00000,   0.00000,-462011168.00000,   0.00000
6672095.89098,-11567634.63886,-646580.58934,   0.00005,  -0.00007,  -0.00001,15505378.00000,   0.00000,274640576.00000,   0.00000,   0.00000,   0.00000,-459135200.00000,   0.00000
8011441.39748,-13861456.25343,-782054.61759,   0.00006,  -0.00008,  -0.00001,18587772.00000,   0.00000,274640576.00000,   0.00000,   0.00000,   0.00000,-456052800.00000,   0.00000
9350786.90397,-16155277.86801,-929844.46658,   0.00007,  -0.00009,  -0.00001,21762858.00000,   0.00000,274640576.00000,   0.00000,   0.00000,   0.00000,-452877712.00000,   0.00000
10677816.58972,-18436783.66183,-1077634.31557,   0.00008,  -0.00010,  -0.00001,24941462.00000,   0.00000,274640576.00000,   0.00000,   0.00000,   0.00000,-449699120.00000,   0.00000
12035635.82734,-20687499.90378,-1225424.16456,   0.00010,  -0.00012,  -0.00002,28109490.00000,   0.00000,274640576.00000,   0.00000,   0.00000,   0.00000,-446531088.00000,   0.00000
13362665.51308,-22969005.69761,-1379371.92393,   0.00011,  -0.00013,  -0.00002,31266322.00000,   0.00000,274640576.00000,   0.00000,   0.00000,   0.00000,-443374256.00000,   0.00000
14698932.06439,-25228958.80512,-1533319.68330,   0.00012,  -0.00014,  -0.00002,34394508.00000,   0.00000,274640576.00000,   0.00000,   0.00000,   0.00000,-440246064.00000,   0.00000
16044435.48126,-27467359.22632,-1693425.35304,   0.00013,  -0.00016,  -0.00002,37500984.00000,   0.00000,274640576.00000,   0.00000,   0.00000,   0.00000,-437139584.00000,   0.00000
17389938.89813,-29705759.64752,-1859688.93316,   0.00014,  -0.00017,  -0.00002,40606992.00000,   0.00000,274640576.00000,   0.00000,   0.00000,   0.00000,-434033584.00000,   0.00000
18735442.31500,-31944160.06872,-2025952.51327,   0.00015,  -0.00018,  -0.00003,43720400.00000,   0.00000,274640576.00000,   0.00000,   0.00000,   0.00000,-430920176.00000,   0.00000
20068629.91113,-34170244.66917,-2198374.00377,   0.00016,  -0.00019,  -0.00003,46828396.00000,   0.00000,274640576.00000,   0.00000,   0.00000,   0.00000,-427812176.00000,   0.00000
21423370.19356,-36387092.40406,-2370795.49426,   0.00017,  -0.00021,  -0.00003,49963888.00000,   0.00000,274640576.00000,   0.00000,   0.00000,   0.00000,-424676688.00000,   0.00000
22756557.78968,-38613177.00452,-2549374.89512,   0.00018,  -0.00022,  -0.00003,53112980.00000,   0.00000,274640576.00000,   0.00000,   0.00000,   0.00000,-421527600.00000,   0.00000
24098982.25136,-40817708.91866,-2734112.20636,   0.00019,  -0.00023,  -0.00004,56270308.00000,   0.00000,274640576.00000,   0.00000,   0.00000,   0.00000,-418370272.00000,   0.00000
25441406.71305,-43022240.83280,-2918849.51760,   0.00020,  -0.00025,  -0.00004,59444456.00000,   0.00000,274640576.00000,   0.00000,   0.00000,   0.00000,-415196128.00000,   0.00000
26793068.04029,-45205220.06062,-3103586.82885,   0.00021,  -0.00026,  -0.00004,62617772.00000,   0.00000,274640576.00000,   0.00000,   0.00000,   0.00000,-412022800.00000,   0.00000
28123176.68122,-47397436.15402,-3294482.05046,   0.00022,  -0.00027,  -0.00004,65789500.00000,   0.00000,274640576.00000,   0.00000,   0.00000,   0.00000,-408851072.00000,   0.00000
29484074.87403,-49558862.69553,-3491535.18245,   0.00023,  -0.00028,  -0.00005,68958440.00000,   0.00000,274640576.00000,   0.00000,   0.00000,   0.00000,-405682144.00000,   0.00000
30823420.38053,-51729526.10261,-3694746.22482,   0.00024,  -0.00030,  -0.00005,72114624.00000,   0.00000,274640576.00000,   0.00000,   0.00000,   0.00000,-402525952.00000,   0.00000
32184318.57334,-53890952.64413,-3891799.35681,   0.00025,  -0.00031,  -0.00005,75269088.00000,   0.00000,274640576.00000,   0.00000,   0.00000,   0.00000,-399371488.00000,   0.00000
33532900.94539,-56040063.36490,-4101168.30955,   0.00026,  -0.00032,  -0.00005,78391304.00000,   0.00000,274640576.00000,   0.00000,   0.00000,   0.00000,-396249280.00000,   0.00000
34890720.18301,-58167621.39935,-4310537.26229,   0.00027,  -0.00033,  -0.00006,81486072.00000,   0.00000,274640576.00000,   0.00000,   0.00000,   0.00000,-393154496.00000,   0.00000
36248539.42063,-60295179.43381,-4519906.21502,   0.00028,  -0.00035,  -0.00006,84565824.00000,   0.00000,274640576.00000,   0.00000,   0.00000,   0.00000,-390074752.00000,   0.00000
37584805.97194,-62431974.33383,-4741590.98851,   0.00029,  -0.00036,  -0.00006,87624440.00000,   0.00000,274640576.00000,   0.00000,   0.00000,   0.00000,-387016128.00000,   0.00000
38951862.07512,-64537979.68197,-4957117.85163,   0.00030,  -0.00037,  -0.00006,90664720.00000,   0.00000,274640576.00000,   0.00000,   0.00000,   0.00000,-383975856.00000,   0.00000
40297365.49199,-66653221.89568,-5184960.53549,   0.00031,  -0.00038,  -0.00007,93688120.00000,   0.00000,274640576.00000,   0.00000,   0.00000,   0.00000,-380952448.00000,   0.00000
41664421.59518,-68759227.24383,-5406645.30898,   0.00032,  -0.00039,  -0.00007,96710840.00000,   0.00000,274640576.00000,   0.00000,   0.00000,   0.00000,-377929728.00000,   0.00000
43019161.87761,-70852916.77122,-5640645.90322,   0.00033,  -0.00041,  -0.00007,99709800.00000,   0.00000,274640576.00000,   0.00000,   0.00000,   0.00000,-374930784.00000,   0.00000
44383139.02560,-72925053.61231,-5874646.49746,   0.00034,  -0.00042,  -0.00008,102694048.00000,   0.00000,274640576.00000,   0.00000,   0.00000,   0.00000,-371946528.00000,   0.00000
45747116.17360,-74997190.45339,-6108647.09170,   0.00035,  -0.00043,  -0.00008,105678600.00000,   0.00000,274640576.00000,   0.00000,   0.00000,   0.00000,-368961984.00000,   0.00000
47111093.32159,-77069327.29448,-6348805.59631,   0.00036,  -0.00044,  -0.00008,108666712.00000,   0.00000,274640576.00000,   0.00000,   0.00000,   0.00000,-365973856.00000,   0.00000
48484307.33515,-79119911.44925,-6595122.01130,   0.00037,  -0.00045,  -0.00009,111647328.00000,   0.00000,274640576.00000,   0.00000,   0.00000,   0.00000,-362993248.00000,   0.00000
49845205.52796,-81158179.78327,-6841438.42628,   0.00039,  -0.00047,  -0.00009,114612240.00000,   0.00000,274640576.00000,   0.00000,   0.00000,   0.00000,-360028336.00000,   0.00000
51227656.40707,-83187211.25173,-7093912.75165,   0.00040,  -0.00048,  -0.00009,117592136.00000,   0.00000,274640576.00000,   0.00000,   0.00000,   0.00000,-357048448.00000,   0.00000
52588554.59988,-85225479.58576,-7346387.07701,   0.00041,  -0.00049,  -0.00010,120569864.00000,   0.00000,274640576.00000,   0.00000,   0.00000,   0.00000,-354070720.00000,   0.00000
53958689.65825,-87242195.23347,-7605019.31275,   0.00042,  -0.00050,  -0.00010,123542296.00000,   0.00000,274640576.00000,   0.00000,   0.00000,   0.00000,-351098272.00000,   0.00000
55328824.71662,-89258910.88118,-7869809.45886,   0.00043,  -0.00051,  -0.00010,126522120.00000,   0.00000,274640576.00000,   0.00000,   0.00000,   0.00000,-348118464.00000,   0.00000
56708196.64055,-91254073.84258,-8134599.60497,   0.00044,  -0.00053,  -0.00011,129495152.00000,   0.00000,274640576.00000,   0.00000,   0.00000,   0.00000,-345145424.00000,   0.00000
58087568.56448,-93249236.80398,-8405547.66146,   0.00045,  -0.00054,  -0.00011,132475512.00000,   0.00000,274640576.00000,   0.00000,   0.00000,   0.00000,-342165056.00000,   0.00000
59476177.35398,-95222847.07907,-8676495.71794,   0.00046,  -0.00055,  -0.00011,135448576.00000,   0.00000,274640576.00000,   0.00000,   0.00000,   0.00000,-339192000.00000,   0.00000
60874023.00903,-97174904.66785,-8947443.77443,   0.00047,  -0.00056,  -0.00012,138413808.00000,   0.00000,274640576.00000,   0.00000,   0.00000,   0.00000,-336226768.00000,   0.00000
62241079.11221,-99157751.80850,-9230707.65167,   0.00048,  -0.00057,  -0.00012,141389984.00000,   0.00000,274640576.00000,   0.00000,   0.00000,   0.00000,-333250592.00000,   0.00000
63626608.94652,-101097493.57653,-9513971.52890,   0.00049,  -0.00058,  -0.00012,144341568.00000,   0.00000,274640576.00000,   0.00000,   0.00000,   0.00000,-330299008.00000,   0.00000
65033691.46714,-103027998.47900,-9797235.40614,   0.00050,  -0.00060,  -0.00013,147300240.00000,   0.00000,274640576.00000,   0.00000,   0.00000,   0.00000,-327340336.00000,   0.00000
66419221.30144,-104967740.24702,-10086657.19375,   0.00051,  -0.00061,  -0.00013,150248208.00000,   0.00000,274640576.00000,   0.00000,   0.00000,   0.00000,-324392368.00000,   0.00000
67813988.00131,-106885929.32874,-10382236.89173,   0.00052,  -0.00062,  -0.00013,153178320.00000,   0.00000,274640576.00000,   0.00000,   0.00000,   0.00000,-321462256.00000,   0.00000
69208754.70118,-108804118.41046,-10677816.58972,   0.00053,  -0.00063,  -0.00014,156101776.00000,   0.00000,274640576.00000,   0.00000,   0.00000,   0.00000,-318538800.00000,   0.00000
70612758.26661,-110700754.80586,-10973396.28770,   0.00054,  -0.00064,  -0.00014,159006160.00000,   0.00000,274640576.00000,   0.00000,   0.00000,   0.00000,-315634416.00000,   0.00000
71995209.14573,-112606628.06683,-11275133.89606,   0.00055,  -0.00065,  -0.00015,161898832.00000,   0.00000,274640576.00000,   0.00000,   0.00000,   0.00000,-312741744.00000,   0.00000
73408449.57672,-114481711.77593,-11583029.41480,   0.00056,  -0.00066,  -0.00015,164786432.00000,   0.00000,274640576.00000,   0.00000,   0.00000,   0.00000,-309854144.00000,   0.00000
74809374.18696,-116344479.66427,-11890924.93353,   0.00057,  -0.00068,  -0.00015,167652736.00000,   0.00000,274640576.00000,   0.00000,   0.00000,   0.00000,-306987840.00000,   0.00000
76222614.61796,-118219563.37336,-12204978.36264,   0.00058,  -0.00069,  -0.00016,170542592.00000,   0.00000,274640576.00000,   0.00000,   0.00000,   0.00000,-304097984.00000,   0.00000
77632776.09376,-120060778.57540,-12525189.70213,   0.00059,  -0.00070,  -0.00016,173403216.00000,   0.00000,274640576.00000,   0.00000,   0.00000,   0.00000,-301237360.00000,   0.00000
79042937.56957,-121901993.77743,-12845401.04161,   0.00060,  -0.00071,  -0.00017,176267312.00000,   0.00000,274640576.00000,   0.00000,   0.00000,   0.00000,-298373264.00000,   0.00000
80453099.04537,-123743208.97946,-13165612.38109,   0.00061,  -0.00072,  -0.00017,179134912.00000,   0.00000,274640576.00000,   0.00000,   0.00000,   0.00000,-295505664.00000,   0.00000
81872497.38674,-125562871.49519,-13491981.63095,   0.00062,  -0.00073,  -0.00018,181995152.00000,   0.00000,274640576.00000,   0.00000,   0.00000,   0.00000,-292645424.00000,   0.00000
83301132.59367,-127360981.32460,-13824508.79119,   0.00063,  -0.00074,  -0.00018,184847392.00000,   0.00000,274640576.00000,   0.00000,   0.00000,   0.00000,-289793184.00000,   0.00000
84729767.80059,-129159091.15401,-14157035.95142,   0.00064,  -0.00075,  -0.00018,187702304.00000,   0.00000,274640576.00000,   0.00000,   0.00000,   0.00000,-286938272.00000,   0.00000
86146087.18677,-130944885.16267,-14489563.11165,   0.00065,  -0.00076,  -0.00019,190537504.00000,   0.00000,274640576.00000,   0.00000,   0.00000,   0.00000,-284103072.00000,   0.00000
87583959.25927,-132721442.30577,-14834406.09264,   0.00066,  -0.00077,  -0.00019,193384592.00000,   0.00000,274640576.00000,   0.00000,   0.00000,   0.00000,-281255984.00000,   0.00000
89009515.51101,-134485683.62812,-15173091.16324,   0.00067,  -0.00079,  -0.00020,196208640.00000,   0.00000,274640576.00000,   0.00000,   0.00000,   0.00000,-278431936.00000,   0.00000
90456624.44906,-136240688.08491,-15524092.05460,   0.00068,  -0.00080,  -0.00020,199042416.00000,   0.00000,274640576.00000,   0.00000,   0.00000,   0.00000,-275598160.00000,   0.00000
91891417.56636,-137983376.72094,-15875092.94596,   0.00069,  -0.00081,  -0.00021,201852544.00000,   0.00000,274640576.00000,   0.00000,   0.00000,   0.00000,-272788032.00000,   0.00000
93326210.68367,-139726065.35698,-16226093.83732,   0.00070,  -0.00082,  -0.00021,204659632.00000,   0.00000,274640576.00000,   0.00000,   0.00000,   0.00000,-269980944.00000,   0.00000
94770240.66653,-141447201.30671,-16583252.63905,   0.00071,  -0.00083,  -0.00022,207452752.00000,   0.00000,274640576.00000,   0.00000,   0.00000,   0.00000,-267187824.00000,   0.00000
96214270.64940,-143168337.25644,-16940411.44078,   0.00072,  -0.00084,  -0.00022,210243408.00000,   0.00000,274640576.00000,   0.00000,   0.00000,   0.00000,-264397168.00000,   0.00000
97667537.49783,-144867920.51985,-17303728.15289,   0.00073,  -0.00085,  -0.00022,213022016.00000,   0.00000,274640576.00000,   0.00000,   0.00000,   0.00000,-261618560.00000,   0.00000
99130041.21182,-146545951.09695,-17673202.77537,   0.00074,  -0.00086,  -0.00023,215791024.00000,   0.00000,274640576.00000,   0.00000,   0.00000,   0.00000,-258849552.00000,   0.00000
100570992.23949,-148233218.53962,-18042677.39785,   0.00075,  -0.00087,  -0.00023,218555072.00000,   0.00000,274640576.00000,   0.00000,   0.00000,   0.00000,-256085504.00000,   0.00000
102042732.81905,-149889696.43041,-18412152.02033,   0.00076,  -0.00088,  -0.00024,221322528.00000,   0.00000,274640576.00000,   0.00000,   0.00000,   0.00000,-253318048.00000,   0.00000
103492920.71229,-151555411.18677,-18787784.55319,   0.00077,  -0.00089,  -0.00024,224091792.00000,   0.00000,274640576.00000,   0.00000,   0.00000,   0.00000,-250548784.00000,   0.00000
104973898.15740,-153190336.39125,-19169574.99642,   0.00078,  -0.00090,  -0.00025,226866912.00000,   0.00000,274640576.00000,   0.00000,   0.00000,   0.00000,-247773664.00000,   0.00000
106433322.91620,-154834498.46129,-19551365.43965,   0.00079,  -0.00091,  -0.00025,229632784.00000,   0.00000,274640576.00000,   0.00000,   0.00000,   0.00000,-245007792.00000,   0.00000
107901984.54057,-156457107.84502,-19939313.79326,   0.00080,  -0.00092,  -0.00026,232370624.00000,   0.00000,274640576.00000,   0.00000,   0.00000,   0.00000,-242269952.00000,   0.00000
109379883.03049,-158058164.54244,-20327262.14686,   0.00081,  -0.00093,  -0.00026,235058624.00000,   0.00000,274640576.00000,   0.00000,   0.00000,   0.00000,-239581952.00000,   0.00000
110857781.52042,-159659221.23986,-20721368.41084,   0.00082,  -0.00094,  -0.00027,237706048.00000,   0.00000,274640576.00000,   0.00000,   0.00000,   0.00000,-236934528.00000,   0.00000
112335680.01035,-161260277.93728,-21115474.67482,   0.00083,  -0.00095,  -0.00027,240338576.00000,   0.00000,274640576.00000,   0.00000,   0.00000,   0.00000,-234302000.00000,   0.00000
113832052.23140,-162818229.26208,-21515738.84918,   0.00084,  -0.00096,  -0.00028,242972848.00000,   0.00000,274640576.00000,   0.00000,   0.00000,   0.00000,-231667728.00000,   0.00000
115306871.76613,-164385417.45244,-21916003.02353,   0.00085,  -0.00097,  -0.00028,245641424.00000,   0.00000,274640576.00000,   0.00000,   0.00000,   0.00000,-228999152.00000,   0.00000
116803243.98719,-165943368.77724,-22322425.10826,   0.00086,  -0.00098,  -0.00029,248352240.00000,   0.00000,274640576.00000,   0.00000,   0.00000,   0.00000,-226288336.00000,   0.00000
118287300.38749,-167489004.28129,-22728847.19299,   0.00086,  -0.00099,  -0.00030,251056432.00000,   0.00000,274640576.00000,   0.00000,   0.00000,   0.00000,-223584144.00000,   0.00000
119792909.47410,-169025402.91977,-23141427.18810,   0.00087,  -0.00100,  -0.00030,253775536.00000,   0.00000,274640576.00000,   0.00000,   0.00000,   0.00000,-220865040.00000,   0.00000
121286202.73996,-170549485.73751,-23554007.18320,   0.00088,  -0.00101,  -0.00031,256473824.00000,   0.00000,274640576.00000,   0.00000,   0.00000,   0.00000,-218166752.00000,   0.00000
122788732.87139,-172052015.86894,-23972745.08868,   0.00089,  -0.00102,  -0.00031,259161504.00000,   0.00000,274640576.00000,   0.00000,   0.00000,   0.00000,-215479072.00000,   0.00000
124291263.00281,-173554546.00036,-24391482.99416,   0.00090,  -0.00103,  -0.00032,261848864.00000,   0.00000,274640576.00000,   0.00000,   0.00000,   0.00000,-212791712.00000,   0.00000
125803029.99980,-175035523.44547,-24816378.81001,   0.00091,  -0.00104,  -0.00032,264525168.00000,   0.00000,274640576.00000,   0.00000,   0.00000,   0.00000,-210115408.00000,   0.00000
127324033.86235,-176494948.20428,-25241274.62587,   0.00092,  -0.00105,  -0.00033,267187840.00000,   0.00000,274640576.00000,   0.00000,   0.00000,   0.00000,-207452736.00000,   0.00000
128845037.72490,-177954372.96308,-25672328.35210,   0.00093,  -0.00106,  -0.00033,269849760.00000,   0.00000,274640576.00000,   0.00000,   0.00000,   0.00000,-204790816.00000,   0.00000
130366041.58745,-179413797.72188,-26103382.07833,   0.00094,  -0.00107,  -0.00034,272507776.00000,   0.00000,274640576.00000,   0.00000,   0.00000,   0.00000,-202132800.00000,   0.00000
131905519.18112,-180830117.10806,-26540593.71493,   0.00095,  -0.00108,  -0.00035,275139648.00000,   0.00000,274640576.00000,   0.00000,   0.00000,   0.00000,-199500928.00000,   0.00000
133423444.08848,-182255673.35980,-26977805.35153,   0.00096,  -0.00109,  -0.00035,277759040.00000,   0.00000,274640576.00000,   0.00000,   0.00000,   0.00000,-196881536.00000,   0.00000
134962921.68216,-183671992.74598,-27421174.89851,   0.00097,  -0.00110,  -0.00036,280387360.00000,   0.00000,274640576.00000,   0.00000,   0.00000,   0.00000,-194253216.00000,   0.00000
136490083.45508,-185075996.31141,-27864544.44549,   0.00098,  -0.00111,  -0.00036,282994816.00000,   0.00000,274640576.00000,   0.00000,   0.00000,   0.00000,-191645760.00000,   0.00000
138048034.77988,-186449210.32497,-28314071.90284,   0.00099,  -0.00112,  -0.00037,285603488.00000,   0.00000,274640576.00000,   0.00000,   0.00000,   0.00000,-189037088.00000,   0.00000
139584433.41836,-187831661.20409,-28763599.36019,   0.00100,  -0.00113,  -0.00037,288206112.00000,   0.00000,274640576.00000,   0.00000,   0.00000,   0.00000,-186434464.00000,   0.00000
141130068.92241,-189192559.39689,-29219284.72792,   0.00101,  -0.00114,  -0.00038,290802400.00000,   0.00000,274640576.00000,   0.00000,   0.00000,   0.00000,-183838176.00000,   0.00000
142675704.42646,-190553457.58970,-29674970.09565,   0.00102,  -0.00115,  -0.00039,293401856.00000,   0.00000,274640576.00000,   0.00000,   0.00000,   0.00000,-181238720.00000,   0.00000
144230576.79607,-191892803.09620,-30136813.37375,   0.00103,  -0.00115,  -0.00039,295994048.00000,   0.00000,274640576.00000,   0.00000,   0.00000,   0.00000,-178646528.00000,   0.00000
145794686.03124,-193210595.91638,-30598656.65185,   0.00104,  -0.00116,  -0.00040,298576320.00000,   0.00000,274640576.00000,   0.00000,   0.00000,   0.00000,-176064256.00000,   0.00000
147358795.26641,-194528388.73657,-31060499.92995,   0.00105,  -0.00117,  -0.00040,301159680.00000,   0.00000,274640576.00000,   0.00000,   0.00000,   0.00000,-173480896.00000,   0.00000
148932141.36715,-195824628.87044,-31528501.11843,   0.00106,  -0.00118,  -0.00041,303733888.00000,   0.00000,274640576.00000,   0.00000,   0.00000,   0.00000,-170906688.00000,   0.00000
150505487.46788,-197120869.00431,-32002660.21728,   0.00107,  -0.00119,  -0.00042,306310528.00000,   0.00000,274640576.00000,   0.00000,   0.00000,   0.00000,-168330048.00000,   0.00000
152066517.74787,-198404793.31744,-32476819.31613,   0.00108,  -0.00120,  -0.00042,308867136.00000,   0.00000,274640576.00000,   0.00000,   0.00000,   0.00000,-165773440.00000,   0.00000
153658337.57973,-199657928.07869,-32950978.41498,   0.00109,  -0.00121,  -0.00043,311422528.00000,   0.00000,274640576.00000,   0.00000,   0.00000,   0.00000,-163218048.00000,   0.00000
155228604.72527,-200920299.70550,-33431295.42421,   0.00110,  -0.00122,  -0.00043,313972032.00000,   0.00000,274640576.00000,   0.00000,   0.00000,   0.00000,-160668544.00000,   0.00000
156808108.73638,-202161118.64600,-33911612.43344,   0.00111,  -0.00123,  -0.00044,316511904.00000,   0.00000,274640576.00000,   0.00000,   0.00000,   0.00000,-158128672.00000,   0.00000
158418402.29936,-203371148.03463,-34398087.35304,   0.00112,  -0.00123,  -0.00045,319053760.00000,   0.00000,274640576.00000,   0.00000,   0.00000,   0.00000,-155586816.00000,   0.00000
160007143.17603,-204590414.28882,-34884562.27264,   0.00113,  -0.00124,  -0.00045,321588704.00000,   0.00000,274640576.00000,   0.00000,   0.00000,   0.00000,-153051872.00000,   0.00000
161595884.05271,-205809680.54300,-35377195.10261,   0.00114,  -0.00125,  -0.00046,324128224.00000,   0.00000,274640576.00000,   0.00000,   0.00000,   0.00000,-150512352.00000,   0.00000
163203098.66050,-206985841.42457,-35869827.93259,   0.00115,  -0.00126,  -0.00047,326647200.00000,   0.00000,274640576.00000,   0.00000,   0.00000,   0.00000,-147993376.00000,   0.00000
164810313.26830,-208162002.30614,-36368618.67294,   0.00116,  -0.00127,  -0.00047,329170240.00000,   0.00000,274640576.00000,   0.00000,   0.00000,   0.00000,-145470336.00000,   0.00000
166417527.87609,-209338163.18770,-36867409.41329,   0.00117,  -0.00128,  -0.00048,331695680.00000,   0.00000,274640576.00000,   0.00000,   0.00000,   0.00000,-142944896.00000,   0.00000
168021663.52870,-210480455.56221,-37366200.15364,   0.00117,  -0.00129,  -0.00049,334190080.00000,   0.00000,274640576.00000,   0.00000,   0.00000,   0.00000,-140450496.00000,   0.00000
169638115.00206,-211635063.75746,-37871148.80436,   0.00118,  -0.00129,  -0.00049,336709024.00000,   0.00000,274640576.00000,   0.00000,   0.00000,   0.00000,-137931552.00000,   0.00000
171273040.20654,-212746566.58010,-38376097.45509,   0.00119,  -0.00130,  -0.00050,339205792.00000,   0.00000,274640576.00000,   0.00000,   0.00000,   0.00000,-135434784.00000,   0.00000
172886412.72471,-213867306.26829,-38887204.01619,   0.00120,  -0.00131,  -0.00051,341695680.00000,   0.00000,274640576.00000,   0.00000,   0.00000,   0.00000,-132944896.00000,   0.00000
174530574.79475,-214957256.40461,-39398310.57729,   0.00121,  -0.00132,  -0.00051,344183456.00000,   0.00000,274640576.00000,   0.00000,   0.00000,   0.00000,-130457120.00000,   0.00000
176153184.17848,-216056443.40649,-39909417.13839,   0.00122,  -0.00133,  -0.00052,346661504.00000,   0.00000,274640576.00000,   0.00000,   0.00000,   0.00000,-127979072.00000,   0.00000
177785030.42777,-217134077.72207,-40426681.60986,   0.00123,  -0.00133,  -0.00053,349129600.00000,   0.00000,274640576.00000,   0.00000,   0.00000,   0.00000,-125510976.00000,   0.00000
179416876.67707,-218211712.03764,-40950103.99171,   0.00124,  -0.00134,  -0.00053,351599008.00000,   0.00000,274640576.00000,   0.00000,   0.00000,   0.00000,-123041568.00000,   0.00000
181067196.65749,-219246240.98059,-41473526.37356,   0.00125,  -0.00135,  -0.00054,354044640.00000,   0.00000,274640576.00000,   0.00000,   0.00000,   0.00000,-120595936.00000,   0.00000
182708279.77234,-220302322.60985,-41996948.75541,   0.00126,  -0.00136,  -0.00055,356500576.00000,   0.00000,274640576.00000,   0.00000,   0.00000,   0.00000,-118140000.00000,   0.00000
184367836.61832,-221315298.86648,-42520371.13726,   0.00127,  -0.00137,  -0.00055,358933216.00000,   0.00000,274640576.00000,   0.00000,   0.00000,   0.00000,-115707360.00000,   0.00000
186027393.46430,-222328275.12312,-43049951.42948,   0.00128,  -0.00137,  -0.00056,361367552.00000,   0.00000,274640576.00000,   0.00000,   0.00000,   0.00000,-113273024.00000,   0.00000
187696187.17584,-223319698.69345,-43585689.63208,   0.00129,  -0.00138,  -0.00057,363792768.00000,   0.00000,274640576.00000,   0.00000,   0.00000,   0.00000,-110847808.00000,   0.00000
189343428.20107,-224320359.12933,-44115269.92430,   0.00130,  -0.00139,  -0.00057,366206592.00000,   0.00000,274640576.00000,   0.00000,   0.00000,   0.00000,-108433984.00000,   0.00000
191021458.77818,-225290230.01335,-44657166.03728,   0.00131,  -0.00140,  -0.00058,368624288.00000,   0.00000,274640576.00000,   0.00000,   0.00000,   0.00000,-106016288.00000,   0.00000
192687173.53453,-226247785.07661,-45192904.23988,   0.00132,  -0.00141,  -0.00059,371020480.00000,   0.00000,274640576.00000,   0.00000,   0.00000,   0.00000,-103620096.00000,   0.00000
194374440.97720,-227196103.27431,-45734800.35285,   0.00133,  -0.00141,  -0.00059,373430976.00000,   0.00000,274640576.00000,   0.00000,   0.00000,   0.00000,-101209600.00000,   0.00000
196049392.59912,-228132105.65127,-46276696.46582,   0.00134,  -0.00142,  -0.00060,375823712.00000,   0.00000,274640576.00000,   0.00000,   0.00000,   0.00000,-98816864.00000,   0.00000
197724344.22103,-229068108.02822,-46824750.48917,   0.00135,  -0.00143,  -0.00061,378221984.00000,   0.00000,274640576.00000,   0.00000,   0.00000,   0.00000,-96418592.00000,   0.00000
199408532.70851,-229982557.71886,-47372804.51252,   0.00136,  -0.00144,  -0.00062,380613280.00000,   0.00000,274640576.00000,   0.00000,   0.00000,   0.00000,-94027296.00000,   0.00000
201101958.06155,-230875454.72319,-47927016.44624,   0.00137,  -0.00144,  -0.00062,383000128.00000,   0.00000,274640576.00000,   0.00000,   0.00000,   0.00000,-91640448.00000,   0.00000
202804620.28015,-231746799.04121,-48475070.46959,   0.00137,  -0.00145,  -0.00063,385378208.00000,   0.00000,274640576.00000,   0.00000,   0.00000,   0.00000,-89262368.00000,   0.00000
204507282.49876,-232618143.35923,-49029282.40331,   0.00138,  -0.00146,  -0.00064,387763424.00000,   0.00000,274640576.00000,   0.00000,   0.00000,   0.00000,-86877152.00000,   0.00000
206209944.71736,-233489487.67725,-49589652.24741,   0.00139,  -0.00146,  -0.00064,390155392.00000,   0.00000,274640576.00000,   0.00000,   0.00000,   0.00000,-84485184.00000,   0.00000
207931080.66709,-234317726.62265,-50150022.09150,   0.00140,  -0.00147,  -0.00065,392529856.00000,   0.00000,274640576.00000,   0.00000,   0.00000,   0.00000,-82110720.00000,   0.00000
209630663.93050,-235155202.43361,-50710391.93560,   0.00141,  -0.00148,  -0.00066,394898336.00000,   0.00000,274640576.00000,   0.00000,   0.00000,   0.00000,-79742240.00000,   0.00000
211351799.88023,-235983441.37900,-51276919.69007,   0.00142,  -0.00149,  -0.00067,397282528.00000,   0.00000,274640576.00000,   0.00000,   0.00000,   0.00000,-77358048.00000,   0.00000
213060620.00921,-236799364.50365,-51843447.44454,   0.00143,  -0.00149,  -0.00067,399648384.00000,   0.00000,274640576.00000,   0.00000,   0.00000,   0.00000,-74992192.00000,   0.00000
214778677.00375,-237593734.94198,-52409975.19902,   0.00144,  -0.00150,  -0.00068,402004960.00000,   0.00000,274640576.00000,   0.00000,   0.00000,   0.00000,-72635616.00000,   0.00000
216527523.55016,-238357315.82845,-52976502.95349,   0.00145,  -0.00151,  -0.00069,404361632.00000,   0.00000,274640576.00000,   0.00000,   0.00000,   0.00000,-70278944.00000,   0.00000
218254817.41026,-239130133.58047,-53549188.61833,   0.00146,  -0.00151,  -0.00070,406710144.00000,   0.00000,274640576.00000,   0.00000,   0.00000,   0.00000,-67930432.00000,   0.00000
219991348.13592,-239881398.64618,-54128032.19356,   0.00147,  -0.00152,  -0.00070,409048928.00000,   0.00000,274640576.00000,   0.00000,   0.00000,   0.00000,-65591648.00000,   0.00000
221727878.86159,-240632663.71190,-54700717.85840,   0.00148,  -0.00153,  -0.00071,411382048.00000,   0.00000,274640576.00000,   0.00000,   0.00000,   0.00000,-63258528.00000,   0.00000
223452093.76650,-241371612.95686,-55279561.43362,   0.00149,  -0.00153,  -0.00072,413692992.00000,   0.00000,274640576.00000,   0.00000,   0.00000,   0.00000,-60947584.00000,   0.00000
225207098.22329,-242079772.64995,-55858405.00884,   0.00150,  -0.00154,  -0.00073,415997632.00000,   0.00000,274640576.00000,   0.00000,   0.00000,   0.00000,-58642944.00000,   0.00000
226971339.54564,-242766379.65673,-56443406.49444,   0.00151,  -0.00155,  -0.00073,418287648.00000,   0.00000,274640576.00000,   0.00000,   0.00000,   0.00000,-56352928.00000,   0.00000
228714028.18168,-243462223.52907,-57028407.98004,   0.00152,  -0.00155,  -0.00074,420559680.00000,   0.00000,274640576.00000,   0.00000,   0.00000,   0.00000,-54080896.00000,   0.00000
230478269.50403,-244148830.53585,-57613409.46563,   0.00152,  -0.00156,  -0.00075,422833184.00000,   0.00000,274640576.00000,   0.00000,   0.00000,   0.00000,-51807392.00000,   0.00000
232239431.87119,-244801569.03556,-58198410.95123,   0.00153,  -0.00157,  -0.00076,425066272.00000,   0.00000,274640576.00000,   0.00000,   0.00000,   0.00000,-49574304.00000,   0.00000
234000594.23835,-245454307.53528,-58789570.34720,   0.00154,  -0.00157,  -0.00076,427292416.00000,   0.00000,274640576.00000,   0.00000,   0.00000,   0.00000,-47348160.00000,   0.00000
235761756.60551,-246107046.03500,-59380729.74317,   0.00155,  -0.00158,  -0.00077,429509824.00000,   0.00000,274640576.00000,   0.00000,   0.00000,   0.00000,-45130752.00000,   0.00000
237532155.83824,-246738231.84840,-59971889.13914,   0.00156,  -0.00159,  -0.00078,431709280.00000,   0.00000,274640576.00000,   0.00000,   0.00000,   0.00000,-42931296.00000,   0.00000
239311791.93652,-247347864.97550,-60569206.44548,   0.00157,  -0.00159,  -0.00079,433895936.00000,   0.00000,274640576.00000,   0.00000,   0.00000,   0.00000,-40744640.00000,   0.00000
241100664.90037,-247935945.41628,-61166523.75183,   0.00158,  -0.00160,  -0.00080,436071328.00000,   0.00000,274640576.00000,   0.00000,   0.00000,   0.00000,-38569248.00000,   0.00000
242889537.86422,-248524025.85707,-61763841.05818,   0.00159,  -0.00160,  -0.00080,438251808.00000,   0.00000,274640576.00000,   0.00000,   0.00000,   0.00000,-36388768.00000,   0.00000
244666095.00732,-249099790.47710,-62361158.36452,   0.00160,  -0.00161,  -0.00081,440423616.00000,   0.00000,274640576.00000,   0.00000,   0.00000,   0.00000,-34216960.00000,   0.00000
246464204.83673,-249666318.23157,-62964633.58124,   0.00161,  -0.00162,  -0.00082,442627648.00000,   0.00000,274640576.00000,   0.00000,   0.00000,   0.00000,-32012928.00000,   0.00000
248249998.84539,-250220530.16529,-63568108.79796,   0.00162,  -0.00162,  -0.00083,444838016.00000,   0.00000,274640576.00000,   0.00000,   0.00000,   0.00000,-29802560.00000,   0.00000
250045029.71962,-250753189.41270,-64171584.01468,   0.00163,  -0.00163,  -0.00083,447069376.00000,   0.00000,274640576.00000,   0.00000,   0.00000,   0.00000,-27571200.00000,   0.00000
251849297.45940,-251264295.97380,-64781217.14178,   0.00164,  -0.00163,  -0.00084,449326720.00000,   0.00000,274640576.00000,   0.00000,   0.00000,   0.00000,-25313856.00000,   0.00000
253653565.19919,-251775402.53490,-65384692.35850,   0.00165,  -0.00164,  -0.00085,451610912.00000,   0.00000,274640576.00000,   0.00000,   0.00000,   0.00000,-23029664.00000,   0.00000
255457832.93897,-252286509.09600,-65994325.48559,   0.00165,  -0.00165,  -0.00086,453922688.00000,   0.00000,274640576.00000,   0.00000,   0.00000,   0.00000,-20717888.00000,   0.00000
257280574.40988,-252754510.28448,-66603958.61268,   0.00166,  -0.00165,  -0.00087,456230272.00000,   0.00000,274640576.00000,   0.00000,   0.00000,   0.00000,-18410304.00000,   0.00000
259103315.88079,-253222511.47296,-67219749.65015,   0.00167,  -0.00166,  -0.00087,458546368.00000,   0.00000,274640576.00000,   0.00000,   0.00000,   0.00000,-16094208.00000,   0.00000
260904504.66539,-253699749.52700,-67835540.68762,   0.00168,  -0.00166,  -0.00088,460847488.00000,   0.00000,274640576.00000,   0.00000,   0.00000,   0.00000,-13793088.00000,   0.00000
262745719.86742,-254124645.34285,-68451331.72509,   0.00169,  -0.00167,  -0.00089,463128672.00000,   0.00000,274640576.00000,   0.00000,   0.00000,   0.00000,-11511904.00000,   0.00000
264565382.38314,-254558778.02427,-69067122.76256,   0.00170,  -0.00167,  -0.00090,465384384.00000,   0.00000,274640576.00000,   0.00000,   0.00000,   0.00000,-9256192.00000,   0.00000
266385044.89886,-254992910.70568,-69682913.80003,   0.00171,  -0.00168,  -0.00091,467624576.00000,   0.00000,274640576.00000,   0.00000,   0.00000,   0.00000,-7016000.00000,   0.00000
268223181.14571,-255383938.01447,-70304862.74788,   0.00172,  -0.00169,  -0.00091,469833664.00000,   0.00000,274640576.00000,   0.00000,   0.00000,   0.00000,-4806912.00000,   0.00000
270052080.52699,-255796518.00958,-70920653.78534,   0.00173,  -0.00169,  -0.00092,472036992.00000,   0.00000,274640576.00000,   0.00000,   0.00000,   0.00000,-2603584.00000,   0.00000
271899453.63940,-256165992.63206,-71542602.73319,   0.00174,  -0.00170,  -0.00093,474212768.00000,   0.00000,274640576.00000,   0.00000,   0.00000,   0.00000,-427808.00000,   0.00000
272263876.85103,-256238877.27439,-71666506.62514,   0.00174,  -0.00170,  -0.00093,474641312.00000,   0.00000,274640576.00000,   0.00000,   0.00000,   0.00000, 736.00000,   0.00000
272745754.16917,-255615359.99840,-71900606.76575,   0.00175,  -0.00170,  -0.00094,474641312.00000,   0.00001,274648800.00000,   0.00001,  -0.00001,  -0.00000, 160.00000,   2.00000
273347001.03948,-254839483.25895,-72189998.68368,   0.00175,  -0.00171,  -0.00095,476792256.00000,   0.00002,274658944.00000,   0.00001,  -0.00001,  -0.00001,  64.00000,   2.00000
273960994.04033,-254046027.72050,-72486265.65982,   0.00176,  -0.00171,  -0.00095,476795040.00000,   0.00003,274669056.00000,   0.00002,  -0.00002,  -0.00001, -32.00000,   2.00000
274591592.88494,-253239837.18465,-72774783.74663,   0.00177,  -0.00172,  -0.00096,476812512.00000,   0.00004,274679200.00000,   0.00003,  -0.00003,  -0.00002,-160.00000,   2.00000
275219351.99032,-252431283.81062,-73071668.84719,   0.00178,  -0.00172,  -0.00097,476804928.00000,   0.00004,274689280.00000,   0.00004,  -0.00004,  -0.00002,  64.00000,   2.00000
275846122.71145,-251623380.35956,-73367908.26905,   0.00179,  -0.00173,  -0.00098,476815168.00000,   0.00005,274699328.00000,   0.00005,  -0.00004,  -0.00003,   0.00000,   2.00000
276485001.93353,-250798428.88750,-73670655.31477,   0.00180,  -0.00173,  -0.00099,476818656.00000,   0.00006,274709376.00000,   0.00005,  -0.00005,  -0.00003,  64.00000,   2.00000
277123725.39544,-249974431.02376,-73970089.07523,   0.00181,  -0.00174,  -0.00100,476805504.00000,   0.00007,274719296.00000,   0.00006,  -0.00006,  -0.00003,  96.00000,   2.00000
277774565.36344,-249135165.20693,-74272666.22899,   0.00182,  -0.00174,  -0.00100,476829632.00000,   0.00008,274729280.00000,   0.00007,  -0.00007,  -0.00004,  96.00000,   2.00000
278423139.48857,-248295578.83378,-74577484.94098,   0.00183,  -0.00175,  -0.00101,476819584.00000,   0.00009,274739168.00000,   0.00008,  -0.00007,  -0.00004, -64.00000,   2.00000
279099969.53085,-247426232.33682,-74881143.40432,   0.00184,  -0.00175,  -0.00102,476831392.00000,   0.00010,274749056.00000,   0.00008,  -0.00008,  -0.00005, 128.00000,   2.00000
279759199.30537,-246573276.59104,-75185389.93414,   0.00185,  -0.00176,  -0.00103,476831392.00000,   0.00011,274758912.00000,   0.00009,  -0.00009,  -0.00005, 128.00000,   2.00000
280430747.52213,-245705513.48272,-75489996.62050,   0.00185,  -0.00176,  -0.00104,476832704.00000,   0.00012,274768736.00000,   0.00010,  -0.00010,  -0.00006, 192.00000,   2.00000
281114496.90440,-244823205.93600,-75794937.81589,   0.00186,  -0.00176,  -0.00104,476834144.00000,   0.00013,274778496.00000,   0.00011,  -0.00010,  -0.00006, 192.00000,   2.00000
281778250.74516,-243956098.28929,-76105966.07321,   0.00187,  -0.00177,  -0.00105,476837568.00000,   0.00013,274788224.00000,   0.00011,  -0.00011,  -0.00006,  32.00000,   2.00000
282468883.38966,-243059756.60299,-76415444.45848,   0.00188,  -0.00177,  -0.00106,476849888.00000,   0.00014,274797984.00000,   0.00012,  -0.00012,  -0.00007, 160.00000,   2.00000
283157518.02212,-242165495.58184,-76721135.99136,   0.00189,  -0.00178,  -0.00107,476838016.00000,   0.00015,274807616.00000,   0.00013,  -0.00012,  -0.00007,  64.00000,   2.00000
283855946.59797,-241257268.74298,-77029288.17249,   0.00190,  -0.00178,  -0.00108,476863360.00000,   0.00016,274817344.00000,   0.00014,  -0.00013,  -0.00008, -64.00000,   2.00000
284550223.53754,-240349709.56237,-77339223.95323,   0.00191,  -0.00179,  -0.00109,476854752.00000,   0.00017,274826944.00000,   0.00014,  -0.00014,  -0.00008, 160.00000,   2.00000
285238674.48897,-239443112.30357,-77653230.01283,   0.00192,  -0.00179,  -0.00109,476869536.00000,   0.00018,274836608.00000,   0.00015,  -0.00015,  -0.00009,   0.00000,   2.00000
285939518.21722,-238522287.31232,-77964893.10103,   0.00193,  -0.00180,  -0.00110,476848384.00000,   0.00019,274846080.00000,   0.00016,  -0.00015,  -0.00009, 128.00000,   2.00000
286636254.47399,-237606028.44257,-78271550.67650,   0.00193,  -0.00180,  -0.00111,476880736.00000,   0.00020,274855680.00000,   0.00017,  -0.00016,  -0.00009, 192.00000,   2.00000
287341357.36479,-236672285.08859,-78587062.97632,   0.00194,  -0.00180,  -0.00112,476865984.00000,   0.00020,274865184.00000,   0.00017,  -0.00017,  -0.00010,   0.00000,   2.00000
288058779.85713,-235728201.13819,-78893393.91407,   0.00195,  -0.00181,  -0.00113,476885984.00000,   0.00021,274874720.00000,   0.00018,  -0.00017,  -0.00010,  96.00000,   2.00000
288769687.68202,-234783485.90940,-79207010.36102,   0.00196,  -0.00181,  -0.00114,476880704.00000,   0.00022,274884160.00000,   0.00019,  -0.00018,  -0.00011,  96.00000,   2.00000
289475877.55231,-233841594.42946,-79518816.23603,   0.00197,  -0.00182,  -0.00114,476893088.00000,   0.00023,274893632.00000,   0.00020,  -0.00019,  -0.00011, 160.00000,   2.00000
290179277.71039,-232902030.81575,-79826626.83474,   0.00198,  -0.00182,  -0.00115,476881792.00000,   0.00024,274903008.00000,   0.00020,  -0.00019,  -0.00012,  32.00000,   2.00000
290905710.67805,-231932131.49322,-80137910.92693,   0.00199,  -0.00182,  -0.00116,476898944.00000,   0.00025,274912416.00000,   0.00021,  -0.00020,  -0.00012, -64.00000,   2.00000
291612832.65244,-230979987.18582,-80449283.71644,   0.00200,  -0.00183,  -0.00117,476899936.00000,   0.00026,274921760.00000,   0.00022,  -0.00021,  -0.00012, 128.00000,   2.00000
292330021.29507,-230013616.34568,-80760334.33122,   0.00200,  -0.00183,  -0.00118,476902976.00000,   0.00027,274931104.00000,   0.00023,  -0.00021,  -0.00013,   0.00000,   2.00000
293057367.17296,-229033031.90457,-81071068.99953,   0.00201,  -0.00183,  -0.00119,476905984.00000,   0.00027,274940384.00000,   0.00023,  -0.00022,  -0.00013,  96.00000,   2.00000
293780147.05309,-228055196.02082,-81379921.54577,   0.00202,  -0.00184,  -0.00120,476918080.00000,   0.00028,274949696.00000,   0.00024,  -0.00023,  -0.00014,   0.00000,   2.00000
294513337.54339,-227063072.86239,-81688484.11232,   0.00203,  -0.00184,  -0.00120,476921024.00000,   0.00029,274958976.00000,   0.00025,  -0.00023,  -0.00014,  96.00000,   2.00000
295240211.77613,-226069524.68847,-82004240.84540,   0.00204,  -0.00185,  -0.00121,476916128.00000,   0.00030,274968192.00000,   0.00026,  -0.00024,  -0.00015, -96.00000,   2.00000
295979497.63061,-225065479.99386,-82310580.93282,   0.00205,  -0.00185,  -0.00122,476935904.00000,   0.00031,274977440.00000,   0.00026,  -0.00025,  -0.00015, 128.00000,   2.00000
296714752.42724,-224061335.81450,-82618572.87462,   0.00206,  -0.00185,  -0.00123,476927680.00000,   0.00032,274986624.00000,   0.00027,  -0.00025,  -0.00015, -32.00000,   2.00000
297446099.27431,-223059602.81369,-82924732.73917,   0.00207,  -0.00186,  -0.00124,476939392.00000,   0.00032,274995808.00000,   0.00028,  -0.00026,  -0.00016, -32.00000,   2.00000
298171773.74486,-222055948.83634,-83238188.96979,   0.00207,  -0.00186,  -0.00125,476933792.00000,   0.00033,275004928.00000,   0.00028,  -0.00027,  -0.00016,  64.00000,   2.00000
298925119.59614,-221024190.74891,-83543826.89497,   0.00208,  -0.00186,  -0.00125,476944608.00000,   0.00034,275014016.00000,   0.00029,  -0.00027,  -0.00017, 192.00000,   2.00000
299674967.11936,-219991725.51404,-83851201.26986,   0.00209,  -0.00187,  -0.00126,476935840.00000,   0.00035,275023072.00000,   0.00030,  -0.00028,  -0.00017,  32.00000,   2.00000
300419512.37475,-218959832.41067,-84162401.63388,   0.00210,  -0.00187,  -0.00127,476950240.00000,   0.00036,275032128.00000,   0.00031,  -0.00029,  -0.00018, 288.00000,   2.00000
301162762.60416,-217931344.78041,-84466262.33689,   0.00211,  -0.00187,  -0.00128,476958208.00000,   0.00037,275041184.00000,   0.00031,  -0.00029,  -0.00018,  96.00000,   2.00000
301930125.24784,-216868335.23711,-84777073.42272,   0.00212,  -0.00188,  -0.00129,476955136.00000,   0.00037,275050176.00000,   0.00032,  -0.00030,  -0.00019,  96.00000,   2.00000
302682175.40325,-215823328.95222,-85082716.78735,   0.00213,  -0.00188,  -0.00130,476951232.00000,   0.00038,275059104.00000,   0.00033,  -0.00031,  -0.00019, 224.00000,   2.00000
303445761.61187,-214762473.17335,-85388221.03163,   0.00213,  -0.00188,  -0.00130,476953280.00000,   0.00039,275068000.00000,   0.00033,  -0.00031,  -0.00019,   0.00000,   2.00000
304204514.71386,-213701922.57682,-85697686.94401,   0.00214,  -0.00188,  -0.00131,476967168.00000,   0.00040,275076928.00000,   0.00034,  -0.00032,  -0.00020,   0.00000,   2.00000
304977063.78307,-212627097.17586,-86001559.98776,   0.00215,  -0.00189,  -0.00132,476966048.00000,   0.00041,275085792.00000,   0.00035,  -0.00033,  -0.00020,  32.00000,   2.00000
305746740.98221,-211554044.91372,-86303875.91096,   0.00216,  -0.00189,  -0.00133,476976480.00000,   0.00041,275094688.00000,   0.00036,  -0.00033,  -0.00021,  96.00000,   2.00000
306528302.53796,-210462118.98368,-86609879.44892,   0.00217,  -0.00189,  -0.00134,476958432.00000,   0.00042,275103424.00000,   0.00036,  -0.00034,  -0.00021,  32.00000,   2.00000
307290118.36625,-209388104.44103,-86918343.01445,   0.00218,  -0.00190,  -0.00135,476980800.00000,   0.00043,275112256.00000,   0.00037,  -0.00034,  -0.00022,  64.00000,   2.00000
308080045.06744,-208282293.11191,-87222909.92930,   0.00218,  -0.00190,  -0.00136,476971040.00000,   0.00044,275120992.00000,   0.00038,  -0.00035,  -0.00022,  64.00000,   2.00000
308852447.47409,-207193036.42597,-87528165.40383,   0.00219,  -0.00190,  -0.00136,476969920.00000,   0.00045,275129664.00000,   0.00038,  -0.00036,  -0.00023,  96.00000,   2.00000
309650093.21639,-206073731.59919,-87831375.83513,   0.00220,  -0.00190,  -0.00137,476983840.00000,   0.00045,275138368.00000,   0.00039,  -0.00036,  -0.00023, 192.00000,   2.00000
310429814.80140,-204971167.48663,-88135300.96065,   0.00221,  -0.00191,  -0.00138,476982944.00000,   0.00046,275147040.00000,   0.00040,  -0.00037,  -0.00023, 160.00000,   2.00000
311220118.73247,-203853202.08773,-88439339.36175,   0.00222,  -0.00191,  -0.00139,476985440.00000,   0.00047,275155680.00000,   0.00040,  -0.00037,  -0.00024,  32.00000,   2.00000
312020836.60564,-202719992.19636,-88743505.11169,   0.00223,  -0.00191,  -0.00140,476987936.00000,   0.00048,275164288.00000,   0.00041,  -0.00038,  -0.00024, -32.00000,   2.00000
312805525.90326,-201605452.67594,-89042971.34725,   0.00223,  -0.00191,  -0.00141,476983968.00000,   0.00049,275172800.00000,   0.00042,  -0.00039,  -0.00025, 160.00000,   2.00000
313597909.55455,-200474067.66479,-89348010.69032,   0.00224,  -0.00192,  -0.00141,476990400.00000,   0.00049,275181344.00000,   0.00042,  -0.00039,  -0.00025,  32.00000,   2.00000
314400232.60377,-199327561.41647,-89653154.73910,   0.00225,  -0.00192,  -0.00142,476993376.00000,   0.00050,275189824.00000,   0.00043,  -0.00040,  -0.00026, -32.00000,   2.00000
315200080.70954,-198185331.00643,-89951336.90552,   0.00226,  -0.00192,  -0.00143,477001280.00000,   0.00051,275198336.00000,   0.00044,  -0.00040,  -0.00026,-128.00000,   2.00000
315995801.45040,-197042304.37619,-90251846.95224,   0.00227,  -0.00192,  -0.00144,476992608.00000,   0.00052,275206752.00000,   0.00045,  -0.00041,  -0.00027,   0.00000,   2.00000
316784685.08484,-195900540.49385,-90556406.98240,   0.00228,  -0.00192,  -0.00145,477007360.00000,   0.00053,275215168.00000,   0.00045,  -0.00042,  -0.00027, 160.00000,   2.00000
317585595.19212,-194744967.23358,-90855534.32157,   0.00228,  -0.00193,  -0.00146,477007168.00000,   0.00053,275223584.00000,   0.00046,  -0.00042,  -0.00027, 160.00000,   2.00000
318396083.69650,-193573902.63039,-91154653.05132,   0.00229,  -0.00193,  -0.00146,477010656.00000,   0.00054,275231936.00000,   0.00047,  -0.00043,  -0.00028,   0.00000,   2.00000
319202668.48871,-192401800.38380,-91456114.05726,   0.00230,  -0.00193,  -0.00147,477001664.00000,   0.00055,275240224.00000,   0.00047,  -0.00043,  -0.00028, -64.00000,   2.00000
320018333.14553,-191217989.77472,-91753763.43440,   0.00231,  -0.00193,  -0.00148,477024864.00000,   0.00056,275248576.00000,   0.00048,  -0.00044,  -0.00029,  32.00000,   2.00000
320802081.83763,-190065480.51755,-92054529.60340,   0.00232,  -0.00193,  -0.00149,477011744.00000,   0.00056,275256832.00000,   0.00049,  -0.00044,  -0.00029, -64.00000,   2.00000
321625982.09920,-188866494.57491,-92349016.56934,   0.00232,  -0.00194,  -0.00150,477015616.00000,   0.00057,275265056.00000,   0.00049,  -0.00045,  -0.00030, 224.00000,   2.00000
322429006.87857,-187683017.67158,-92649661.42187,   0.00233,  -0.00194,  -0.00151,477018208.00000,   0.00058,275273248.00000,   0.00050,  -0.00046,  -0.00030,  96.00000,   2.00000
323229536.88654,-186503984.40691,-92943201.21539,   0.00234,  -0.00194,  -0.00151,477025696.00000,   0.00059,275281472.00000,   0.00051,  -0.00046,  -0.00031,  64.00000,   2.00000
324039269.94907,-185309736.56096,-93236476.47494,   0.00235,  -0.00194,  -0.00152,477029216.00000,   0.00059,275289632.00000,   0.00051,  -0.00047,  -0.00031,   0.00000,   2.00000
324844434.47695,-184114508.71034,-93531686.35231,   0.00236,  -0.00194,  -0.00153,477020896.00000,   0.00060,275297728.00000,   0.00052,  -0.00047,  -0.00031, -32.00000,   2.00000
325658878.70638,-182904112.03224,-93826390.26795,   0.00236,  -0.00194,  -0.00154,477024672.00000,   0.00061,275305792.00000,   0.00053,  -0.00048,  -0.00032, 192.00000,   2.00000
326468489.83432,-181696152.08294,-94118853.14451,   0.00237,  -0.00195,  -0.00155,477036416.00000,   0.00062,275313888.00000,   0.00053,  -0.00048,  -0.00032, -64.00000,   2.00000
327277646.60260,-180491089.01426,-94403781.66695,   0.00238,  -0.00195,  -0.00156,477043456.00000,   0.00062,275321952.00000,   0.00054,  -0.00049,  -0.00033,  32.00000,   2.00000
328101737.68954,-179262440.43472,-94692220.95191,   0.00239,  -0.00195,  -0.00156,477025760.00000,   0.00063,275329920.00000,   0.00055,  -0.00049,  -0.00033,  96.00000,   2.00000
328927261.58384,-178028728.72487,-94984683.39551,   0.00240,  -0.00195,  -0.00157,477036352.00000,   0.00064,275337920.00000,   0.00055,  -0.00050,  -0.00034,  32.00000,   2.00000
329763374.44255,-176790813.01245,-95271163.76043,   0.00240,  -0.00195,  -0.00158,477036384.00000,   0.00065,275345856.00000,   0.00056,  -0.00050,  -0.00034, 160.00000,   2.00000
330612163.98357,-175544620.13888,-95556266.58127,   0.00241,  -0.00195,  -0.00159,477014624.00000,   0.00065,275353696.00000,   0.00056,  -0.00051,  -0.00035,  32.00000,   2.00000
331479314.03289,-174276230.39201,-95848468.50295,   0.00242,  -0.00195,  -0.00160,477012448.00000,   0.00066,275361472.00000,   0.00057,  -0.00051,  -0.00035,  32.00000,   2.00000
332362696.66501,-172993883.83312,-96136311.63971,   0.00243,  -0.00196,  -0.00160,477006304.00000,   0.00067,275369184.00000,   0.00058,  -0.00052,  -0.00035,  32.00000,   2.00000
333223029.82766,-171729840.91953,-96430442.56210,   0.00243,  -0.00196,  -0.00161,477008704.00000,   0.00067,275376896.00000,   0.00058,  -0.00053,  -0.00036, 160.00000,   2.00000
334076227.70318,-170473432.35595,-96717068.75306,   0.00244,  -0.00196,  -0.00162,477018752.00000,   0.00068,275384608.00000,   0.00059,  -0.00053,  -0.00036, 128.00000,   2.00000
334949363.16715,-169188218.37367,-96998985.70554,   0.00245,  -0.00196,  -0.00163,477015296.00000,   0.00069,275392224.00000,   0.00060,  -0.00054,  -0.00037,  64.00000,   2.00000
335793822.04780,-167923226.78897,-97286065.17988,   0.00246,  -0.00196,  -0.00164,477023648.00000,   0.00070,275399872.00000,   0.00060,  -0.00054,  -0.00037, 128.00000,   2.00000
336626302.37013,-166667833.86995,-97564687.34272,   0.00246,  -0.00196,  -0.00164,477038080.00000,   0.00070,275407520.00000,   0.00061,  -0.00055,  -0.00038,  32.00000,   2.00000
337458323.06758,-165401519.88134,-97841634.48706,   0.00247,  -0.00196,  -0.00165,477049120.00000,   0.00071,275415168.00000,   0.00061,  -0.00055,  -0.00038,  96.00000,   2.00000
338278226.57822,-164136858.19111,-98119590.33207,   0.00248,  -0.00196,  -0.00166,477047040.00000,   0.00072,275422752.00000,   0.00062,  -0.00056,  -0.00038,  96.00000,   2.00000
339101102.51436,-162858505.54573,-98396244.13823,   0.00249,  -0.00196,  -0.00167,477055584.00000,   0.00072,275430336.00000,   0.00063,  -0.00056,  -0.00039, -64.00000,   2.00000
339918192.24951,-161585876.07968,-98665269.10428,   0.00250,  -0.00196,  -0.00168,477065248.00000,   0.00073,275437952.00000,   0.00063,  -0.00057,  -0.00039,  32.00000,   2.00000
340728467.97176,-160316626.33220,-98932260.30450,   0.00250,  -0.00196,  -0.00168,477077472.00000,   0.00074,275445568.00000,   0.00064,  -0.00057,  -0.00040,  96.00000,   2.00000
341534584.44695,-159045004.88262,-99201553.36325,   0.00251,  -0.00196,  -0.00169,477069056.00000,   0.00074,275453120.00000,   0.00065,  -0.00058,  -0.00040, 160.00000,   2.00000
342337269.98747,-157770459.29819,-99473247.51387,   0.00252,  -0.00197,  -0.00170,477060032.00000,   0.00075,275460608.00000,   0.00065,  -0.00058,  -0.00041,  96.00000,   2.00000
343165164.43344,-156466551.98206,-99736766.65255,   0.00252,  -0.00197,  -0.00171,477072160.00000,   0.00076,275468096.00000,   0.00066,  -0.00058,  -0.00041,   0.00000,   2.00000
343964425.66988,-155192331.26073,-100004280.59184,   0.00253,  -0.00197,  -0.00172,477056064.00000,   0.00076,275475456.00000,   0.00066,  -0.00059,  -0.00042,  96.00000,   2.00000
344786731.85001,-153887041.57867,-100269039.27201,   0.00254,  -0.00197,  -0.00172,477071680.00000,   0.00077,275482880.00000,   0.00067,  -0.00059,  -0.00042, 128.00000,   2.00000
345596026.78752,-152598735.20796,-100529833.19633,   0.00255,  -0.00197,  -0.00173,477064448.00000,   0.00078,275490240.00000,   0.00068,  -0.00060,  -0.00042,  64.00000,   2.00000
346416077.94558,-151292986.82892,-100790689.27219,   0.00255,  -0.00197,  -0.00174,477067072.00000,   0.00079,275497568.00000,   0.00068,  -0.00060,  -0.00043,-128.00000,   2.00000
347247024.29976,-149969797.35497,-101051659.86725,   0.00256,  -0.00197,  -0.00175,477069888.00000,   0.00079,275504896.00000,   0.00069,  -0.00061,  -0.00043,  64.00000,   2.00000
348062497.64625,-148662003.67344,-101314096.44820,   0.00257,  -0.00197,  -0.00175,477066432.00000,   0.00080,275512160.00000,   0.00070,  -0.00061,  -0.00044,  32.00000,   2.00000
348891637.39909,-147337922.38791,-101571370.37347,   0.00258,  -0.00197,  -0.00176,477065312.00000,   0.00081,275519360.00000,   0.00070,  -0.00062,  -0.00044,  64.00000,   2.00000
349705642.31452,-146029167.60112,-101830253.88429,   0.00258,  -0.00197,  -0.00177,477061568.00000,   0.00081,275526528.00000,   0.00071,  -0.00062,  -0.00045, 160.00000,   2.00000
350530526.23858,-144702546.14866,-102089301.41772,   0.00259,  -0.00197,  -0.00178,477064544.00000,   0.00082,275533696.00000,   0.00071,  -0.00063,  -0.00045, -32.00000,   2.00000
351356950.14646,-143373099.54198,-102346129.35277,   0.00260,  -0.00197,  -0.00179,477050272.00000,   0.00082,275540736.00000,   0.00072,  -0.00063,  -0.00045,  32.00000,   2.00000
352193114.01301,-142031421.77689,-102599025.83742,   0.00260,  -0.00197,  -0.00179,477072224.00000,   0.00083,275547840.00000,   0.00072,  -0.00064,  -0.00046, -96.00000,   2.00000
353015824.32911,-140699038.13510,-102857907.18942,   0.00261,  -0.00197,  -0.00180,477048960.00000,   0.00084,275554816.00000,   0.00073,  -0.00064,  -0.00046, 128.00000,   2.00000
353848312.78027,-139354307.32769,-103112880.09107,   0.00262,  -0.00197,  -0.00181,477070720.00000,   0.00084,275561856.00000,   0.00074,  -0.00064,  -0.00047,   0.00000,   2.00000
354682635.34321,-138006422.81461,-103365801.10955,   0.00263,  -0.00197,  -0.00182,477056320.00000,   0.00085,275568800.00000,   0.00074,  -0.00065,  -0.00047,-128.00000,   2.00000
355518821.96200,-136655285.75071,-103616702.56682,   0.00263,  -0.00197,  -0.00182,477041888.00000,   0.00086,275575648.00000,   0.00075,  -0.00065,  -0.00048, -32.00000,   2.00000
356362251.41429,-135290525.94564,-103869104.97843,   0.00264,  -0.00197,  -0.00183,477067296.00000,   0.00086,275582560.00000,   0.00075,  -0.00066,  -0.00048, 160.00000,   2.00000
357195204.47435,-133935974.16719,-104122365.15845,   0.00265,  -0.00197,  -0.00184,477039872.00000,   0.00087,275589312.00000,   0.00076,  -0.00066,  -0.00048, 160.00000,   2.00000
358040776.35492,-132570386.90328,-104366510.41023,   0.00265,  -0.00197,  -0.00185,477057344.00000,   0.00088,275596128.00000,   0.00077,  -0.00067,  -0.00049,  64.00000,   2.00000
358882584.56108,-131198917.30401,-104619267.29719,   0.00266,  -0.00197,  -0.00185,477050528.00000,   0.00088,275602880.00000,   0.00077,  -0.00067,  -0.00049, 224.00000,   2.00000
359725934.17048,-129824110.79067,-104869982.75535,   0.00267,  -0.00197,  -0.00186,477036032.00000,   0.00089,275609536.00000,   0.00078,  -0.00067,  -0.00050,  64.00000,   2.00000
360569460.39581,-128452134.44866,-105114431.41574,   0.00267,  -0.00197,  -0.00187,477040512.00000,   0.00089,275616160.00000,   0.00078,  -0.00068,  -0.00050,  96.00000,   2.00000
361420628.52668,-127060912.84001,-105364370.75693,   0.00268,  -0.00196,  -0.00188,477047136.00000,   0.00090,275622784.00000,   0.00079,  -0.00068,  -0.00051, -64.00000,   2.00000
362275767.44749,-125668070.65152,-105606893.57041,   0.00269,  -0.00196,  -0.00188,477028832.00000,   0.00091,275629312.00000,   0.00079,  -0.00069,  -0.00051,  32.00000,   2.00000
363124433.28440,-124275948.76782,-105853381.22879,   0.00269,  -0.00196,  -0.00189,477042080.00000,   0.00091,275635872.00000,   0.00080,  -0.00069,  -0.00051, -96.00000,   2.00000
363960001.39201,-122900767.53952,-106096149.57931,   0.00270,  -0.00196,  -0.00190,477034240.00000,   0.00092,275642336.00000,   0.00080,  -0.00069,  -0.00052,  32.00000,   2.00000
364818171.24636,-121488672.65864,-106340000.49289,   0.00271,  -0.00196,  -0.00190,477032224.00000,   0.00092,275648768.00000,   0.00081,  -0.00070,  -0.00052,   0.00000,   2.00000
365674484.05571,-120080450.45202,-106576912.41670,   0.00271,  -0.00196,  -0.00191,477038208.00000,   0.00093,275655200.00000,   0.00081,  -0.00070,  -0.00053,  64.00000,   2.00000
366513906.42056,-118688396.94272,-106815065.50742,   0.00272,  -0.00196,  -0.00192,477035328.00000,   0.00094,275661600.00000,   0.00082,  -0.00071,  -0.00053,  32.00000,   2.00000
367352395.33391,-117294003.32283,-107050408.92348,   0.00273,  -0.00196,  -0.00193,477022656.00000,   0.00094,275667904.00000,   0.00083,  -0.00071,  -0.00053, -96.00000,   2.00000
368198870.25928,-115882869.17633,-107285175.65883,   0.00273,  -0.00196,  -0.00193,477027680.00000,   0.00095,275674176.00000,   0.00083,  -0.00071,  -0.00054,  32.00000,   2.00000
369039536.68808,-114474824.09502,-107517953.78620,   0.00274,  -0.00196,  -0.00194,477038688.00000,   0.00095,275680480.00000,   0.00084,  -0.00072,  -0.00054,  64.00000,   2.00000
369878631.87693,-113064527.40043,-107747757.01123,   0.00274,  -0.00196,  -0.00195,477026624.00000,   0.00096,275686720.00000,   0.00084,  -0.00072,  -0.00055,-192.00000,   2.00000
370711743.55661,-111657600.36531,-107975499.68272,   0.00275,  -0.00196,  -0.00195,477037632.00000,   0.00097,275692928.00000,   0.00085,  -0.00072,  -0.00055, 128.00000,   2.00000
371543095.52865,-110248529.50219,-108200151.28019,   0.00276,  -0.00195,  -0.00196,477025792.00000,   0.00097,275699072.00000,   0.00085,  -0.00073,  -0.00055,  96.00000,   2.00000
372380938.38478,-108823005.82275,-108423656.50039,   0.00276,  -0.00195,  -0.00197,477031840.00000,   0.00098,275705216.00000,   0.00086,  -0.00073,  -0.00056, 128.00000,   2.00000
373200407.43737,-107414175.91786,-108647802.15819,   0.00277,  -0.00195,  -0.00197,477029760.00000,   0.00098,275711328.00000,   0.00086,  -0.00074,  -0.00056, 192.00000,   2.00000
374029346.20546,-105990182.02395,-108865486.44892,   0.00278,  -0.00195,  -0.00198,477031552.00000,   0.00099,275717408.00000,   0.00087,  -0.00074,  -0.00057, 128.00000,   2.00000
374840049.45106,-104582795.86245,-109083835.88529,   0.00278,  -0.00195,  -0.00199,477029376.00000,   0.00099,275723456.00000,   0.00087,  -0.00074,  -0.00057,   0.00000,   2.00000
375660263.63797,-103159912.82264,-109295806.90985,   0.00279,  -0.00195,  -0.00199,477031072.00000,   0.00100,275729472.00000,   0.00088,  -0.00075,  -0.00057, -96.00000,   2.00000
376463165.05419,-101753368.51478,-109508894.87834,   0.00279,  -0.00195,  -0.00200,477027904.00000,   0.00100,275735456.00000,   0.00088,  -0.00075,  -0.00058, 160.00000,   2.00000
377276112.47496,-100330802.33974,-109716002.34512,   0.00280,  -0.00195,  -0.00201,477029440.00000,   0.00101,275741408.00000,   0.00089,  -0.00075,  -0.00058,   0.00000,   2.00000
378096357.43811,-98890934.41947,-109922554.95633,   0.00281,  -0.00194,  -0.00201,477034688.00000,   0.00102,275747360.00000,   0.00089,  -0.00076,  -0.00059, -32.00000,   2.00000
378903419.65083,-97467723.94116,-110125742.98736,   0.00281,  -0.00194,  -0.00202,477026272.00000,   0.00102,275753216.00000,   0.00090,  -0.00076,  -0.00059,  64.00000,   2.00000
379707131.68007,-96039479.34901,-110331979.17699,   0.00282,  -0.00194,  -0.00203,477017312.00000,   0.00103,275759040.00000,   0.00090,  -0.00076,  -0.00059,-128.00000,   2.00000
380522280.63035,-94594461.57208,-110533040.69532,   0.00282,  -0.00194,  -0.00203,477017536.00000,   0.00103,275764800.00000,   0.00091,  -0.00077,  -0.00060, 128.00000,   2.00000
381321705.64601,-93164439.49437,-110736223.67384,   0.00283,  -0.00194,  -0.00204,477012864.00000,   0.00104,275770560.00000,   0.00091,  -0.00077,  -0.00060,   0.00000,   2.00000
382116869.11567,-91736706.87254,-110938361.31148,   0.00284,  -0.00194,  -0.00205,477021376.00000,   0.00104,275776288.00000,   0.00092,  -0.00077,  -0.00060, -32.00000,   2.00000
382912801.22520,-90304507.09381,-111138701.81127,   0.00284,  -0.00193,  -0.00205,477007264.00000,   0.00105,275781952.00000,   0.00092,  -0.00078,  -0.00061, 128.00000,   2.00000
383720278.05564,-88855032.89706,-111333864.08033,   0.00285,  -0.00193,  -0.00206,477007168.00000,   0.00105,275787552.00000,   0.00093,  -0.00078,  -0.00061,   0.00000,   2.00000
384512853.91237,-87420328.03900,-111531322.63735,   0.00285,  -0.00193,  -0.00207,477001440.00000,   0.00106,275793120.00000,   0.00093,  -0.00078,  -0.00062,  32.00000,   2.00000
385314005.17819,-85967265.35265,-111728777.63802,   0.00286,  -0.00193,  -0.00207,477005376.00000,   0.00106,275798688.00000,   0.00094,  -0.00079,  -0.00062,  64.00000,   2.00000
386116034.04254,-84509331.86429,-111924369.45250,   0.00286,  -0.00193,  -0.00208,476991136.00000,   0.00107,275804160.00000,   0.00094,  -0.00079,  -0.00062, 128.00000,   2.00000
386917455.60569,-83054505.75638,-112113791.61275,   0.00287,  -0.00192,  -0.00208,476994752.00000,   0.00107,275809632.00000,   0.00095,  -0.00079,  -0.00063,  32.00000,   2.00000
387704127.78490,-81614212.23276,-112305482.74126,   0.00287,  -0.00192,  -0.00209,476988832.00000,   0.00108,275815040.00000,   0.00095,  -0.00080,  -0.00063,   0.00000,   2.00000
388502772.05426,-80156443.32646,-112492023.98760,   0.00288,  -0.00192,  -0.00210,476988160.00000,   0.00108,275820416.00000,   0.00096,  -0.00080,  -0.00063,  96.00000,   2.00000
389299163.53617,-78692598.48070,-112681833.60136,   0.00289,  -0.00192,  -0.00210,476978112.00000,   0.00109,275825728.00000,   0.00096,  -0.00080,  -0.00064,  32.00000,   2.00000
390080964.01216,-77243247.11972,-112873926.22555,   0.00289,  -0.00192,  -0.00211,476972160.00000,   0.00109,275831008.00000,   0.00096,  -0.00080,  -0.00064, 160.00000,   2.00000
390874462.36202,-75776340.16393,-113060755.42975,   0.00290,  -0.00191,  -0.00212,476971680.00000,   0.00110,275836224.00000,   0.00097,  -0.00081,  -0.00065,  96.00000,   2.00000
391656747.34021,-74324891.60793,-113244757.37235,   0.00290,  -0.00191,  -0.00212,476961408.00000,   0.00110,275841408.00000,   0.00097,  -0.00081,  -0.00065, 128.00000,   2.00000
392447009.37344,-72854892.74919,-113428490.34986,   0.00291,  -0.00191,  -0.00213,476965440.00000,   0.00111,275846560.00000,   0.00098,  -0.00081,  -0.00065, -96.00000,   2.00000
393248854.10190,-71367450.23706,-113606925.43162,   0.00291,  -0.00191,  -0.00213,476965280.00000,   0.00111,275851680.00000,   0.00098,  -0.00082,  -0.00066, -32.00000,   2.00000
394025433.99936,-69906772.27100,-113790989.36289,   0.00292,  -0.00190,  -0.00214,476945344.00000,   0.00112,275856704.00000,   0.00099,  -0.00082,  -0.00066, -32.00000,   2.00000
394813178.70033,-68428540.83382,-113969603.15606,   0.00292,  -0.00190,  -0.00214,476945568.00000,   0.00112,275861696.00000,   0.00099,  -0.00082,  -0.00066, -64.00000,   2.00000
395596408.50634,-66952651.90177,-114146923.18350,   0.00293,  -0.00190,  -0.00215,476954016.00000,   0.00113,275866688.00000,   0.00100,  -0.00082,  -0.00067,   0.00000,   2.00000
396380394.89845,-65471445.50171,-114322232.12363,   0.00293,  -0.00190,  -0.00216,476940224.00000,   0.00113,275871616.00000,   0.00100,  -0.00083,  -0.00067,  96.00000,   2.00000
397149457.99558,-64004733.27585,-114499672.21144,   0.00294,  -0.00189,  -0.00216,476934752.00000,   0.00114,275876480.00000,   0.00100,  -0.00083,  -0.00067, 192.00000,   2.00000
397929149.13850,-62520441.46241,-114671474.12314,   0.00294,  -0.00189,  -0.00217,476935360.00000,   0.00114,275881344.00000,   0.00101,  -0.00083,  -0.00068, -96.00000,   2.00000
398697459.84057,-61051497.52699,-114840343.45790,   0.00295,  -0.00189,  -0.00217,476925216.00000,   0.00114,275886112.00000,   0.00101,  -0.00083,  -0.00068,   0.00000,   2.00000
399473011.17839,-59564147.17858,-115008671.87181,   0.00295,  -0.00189,  -0.00218,476930400.00000,   0.00115,275890880.00000,   0.00102,  -0.00084,  -0.00068,   0.00000,   2.00000
400249128.79446,-58071192.12711,-115174892.23198,   0.00296,  -0.00188,  -0.00218,476917024.00000,   0.00115,275895584.00000,   0.00102,  -0.00084,  -0.00069, 160.00000,   2.00000
401010138.70724,-56592536.16741,-115343150.73074,   0.00296,  -0.00188,  -0.00219,476911616.00000,   0.00116,275900224.00000,   0.00103,  -0.00084,  -0.00069,  32.00000,   2.00000
401781713.82610,-55096196.99175,-115505715.88811,   0.00296,  -0.00188,  -0.00219,476912480.00000,   0.00116,275904832.00000,   0.00103,  -0.00084,  -0.00069, 128.00000,   2.00000
402548481.23575,-53602315.19677,-115666841.43918,   0.00297,  -0.00187,  -0.00220,476920960.00000,   0.00117,275909472.00000,   0.00103,  -0.00085,  -0.00070,  96.00000,   2.00000
403294086.54663,-52135187.25572,-115828602.23830,   0.00297,  -0.00187,  -0.00221,476896576.00000,   0.00117,275913984.00000,   0.00104,  -0.00085,  -0.00070,  64.00000,   2.00000
404062094.12263,-50629220.98371,-115985447.69726,   0.00298,  -0.00187,  -0.00221,476894176.00000,   0.00117,275918432.00000,   0.00104,  -0.00085,  -0.00070,  64.00000,   2.00000
404825260.18013,-49125588.81723,-116140818.27979,   0.00298,  -0.00187,  -0.00222,476902720.00000,   0.00118,275922944.00000,   0.00105,  -0.00085,  -0.00071,  64.00000,   2.00000
405567737.69801,-47648341.26028,-116296943.64432,   0.00299,  -0.00186,  -0.00222,476877728.00000,   0.00118,275927264.00000,   0.00105,  -0.00086,  -0.00071, 128.00000,   2.00000
406327077.70887,-46140676.03677,-116448774.82366,   0.00299,  -0.00186,  -0.00223,476897440.00000,   0.00119,275931680.00000,   0.00105,  -0.00086,  -0.00071,  96.00000,   2.00000
407065873.18758,-44659115.01164,-116601387.66171,   0.00300,  -0.00186,  -0.00223,476872192.00000,   0.00119,275935968.00000,   0.00106,  -0.00086,  -0.00071,  96.00000,   2.00000
407811898.09310,-43158655.48551,-116753355.97848,   0.00300,  -0.00185,  -0.00224,476877184.00000,   0.00119,275940256.00000,   0.00106,  -0.00086,  -0.00072, -64.00000,   2.00000
408562701.90521,-41652155.04527,-116898262.89701,   0.00300,  -0.00185,  -0.00224,476859008.00000,   0.00120,275944416.00000,   0.00106,  -0.00086,  -0.00072,  32.00000,   2.00000
409305402.38476,-40147036.80935,-117046791.32110,   0.00301,  -0.00185,  -0.00225,476871424.00000,   0.00120,275948640.00000,   0.00107,  -0.00087,  -0.00072,-128.00000,   2.00000
410041717.99192,-38656786.34982,-117187652.04392,   0.00301,  -0.00184,  -0.00225,476855584.00000,   0.00121,275952768.00000,   0.00107,  -0.00087,  -0.00073, 128.00000,   2.00000
410796509.41556,-37126259.11839,-117328483.09271,   0.00302,  -0.00184,  -0.00226,476857952.00000,   0.00121,275956864.00000,   0.00108,  -0.00087,  -0.00073, -64.00000,   2.00000
411516748.15829,-35641590.75112,-117474745.27149,   0.00302,  -0.00184,  -0.00226,476839072.00000,   0.00121,275960864.00000,   0.00108,  -0.00087,  -0.00073,   0.00000,   2.00000
412247923.59079,-34138302.84435,-117615329.19605,   0.00302,  -0.00183,  -0.00226,476839424.00000,   0.00122,275964864.00000,   0.00108,  -0.00087,  -0.00074,   0.00000,   2.00000
412990298.70874,-32616430.49476,-117750330.50065,   0.00303,  -0.00183,  -0.00227,476839584.00000,   0.00122,275968832.00000,   0.00109,  -0.00088,  -0.00074, 128.00000,   2.00000
413718987.67101,-31107673.69272,-117887719.71235,   0.00303,  -0.00183,  -0.00227,476832544.00000,   0.00122,275972736.00000,   0.00109,  -0.00088,  -0.00074,  96.00000,   2.00000
414449159.56985,-29591372.27829,-118023177.52382,   0.00304,  -0.00182,  -0.00228,476818272.00000,   0.00123,275976576.00000,   0.00109,  -0.00088,  -0.00074,  64.00000,   2.00000
415169941.01380,-28088682.42926,-118156204.21962,   0.00304,  -0.00182,  -0.00228,476806240.00000,   0.00123,275980320.00000,   0.00110,  -0.00088,  -0.00075,  64.00000,   2.00000
415897840.77684,-26566548.53541,-118288559.75050,   0.00304,  -0.00182,  -0.00229,476810944.00000,   0.00124,275984096.00000,   0.00110,  -0.00088,  -0.00075,  64.00000,   2.00000
416627469.26389,-25036656.81792,-118419086.41707,   0.00305,  -0.00181,  -0.00229,476796480.00000,   0.00124,275987776.00000,   0.00110,  -0.00089,  -0.00075,   0.00000,   2.00000
417345912.96943,-23530382.52172,-118542864.39925,   0.00305,  -0.00181,  -0.00230,476801184.00000,   0.00124,275991456.00000,   0.00111,  -0.00089,  -0.00076,  32.00000,   2.00000
418073166.06257,-21994344.32586,-118670326.88650,   0.00305,  -0.00180,  -0.00230,476789280.00000,   0.00125,275995072.00000,   0.00111,  -0.00089,  -0.00076,   0.00000,   2.00000
418791165.33638,-20471597.85175,-118795452.54530,   0.00306,  -0.00180,  -0.00230,476776768.00000,   0.00125,275998592.00000,   0.00111,  -0.00089,  -0.00076,  64.00000,   2.00000
419496082.78457,-18961515.13355,-118923218.43123,   0.00306,  -0.00180,  -0.00231,476768960.00000,   0.00125,276002080.00000,   0.00112,  -0.00089,  -0.00076,  32.00000,   2.00000
420211759.51201,-17432353.16569,-119045346.99243,   0.00306,  -0.00179,  -0.00231,476769184.00000,   0.00126,276005536.00000,   0.00112,  -0.00089,  -0.00077, -32.00000,   2.00000
420929232.55880,-15894979.09304,-119165733.86879,   0.00307,  -0.00179,  -0.00232,476754560.00000,   0.00126,276008928.00000,   0.00112,  -0.00090,  -0.00077, -64.00000,   2.00000
421631904.83085,-14380657.60304,-119284478.61229,   0.00307,  -0.00178,  -0.00232,476763360.00000,   0.00126,276012320.00000,   0.00112,  -0.00090,  -0.00077, 128.00000,   2.00000
422341838.38545,-12847848.65922,-119400820.77159,   0.00307,  -0.00178,  -0.00233,476727680.00000,   0.00126,276015552.00000,   0.00113,  -0.00090,  -0.00077, -64.00000,   2.00000
423043856.53947,-11316239.39775,-119520969.18600,   0.00308,  -0.00178,  -0.00233,476738688.00000,   0.00127,276018816.00000,   0.00113,  -0.00090,  -0.00078, -64.00000,   2.00000
423749859.46950,-9787258.63119,-119630144.59103,   0.00308,  -0.00177,  -0.00233,476736224.00000,   0.00127,276022048.00000,   0.00113,  -0.00090,  -0.00078,   0.00000,   2.00000
424444635.82629,-8259880.83525,-119746388.76201,   0.00308,  -0.00177,  -0.00234,476711552.00000,   0.00127,276025152.00000,   0.00114,  -0.00090,  -0.00078,  96.00000,   2.00000
425145893.53043,-6712764.81879,-119861898.81656,   0.00309,  -0.00176,  -0.00234,476716416.00000,   0.00128,276028288.00000,   0.00114,  -0.00090,  -0.00078, -32.00000,   2.00000
425850882.87870,-5168165.89768,-119966378.25111,   0.00309,  -0.00176,  -0.00234,476713760.00000,   0.00128,276031360.00000,   0.00114,  -0.00091,  -0.00079, -64.00000,   2.00000
426530478.69932,-3645913.54511,-120082563.05528,   0.00309,  -0.00176,  -0.00235,476694880.00000,   0.00128,276034368.00000,   0.00114,  -0.00091,  -0.00079,  64.00000,   2.00000
427224356.64613,-2104662.72014,-120188114.32433,   0.00309,  -0.00175,  -0.00235,476690752.00000,   0.00128,276037312.00000,   0.00115,  -0.00091,  -0.00079, 256.00000,   2.00000
427915708.12344,-554078.37122,-120296795.13603,   0.00310,  -0.00175,  -0.00236,476681056.00000,   0.00129,276040192.00000,   0.00115,  -0.00091,  -0.00079, 192.00000,   2.00000
428606822.40339,994486.11059,-120399381.58062,   0.00310,  -0.00174,  -0.00236,476682816.00000,   0.00129,276043104.00000,   0.00115,  -0.00091,  -0.00079, 160.00000,   2.00000
429280338.24744,2520362.19957,-120503739.88235,   0.00310,  -0.00174,  -0.00236,476654528.00000,   0.00129,276045856.00000,   0.00115,  -0.00091,  -0.00080,-160.00000,   2.00000
429960288.99948,4066055.96252,-120607361.29941,   0.00311,  -0.00173,  -0.00237,476659360.00000,   0.00130,276048608.00000,   0.00116,  -0.00091,  -0.00080,  64.00000,   2.00000
430650065.94142,5631243.53646,-120705134.79253,   0.00311,  -0.00173,  -0.00237,476660096.00000,   0.00130,276051360.00000,   0.00116,  -0.00091,  -0.00080, 160.00000,   2.00000
431322452.28087,7174050.46327,-120804715.71542,   0.00311,  -0.00172,  -0.00237,476631808.00000,   0.00130,276053952.00000,   0.00116,  -0.00092,  -0.00080, -96.00000,   2.00000
431990776.51787,8715245.64653,-120903159.53399,   0.00311,  -0.00172,  -0.00238,476638016.00000,   0.00130,276056576.00000,   0.00116,  -0.00092,  -0.00080, 160.00000,   2.00000
432660336.35130,10265917.45785,-120999676.69885,   0.00311,  -0.00172,  -0.00238,476623744.00000,   0.00130,276059136.00000,   0.00117,  -0.00092,  -0.00081,   0.00000,   2.00000
433331434.39103,11826134.68371,-121094349.40171,   0.00312,  -0.00171,  -0.00238,476609280.00000,   0.00131,276061600.00000,   0.00117,  -0.00092,  -0.00081, -32.00000,   2.00000
433988074.73807,13363291.73837,-121187507.60536,   0.00312,  -0.00171,  -0.00239,476616480.00000,   0.00131,276064096.00000,   0.00117,  -0.00092,  -0.00081, -64.00000,   2.00000
434656260.65411,14931633.72601,-121279034.27950,   0.00312,  -0.00170,  -0.00239,476601152.00000,   0.00131,276066496.00000,   0.00117,  -0.00092,  -0.00081,  96.00000,   2.00000
435315751.53720,16488277.13603,-121368377.48424,   0.00312,  -0.00170,  -0.00239,476587744.00000,   0.00131,276068832.00000,   0.00118,  -0.00092,  -0.00081, 288.00000,   2.00000
435966844.94862,18033324.83699,-121455615.27186,   0.00313,  -0.00169,  -0.00239,476574048.00000,   0.00132,276071104.00000,   0.00118,  -0.00092,  -0.00082,  32.00000,   2.00000
436623528.04067,19598390.42061,-121541785.06944,   0.00313,  -0.00169,  -0.00240,476579552.00000,   0.00132,276073376.00000,   0.00118,  -0.00092,  -0.00082, 128.00000,   2.00000
437267702.73840,21152170.60710,-121630730.72696,   0.00313,  -0.00168,  -0.00240,476570656.00000,   0.00132,276075616.00000,   0.00118,  -0.00093,  -0.00082,   0.00000,   2.00000
437917507.87065,22715967.76699,-121712842.57283,   0.00313,  -0.00168,  -0.00240,476551552.00000,   0.00132,276077760.00000,   0.00118,  -0.00093,  -0.00082,  64.00000,   2.00000
438555016.47846,24268671.29634,-121797778.58741,   0.00313,  -0.00167,  -0.00241,476542432.00000,   0.00132,276079840.00000,   0.00119,  -0.00093,  -0.00082, -32.00000,   2.00000
439202209.93178,25841389.12615,-121876704.54269,   0.00313,  -0.00167,  -0.00241,476543296.00000,   0.00133,276081888.00000,   0.00119,  -0.00093,  -0.00082, 128.00000,   2.00000
439829164.94377,27393571.02066,-121962576.30241,   0.00314,  -0.00166,  -0.00241,476518688.00000,   0.00133,276083872.00000,   0.00119,  -0.00093,  -0.00083,  64.00000,   2.00000
440460433.79081,28944273.85905,-122037446.11026,   0.00314,  -0.00166,  -0.00241,476515168.00000,   0.00133,276085792.00000,   0.00119,  -0.00093,  -0.00083, 128.00000,   2.00000
441106637.10780,30536753.81917,-122111241.52327,   0.00314,  -0.00165,  -0.00242,476520320.00000,   0.00133,276087712.00000,   0.00119,  -0.00093,  -0.00083, 128.00000,   2.00000
441723507.69310,32087526.72722,-122192020.63675,   0.00314,  -0.00165,  -0.00242,476495904.00000,   0.00133,276089536.00000,   0.00119,  -0.00093,  -0.00083,  32.00000,   2.00000
442354251.51341,33658530.86778,-122261894.36235,   0.00314,  -0.00164,  -0.00242,476491840.00000,   0.00133,276091360.00000,   0.00120,  -0.00093,  -0.00083,-160.00000,   2.00000
442982483.77208,35240528.64257,-122334747.13009,   0.00314,  -0.00164,  -0.00242,476482048.00000,   0.00134,276093088.00000,   0.00120,  -0.00093,  -0.00083,-192.00000,   2.00000
443589985.27356,36790517.63921,-122410652.80346,   0.00315,  -0.00163,  -0.00243,476472288.00000,   0.00134,276094784.00000,   0.00120,  -0.00093,  -0.00083,  32.00000,   2.00000
444220381.45745,38382444.59998,-122475597.68261,   0.00315,  -0.00163,  -0.00243,476468512.00000,   0.00134,276096448.00000,   0.00120,  -0.00093,  -0.00084,   0.00000,   2.00000
444831469.35206,39954841.06978,-122547783.47360,   0.00315,  -0.00162,  -0.00243,476443168.00000,   0.00134,276097984.00000,   0.00120,  -0.00093,  -0.00084, -64.00000,   2.00000
445442977.65117,41526198.64284,-122613955.15580,   0.00315,  -0.00161,  -0.00243,476443776.00000,   0.00134,276099520.00000,   0.00120,  -0.00093,  -0.00084, -96.00000,   2.00000
446052244.21434,43108926.95081,-122683207.72985,   0.00315,  -0.00161,  -0.00243,476433792.00000,   0.00134,276100992.00000,   0.00120,  -0.00094,  -0.00084,   0.00000,   2.00000
446654263.57363,44681605.55294,-122750674.45516,   0.00315,  -0.00160,  -0.00244,476418816.00000,   0.00135,276102432.00000,   0.00121,  -0.00094,  -0.00084,   0.00000,   2.00000
447256671.95180,46253338.30532,-122812137.74488,   0.00315,  -0.00160,  -0.00244,476419552.00000,   0.00135,276103808.00000,   0.00121,  -0.00094,  -0.00084,  96.00000,   2.00000
447860939.34005,47836710.23055,-122871790.32588,   0.00315,  -0.00159,  -0.00244,476404928.00000,   0.00135,276105152.00000,   0.00121,  -0.00094,  -0.00084,  32.00000,   2.00000
448455409.97809,49422806.91611,-122938788.52343,   0.00315,  -0.00159,  -0.00244,476379168.00000,   0.00135,276106368.00000,   0.00121,  -0.00094,  -0.00084, -64.00000,   2.00000
449050233.73323,51008076.55394,-122999786.27406,   0.00315,  -0.00158,  -0.00244,476379808.00000,   0.00135,276107584.00000,   0.00121,  -0.00094,  -0.00084, -32.00000,   2.00000
449645526.09826,52592521.59121,-123054828.49969,   0.00315,  -0.00158,  -0.00244,476380384.00000,   0.00135,276108768.00000,   0.00121,  -0.00094,  -0.00084,  32.00000,   2.00000
450230864.24506,54180005.46997,-123117168.43276,   0.00316,  -0.00157,  -0.00245,476354944.00000,   0.00135,276109856.00000,   0.00121,  -0.00094,  -0.00085,  96.00000,   2.00000
450816234.37968,55766726.05932,-123173423.34131,   0.00316,  -0.00156,  -0.00245,476355392.00000,   0.00135,276110944.00000,   0.00121,  -0.00094,  -0.00085,-256.00000,   2.00000
451395018.92899,57344052.10266,-123228107.98540,   0.00316,  -0.00156,  -0.00245,476339680.00000,   0.00135,276111936.00000,   0.00121,  -0.00094,  -0.00085,   0.00000,   2.00000
451975365.25030,58933583.44896,-123280888.96316,   0.00316,  -0.00155,  -0.00245,476325344.00000,   0.00135,276112896.00000,   0.00122,  -0.00094,  -0.00085,   0.00000,   2.00000
452553038.88060,60535209.20737,-123336640.04523,   0.00316,  -0.00155,  -0.00245,476315360.00000,   0.00136,276113760.00000,   0.00122,  -0.00094,  -0.00085, -32.00000,   2.00000
453130916.81473,62136199.15545,-123386359.77330,   0.00316,  -0.00154,  -0.00245,476315840.00000,   0.00136,276114656.00000,   0.00122,  -0.00094,  -0.00085,  64.00000,   2.00000
453689486.23629,63719373.85239,-123443294.85318,   0.00316,  -0.00154,  -0.00246,476289248.00000,   0.00136,276115424.00000,   0.00122,  -0.00094,  -0.00085,-928.00000,   1.00000
454262943.54313,65323867.11470,-123489668.95559,   0.00316,  -0.00153,  -0.00246,476284672.00000,   0.00136,276116160.00000,   0.00122,  -0.00094,  -0.00085, -32.00000,   2.00000
454823586.18814,66919124.68756,-123538716.85396,   0.00316,  -0.00152,  -0.00246,476274656.00000,   0.00136,276116864.00000,   0.00122,  -0.00094,  -0.00085,-832.00000,   1.00000
455378295.20720,68505660.05430,-123586334.77178,   0.00316,  -0.00152,  -0.00246,476258112.00000,   0.00136,276117472.00000,   0.00122,  -0.00094,  -0.00085,-768.00000,   1.00000
455930273.73270,70104721.53891,-123636861.86791,   0.00316,  -0.00151,  -0.00246,476248096.00000,   0.00136,276118048.00000,   0.00122,  -0.00094,  -0.00085,-576.00000,   1.00000
456490719.38420,71724867.55762,-123681038.34725,   0.00316,  -0.00151,  -0.00246,476249376.00000,   0.00136,276118624.00000,   0.00122,  -0.00094,  -0.00085,-608.00000,   1.00000
457036576.73439,73315040.37319,-123723930.13803,   0.00316,  -0.00150,  -0.00246,476232128.00000,   0.00136,276119104.00000,   0.00122,  -0.00094,  -0.00085,-544.00000,   1.00000
457577516.26027,74910221.66809,-123769329.81960,   0.00316,  -0.00149,  -0.00246,476200896.00000,   0.00136,276119456.00000,   0.00122,  -0.00094,  -0.00085,-256.00000,   1.00000
458129023.24046,76534291.37163,-123808717.30569,   0.00316,  -0.00149,  -0.00246,476223200.00000,   0.00136,276119936.00000,   0.00122,  -0.00094,  -0.00085,-512.00000,   1.00000
458667758.49583,78142161.24769,-123851004.77593,   0.00316,  -0.00148,  -0.00246,476190528.00000,   0.00136,276120224.00000,   0.00122,  -0.00094,  -0.00085,-416.00000,   1.00000
459200359.12921,79741951.14410,-123891736.81987,   0.00316,  -0.00147,  -0.00246,476173952.00000,   0.00136,276120448.00000,   0.00122,  -0.00094,  -0.00085,-288.00000,   1.00000
459736955.39321,81362664.10923,-123930915.14837,   0.00316,  -0.00147,  -0.00247,476179808.00000,   0.00136,276120704.00000,   0.00122,  -0.00094,  -0.00085,-480.00000,   1.00000
460261457.53519,82967660.75715,-123973169.52189,   0.00315,  -0.00146,  -0.00247,476146304.00000,   0.00136,276120832.00000,   0.00122,  -0.00094,  -0.00085,-160.00000,   1.00000
460786458.76387,84572637.34638,-124009416.14901,   0.00315,  -0.00146,  -0.00247,476145856.00000,   0.00136,276120928.00000,   0.00122,  -0.00094,  -0.00085, -64.00000,   1.00000
461309445.38612,86190893.06952,-124048728.11882,   0.00315,  -0.00145,  -0.00247,476134752.00000,   0.00136,276120992.00000,   0.00122,  -0.00094,  -0.00085, -32.00000,   1.00000
461823630.90241,87801186.63250,-124085675.58107,   0.00315,  -0.00144,  -0.00247,476117632.00000,   0.00136,276120992.00000,   0.00122,  -0.00094,  -0.00085,-3360.00000,   0.00000
462347053.28426,89433032.88179,-124116465.13294,   0.00315,  -0.00144,  -0.00247,476114816.00000,   0.00136,276120992.00000,   0.00122,  -0.00094,  -0.00085,-6176.00000,   0.00000
462827370.29348,91046405.39996,-124141096.77444,   0.00315,  -0.00143,  -0.00247,476078272.00000,   0.00136,276120992.00000,   0.00122,  -0.00094,  -0.00085,-42720.00000,   0.00000
463307687.30271,92659777.91813,-124165728.41594,   0.00315,  -0.00142,  -0.00247,476045632.00000,   0.00136,276120992.00000,   0.00122,  -0.00094,  -0.00085,-75360.00000,   0.00000
463754135.80487,94276229.39149,-124184202.14706,   0.00315,  -0.00142,  -0.00247,475981152.00000,   0.00136,276120992.00000,   0.00122,  -0.00094,  -0.00085,-139840.00000,   0.00000
464200584.30704,95892680.86485,-124196517.96781,   0.00315,  -0.00141,  -0.00247,475915936.00000,   0.00136,276120992.00000,   0.00122,  -0.00094,  -0.00085,-205056.00000,   0.00000
464625480.12289,97499895.47264,-124208833.78856,   0.00315,  -0.00140,  -0.00247,475838432.00000,   0.00136,276120992.00000,   0.00122,  -0.00094,  -0.00085,-282560.00000,   0.00000
465038060.11800,99119425.90119,-124214991.69894,   0.00315,  -0.00140,  -0.00247,475746144.00000,   0.00136,276120992.00000,   0.00122,  -0.00094,  -0.00085,-374848.00000,   0.00000
465450640.11310,100738956.32973,-124214991.69894,   0.00314,  -0.00139,  -0.00247,475653792.00000,   0.00136,276120992.00000,   0.00122,  -0.00094,  -0.00085,-467200.00000,   0.00000
465829351.60115,102361565.71346,-124214991.69894,   0.00314,  -0.00139,  -0.00247,475535584.00000,   0.00136,276120992.00000,   0.00122,  -0.00094,  -0.00085,-585408.00000,   0.00000
466208063.08919,103984175.09719,-124202675.87819,   0.00314,  -0.00138,  -0.00247,475412608.00000,   0.00136,276120992.00000,   0.00122,  -0.00094,  -0.00085,-708384.00000,   0.00000
466565221.89092,105597547.61536,-124196517.96781,   0.00314,  -0.00137,  -0.00247,475283264.00000,   0.00136,276120992.00000,   0.00122,  -0.00094,  -0.00085,-837728.00000,   0.00000
466900828.00634,107201683.26797,-124178044.23669,   0.00314,  -0.00137,  -0.00247,475132864.00000,   0.00136,276120992.00000,   0.00122,  -0.00094,  -0.00085,-988128.00000,   0.00000
467224118.30101,108818134.74133,-124159570.50557,   0.00314,  -0.00136,  -0.00247,474973024.00000,   0.00136,276120992.00000,   0.00122,  -0.00094,  -0.00085,-1147968.00000,   0.00000
467535092.77494,110446902.03544,-124134938.86407,   0.00313,  -0.00135,  -0.00247,474798880.00000,   0.00136,276120992.00000,   0.00122,  -0.00094,  -0.00085,-1322112.00000,   0.00000
467815277.69698,112044879.77767,-124104149.31219,   0.00313,  -0.00134,  -0.00247,474605376.00000,   0.00136,276120992.00000,   0.00122,  -0.00094,  -0.00085,-1515616.00000,   0.00000
468083146.79828,113655173.34065,-124073359.76032,   0.00313,  -0.00134,  -0.00247,474401856.00000,   0.00136,276120992.00000,   0.00122,  -0.00094,  -0.00085,-1719136.00000,   0.00000
468351015.89958,115265466.90363,-124036412.29807,   0.00313,  -0.00133,  -0.00247,474197440.00000,   0.00136,276120992.00000,   0.00122,  -0.00094,  -0.00085,-1923552.00000,   0.00000
468606569.18013,116888076.28736,-123993306.92545,   0.00313,  -0.00132,  -0.00247,473978368.00000,   0.00136,276120992.00000,   0.00122,  -0.00094,  -0.00085,-2142624.00000,   0.00000
468819017.08806,118492211.93997,-123950201.55283,   0.00312,  -0.00132,  -0.00247,473730944.00000,   0.00136,276120992.00000,   0.00122,  -0.00094,  -0.00085,-2390048.00000,   0.00000
469031464.99599,120096347.59258,-123900938.26983,   0.00312,  -0.00131,  -0.00247,473483296.00000,   0.00136,276120992.00000,   0.00122,  -0.00094,  -0.00085,-2637696.00000,   0.00000
469222360.21760,121691246.37963,-123845517.07646,   0.00312,  -0.00130,  -0.00246,473219008.00000,   0.00136,276120992.00000,   0.00122,  -0.00094,  -0.00085,-2901984.00000,   0.00000
469422492.30478,123307697.85298,-123790095.88308,   0.00312,  -0.00130,  -0.00246,472962880.00000,   0.00136,276120992.00000,   0.00122,  -0.00094,  -0.00085,-3158112.00000,   0.00000
469579519.01933,124905675.59522,-123728516.77934,   0.00312,  -0.00129,  -0.00246,472674080.00000,   0.00136,276120992.00000,   0.00122,  -0.00094,  -0.00085,-3446912.00000,   0.00000
469724229.91314,126515969.15820,-123660779.76522,   0.00311,  -0.00128,  -0.00246,472372576.00000,   0.00136,276120992.00000,   0.00122,  -0.00094,  -0.00085,-3748416.00000,   0.00000
469868940.80694,128126262.72118,-123593042.75109,   0.00311,  -0.00128,  -0.00246,472076352.00000,   0.00136,276120992.00000,   0.00122,  -0.00094,  -0.00085,-4044640.00000,   0.00000
469992099.01444,129727319.41860,-123519147.82660,   0.00311,  -0.00127,  -0.00246,471764288.00000,   0.00136,276120992.00000,   0.00122,  -0.00094,  -0.00085,-4356704.00000,   0.00000
470072151.84931,131309902.38490,-123439094.99173,   0.00311,  -0.00126,  -0.00246,471419616.00000,   0.00136,276120992.00000,   0.00122,  -0.00094,  -0.00085,-4701376.00000,   0.00000
470161441.54974,132914038.03750,-123359042.15686,   0.00310,  -0.00125,  -0.00246,471083328.00000,   0.00136,276120992.00000,   0.00122,  -0.00094,  -0.00085,-5037664.00000,   0.00000
470229178.56386,134508936.82455,-123272831.41161,   0.00310,  -0.00125,  -0.00246,470730944.00000,   0.00136,276120992.00000,   0.00122,  -0.00094,  -0.00085,-5390048.00000,   0.00000
470275362.89167,136094598.74603,-123180462.75599,   0.00310,  -0.00124,  -0.00246,470362144.00000,   0.00136,276120992.00000,   0.00122,  -0.00094,  -0.00085,-5758848.00000,   0.00000
470321547.21948,137680260.66752,-123088094.10037,   0.00309,  -0.00123,  -0.00245,469998144.00000,   0.00136,276120992.00000,   0.00122,  -0.00094,  -0.00085,-6122848.00000,   0.00000
470333863.04023,139269001.54419,-122989567.53437,   0.00309,  -0.00123,  -0.00245,469604672.00000,   0.00136,276120992.00000,   0.00122,  -0.00094,  -0.00085,-6516320.00000,   0.00000
470324626.17467,140848505.55530,-122884883.05800,   0.00309,  -0.00122,  -0.00245,469194560.00000,   0.00136,276120992.00000,   0.00122,  -0.00094,  -0.00085,-6926432.00000,   0.00000
470324626.17467,142449562.25272,-122780198.58163,   0.00308,  -0.00121,  -0.00245,468792736.00000,   0.00136,276120992.00000,   0.00122,  -0.00094,  -0.00085,-7328256.00000,   0.00000
470293836.62280,144019829.39826,-122663198.28452,   0.00308,  -0.00120,  -0.00245,468365792.00000,   0.00136,276120992.00000,   0.00122,  -0.00094,  -0.00085,-7755200.00000,   0.00000
470250731.25018,145602412.36456,-122552355.89777,   0.00308,  -0.00120,  -0.00245,467935360.00000,   0.00136,276120992.00000,   0.00122,  -0.00094,  -0.00085,-8185632.00000,   0.00000
470164520.50493,147166521.59973,-122435355.60065,   0.00307,  -0.00119,  -0.00245,467471936.00000,   0.00136,276120992.00000,   0.00122,  -0.00094,  -0.00085,-8649056.00000,   0.00000
470087546.62525,148752183.52122,-122312197.39316,   0.00307,  -0.00118,  -0.00244,467012352.00000,   0.00136,276120992.00000,   0.00122,  -0.00094,  -0.00085,-9108640.00000,   0.00000
470010572.74556,150337845.44270,-122182881.27529,   0.00307,  -0.00118,  -0.00244,466552832.00000,   0.00136,276120992.00000,   0.00122,  -0.00094,  -0.00085,-9568160.00000,   0.00000
469881256.62769,151883480.94675,-122053565.15742,   0.00306,  -0.00117,  -0.00244,466061408.00000,   0.00136,276120992.00000,   0.00122,  -0.00094,  -0.00085,-10059584.00000,   0.00000
469748861.55464,153462984.95786,-121918091.12918,   0.00306,  -0.00116,  -0.00244,465561664.00000,   0.00136,276120992.00000,   0.00122,  -0.00094,  -0.00085,-10559328.00000,   0.00000
469607229.61602,155020936.28265,-121776459.19056,   0.00306,  -0.00115,  -0.00244,465058688.00000,   0.00136,276120992.00000,   0.00122,  -0.00094,  -0.00085,-11062304.00000,   0.00000
469431729.17034,156581966.56264,-121634827.25194,   0.00305,  -0.00115,  -0.00244,464532352.00000,   0.00136,276120992.00000,   0.00122,  -0.00094,  -0.00085,-11588640.00000,   0.00000
469256228.72466,158142996.84262,-121487037.40295,   0.00305,  -0.00114,  -0.00243,464007136.00000,   0.00136,276120992.00000,   0.00122,  -0.00094,  -0.00085,-12113856.00000,   0.00000
469059175.59267,159694790.25705,-121339247.55396,   0.00305,  -0.00113,  -0.00243,463471456.00000,   0.00136,276120992.00000,   0.00122,  -0.00094,  -0.00085,-12649536.00000,   0.00000
468840569.77437,161237346.80591,-121185299.79459,   0.00304,  -0.00112,  -0.00243,462920960.00000,   0.00136,276120992.00000,   0.00122,  -0.00094,  -0.00085,-13200032.00000,   0.00000
468609648.13532,162792219.17552,-121025194.12485,   0.00304,  -0.00112,  -0.00243,462360096.00000,   0.00136,276120992.00000,   0.00122,  -0.00094,  -0.00085,-13760896.00000,   0.00000
468357173.80996,164337854.67957,-120865088.45510,   0.00303,  -0.00111,  -0.00243,461789600.00000,   0.00136,276120992.00000,   0.00122,  -0.00094,  -0.00085,-14331392.00000,   0.00000
468083146.79828,165874253.31805,-120698824.87499,   0.00303,  -0.00110,  -0.00242,461204800.00000,   0.00136,276120992.00000,   0.00122,  -0.00094,  -0.00085,-14916192.00000,   0.00000
467787567.10030,167401415.09097,-120526403.38450,   0.00302,  -0.00109,  -0.00242,460605568.00000,   0.00136,276120992.00000,   0.00122,  -0.00094,  -0.00085,-15515424.00000,   0.00000
467501224.26787,168950129.55021,-120353981.89401,   0.00302,  -0.00109,  -0.00242,460018144.00000,   0.00136,276120992.00000,   0.00122,  -0.00094,  -0.00085,-16102848.00000,   0.00000
467162539.19727,170458817.59201,-120175402.49314,   0.00302,  -0.00108,  -0.00242,459394752.00000,   0.00136,276120992.00000,   0.00122,  -0.00094,  -0.00085,-16726240.00000,   0.00000
466833090.99222,171989058.32012,-119996823.09227,   0.00301,  -0.00107,  -0.00241,458782656.00000,   0.00136,276120992.00000,   0.00122,  -0.00094,  -0.00085,-17338336.00000,   0.00000
466469774.28011,173522378.00342,-119812085.78103,   0.00301,  -0.00106,  -0.00241,458143808.00000,   0.00136,276120992.00000,   0.00122,  -0.00094,  -0.00085,-17977184.00000,   0.00000
466097220.70244,175034145.00041,-119621190.55942,   0.00300,  -0.00106,  -0.00241,457501440.00000,   0.00136,276120992.00000,   0.00122,  -0.00094,  -0.00085,-18619552.00000,   0.00000
465703114.43846,176536675.13183,-119430295.33780,   0.00300,  -0.00105,  -0.00241,456848352.00000,   0.00136,276120992.00000,   0.00122,  -0.00094,  -0.00085,-19272640.00000,   0.00000
465296692.35373,178051521.08401,-119233242.20581,   0.00299,  -0.00104,  -0.00240,456184640.00000,   0.00136,276120992.00000,   0.00122,  -0.00094,  -0.00085,-19936352.00000,   0.00000
464868717.58269,179557130.17062,-119030031.16345,   0.00299,  -0.00103,  -0.00240,455505248.00000,   0.00136,276120992.00000,   0.00122,  -0.00094,  -0.00085,-20615744.00000,   0.00000
464419190.12534,181053502.39167,-118826820.12108,   0.00298,  -0.00102,  -0.00240,454815392.00000,   0.00136,276120992.00000,   0.00122,  -0.00094,  -0.00085,-21305600.00000,   0.00000
463978899.53355,182571427.29903,-118623609.07872,   0.00298,  -0.00102,  -0.00240,454136416.00000,   0.00136,276120992.00000,   0.00122,  -0.00094,  -0.00085,-21984576.00000,   0.00000
463486266.70357,184049325.78896,-118414240.12598,   0.00297,  -0.00101,  -0.00239,453420256.00000,   0.00136,276120992.00000,   0.00122,  -0.00094,  -0.00085,-22700736.00000,   0.00000
463002870.73916,185548776.96520,-118198713.26286,   0.00297,  -0.00100,  -0.00239,452710304.00000,   0.00136,276120992.00000,   0.00122,  -0.00094,  -0.00085,-23410688.00000,   0.00000
462467132.53656,187008201.72400,-117977028.48937,   0.00296,  -0.00099,  -0.00239,451963008.00000,   0.00136,276120992.00000,   0.00122,  -0.00094,  -0.00085,-24157984.00000,   0.00000
461940631.19953,188489179.16911,-117755343.71588,   0.00296,  -0.00099,  -0.00239,451226624.00000,   0.00136,276120992.00000,   0.00122,  -0.00094,  -0.00085,-24894368.00000,   0.00000
461392577.17618,189960919.74866,-117533658.94240,   0.00295,  -0.00098,  -0.00238,450479040.00000,   0.00136,276120992.00000,   0.00122,  -0.00094,  -0.00085,-25641952.00000,   0.00000
460832207.33208,191444976.14897,-117305816.25853,   0.00295,  -0.00097,  -0.00238,449721120.00000,   0.00136,276120992.00000,   0.00122,  -0.00094,  -0.00085,-26399872.00000,   0.00000
460241047.93611,192898242.99739,-117071815.66429,   0.00294,  -0.00096,  -0.00238,448941440.00000,   0.00136,276120992.00000,   0.00122,  -0.00094,  -0.00085,-27179552.00000,   0.00000
459637572.71939,194363825.66657,-116837815.07006,   0.00293,  -0.00095,  -0.00237,448156000.00000,   0.00136,276120992.00000,   0.00122,  -0.00094,  -0.00085,-27964992.00000,   0.00000
459012544.81636,195820171.47019,-116597656.56544,   0.00293,  -0.00095,  -0.00237,447354272.00000,   0.00136,276120992.00000,   0.00122,  -0.00094,  -0.00085,-28766720.00000,   0.00000
458356727.36145,197245727.72193,-116351340.15045,   0.00292,  -0.00094,  -0.00237,446530496.00000,   0.00136,276120992.00000,   0.00122,  -0.00094,  -0.00085,-29590496.00000,   0.00000
457710146.77211,198692836.65998,-116105023.73547,   0.00292,  -0.00093,  -0.00236,445717600.00000,   0.00136,276120992.00000,   0.00122,  -0.00094,  -0.00085,-30403392.00000,   0.00000
457020460.81015,200121471.86691,-115858707.32048,   0.00291,  -0.00092,  -0.00236,444876544.00000,   0.00136,276120992.00000,   0.00122,  -0.00094,  -0.00085,-31244448.00000,   0.00000
456340011.71374,201571659.76015,-115606232.99512,   0.00291,  -0.00092,  -0.00236,444042240.00000,   0.00136,276120992.00000,   0.00122,  -0.00094,  -0.00085,-32078752.00000,   0.00000
455607220.37915,202981821.23595,-115347600.75938,   0.00290,  -0.00091,  -0.00235,443169056.00000,   0.00136,276120992.00000,   0.00122,  -0.00094,  -0.00085,-32951936.00000,   0.00000
454883665.91013,204413535.39807,-115088968.52364,   0.00289,  -0.00090,  -0.00235,442307968.00000,   0.00136,276120992.00000,   0.00122,  -0.00094,  -0.00085,-33813024.00000,   0.00000
454129321.88923,205814460.00831,-114824178.37753,   0.00289,  -0.00089,  -0.00235,441424768.00000,   0.00136,276120992.00000,   0.00122,  -0.00094,  -0.00085,-34696224.00000,   0.00000
453362662.04758,207227700.43930,-114559388.23142,   0.00288,  -0.00088,  -0.00234,440537248.00000,   0.00136,276120992.00000,   0.00122,  -0.00094,  -0.00085,-35583744.00000,   0.00000
452574449.51962,208631704.00473,-114288440.17493,   0.00288,  -0.00088,  -0.00234,439634688.00000,   0.00136,276120992.00000,   0.00122,  -0.00094,  -0.00085,-36486304.00000,   0.00000
451786236.99166,210035707.57017,-114017492.11845,   0.00287,  -0.00087,  -0.00234,438738624.00000,   0.00136,276120992.00000,   0.00122,  -0.00094,  -0.00085,-37382368.00000,   0.00000
450954919.09107,211421237.40447,-113740386.15158,   0.00286,  -0.00086,  -0.00233,437810944.00000,   0.00136,276120992.00000,   0.00122,  -0.00094,  -0.00085,-38310048.00000,   0.00000
450102048.50418,212797530.37322,-113457122.27435,   0.00286,  -0.00085,  -0.00233,436868672.00000,   0.00136,276120992.00000,   0.00122,  -0.00094,  -0.00085,-39252320.00000,   0.00000
449249177.91728,214173823.34196,-113173858.39711,   0.00285,  -0.00084,  -0.00233,435933600.00000,   0.00136,276120992.00000,   0.00122,  -0.00094,  -0.00085,-40187392.00000,   0.00000
448374754.64408,215540879.44514,-112890594.51988,   0.00284,  -0.00084,  -0.00232,434989248.00000,   0.00136,276120992.00000,   0.00122,  -0.00094,  -0.00085,-41131744.00000,   0.00000
447466462.86381,216911014.50351,-112601172.73227,   0.00284,  -0.00083,  -0.00232,434020896.00000,   0.00136,276120992.00000,   0.00122,  -0.00094,  -0.00085,-42100096.00000,   0.00000
446548934.21798,218259596.87557,-112305593.03428,   0.00283,  -0.00082,  -0.00231,433048832.00000,   0.00136,276120992.00000,   0.00122,  -0.00094,  -0.00085,-43072160.00000,   0.00000
445619089.75140,219620495.06838,-112010013.33630,   0.00282,  -0.00081,  -0.00231,432075232.00000,   0.00136,276120992.00000,   0.00122,  -0.00094,  -0.00085,-44045760.00000,   0.00000
444658455.73295,220950603.70931,-111714433.63831,   0.00281,  -0.00080,  -0.00231,431085824.00000,   0.00136,276120992.00000,   0.00122,  -0.00094,  -0.00085,-45035168.00000,   0.00000
443707058.58006,222302265.03655,-111412696.02995,   0.00281,  -0.00080,  -0.00230,430107488.00000,   0.00136,276120992.00000,   0.00122,  -0.00094,  -0.00085,-46013504.00000,   0.00000
442703319.18898,223613899.94636,-111104800.51122,   0.00280,  -0.00079,  -0.00230,429091968.00000,   0.00136,276120992.00000,   0.00122,  -0.00094,  -0.00085,-47029024.00000,   0.00000
441687263.97716,224937850.67692,-110796904.99248,   0.00279,  -0.00078,  -0.00230,428075616.00000,   0.00136,276120992.00000,   0.00122,  -0.00094,  -0.00085,-48045376.00000,   0.00000
440671208.76534,226261801.40748,-110489009.47375,   0.00279,  -0.00077,  -0.00229,427068256.00000,   0.00136,276120992.00000,   0.00122,  -0.00094,  -0.00085,-49052736.00000,   0.00000
439633600.86720,227576515.27248,-110174956.04464,   0.00278,  -0.00076,  -0.00229,426048512.00000,   0.00136,276120992.00000,   0.00122,  -0.00094,  -0.00085,-50072480.00000,   0.00000
438552887.59644,228872755.40635,-109854744.70515,   0.00277,  -0.00076,  -0.00228,424999296.00000,   0.00136,276120992.00000,   0.00122,  -0.00094,  -0.00085,-51121696.00000,   0.00000
437472174.32568,230168995.54023,-109540691.27604,   0.00276,  -0.00075,  -0.00228,423963872.00000,   0.00136,276120992.00000,   0.00122,  -0.00094,  -0.00085,-52157120.00000,   0.00000
436360671.50305,231434446.12222,-109214322.02618,   0.00276,  -0.00074,  -0.00227,422903584.00000,   0.00136,276120992.00000,   0.00122,  -0.00094,  -0.00085,-53217408.00000,   0.00000
435236852.85967,232712212.52497,-108887952.77633,   0.00275,  -0.00073,  -0.00227,421843360.00000,   0.00136,276120992.00000,   0.00122,  -0.00094,  -0.00085,-54277632.00000,   0.00000
434091481.52998,233980742.06216,-108561583.52647,   0.00274,  -0.00072,  -0.00227,420775392.00000,   0.00136,276120992.00000,   0.00122,  -0.00094,  -0.00085,-55345600.00000,   0.00000
432946110.20028,235249271.59935,-108229056.36623,   0.00273,  -0.00072,  -0.00226,419711584.00000,   0.00136,276120992.00000,   0.00122,  -0.00094,  -0.00085,-56409408.00000,   0.00000
431757633.49797,236499327.40541,-107896529.20600,   0.00273,  -0.00071,  -0.00226,418623520.00000,   0.00136,276120992.00000,   0.00122,  -0.00094,  -0.00085,-57497472.00000,   0.00000
430569156.79565,237749383.21147,-107557844.13539,   0.00272,  -0.00070,  -0.00225,417539360.00000,   0.00136,276120992.00000,   0.00122,  -0.00094,  -0.00085,-58581632.00000,   0.00000
429359127.40702,238990202.15197,-107219159.06478,   0.00271,  -0.00069,  -0.00225,416447488.00000,   0.00136,276120992.00000,   0.00122,  -0.00094,  -0.00085,-59673504.00000,   0.00000
428105992.64577,240212547.36135,-106874316.08380,   0.00270,  -0.00068,  -0.00224,415326432.00000,   0.00136,276120992.00000,   0.00122,  -0.00094,  -0.00085,-60794560.00000,   0.00000
426852857.88452,241434892.57073,-106529473.10282,   0.00269,  -0.00068,  -0.00224,414214048.00000,   0.00136,276120992.00000,   0.00122,  -0.00094,  -0.00085,-61906944.00000,   0.00000
425578170.43696,242648000.91454,-106178472.21146,   0.00269,  -0.00067,  -0.00224,413089120.00000,   0.00136,276120992.00000,   0.00122,  -0.00094,  -0.00085,-63031872.00000,   0.00000
424303482.98940,243861109.25836,-105827471.32010,   0.00268,  -0.00066,  -0.00223,411972960.00000,   0.00136,276120992.00000,   0.00122,  -0.00094,  -0.00085,-64148032.00000,   0.00000
422985690.16922,245055743.87105,-105476470.42875,   0.00267,  -0.00065,  -0.00223,410832384.00000,   0.00136,276120992.00000,   0.00122,  -0.00094,  -0.00085,-65288608.00000,   0.00000
421646344.66272,246241141.61818,-105119311.62701,   0.00266,  -0.00064,  -0.00222,409679264.00000,   0.00136,276120992.00000,   0.00122,  -0.00094,  -0.00085,-66441728.00000,   0.00000
420306999.15622,247426539.36530,-104762152.82528,   0.00265,  -0.00064,  -0.00222,408535296.00000,   0.00136,276120992.00000,   0.00122,  -0.00094,  -0.00085,-67585696.00000,   0.00000
418936864.09785,248581147.56056,-104398836.11317,   0.00264,  -0.00063,  -0.00221,407370432.00000,   0.00136,276120992.00000,   0.00122,  -0.00094,  -0.00085,-68750560.00000,   0.00000
417554413.21874,249748071.57656,-104035519.40107,   0.00264,  -0.00062,  -0.00221,406206560.00000,   0.00136,276120992.00000,   0.00122,  -0.00094,  -0.00085,-69914432.00000,   0.00000
416150409.65331,250905758.72701,-103666044.77859,   0.00263,  -0.00061,  -0.00220,405031232.00000,   0.00136,276120992.00000,   0.00122,  -0.00094,  -0.00085,-71089760.00000,   0.00000
414715616.53600,252032656.32557,-103302728.06648,   0.00262,  -0.00060,  -0.00220,403844704.00000,   0.00136,276120992.00000,   0.00122,  -0.00094,  -0.00085,-72276288.00000,   0.00000
413268507.59795,253171869.74489,-102927095.53362,   0.00261,  -0.00060,  -0.00219,402651008.00000,   0.00136,276120992.00000,   0.00122,  -0.00094,  -0.00085,-73469984.00000,   0.00000
411790609.10802,254280293.61234,-102551463.00077,   0.00260,  -0.00059,  -0.00219,401441728.00000,   0.00136,276120992.00000,   0.00122,  -0.00094,  -0.00085,-74679264.00000,   0.00000
410321947.48366,255410270.16609,-102175830.46791,   0.00259,  -0.00058,  -0.00218,400251776.00000,   0.00136,276120992.00000,   0.00122,  -0.00094,  -0.00085,-75869216.00000,   0.00000
408822496.30742,256509457.16798,-101800197.93505,   0.00258,  -0.00057,  -0.00218,399046464.00000,   0.00136,276120992.00000,   0.00122,  -0.00094,  -0.00085,-77074528.00000,   0.00000
407301492.44487,257599407.30430,-101418407.49182,   0.00257,  -0.00056,  -0.00217,397830688.00000,   0.00136,276120992.00000,   0.00122,  -0.00094,  -0.00085,-78290304.00000,   0.00000
405746620.07526,258692436.39581,-101030459.13822,   0.00256,  -0.00056,  -0.00217,396597664.00000,   0.00136,276120992.00000,   0.00122,  -0.00094,  -0.00085,-79523328.00000,   0.00000
404204063.52640,259773149.66656,-100648668.69499,   0.00256,  -0.00055,  -0.00216,395387104.00000,   0.00136,276120992.00000,   0.00122,  -0.00094,  -0.00085,-80733888.00000,   0.00000
402618401.60492,260835389.20620,-100260720.34138,   0.00255,  -0.00054,  -0.00216,394150208.00000,   0.00136,276120992.00000,   0.00122,  -0.00094,  -0.00085,-81970784.00000,   0.00000
401011186.99712,261888391.88027,-99866614.07740,   0.00254,  -0.00053,  -0.00215,392903456.00000,   0.00136,276120992.00000,   0.00122,  -0.00094,  -0.00085,-83217536.00000,   0.00000
399394735.52377,262919841.86803,-99472507.81342,   0.00253,  -0.00053,  -0.00215,391658144.00000,   0.00136,276120992.00000,   0.00122,  -0.00094,  -0.00085,-84462848.00000,   0.00000
397765968.22966,263963607.67654,-99078401.54944,   0.00252,  -0.00052,  -0.00214,390417760.00000,   0.00136,276120992.00000,   0.00122,  -0.00094,  -0.00085,-85703232.00000,   0.00000
396084858.69737,264967347.06762,-98684295.28546,   0.00251,  -0.00051,  -0.00214,389146240.00000,   0.00136,276120992.00000,   0.00122,  -0.00094,  -0.00085,-86974752.00000,   0.00000
394412986.03064,265992639.14500,-98284031.11110,   0.00250,  -0.00050,  -0.00213,387891392.00000,   0.00136,276120992.00000,   0.00122,  -0.00094,  -0.00085,-88229600.00000,   0.00000
392731876.49835,266996378.53608,-97877609.02637,   0.00249,  -0.00049,  -0.00213,386633312.00000,   0.00136,276120992.00000,   0.00122,  -0.00094,  -0.00085,-89487680.00000,   0.00000
391007661.59343,267981644.19603,-97477344.85202,   0.00248,  -0.00049,  -0.00212,385358848.00000,   0.00136,276120992.00000,   0.00122,  -0.00094,  -0.00085,-90762144.00000,   0.00000
389283446.68852,268966909.85598,-97070922.76729,   0.00247,  -0.00048,  -0.00212,384091456.00000,   0.00136,276120992.00000,   0.00122,  -0.00094,  -0.00085,-92029536.00000,   0.00000
387516126.41098,269933701.78481,-96664500.68256,   0.00246,  -0.00047,  -0.00211,382803520.00000,   0.00136,276120992.00000,   0.00122,  -0.00094,  -0.00085,-93317472.00000,   0.00000
385748806.13344,270900493.71364,-96251920.68746,   0.00245,  -0.00046,  -0.00211,381522368.00000,   0.00136,276120992.00000,   0.00122,  -0.00094,  -0.00085,-94598624.00000,   0.00000
383950696.30403,271836496.09059,-95839340.69235,   0.00244,  -0.00045,  -0.00210,380226656.00000,   0.00136,276120992.00000,   0.00122,  -0.00094,  -0.00085,-95894336.00000,   0.00000
382140270.65387,272784814.28829,-95426760.69725,   0.00243,  -0.00045,  -0.00210,378937408.00000,   0.00136,276120992.00000,   0.00122,  -0.00094,  -0.00085,-97183584.00000,   0.00000
380320608.13815,273711579.79968,-95008022.79177,   0.00242,  -0.00044,  -0.00209,377644768.00000,   0.00136,276120992.00000,   0.00122,  -0.00094,  -0.00085,-98476224.00000,   0.00000
378457840.24981,274619871.57995,-94589284.88629,   0.00241,  -0.00043,  -0.00208,376332384.00000,   0.00136,276120992.00000,   0.00122,  -0.00094,  -0.00085,-99788608.00000,   0.00000
376595072.36146,275528163.36022,-94170546.98081,   0.00240,  -0.00042,  -0.00208,375032096.00000,   0.00136,276120992.00000,   0.00122,  -0.00094,  -0.00085,-101088896.00000,   0.00000
374710751.78681,276427218.27492,-93745651.16495,   0.00239,  -0.00042,  -0.00207,373723808.00000,   0.00136,276120992.00000,   0.00122,  -0.00094,  -0.00085,-102397184.00000,   0.00000
372795641.66028,277295483.63775,-93326913.25948,   0.00238,  -0.00041,  -0.00207,372405504.00000,   0.00136,276120992.00000,   0.00122,  -0.00094,  -0.00085,-103715488.00000,   0.00000
370858978.84744,278154512.13502,-92895859.53325,   0.00237,  -0.00040,  -0.00206,371074688.00000,   0.00136,276120992.00000,   0.00122,  -0.00094,  -0.00085,-105046304.00000,   0.00000
368900763.34828,279004303.76673,-92470963.71739,   0.00236,  -0.00039,  -0.00206,369745472.00000,   0.00136,276120992.00000,   0.00122,  -0.00094,  -0.00085,-106375520.00000,   0.00000
366942547.84913,279854095.39844,-92039909.99116,   0.00235,  -0.00038,  -0.00205,368424288.00000,   0.00136,276120992.00000,   0.00122,  -0.00094,  -0.00085,-107696704.00000,   0.00000
364962779.66367,280694650.16459,-91608856.26494,   0.00234,  -0.00038,  -0.00205,367100800.00000,   0.00136,276120992.00000,   0.00122,  -0.00094,  -0.00085,-109020192.00000,   0.00000
362952221.92633,281504415.37886,-91177802.53871,   0.00233,  -0.00037,  -0.00204,365763744.00000,   0.00136,276120992.00000,   0.00122,  -0.00094,  -0.00085,-110357248.00000,   0.00000
360929348.36824,282326496.41388,-90740590.90210,   0.00231,  -0.00036,  -0.00203,364432224.00000,   0.00136,276120992.00000,   0.00122,  -0.00094,  -0.00085,-111688768.00000,   0.00000
358875685.25828,283117787.89703,-90309537.17588,   0.00230,  -0.00035,  -0.00203,363093184.00000,   0.00136,276120992.00000,   0.00122,  -0.00094,  -0.00085,-113027808.00000,   0.00000
356812785.28276,283887526.69386,-89866167.62890,   0.00229,  -0.00035,  -0.00202,361749120.00000,   0.00136,276120992.00000,   0.00122,  -0.00094,  -0.00085,-114371872.00000,   0.00000
354737569.48649,284669581.31145,-89428955.99229,   0.00228,  -0.00034,  -0.00202,360422912.00000,   0.00136,276120992.00000,   0.00122,  -0.00094,  -0.00085,-115698080.00000,   0.00000
352631564.13834,285420846.37716,-88985586.44532,   0.00227,  -0.00033,  -0.00201,359082144.00000,   0.00136,276120992.00000,   0.00122,  -0.00094,  -0.00085,-117038848.00000,   0.00000
350504006.10389,286162874.57731,-88542216.89834,   0.00226,  -0.00032,  -0.00201,357743872.00000,   0.00136,276120992.00000,   0.00122,  -0.00094,  -0.00085,-118377120.00000,   0.00000
348354895.38312,286895665.91190,-88098847.35136,   0.00225,  -0.00032,  -0.00200,356408608.00000,   0.00136,276120992.00000,   0.00122,  -0.00094,  -0.00085,-119712384.00000,   0.00000
346196547.79679,287606904.56018,-87655477.80438,   0.00224,  -0.00031,  -0.00199,355079136.00000,   0.00136,276120992.00000,   0.00122,  -0.00094,  -0.00085,-121041856.00000,   0.00000
344025884.38971,288330459.02921,-87205950.34703,   0.00223,  -0.00030,  -0.00199,353759904.00000,   0.00136,276120992.00000,   0.00122,  -0.00094,  -0.00085,-122361088.00000,   0.00000
341824431.43076,289023223.94636,-86756422.88968,   0.00221,  -0.00029,  -0.00198,352430496.00000,   0.00136,276120992.00000,   0.00122,  -0.00094,  -0.00085,-123690496.00000,   0.00000
339592188.91993,289685199.31164,-86306895.43233,   0.00220,  -0.00029,  -0.00198,351090464.00000,   0.00136,276120992.00000,   0.00122,  -0.00094,  -0.00085,-125030528.00000,   0.00000
337347630.58835,290359490.49767,-85857367.97497,   0.00219,  -0.00028,  -0.00197,349764160.00000,   0.00136,276120992.00000,   0.00122,  -0.00094,  -0.00085,-126356832.00000,   0.00000
335093835.39122,291012228.99738,-85401682.60725,   0.00218,  -0.00027,  -0.00197,348436544.00000,   0.00136,276120992.00000,   0.00122,  -0.00094,  -0.00085,-127684448.00000,   0.00000
332818487.50777,291655730.63154,-84952155.14989,   0.00217,  -0.00026,  -0.00196,347113888.00000,   0.00136,276120992.00000,   0.00122,  -0.00094,  -0.00085,-129007104.00000,   0.00000
330512350.07244,292268442.71382,-84490311.87179,   0.00216,  -0.00026,  -0.00195,345769440.00000,   0.00136,276120992.00000,   0.00122,  -0.00094,  -0.00085,-130351552.00000,   0.00000
328184659.95081,292871917.93054,-84034626.50406,   0.00214,  -0.00025,  -0.00195,344429536.00000,   0.00136,276120992.00000,   0.00122,  -0.00094,  -0.00085,-131691456.00000,   0.00000
325856969.82918,293475393.14726,-83578941.13634,   0.00213,  -0.00024,  -0.00194,343104576.00000,   0.00136,276120992.00000,   0.00122,  -0.00094,  -0.00085,-133016416.00000,   0.00000
323507727.02123,294069631.49842,-83117097.85823,   0.00212,  -0.00024,  -0.00194,341775424.00000,   0.00136,276120992.00000,   0.00122,  -0.00094,  -0.00085,-134345568.00000,   0.00000
321127694.66141,294633080.29770,-82655254.58013,   0.00211,  -0.00023,  -0.00193,340434048.00000,   0.00136,276120992.00000,   0.00122,  -0.00094,  -0.00085,-135686944.00000,   0.00000
318726109.61528,295187292.23143,-82193411.30203,   0.00210,  -0.00022,  -0.00192,339094080.00000,   0.00136,276120992.00000,   0.00122,  -0.00094,  -0.00085,-137026912.00000,   0.00000
316293735.01728,295710714.61328,-81731568.02393,   0.00209,  -0.00021,  -0.00192,337743296.00000,   0.00136,276120992.00000,   0.00122,  -0.00094,  -0.00085,-138377696.00000,   0.00000
313870597.28484,296255689.68144,-81269724.74583,   0.00207,  -0.00021,  -0.00191,336423712.00000,   0.00136,276120992.00000,   0.00122,  -0.00094,  -0.00085,-139697280.00000,   0.00000
311416670.00052,296769875.19772,-80801723.55735,   0.00206,  -0.00020,  -0.00191,335090720.00000,   0.00136,276120992.00000,   0.00122,  -0.00094,  -0.00085,-141030272.00000,   0.00000
308931953.16433,297253271.16214,-80333722.36887,   0.00205,  -0.00019,  -0.00190,333749568.00000,   0.00136,276120992.00000,   0.00122,  -0.00094,  -0.00085,-142371424.00000,   0.00000
306447236.32814,297736667.12655,-79865721.18040,   0.00204,  -0.00019,  -0.00189,332429056.00000,   0.00136,276120992.00000,   0.00122,  -0.00094,  -0.00085,-143691936.00000,   0.00000
303940966.80564,298210826.22540,-79397719.99192,   0.00202,  -0.00018,  -0.00189,331115648.00000,   0.00136,276120992.00000,   0.00122,  -0.00094,  -0.00085,-145005344.00000,   0.00000
301403907.73127,298654195.77238,-78929718.80344,   0.00201,  -0.00017,  -0.00188,329796320.00000,   0.00136,276120992.00000,   0.00122,  -0.00094,  -0.00085,-146324672.00000,   0.00000
298845295.97058,299088328.45379,-78461717.61497,   0.00200,  -0.00016,  -0.00187,328484832.00000,   0.00136,276120992.00000,   0.00122,  -0.00094,  -0.00085,-147636160.00000,   0.00000
296286684.20990,299522461.13521,-77987558.51611,   0.00199,  -0.00016,  -0.00187,327191296.00000,   0.00136,276120992.00000,   0.00122,  -0.00094,  -0.00085,-148929696.00000,   0.00000
293675730.21103,299916567.39919,-77513399.41726,   0.00197,  -0.00015,  -0.00186,325877696.00000,   0.00136,276120992.00000,   0.00122,  -0.00094,  -0.00085,-150243296.00000,   0.00000
291086328.89847,300319910.52873,-77039240.31841,   0.00196,  -0.00014,  -0.00186,324599424.00000,   0.00136,276120992.00000,   0.00122,  -0.00094,  -0.00085,-151521568.00000,   0.00000
288453822.21329,300704779.92715,-76565081.21956,   0.00195,  -0.00014,  -0.00185,323314464.00000,   0.00136,276120992.00000,   0.00122,  -0.00094,  -0.00085,-152806528.00000,   0.00000
285812078.66254,301068096.63926,-76090922.12071,   0.00194,  -0.00013,  -0.00184,322035648.00000,   0.00136,276120992.00000,   0.00122,  -0.00094,  -0.00085,-154085344.00000,   0.00000
283117992.87362,301391386.93393,-75616763.02186,   0.00192,  -0.00012,  -0.00184,320735328.00000,   0.00136,276120992.00000,   0.00122,  -0.00094,  -0.00085,-155385664.00000,   0.00000
280445459.77100,301723914.09416,-75136446.01263,   0.00191,  -0.00012,  -0.00183,319464672.00000,   0.00136,276120992.00000,   0.00122,  -0.00094,  -0.00085,-156656320.00000,   0.00000
277729821.29576,302037967.52327,-74662286.91378,   0.00190,  -0.00011,  -0.00183,318193248.00000,   0.00136,276120992.00000,   0.00122,  -0.00094,  -0.00085,-157927744.00000,   0.00000
275014182.82052,302352020.95238,-74181969.90455,   0.00188,  -0.00010,  -0.00182,316941440.00000,   0.00136,276120992.00000,   0.00122,  -0.00094,  -0.00085,-159179552.00000,   0.00000
272267754.79341,302635284.82962,-73701652.89533,   0.00187,  -0.00010,  -0.00181,315689024.00000,   0.00136,276120992.00000,   0.00122,  -0.00094,  -0.00085,-160431968.00000,   0.00000
269490537.21442,302887759.15498,-73227493.79648,   0.00186,  -0.00009,  -0.00181,314445024.00000,   0.00136,276120992.00000,   0.00122,  -0.00094,  -0.00085,-161675968.00000,   0.00000
266713319.63543,303140233.48034,-72747176.78725,   0.00185,  -0.00008,  -0.00180,313230720.00000,   0.00136,276120992.00000,   0.00122,  -0.00094,  -0.00085,-162890272.00000,   0.00000
263914549.37013,303383470.94014,-72260701.86765,   0.00183,  -0.00008,  -0.00179,312027936.00000,   0.00136,276120992.00000,   0.00122,  -0.00094,  -0.00085,-164093056.00000,   0.00000
261084989.55296,303595918.84807,-71780384.85842,   0.00182,  -0.00007,  -0.00179,310814976.00000,   0.00136,276120992.00000,   0.00122,  -0.00094,  -0.00085,-165306016.00000,   0.00000
258246192.87023,303786814.06969,-71300067.84920,   0.00181,  -0.00006,  -0.00178,309586272.00000,   0.00136,276120992.00000,   0.00122,  -0.00094,  -0.00085,-166534720.00000,   0.00000
255395080.36675,303990025.11205,-70819750.83997,   0.00179,  -0.00006,  -0.00178,308365248.00000,   0.00136,276120992.00000,   0.00122,  -0.00094,  -0.00085,-167755744.00000,   0.00000
252503941.44583,304140893.91623,-70333275.92037,   0.00178,  -0.00005,  -0.00177,307120480.00000,   0.00136,276120992.00000,   0.00122,  -0.00094,  -0.00085,-169000512.00000,   0.00000
249591249.83860,304282525.85485,-69846801.00077,   0.00176,  -0.00004,  -0.00176,305902560.00000,   0.00136,276120992.00000,   0.00122,  -0.00094,  -0.00085,-170218432.00000,   0.00000
246678558.23137,304424157.79347,-69366483.99154,   0.00175,  -0.00004,  -0.00176,304731200.00000,   0.00136,276120992.00000,   0.00122,  -0.00094,  -0.00085,-171389792.00000,   0.00000
243735077.07226,304535000.18021,-68880009.07194,   0.00174,  -0.00003,  -0.00175,303566976.00000,   0.00136,276120992.00000,   0.00122,  -0.00094,  -0.00085,-172554016.00000,   0.00000
240791595.91316,304645842.56696,-68393534.15234,   0.00172,  -0.00003,  -0.00174,302438752.00000,   0.00136,276120992.00000,   0.00122,  -0.00094,  -0.00085,-173682240.00000,   0.00000
237817325.20218,304725895.40183,-67913217.14312,   0.00171,  -0.00002,  -0.00174,301321664.00000,   0.00136,276120992.00000,   0.00122,  -0.00094,  -0.00085,-174799328.00000,   0.00000
234821501.80490,304796711.37114,-67426742.22352,   0.00170,  -0.00001,  -0.00173,300222592.00000,   0.00136,276120992.00000,   0.00122,  -0.00094,  -0.00085,-175898400.00000,   0.00000
231794888.85573,304836737.78857,-66940267.30391,   0.00168,  -0.00001,  -0.00173,299130208.00000,   0.00136,276120992.00000,   0.00122,  -0.00094,  -0.00085,-176990784.00000,   0.00000
228768275.90657,304876764.20601,-66453792.38431,   0.00167,  -0.00000,  -0.00172,298070560.00000,   0.00136,276120992.00000,   0.00122,  -0.00094,  -0.00085,-178050432.00000,   0.00000
225710873.40554,304886001.07157,-65967317.46471,   0.00166,   0.00000,  -0.00171,297015008.00000,   0.00136,276120992.00000,   0.00122,  -0.00094,  -0.00085,-179105984.00000,   0.00000
222644234.03894,304873685.25082,-65474684.63474,   0.00164,   0.00001,  -0.00171,295968800.00000,   0.00136,276120992.00000,   0.00122,  -0.00094,  -0.00085,-180152192.00000,   0.00000
219565278.85159,304873685.25082,-64988209.71514,   0.00163,   0.00002,  -0.00170,294959584.00000,   0.00136,276120992.00000,   0.00122,  -0.00094,  -0.00085,-181161408.00000,   0.00000
216446297.24681,304821343.01263,-64501734.79554,   0.00161,   0.00002,  -0.00169,293934336.00000,   0.00136,276120992.00000,   0.00122,  -0.00094,  -0.00085,-182186656.00000,   0.00000
213327315.64203,304769000.77445,-64015259.87593,   0.00160,   0.00003,  -0.00169,292935936.00000,   0.00136,276120992.00000,   0.00122,  -0.00094,  -0.00085,-183185056.00000,   0.00000
210177544.48537,304685868.98439,-63528784.95633,   0.00158,   0.00003,  -0.00168,291938368.00000,   0.00136,276120992.00000,   0.00122,  -0.00094,  -0.00085,-184182624.00000,   0.00000
207006220.64241,304593500.32877,-63036152.12636,   0.00157,   0.00004,  -0.00167,290955744.00000,   0.00136,276120992.00000,   0.00122,  -0.00094,  -0.00085,-185165248.00000,   0.00000
203825659.93388,304479578.98684,-62549677.20676,   0.00156,   0.00005,  -0.00167,289992416.00000,   0.00136,276120992.00000,   0.00122,  -0.00094,  -0.00085,-186128576.00000,   0.00000
200623546.53904,304356420.77934,-62063202.28716,   0.00154,   0.00005,  -0.00166,289051776.00000,   0.00136,276120992.00000,   0.00122,  -0.00094,  -0.00085,-187069216.00000,   0.00000
197390643.59232,304202473.01998,-61576727.36756,   0.00153,   0.00006,  -0.00166,288117952.00000,   0.00136,276120992.00000,   0.00122,  -0.00094,  -0.00085,-188003040.00000,   0.00000
194157740.64561,304048525.26061,-61084094.53758,   0.00151,   0.00006,  -0.00165,287212768.00000,   0.00136,276120992.00000,   0.00122,  -0.00094,  -0.00085,-188908224.00000,   0.00000
190884811.28146,303842235.26306,-60597619.61798,   0.00150,   0.00007,  -0.00164,286300384.00000,   0.00136,276120992.00000,   0.00122,  -0.00094,  -0.00085,-189820608.00000,   0.00000
187621118.78287,303657497.95182,-60111144.69838,   0.00148,   0.00007,  -0.00164,285436704.00000,   0.00136,276120992.00000,   0.00122,  -0.00094,  -0.00085,-190684288.00000,   0.00000
184317399.86685,303420418.40239,-59618511.86840,   0.00147,   0.00008,  -0.00163,284557216.00000,   0.00136,276120992.00000,   0.00122,  -0.00094,  -0.00085,-191563776.00000,   0.00000
180992128.26451,303174101.98740,-59132036.94880,   0.00145,   0.00008,  -0.00162,283704960.00000,   0.00136,276120992.00000,   0.00122,  -0.00094,  -0.00085,-192416032.00000,   0.00000
177666856.66218,302927785.57242,-58645562.02920,   0.00144,   0.00009,  -0.00162,282887360.00000,   0.00136,276120992.00000,   0.00122,  -0.00094,  -0.00085,-193233632.00000,   0.00000
174310795.50797,302650679.60555,-58159087.10960,   0.00143,   0.00009,  -0.00161,282080128.00000,   0.00136,276120992.00000,   0.00122,  -0.00094,  -0.00085,-194040864.00000,   0.00000
170945497.48820,302352020.95238,-57666454.27963,   0.00141,   0.00010,  -0.00160,281290848.00000,   0.00136,276120992.00000,   0.00122,  -0.00094,  -0.00085,-194830144.00000,   0.00000
167549409.91656,302022572.74734,-57179979.36003,   0.00140,   0.00010,  -0.00160,280520256.00000,   0.00136,276120992.00000,   0.00122,  -0.00094,  -0.00085,-195600736.00000,   0.00000
164131769.65860,301683887.67673,-56693504.44042,   0.00138,   0.00011,  -0.00159,279784512.00000,   0.00136,276120992.00000,   0.00122,  -0.00094,  -0.00085,-196336480.00000,   0.00000
160714129.40065,301345202.60612,-56207029.52082,   0.00137,   0.00012,  -0.00159,279093344.00000,   0.00136,276120992.00000,   0.00122,  -0.00094,  -0.00085,-197027648.00000,   0.00000
157256462.72526,300954175.29733,-55720554.60122,   0.00135,   0.00012,  -0.00158,278404160.00000,   0.00136,276120992.00000,   0.00122,  -0.00094,  -0.00085,-197716832.00000,   0.00000
153798796.04987,300563147.98853,-55234079.68162,   0.00134,   0.00013,  -0.00157,277759680.00000,   0.00136,276120992.00000,   0.00122,  -0.00094,  -0.00085,-198361312.00000,   0.00000
150310339.82260,300141331.12787,-54741446.85165,   0.00132,   0.00013,  -0.00157,277130048.00000,   0.00136,276120992.00000,   0.00122,  -0.00094,  -0.00085,-198990944.00000,   0.00000
146821883.59534,299719514.26720,-54254971.93205,   0.00131,   0.00013,  -0.00156,276544800.00000,   0.00136,276120992.00000,   0.00122,  -0.00094,  -0.00085,-199576192.00000,   0.00000
143302637.81620,299266907.85466,-53774654.92282,   0.00129,   0.00014,  -0.00155,275976768.00000,   0.00136,276120992.00000,   0.00122,  -0.00094,  -0.00085,-200144224.00000,   0.00000
139752602.48519,298783511.89025,-53288180.00322,   0.00128,   0.00014,  -0.00155,275415968.00000,   0.00136,276120992.00000,   0.00122,  -0.00094,  -0.00085,-200705024.00000,   0.00000
136202567.15418,298300115.92583,-52801705.08362,   0.00126,   0.00015,  -0.00154,274888032.00000,   0.00136,276120992.00000,   0.00122,  -0.00094,  -0.00085,-201232960.00000,   0.00000
132621742.27130,297785930.40955,-52315230.16402,   0.00125,   0.00015,  -0.00153,274368160.00000,   0.00136,276120992.00000,   0.00122,  -0.00094,  -0.00085,-201752832.00000,   0.00000
129031680.52285,297250192.20695,-51828755.24442,   0.00123,   0.00016,  -0.00153,273867328.00000,   0.00136,276120992.00000,   0.00122,  -0.00094,  -0.00085,-202253664.00000,   0.00000
125410829.22253,296683664.45248,-51348438.23519,   0.00121,   0.00016,  -0.00152,273390560.00000,   0.00136,276120992.00000,   0.00122,  -0.00094,  -0.00085,-202730432.00000,   0.00000
121789977.92221,296117136.69800,-50861963.31559,   0.00120,   0.00017,  -0.00152,272933856.00000,   0.00136,276120992.00000,   0.00122,  -0.00094,  -0.00085,-203187136.00000,   0.00000
118138337.07002,295519819.39166,-50381646.30636,   0.00118,   0.00017,  -0.00151,272353888.00000,   0.00136,276120992.00000,   0.00122,  -0.00094,  -0.00085,-203767104.00000,   0.00000
114477459.35226,294900949.39900,-49895171.38676,   0.00117,   0.00018,  -0.00150,271641888.00000,   0.00136,276120992.00000,   0.00122,  -0.00094,  -0.00085,-204479104.00000,   0.00000
110795028.94819,294272842.54078,-49414854.37754,   0.00115,   0.00018,  -0.00150,271056896.00000,   0.00136,276120992.00000,   0.00122,  -0.00094,  -0.00085,-205064096.00000,   0.00000
107081808.99225,293613946.13069,-48934537.36831,   0.00114,   0.00018,  -0.00149,270618400.00000,   0.00136,276120992.00000,   0.00122,  -0.00094,  -0.00085,-205502592.00000,   0.00000
103359352.17075,292933497.03429,-48454220.35908,   0.00112,   0.00019,  -0.00148,270279264.00000,   0.00136,276120992.00000,   0.00122,  -0.00094,  -0.00085,-205841728.00000,   0.00000
99627658.48369,292231495.25157,-47973903.34986,   0.00111,   0.00019,  -0.00148,270000192.00000,   0.00136,276120992.00000,   0.00122,  -0.00094,  -0.00085,-206120800.00000,   0.00000
95874412.11031,291520256.60330,-47493586.34063,   0.00109,   0.00020,  -0.00147,269769376.00000,   0.00136,276120992.00000,   0.00122,  -0.00094,  -0.00085,-206351616.00000,   0.00000
92111928.87137,290787465.26871,-47013269.33141,   0.00107,   0.00020,  -0.00147,269564416.00000,   0.00136,276120992.00000,   0.00122,  -0.00094,  -0.00085,-206556576.00000,   0.00000
88318656.08056,290023884.38225,-46532952.32218,   0.00106,   0.00020,  -0.00146,269384256.00000,   0.00136,276120992.00000,   0.00122,  -0.00094,  -0.00085,-206736736.00000,   0.00000
84494593.73788,289229513.94391,-46058793.22333,   0.00104,   0.00021,  -0.00145,269238304.00000,   0.00136,276120992.00000,   0.00122,  -0.00094,  -0.00085,-206882688.00000,   0.00000
80670531.39519,288435143.50557,-45578476.21410,   0.00103,   0.00021,  -0.00145,269145568.00000,   0.00136,276120992.00000,   0.00122,  -0.00094,  -0.00085,-206975424.00000,   0.00000
76837232.18695,287619220.38093,-45104317.11525,   0.00101,   0.00022,  -0.00144,269096704.00000,   0.00136,276120992.00000,   0.00122,  -0.00094,  -0.00085,-207024288.00000,   0.00000
72973143.42683,286772507.70441,-44630158.01640,   0.00100,   0.00022,  -0.00144,269095712.00000,   0.00136,276120992.00000,   0.00122,  -0.00094,  -0.00085,-207025280.00000,   0.00000
69078265.11483,285895005.47601,-44149841.00717,   0.00098,   0.00022,  -0.00143,269169760.00000,   0.00136,276120992.00000,   0.00122,  -0.00094,  -0.00085,-206951232.00000,   0.00000
65174149.93728,284995950.56131,-43675681.90832,   0.00096,   0.00023,  -0.00142,269326944.00000,   0.00136,276120992.00000,   0.00122,  -0.00094,  -0.00085,-206794048.00000,   0.00000
61270034.75972,284096895.64660,-43207680.71985,   0.00095,   0.00023,  -0.00142,269467296.00000,   0.00136,276120992.00000,   0.00122,  -0.00094,  -0.00085,-206653696.00000,   0.00000
57335130.03029,283167051.18002,-42733521.62099,   0.00093,   0.00023,  -0.00141,269576224.00000,   0.00136,276120992.00000,   0.00122,  -0.00094,  -0.00085,-206544768.00000,   0.00000
53390988.43530,282215654.02713,-42259362.52214,   0.00092,   0.00024,  -0.00140,269724544.00000,   0.00136,276120992.00000,   0.00122,  -0.00094,  -0.00085,-206396448.00000,   0.00000
49416057.28844,281233467.32237,-41791361.33367,   0.00090,   0.00024,  -0.00140,269944480.00000,   0.00136,276120992.00000,   0.00122,  -0.00094,  -0.00085,-206176512.00000,   0.00000
45441126.14157,280251280.61761,-41317202.23481,   0.00088,   0.00024,  -0.00139,270234368.00000,   0.00136,276120992.00000,   0.00122,  -0.00094,  -0.00085,-205886624.00000,   0.00000
41426168.57727,279216751.67466,-40849201.04634,   0.00087,   0.00025,  -0.00139,270529792.00000,   0.00136,276120992.00000,   0.00122,  -0.00094,  -0.00085,-205591200.00000,   0.00000
37411211.01297,278182222.73171,-40381199.85786,   0.00085,   0.00025,  -0.00138,270851328.00000,   0.00136,276120992.00000,   0.00122,  -0.00094,  -0.00085,-205269664.00000,   0.00000
33387016.58311,277126141.10245,-39913198.66938,   0.00083,   0.00025,  -0.00137,271180064.00000,   0.00136,276120992.00000,   0.00122,  -0.00094,  -0.00085,-204940928.00000,   0.00000
29332032.60137,276039269.92132,-39451355.39128,   0.00082,   0.00026,  -0.00137,271516064.00000,   0.00136,276120992.00000,   0.00122,  -0.00094,  -0.00085,-204604928.00000,   0.00000
25246259.06777,274921609.18831,-38983354.20281,   0.00080,   0.00026,  -0.00136,271852224.00000,   0.00136,276120992.00000,   0.00122,  -0.00094,  -0.00085,-204268768.00000,   0.00000
21182038.22047,273813185.32087,-38521510.92470,   0.00079,   0.00026,  -0.00136,272211232.00000,   0.00136,276120992.00000,   0.00122,  -0.00094,  -0.00085,-203909760.00000,   0.00000
17056238.26942,272643182.34967,-38059667.64660,   0.00077,   0.00026,  -0.00135,272559872.00000,   0.00136,276120992.00000,   0.00122,  -0.00094,  -0.00085,-203561120.00000,   0.00000
12951991.00469,271482416.24404,-37591666.45813,   0.00075,   0.00027,  -0.00134,272939680.00000,   0.00136,276120992.00000,   0.00122,  -0.00094,  -0.00085,-203181312.00000,   0.00000
8816954.18808,270290860.58654,-37135981.09040,   0.00074,   0.00027,  -0.00134,273350272.00000,   0.00136,276120992.00000,   0.00122,  -0.00094,  -0.00085,-202770720.00000,   0.00000
4651127.81960,269068515.37716,-36674137.81230,   0.00072,   0.00027,  -0.00133,273791872.00000,   0.00136,276120992.00000,   0.00122,  -0.00094,  -0.00085,-202329120.00000,   0.00000
476064.58556,267824617.48148,-36212294.53419,   0.00070,   0.00028,  -0.00133,274272448.00000,   0.00136,276120992.00000,   0.00122,  -0.00094,  -0.00085,-201848544.00000,   0.00000
-3708235.51404,266559166.89948,-35756609.16647,   0.00069,   0.00028,  -0.00132,274797696.00000,   0.00136,276120992.00000,   0.00122,  -0.00094,  -0.00085,-201323296.00000,   0.00000
-7923325.16552,265262926.76560,-35300923.79874,   0.00067,   0.00028,  -0.00131,275367968.00000,   0.00136,276120992.00000,   0.00122,  -0.00094,  -0.00085,-200753024.00000,   0.00000
-12138414.81700,263966686.63173,-34845238.43101,   0.00065,   0.00028,  -0.00131,276001216.00000,   0.00136,276120992.00000,   0.00122,  -0.00094,  -0.00085,-200119776.00000,   0.00000
-16371978.19960,262627341.12523,-34389553.06328,   0.00064,   0.00028,  -0.00130,276663168.00000,   0.00136,276120992.00000,   0.00122,  -0.00094,  -0.00085,-199457824.00000,   0.00000
-20627094.26851,261278758.75318,-33933867.69556,   0.00062,   0.00029,  -0.00130,277390688.00000,   0.00136,276120992.00000,   0.00122,  -0.00094,  -0.00085,-198730304.00000,   0.00000
-24891447.20299,259908623.69481,-33484340.23820,   0.00060,   0.00029,  -0.00129,278166816.00000,   0.00136,276120992.00000,   0.00122,  -0.00094,  -0.00085,-197954176.00000,   0.00000
-29195826.55490,258486146.39825,-33034812.78085,   0.00059,   0.00029,  -0.00128,278974464.00000,   0.00136,276120992.00000,   0.00122,  -0.00094,  -0.00085,-197146528.00000,   0.00000
-33500205.90681,257063669.10170,-32585285.32350,   0.00057,   0.00029,  -0.00128,279844064.00000,   0.00136,276120992.00000,   0.00122,  -0.00094,  -0.00085,-196276928.00000,   0.00000
-37813822.12428,255619639.11883,-32135757.86615,   0.00055,   0.00029,  -0.00127,280756960.00000,   0.00136,276120992.00000,   0.00122,  -0.00094,  -0.00085,-195364032.00000,   0.00000
-42158227.89363,254144819.58409,-31686230.40879,   0.00054,   0.00030,  -0.00127,281715584.00000,   0.00136,276120992.00000,   0.00122,  -0.00094,  -0.00085,-194405408.00000,   0.00000
-46502633.66297,252670000.04936,-31242860.86182,   0.00052,   0.00030,  -0.00126,282733056.00000,   0.00136,276120992.00000,   0.00122,  -0.00094,  -0.00085,-193387936.00000,   0.00000
-50865513.16345,251152075.14199,-30799491.31484,   0.00050,   0.00030,  -0.00126,283773472.00000,   0.00136,276120992.00000,   0.00122,  -0.00094,  -0.00085,-192347520.00000,   0.00000
-55259182.21579,249603360.68276,-30356121.76786,   0.00048,   0.00030,  -0.00125,284856512.00000,   0.00136,276120992.00000,   0.00122,  -0.00094,  -0.00085,-191264480.00000,   0.00000
-59662088.13369,248033093.53721,-29912752.22088,   0.00047,   0.00030,  -0.00124,285977344.00000,   0.00136,276120992.00000,   0.00122,  -0.00094,  -0.00085,-190143648.00000,   0.00000
-64086546.73791,246453589.52610,-29475540.58428,   0.00045,   0.00030,  -0.00124,287157664.00000,   0.00136,276120992.00000,   0.00122,  -0.00094,  -0.00085,-188963328.00000,   0.00000
-68507926.38694,244840217.00793,-29032171.03730,   0.00043,   0.00031,  -0.00123,288353664.00000,   0.00136,276120992.00000,   0.00122,  -0.00094,  -0.00085,-187767328.00000,   0.00000
-72972411.40859,243208370.75864,-28594959.40070,   0.00042,   0.00031,  -0.00123,289615168.00000,   0.00136,276120992.00000,   0.00122,  -0.00094,  -0.00085,-186505824.00000,   0.00000
-77433817.47506,241542656.00228,-28157747.76409,   0.00040,   0.00031,  -0.00122,290895968.00000,   0.00136,276120992.00000,   0.00122,  -0.00094,  -0.00085,-185225024.00000,   0.00000
-81916776.22784,239867704.38037,-27726694.03787,   0.00038,   0.00031,  -0.00122,292238464.00000,   0.00136,276120992.00000,   0.00122,  -0.00094,  -0.00085,-183882528.00000,   0.00000
-86408971.84618,238171200.07214,-27289482.40126,   0.00037,   0.00031,  -0.00121,293619648.00000,   0.00136,276120992.00000,   0.00122,  -0.00094,  -0.00085,-182501344.00000,   0.00000
-90919641.19564,236431590.39129,-26858428.67503,   0.00035,   0.00031,  -0.00120,295029440.00000,   0.00136,276120992.00000,   0.00122,  -0.00094,  -0.00085,-181091552.00000,   0.00000
-95451863.23141,234682743.84488,-26427374.94881,   0.00033,   0.00031,  -0.00120,296499936.00000,   0.00136,276120992.00000,   0.00122,  -0.00094,  -0.00085,-179621056.00000,   0.00000
-99971769.44644,232921581.47771,-26002479.13295,   0.00031,   0.00031,  -0.00119,298004384.00000,   0.00136,276120992.00000,   0.00122,  -0.00094,  -0.00085,-178116608.00000,   0.00000
-104544017.89965,231120392.69312,-25571425.40672,   0.00030,   0.00031,  -0.00119,299558432.00000,   0.00136,276120992.00000,   0.00122,  -0.00094,  -0.00085,-176562560.00000,   0.00000
-109113187.39767,229285335.40146,-25146529.59087,   0.00028,   0.00031,  -0.00118,301127136.00000,   0.00136,276120992.00000,   0.00122,  -0.00094,  -0.00085,-174993856.00000,   0.00000
-113703909.58200,227441041.24424,-24721633.77502,   0.00026,   0.00031,  -0.00118,302744224.00000,   0.00136,276120992.00000,   0.00122,  -0.00094,  -0.00085,-173376768.00000,   0.00000
-118303868.63190,225575194.40070,-24296737.95916,   0.00024,   0.00031,  -0.00117,304382816.00000,   0.00136,276120992.00000,   0.00122,  -0.00094,  -0.00085,-171738176.00000,   0.00000
-122913064.54736,223687794.87086,-23878000.05368,   0.00023,   0.00031,  -0.00117,306041664.00000,   0.00136,276120992.00000,   0.00122,  -0.00094,  -0.00085,-170079328.00000,   0.00000
-127562286.88025,221748053.10283,-23459262.14820,   0.00021,   0.00032,  -0.00116,307748544.00000,   0.00136,276120992.00000,   0.00122,  -0.00094,  -0.00085,-168372448.00000,   0.00000
-132211509.21315,219808311.33480,-23040524.24272,   0.00019,   0.00032,  -0.00115,309728832.00000,   0.00136,276120992.00000,   0.00122,  -0.00094,  -0.00085,-166392160.00000,   0.00000
-136869968.41160,217847016.88046,-22621786.33725,   0.00018,   0.00032,  -0.00115,311375296.00000,   0.00136,276120992.00000,   0.00122,  -0.00094,  -0.00085,-164745696.00000,   0.00000
-141537664.47562,215864169.73981,-22209206.34214,   0.00016,   0.00032,  -0.00114,312900512.00000,   0.00136,276120992.00000,   0.00122,  -0.00094,  -0.00085,-163220480.00000,   0.00000
-146236150.09151,213850533.04729,-21790468.43666,   0.00014,   0.00032,  -0.00114,314586944.00000,   0.00136,276120992.00000,   0.00122,  -0.00094,  -0.00085,-161534048.00000,   0.00000
-150953109.43853,211793790.98214,-21377888.44156,   0.00012,   0.00032,  -0.00113,316331616.00000,   0.00136,276120992.00000,   0.00122,  -0.00094,  -0.00085,-159789376.00000,   0.00000
-155670068.78554,209737048.91699,-20971466.35683,   0.00011,   0.00032,  -0.00113,318178240.00000,   0.00136,276120992.00000,   0.00122,  -0.00094,  -0.00085,-157942752.00000,   0.00000
-160396264.99812,207658754.16553,-20558886.36172,   0.00009,   0.00032,  -0.00112,320156480.00000,   0.00136,276120992.00000,   0.00122,  -0.00094,  -0.00085,-155964512.00000,   0.00000
-165162487.62813,205528117.17589,-20152464.27699,   0.00007,   0.00031,  -0.00112,322266848.00000,   0.00136,276120992.00000,   0.00122,  -0.00094,  -0.00085,-153854144.00000,   0.00000
-169928710.25814,203397480.18625,-19746042.19226,   0.00005,   0.00031,  -0.00111,324425376.00000,   0.00136,276120992.00000,   0.00122,  -0.00094,  -0.00085,-151695616.00000,   0.00000
-174704169.75372,201245290.51029,-19345778.01791,   0.00004,   0.00031,  -0.00111,326562848.00000,   0.00136,276120992.00000,   0.00122,  -0.00094,  -0.00085,-149558144.00000,   0.00000
-179498102.98042,199049995.46171,-18945513.84355,   0.00002,   0.00031,  -0.00110,328707264.00000,   0.00136,276120992.00000,   0.00122,  -0.00094,  -0.00085,-147413728.00000,   0.00000
-184292036.20712,196854700.41313,-18545249.66920,   0.00000,   0.00031,  -0.00110,330951872.00000,   0.00136,276120992.00000,   0.00122,  -0.00094,  -0.00085,-145169120.00000,   0.00000
-189125995.85125,194607063.12637,-18144985.49484,  -0.00002,   0.00031,  -0.00109,333269184.00000,   0.00136,276120992.00000,   0.00122,  -0.00094,  -0.00085,-142851808.00000,   0.00000
-193969192.36095,192337873.15330,-17744721.32049,  -0.00003,   0.00031,  -0.00109,335525568.00000,   0.00136,276120992.00000,   0.00122,  -0.00094,  -0.00085,-140595424.00000,   0.00000
-198812388.87064,190068683.18022,-17350615.05651,  -0.00005,   0.00031,  -0.00108,337740576.00000,   0.00136,276120992.00000,   0.00122,  -0.00094,  -0.00085,-138380416.00000,   0.00000
-203674059.11146,187756387.83452,-16956508.79253,  -0.00007,   0.00031,  -0.00108,339929600.00000,   0.00136,276120992.00000,   0.00122,  -0.00094,  -0.00085,-136191392.00000,   0.00000
-208544966.21785,185422539.80252,-16568560.43892,  -0.00009,   0.00031,  -0.00107,342130944.00000,   0.00136,276120992.00000,   0.00122,  -0.00094,  -0.00085,-133990048.00000,   0.00000
-213446662.87610,183057902.21863,-16174454.17494,  -0.00011,   0.00031,  -0.00107,344372096.00000,   0.00136,276120992.00000,   0.00122,  -0.00094,  -0.00085,-131748896.00000,   0.00000
-218348359.53436,180693264.63475,-15786505.82134,  -0.00012,   0.00031,  -0.00106,346657792.00000,   0.00136,276120992.00000,   0.00122,  -0.00094,  -0.00085,-129463200.00000,   0.00000
-223246977.23743,178294758.54381,-15404715.37810,  -0.00014,   0.00030,  -0.00106,348950368.00000,   0.00136,276120992.00000,   0.00122,  -0.00094,  -0.00085,-127170624.00000,   0.00000
-228197937.17868,175856226.03543,-15016767.02450,  -0.00016,   0.00030,  -0.00105,351284032.00000,   0.00136,276120992.00000,   0.00122,  -0.00094,  -0.00085,-124836960.00000,   0.00000
-233145818.16475,173383825.01999,-14634976.58127,  -0.00018,   0.00030,  -0.00105,353615872.00000,   0.00136,276120992.00000,   0.00122,  -0.00094,  -0.00085,-122505120.00000,   0.00000
-238093699.15081,170911424.00455,-14253186.13804,  -0.00019,   0.00030,  -0.00104,355979584.00000,   0.00136,276120992.00000,   0.00122,  -0.00094,  -0.00085,-120141408.00000,   0.00000
-243072369.68875,168408233.43724,-13877553.60518,  -0.00021,   0.00030,  -0.00104,358385664.00000,   0.00136,276120992.00000,   0.00122,  -0.00094,  -0.00085,-117735328.00000,   0.00000
-248038724.40594,165892727.04918,-13495763.16195,  -0.00023,   0.00030,  -0.00103,360814112.00000,   0.00136,276120992.00000,   0.00122,  -0.00094,  -0.00085,-115306880.00000,   0.00000
-253045105.54057,163324878.42293,-13120130.62909,  -0.00025,   0.00029,  -0.00103,363285696.00000,   0.00136,276120992.00000,   0.00122,  -0.00094,  -0.00085,-112835296.00000,   0.00000
-258051486.67519,160757029.79668,-12750656.00661,  -0.00026,   0.00029,  -0.00102,365804384.00000,   0.00136,276120992.00000,   0.00122,  -0.00094,  -0.00085,-110316608.00000,   0.00000
-263076341.54094,158146075.79781,-12375023.47376,  -0.00028,   0.00029,  -0.00102,368345120.00000,   0.00136,276120992.00000,   0.00122,  -0.00094,  -0.00085,-107775872.00000,   0.00000
-268110433.27226,155513569.11263,-12005548.85127,  -0.00030,   0.00029,  -0.00101,370906592.00000,   0.00136,276120992.00000,   0.00122,  -0.00094,  -0.00085,-105214400.00000,   0.00000
-273166077.68988,152871825.56189,-11642232.13917,  -0.00032,   0.00029,  -0.00101,373496320.00000,   0.00136,276120992.00000,   0.00122,  -0.00094,  -0.00085,-102624672.00000,   0.00000
-278218643.15231,150196213.50408,-11272757.51669,  -0.00034,   0.00028,  -0.00100,376068896.00000,   0.00136,276120992.00000,   0.00122,  -0.00094,  -0.00085,-100052096.00000,   0.00000
-283301998.16662,147489811.89440,-10909440.80458,  -0.00035,   0.00028,  -0.00100,378678336.00000,   0.00136,276120992.00000,   0.00122,  -0.00094,  -0.00085,-97442656.00000,   0.00000
-288373037.36018,144771094.46398,-10546124.09247,  -0.00037,   0.00028,  -0.00099,381327808.00000,   0.00136,276120992.00000,   0.00122,  -0.00094,  -0.00085,-94793184.00000,   0.00000
-293484102.97118,142000034.79536,-10188965.29074,  -0.00039,   0.00028,  -0.00099,384078592.00000,   0.00136,276120992.00000,   0.00122,  -0.00094,  -0.00085,-92042400.00000,   0.00000
-298595168.58218,139228975.12675,-9825648.57863,  -0.00041,   0.00027,  -0.00098,386982432.00000,   0.00136,276120992.00000,   0.00122,  -0.00094,  -0.00085,-89138560.00000,   0.00000
-303715471.05873,136436362.77183,-9468489.77690,  -0.00043,   0.00027,  -0.00098,389810592.00000,   0.00136,276120992.00000,   0.00122,  -0.00094,  -0.00085,-86310400.00000,   0.00000
-308854247.26641,133600645.04428,-9117488.88554,  -0.00044,   0.00027,  -0.00097,392611200.00000,   0.00136,276120992.00000,   0.00122,  -0.00094,  -0.00085,-83509792.00000,   0.00000
-313993023.47410,130764927.31674,-8766487.99419,  -0.00046,   0.00026,  -0.00097,395463296.00000,   0.00136,276120992.00000,   0.00122,  -0.00094,  -0.00085,-80657696.00000,   0.00000
-319150273.41290,127886104.21657,-8415487.10283,  -0.00048,   0.00026,  -0.00096,398353600.00000,   0.00136,276120992.00000,   0.00122,  -0.00094,  -0.00085,-77767392.00000,   0.00000
-324316760.21727,124985728.43009,-8064486.21147,  -0.00050,   0.00026,  -0.00096,401288224.00000,   0.00136,276120992.00000,   0.00122,  -0.00094,  -0.00085,-74832768.00000,   0.00000
-329492483.88720,122063799.95729,-7719643.23049,  -0.00051,   0.00026,  -0.00096,404262592.00000,   0.00136,276120992.00000,   0.00122,  -0.00094,  -0.00085,-71858400.00000,   0.00000
-334698997.10900,119111081.93263,-7374800.24950,  -0.00053,   0.00025,  -0.00095,407283840.00000,   0.00136,276120992.00000,   0.00122,  -0.00094,  -0.00085,-68837152.00000,   0.00000
-339893194.51006,116146048.08721,-7029957.26852,  -0.00055,   0.00025,  -0.00095,410314400.00000,   0.00136,276120992.00000,   0.00122,  -0.00094,  -0.00085,-65806592.00000,   0.00000
-345127418.32855,113128672.00361,-6691272.19791,  -0.00057,   0.00025,  -0.00094,413372832.00000,   0.00136,276120992.00000,   0.00122,  -0.00094,  -0.00085,-62748160.00000,   0.00000
-350340089.46072,110120532.78558,-6352587.12731,  -0.00059,   0.00024,  -0.00094,416442176.00000,   0.00136,276120992.00000,   0.00122,  -0.00094,  -0.00085,-59678816.00000,   0.00000
-355592787.01034,107060051.32935,-6013902.05670,  -0.00060,   0.00024,  -0.00093,419541664.00000,   0.00136,276120992.00000,   0.00122,  -0.00094,  -0.00085,-56579328.00000,   0.00000
-360833168.73920,103987254.05238,-5675216.98609,  -0.00062,   0.00023,  -0.00093,422639424.00000,   0.00136,276120992.00000,   0.00122,  -0.00094,  -0.00085,-53481568.00000,   0.00000
-366095103.15438,100905219.90985,-5342689.82586,  -0.00064,   0.00023,  -0.00092,425758912.00000,   0.00136,276120992.00000,   0.00122,  -0.00094,  -0.00085,-50362080.00000,   0.00000
-371353958.61437,97789317.26025,-5016320.57600,  -0.00066,   0.00023,  -0.00092,428853312.00000,   0.00136,276120992.00000,   0.00122,  -0.00094,  -0.00085,-47267680.00000,   0.00000
-376652840.49179,94621072.37247,-4683793.41576,  -0.00068,   0.00022,  -0.00092,431956032.00000,   0.00136,276120992.00000,   0.00122,  -0.00094,  -0.00085,-44164960.00000,   0.00000
-381930169.68290,91462064.35026,-4357424.16590,  -0.00069,   0.00022,  -0.00091,435055296.00000,   0.00136,276120992.00000,   0.00122,  -0.00094,  -0.00085,-41065696.00000,   0.00000
-387238288.42589,88272266.77616,-4031054.91605,  -0.00071,   0.00021,  -0.00091,438184224.00000,   0.00136,276120992.00000,   0.00122,  -0.00094,  -0.00085,-37936768.00000,   0.00000
-392564880.90000,85039363.82945,-3710843.57656,  -0.00073,   0.00021,  -0.00090,441330080.00000,   0.00136,276120992.00000,   0.00122,  -0.00094,  -0.00085,-34790912.00000,   0.00000
-397869920.68780,81815697.74830,-3390632.23708,  -0.00075,   0.00021,  -0.00090,444491296.00000,   0.00136,276120992.00000,   0.00122,  -0.00094,  -0.00085,-31629696.00000,   0.00000
-403214986.89303,78539689.42896,-3070420.89759,  -0.00077,   0.00020,  -0.00089,447691552.00000,   0.00136,276120992.00000,   0.00122,  -0.00094,  -0.00085,-28429440.00000,   0.00000
-408547737.27751,75251365.28887,-2756367.46848,  -0.00078,   0.00020,  -0.00089,450904608.00000,   0.00136,276120992.00000,   0.00122,  -0.00094,  -0.00085,-25216384.00000,   0.00000
-413911277.21387,71932251.59692,-2442314.03938,  -0.00080,   0.00019,  -0.00089,454159904.00000,   0.00136,276120992.00000,   0.00122,  -0.00094,  -0.00085,-21961088.00000,   0.00000
-419262501.32948,68600822.08421,-2128260.61027,  -0.00082,   0.00019,  -0.00088,457425376.00000,   0.00136,276120992.00000,   0.00122,  -0.00094,  -0.00085,-18695616.00000,   0.00000
-424653751.86253,65217050.33331,-1814207.18116,  -0.00084,   0.00018,  -0.00088,460738080.00000,   0.00136,276120992.00000,   0.00122,  -0.00094,  -0.00085,-15382912.00000,   0.00000
-430023449.70926,61842515.44798,-1506311.66242,  -0.00085,   0.00018,  -0.00087,464101856.00000,   0.00136,276120992.00000,   0.00122,  -0.00094,  -0.00085,-12019136.00000,   0.00000
-435433173.97343,58415638.32446,-1198416.14369,  -0.00087,   0.00017,  -0.00087,467471136.00000,   0.00136,276120992.00000,   0.00122,  -0.00094,  -0.00085,-8649856.00000,   0.00000
-440830582.41684,54976445.38020,-896678.53533,  -0.00089,   0.00017,  -0.00087,470929344.00000,   0.00136,276120992.00000,   0.00122,  -0.00094,  -0.00085,-5191648.00000,   0.00000
-446237227.72583,51515699.74962,-594940.92697,  -0.00091,   0.00016,  -0.00086,474372736.00000,   0.00136,276120992.00000,   0.00122,  -0.00094,  -0.00085,-1748256.00000,   0.00000
-449032940.08348,49720491.47466,-439799.47111,  -0.00092,   0.00016,  -0.00086,476121216.00000,   0.00136,276120992.00000,   0.00122,  -0.00094,  -0.00085, 224.00000,   0.00000
-450183570.50868,47737109.97996,-288727.04417,  -0.00093,   0.00016,  -0.00086,476121216.00000,   0.00137,276128416.00000,   0.00122,  -0.00094,  -0.00085, 160.00000,   2.00000
-452520298.65355,43667563.22787,12234.35044,  -0.00094,   0.00015,  -0.00085,479524192.00000,   0.00138,276143712.00000,   0.00120,  -0.00093,  -0.00085,  96.00000,   2.00000
-454833252.27183,39593075.61351,315169.88620,  -0.00096,   0.00015,  -0.00085,479558976.00000,   0.00140,276159104.00000,   0.00118,  -0.00092,  -0.00085, 160.00000,   2.00000
-457139013.28164,35494079.99801,601548.26051,  -0.00098,   0.00014,  -0.00085,479586240.00000,   0.00141,276174496.00000,   0.00117,  -0.00091,  -0.00085, 288.00000,   2.00000
-459423530.87885,31394546.77139,889764.17049,  -0.00100,   0.00013,  -0.00084,479619200.00000,   0.00143,276189984.00000,   0.00115,  -0.00090,  -0.00085, -32.00000,   2.00000
-461671951.17001,27317969.54342,1167665.84391,  -0.00102,   0.00013,  -0.00084,479659264.00000,   0.00144,276205536.00000,   0.00114,  -0.00090,  -0.00085, 128.00000,   2.00000
-463903756.06368,23223520.38170,1441699.71171,  -0.00103,   0.00012,  -0.00084,479699008.00000,   0.00146,276221120.00000,   0.00112,  -0.00089,  -0.00085, 160.00000,   2.00000
-466099528.15940,19144315.24381,1706272.32694,  -0.00105,   0.00012,  -0.00083,479727264.00000,   0.00147,276236736.00000,   0.00111,  -0.00088,  -0.00085, 160.00000,   2.00000
-468281710.26031,15036814.10951,1967836.41091,  -0.00107,   0.00011,  -0.00083,479787456.00000,   0.00148,276252512.00000,   0.00109,  -0.00087,  -0.00085,  96.00000,   2.00000
-470416309.89859,10965352.99409,2227146.45043,  -0.00109,   0.00011,  -0.00082,479818560.00000,   0.00150,276268288.00000,   0.00108,  -0.00086,  -0.00085, 160.00000,   2.00000
-472537888.89139,6864878.77508,2478385.83714,  -0.00110,   0.00010,  -0.00082,479877472.00000,   0.00151,276284192.00000,   0.00106,  -0.00085,  -0.00085, 128.00000,   2.00000
-474614156.73636,2799190.95778,2734505.70326,  -0.00112,   0.00009,  -0.00082,479904768.00000,   0.00153,276300160.00000,   0.00104,  -0.00085,  -0.00085,  96.00000,   2.00000
-476673662.36468,-1285493.92726,2977362.64609,  -0.00114,   0.00009,  -0.00081,479942528.00000,   0.00154,276316160.00000,   0.00103,  -0.00084,  -0.00085, 192.00000,   2.00000
-478705682.79731,-5367675.00554,3225539.59791,  -0.00116,   0.00008,  -0.00081,479980256.00000,   0.00156,276332256.00000,   0.00101,  -0.00083,  -0.00085, 128.00000,   2.00000
-480710615.53951,-9446682.01724,3466814.29211,  -0.00118,   0.00007,  -0.00081,480016352.00000,   0.00157,276348416.00000,   0.00099,  -0.00082,  -0.00085, 288.00000,   2.00000
-482687617.02435,-13521452.27946,3707251.48670,  -0.00119,   0.00007,  -0.00080,480051712.00000,   0.00159,276364640.00000,   0.00098,  -0.00081,  -0.00085,  64.00000,   2.00000
-484641513.36978,-17601735.89273,3940715.73052,  -0.00121,   0.00006,  -0.00080,480068736.00000,   0.00160,276380864.00000,   0.00096,  -0.00081,  -0.00085, 160.00000,   2.00000
-486560123.72429,-21663576.63707,4172802.43897,  -0.00123,   0.00005,  -0.00080,480122784.00000,   0.00162,276397248.00000,   0.00094,  -0.00080,  -0.00085,  96.00000,   2.00000
-488453249.25098,-25728361.21034,4403560.61796,  -0.00125,   0.00005,  -0.00079,480142016.00000,   0.00164,276413600.00000,   0.00093,  -0.00079,  -0.00085,  64.00000,   2.00000
-490314957.36113,-29783636.30641,4626479.99661,  -0.00126,   0.00004,  -0.00079,480180640.00000,   0.00165,276430048.00000,   0.00091,  -0.00078,  -0.00085,  64.00000,   2.00000
-492144835.61822,-33828877.85045,4847514.09930,  -0.00128,   0.00003,  -0.00079,480220800.00000,   0.00167,276446560.00000,   0.00089,  -0.00077,  -0.00085, 224.00000,   2.00000
-493943178.28271,-37864075.33489,5066522.81215,  -0.00130,   0.00002,  -0.00078,480262048.00000,   0.00168,276463168.00000,   0.00087,  -0.00077,  -0.00085, 224.00000,   2.00000
-495710779.02245,-41889641.21250,5277324.47401,  -0.00132,   0.00002,  -0.00078,480303840.00000,   0.00170,276479808.00000,   0.00086,  -0.00076,  -0.00085,  32.00000,   2.00000
-497453826.95803,-45918475.83386,5492363.77192,  -0.00133,   0.00001,  -0.00078,480328832.00000,   0.00171,276496480.00000,   0.00084,  -0.00075,  -0.00085,  64.00000,   2.00000
-499163259.86713,-49926537.29859,5692974.50830,  -0.00135,   0.00000,  -0.00077,480388384.00000,   0.00173,276513248.00000,   0.00082,  -0.00074,  -0.00085, 192.00000,   2.00000
-500849427.30064,-53938976.97061,5898062.11564,  -0.00137,  -0.00001,  -0.00077,480413792.00000,   0.00174,276530048.00000,   0.00080,  -0.00074,  -0.00085, 128.00000,   2.00000
-502507433.64313,-57943073.23474,6095315.86789,  -0.00139,  -0.00001,  -0.00077,480455904.00000,   0.00176,276546912.00000,   0.00079,  -0.00073,  -0.00085,  96.00000,   2.00000
-504136677.12425,-61938081.71036,6284918.48438,  -0.00141,  -0.00002,  -0.00076,480498144.00000,   0.00178,276563808.00000,   0.00077,  -0.00072,  -0.00085,   0.00000,   2.00000
-505732396.76419,-65914412.09992,6479414.63584,  -0.00142,  -0.00003,  -0.00076,480523008.00000,   0.00179,276580736.00000,   0.00075,  -0.00071,  -0.00084,   0.00000,   2.00000
-507297456.01249,-69879495.23742,6666289.06504,  -0.00144,  -0.00004,  -0.00076,480565152.00000,   0.00181,276597728.00000,   0.00073,  -0.00071,  -0.00084, -32.00000,   2.00000
-508830799.73608,-73832195.30655,6851507.68983,  -0.00146,  -0.00004,  -0.00075,480607264.00000,   0.00182,276614752.00000,   0.00071,  -0.00070,  -0.00084, 192.00000,   2.00000
-510340056.68775,-77793007.30840,7028617.90320,  -0.00148,  -0.00005,  -0.00075,480649952.00000,   0.00184,276631872.00000,   0.00069,  -0.00069,  -0.00084,  96.00000,   2.00000
-511809198.64343,-81718823.14194,7203355.00906,  -0.00149,  -0.00006,  -0.00075,480690208.00000,   0.00186,276649088.00000,   0.00068,  -0.00069,  -0.00084,  64.00000,   2.00000
-513251946.54768,-85644925.14313,7375450.27850,  -0.00151,  -0.00007,  -0.00074,480714464.00000,   0.00187,276666272.00000,   0.00066,  -0.00068,  -0.00084,  64.00000,   2.00000
-514667956.05135,-89566331.88768,7537791.75339,  -0.00153,  -0.00008,  -0.00074,480772192.00000,   0.00189,276683584.00000,   0.00064,  -0.00067,  -0.00084,  96.00000,   2.00000
-516053085.51615,-93469115.79345,7696711.02861,  -0.00155,  -0.00009,  -0.00074,480793408.00000,   0.00190,276700896.00000,   0.00062,  -0.00067,  -0.00084, 160.00000,   2.00000
-517409632.13422,-97355061.57757,7851961.75556,  -0.00156,  -0.00009,  -0.00074,480813696.00000,   0.00192,276718176.00000,   0.00060,  -0.00066,  -0.00084, 128.00000,   2.00000
-518744777.75928,-101240000.99016,7996652.23920,  -0.00158,  -0.00010,  -0.00073,480868736.00000,   0.00194,276735616.00000,   0.00058,  -0.00065,  -0.00084,  64.00000,   2.00000
-520054011.37119,-105109666.25829,8137606.41251,  -0.00160,  -0.00011,  -0.00073,480887904.00000,   0.00195,276753024.00000,   0.00056,  -0.00065,  -0.00084,   0.00000,   2.00000
-521340012.21185,-108970610.29918,8274595.64062,  -0.00162,  -0.00012,  -0.00073,480925280.00000,   0.00197,276770464.00000,   0.00054,  -0.00064,  -0.00083, 160.00000,   2.00000
-522608191.28772,-112842327.37103,8407775.70895,  -0.00163,  -0.00013,  -0.00072,480966400.00000,   0.00199,276787968.00000,   0.00053,  -0.00064,  -0.00083,  96.00000,   2.00000
-523841417.14475,-116673844.12191,8531882.13472,  -0.00165,  -0.00014,  -0.00072,480985856.00000,   0.00200,276805440.00000,   0.00051,  -0.00063,  -0.00083, 160.00000,   2.00000
-525053707.13476,-120512434.54142,8646955.23794,  -0.00167,  -0.00015,  -0.00072,481029536.00000,   0.00202,276822976.00000,   0.00049,  -0.00062,  -0.00083,  64.00000,   2.00000
-526235774.87385,-124335141.95304,8765989.67771,  -0.00168,  -0.00016,  -0.00072,481072608.00000,   0.00204,276840576.00000,   0.00047,  -0.00062,  -0.00083,  64.00000,   2.00000
-527386979.49595,-128140827.30254,8877702.23992,  -0.00170,  -0.00017,  -0.00071,481115200.00000,   0.00205,276858240.00000,   0.00045,  -0.00061,  -0.00083,  64.00000,   2.00000
-528503704.70367,-131922231.32440,8989793.49294,  -0.00172,  -0.00018,  -0.00071,481139456.00000,   0.00207,276875904.00000,   0.00043,  -0.00061,  -0.00083, 160.00000,   2.00000
-529587403.92072,-135684558.30266,9096811.50860,  -0.00174,  -0.00019,  -0.00071,481179968.00000,   0.00209,276893632.00000,   0.00041,  -0.00060,  -0.00083,  96.00000,   2.00000
-530636722.73566,-139426231.02080,9205206.06821,  -0.00175,  -0.00019,  -0.00071,481219264.00000,   0.00210,276911392.00000,   0.00039,  -0.00060,  -0.00083,  64.00000,   2.00000
-531651646.31505,-143142082.30608,9314540.27113,  -0.00177,  -0.00020,  -0.00070,481238272.00000,   0.00212,276929184.00000,   0.00037,  -0.00059,  -0.00082, 192.00000,   2.00000
-532644652.22289,-146864326.66964,9423550.29095,  -0.00179,  -0.00021,  -0.00070,481276000.00000,   0.00214,276947008.00000,   0.00035,  -0.00058,  -0.00082,  96.00000,   2.00000
-533611257.66338,-150556240.36181,9526633.70271,  -0.00180,  -0.00022,  -0.00070,481303264.00000,   0.00215,276964896.00000,   0.00033,  -0.00058,  -0.00082, 224.00000,   2.00000
-534560615.64464,-154253924.25396,9630938.15378,  -0.00182,  -0.00023,  -0.00069,481339200.00000,   0.00217,276982816.00000,   0.00031,  -0.00057,  -0.00082,  96.00000,   2.00000
-535473898.41040,-157901316.40363,9731439.71368,  -0.00184,  -0.00024,  -0.00069,481356128.00000,   0.00219,277000672.00000,   0.00029,  -0.00057,  -0.00082, 160.00000,   2.00000
-536356322.14650,-161539878.97708,9833913.45862,  -0.00186,  -0.00025,  -0.00069,481404608.00000,   0.00220,277018624.00000,   0.00027,  -0.00056,  -0.00082, 192.00000,   2.00000
-537200667.84376,-165144916.21037,9938504.41673,  -0.00187,  -0.00026,  -0.00069,481432672.00000,   0.00222,277036544.00000,   0.00025,  -0.00056,  -0.00082, 160.00000,   2.00000
-538010990.62092,-168724640.59513,10044634.78989,  -0.00189,  -0.00027,  -0.00069,481476992.00000,   0.00224,277054528.00000,   0.00023,  -0.00056,  -0.00082, 288.00000,   2.00000
-538786873.64986,-172262243.18261,10145904.05606,  -0.00191,  -0.00028,  -0.00068,481514592.00000,   0.00225,277072544.00000,   0.00021,  -0.00055,  -0.00081, 288.00000,   2.00000
-539539934.79853,-175800695.88627,10247937.12931,  -0.00192,  -0.00029,  -0.00068,481559264.00000,   0.00227,277090656.00000,   0.00019,  -0.00055,  -0.00081, 224.00000,   2.00000
-540267198.56889,-179316900.50141,10350497.83673,  -0.00194,  -0.00031,  -0.00068,481581152.00000,   0.00229,277108704.00000,   0.00017,  -0.00054,  -0.00081, 288.00000,   2.00000
-540971422.41683,-182815699.14089,10446559.27362,  -0.00196,  -0.00032,  -0.00068,481621728.00000,   0.00230,277126784.00000,   0.00015,  -0.00054,  -0.00081, 288.00000,   2.00000
-541651983.13405,-186293162.40653,10541656.30144,  -0.00197,  -0.00033,  -0.00067,481646304.00000,   0.00232,277144832.00000,   0.00013,  -0.00054,  -0.00081, 320.00000,   2.00000
-542313352.36536,-189772705.96551,10634513.63949,  -0.00199,  -0.00034,  -0.00067,481696000.00000,   0.00234,277162944.00000,   0.00011,  -0.00053,  -0.00081, 256.00000,   2.00000
-542948206.60859,-193214131.21687,10718024.54290,  -0.00201,  -0.00035,  -0.00067,481738016.00000,   0.00236,277181056.00000,   0.00009,  -0.00053,  -0.00081, 288.00000,   2.00000
-543558217.91200,-196633701.92000,10797374.43525,  -0.00202,  -0.00036,  -0.00067,481768480.00000,   0.00237,277199168.00000,   0.00007,  -0.00052,  -0.00081, 256.00000,   2.00000
-544143311.99104,-200034564.87363,10871394.81045,  -0.00204,  -0.00037,  -0.00066,481817856.00000,   0.00239,277217312.00000,   0.00004,  -0.00052,  -0.00081, 288.00000,   2.00000
-544702232.71210,-203413434.74844,10933600.70089,  -0.00206,  -0.00038,  -0.00066,481847936.00000,   0.00241,277235424.00000,   0.00002,  -0.00052,  -0.00080, 192.00000,   2.00000
-545237456.64989,-206792154.96601,10989709.37942,  -0.00207,  -0.00039,  -0.00066,481900736.00000,   0.00242,277253600.00000,   0.00000,  -0.00051,  -0.00080, 128.00000,   2.00000
-545742182.00655,-210130420.22564,11040455.57668,  -0.00209,  -0.00040,  -0.00066,481940256.00000,   0.00244,277271840.00000,  -0.00002,  -0.00051,  -0.00080,  96.00000,   2.00000
-546219098.01738,-213443972.82588,11087212.27688,  -0.00211,  -0.00041,  -0.00066,481964128.00000,   0.00246,277290048.00000,  -0.00004,  -0.00051,  -0.00080, 160.00000,   2.00000
-546671636.85291,-216753540.53702,11124664.44649,  -0.00212,  -0.00043,  -0.00065,482009984.00000,   0.00248,277308320.00000,  -0.00006,  -0.00051,  -0.00080, -96.00000,   2.00000
-547095151.96934,-220019373.77249,11160537.44399,  -0.00214,  -0.00044,  -0.00065,482043392.00000,   0.00249,277326592.00000,  -0.00008,  -0.00050,  -0.00080,  96.00000,   2.00000
-547495605.00114,-223277590.28254,11189887.31877,  -0.00216,  -0.00045,  -0.00065,482069440.00000,   0.00251,277344896.00000,  -0.00010,  -0.00050,  -0.00079, 160.00000,   2.00000
-547868614.00850,-226492385.50296,11225232.01360,  -0.00217,  -0.00046,  -0.00065,482103168.00000,   0.00253,277363168.00000,  -0.00012,  -0.00050,  -0.00079,   0.00000,   2.00000
-548218655.20345,-229682576.89651,11254755.27898,  -0.00219,  -0.00047,  -0.00065,482123968.00000,   0.00255,277381440.00000,  -0.00014,  -0.00050,  -0.00079,   0.00000,   2.00000
-548548679.71421,-232870365.57268,11277587.38160,  -0.00221,  -0.00048,  -0.00064,482170272.00000,   0.00256,277399744.00000,  -0.00017,  -0.00049,  -0.00079,  32.00000,   2.00000
-548854410.78915,-236016946.39235,11306426.50429,  -0.00222,  -0.00050,  -0.00064,482186528.00000,   0.00258,277418016.00000,  -0.00019,  -0.00049,  -0.00079, 224.00000,   2.00000
-549139161.30159,-239144117.99381,11327949.07822,  -0.00224,  -0.00051,  -0.00064,482226976.00000,   0.00260,277436320.00000,  -0.00021,  -0.00049,  -0.00079,  64.00000,   2.00000
-549404742.31871,-242270690.27198,11347765.13941,  -0.00226,  -0.00052,  -0.00064,482274240.00000,   0.00261,277454656.00000,  -0.00023,  -0.00049,  -0.00078, 160.00000,   2.00000
-549648132.54164,-245357901.84378,11360378.05880,  -0.00227,  -0.00053,  -0.00064,482289216.00000,   0.00263,277472960.00000,  -0.00025,  -0.00049,  -0.00078,  96.00000,   2.00000
-549870161.34102,-248424092.38553,11377622.50163,  -0.00229,  -0.00054,  -0.00063,482311264.00000,   0.00265,277491232.00000,  -0.00027,  -0.00049,  -0.00078,  96.00000,   2.00000
-550072221.00057,-251470610.09562,11386616.96764,  -0.00230,  -0.00056,  -0.00063,482350848.00000,   0.00267,277509536.00000,  -0.00029,  -0.00049,  -0.00078, 224.00000,   2.00000
-550254886.74727,-254515053.76773,11387138.81487,  -0.00232,  -0.00057,  -0.00063,482397472.00000,   0.00268,277527904.00000,  -0.00031,  -0.00048,  -0.00078, 192.00000,   2.00000
-550415403.69208,-257519331.21951,11392400.04509,  -0.00234,  -0.00058,  -0.00063,482411744.00000,   0.00270,277546208.00000,  -0.00033,  -0.00048,  -0.00078, 192.00000,   2.00000
-550555945.70235,-260502980.33003,11389561.01647,  -0.00235,  -0.00059,  -0.00063,482450496.00000,   0.00272,277564544.00000,  -0.00036,  -0.00048,  -0.00077, 128.00000,   2.00000
-550676158.34073,-263465119.80896,11385591.58855,  -0.00237,  -0.00061,  -0.00062,482470688.00000,   0.00274,277582848.00000,  -0.00038,  -0.00048,  -0.00077, 288.00000,   2.00000
-550776589.11114,-266406662.08268,11374374.16065,  -0.00238,  -0.00062,  -0.00062,482508384.00000,   0.00275,277601184.00000,  -0.00040,  -0.00048,  -0.00077, 224.00000,   2.00000
-550856447.17206,-269326839.24850,11363512.86006,  -0.00240,  -0.00063,  -0.00062,482527200.00000,   0.00277,277619488.00000,  -0.00042,  -0.00048,  -0.00077,  96.00000,   2.00000
-550915606.71755,-272208249.12070,11354275.05005,  -0.00242,  -0.00064,  -0.00062,482555616.00000,   0.00279,277637792.00000,  -0.00044,  -0.00048,  -0.00077, 288.00000,   2.00000
-550953661.15698,-275084882.09651,11348791.42643,  -0.00243,  -0.00066,  -0.00062,482598432.00000,   0.00281,277656192.00000,  -0.00046,  -0.00048,  -0.00077, 256.00000,   2.00000
-550969826.39809,-277935925.10418,11345476.93608,  -0.00245,  -0.00067,  -0.00062,482595552.00000,   0.00282,277674464.00000,  -0.00048,  -0.00048,  -0.00076, 192.00000,   2.00000
-550964195.31649,-280740908.84859,11351293.81150,  -0.00246,  -0.00068,  -0.00061,482639840.00000,   0.00284,277692800.00000,  -0.00050,  -0.00048,  -0.00076, 256.00000,   2.00000
-550938120.79071,-283533922.37384,11364279.37607,  -0.00248,  -0.00070,  -0.00061,482646496.00000,   0.00286,277711072.00000,  -0.00053,  -0.00048,  -0.00076, 288.00000,   2.00000
-550896079.90483,-286286058.55053,11373974.39831,  -0.00250,  -0.00071,  -0.00061,482692992.00000,   0.00288,277729408.00000,  -0.00055,  -0.00048,  -0.00076, 160.00000,   2.00000
-550841477.73387,-289029986.45007,11364939.37183,  -0.00251,  -0.00072,  -0.00061,482710368.00000,   0.00289,277747680.00000,  -0.00057,  -0.00048,  -0.00076, 192.00000,   2.00000
-550773340.10419,-291783710.33314,11344816.64077,  -0.00253,  -0.00074,  -0.00061,482722016.00000,   0.00291,277765984.00000,  -0.00059,  -0.00048,  -0.00076, 256.00000,   2.00000
-550687928.05749,-294557580.42606,11327451.41514,  -0.00254,  -0.00075,  -0.00061,482737408.00000,   0.00293,277784384.00000,  -0.00061,  -0.00048,  -0.00075, 480.00000,   2.00000
-550584070.03550,-297320126.63090,11311643.31986,  -0.00256,  -0.00076,  -0.00061,482721376.00000,   0.00295,277802752.00000,  -0.00063,  -0.00048,  -0.00075, 416.00000,   2.00000
-550466796.07542,-300002321.60471,11287738.45358,  -0.00257,  -0.00078,  -0.00060,482718304.00000,   0.00296,277820992.00000,  -0.00065,  -0.00049,  -0.00075, 160.00000,   2.00000
-550346259.92640,-302597129.41300,11232614.16179,  -0.00259,  -0.00079,  -0.00060,482786464.00000,   0.00298,277839200.00000,  -0.00068,  -0.00049,  -0.00075,-256.00000,   2.00000
-550224669.85230,-305140238.52955,11163281.81492,  -0.00260,  -0.00080,  -0.00060,482818592.00000,   0.00300,277857184.00000,  -0.00070,  -0.00049,  -0.00075,-128.00000,   2.00000
-550087421.37849,-307670749.37319,11103048.11363,  -0.00262,  -0.00082,  -0.00060,482908512.00000,   0.00301,277875232.00000,  -0.00072,  -0.00049,  -0.00074,  32.00000,   2.00000
-549912797.22968,-310188443.07572,11045678.71250,  -0.00264,  -0.00083,  -0.00060,482990720.00000,   0.00303,277893408.00000,  -0.00074,  -0.00049,  -0.00074, 320.00000,   2.00000
-549695601.77982,-312688613.85619,10998155.84036,  -0.00265,  -0.00085,  -0.00060,483029792.00000,   0.00305,277911616.00000,  -0.00076,  -0.00049,  -0.00074, 480.00000,   2.00000
-549451482.61855,-315171557.48057,10952267.33806,  -0.00267,  -0.00086,  -0.00060,483042240.00000,   0.00307,277929856.00000,  -0.00078,  -0.00050,  -0.00074, 320.00000,   2.00000
-549193462.00101,-317636436.72398,10917518.86379,  -0.00268,  -0.00087,  -0.00059,483062112.00000,   0.00308,277948128.00000,  -0.00080,  -0.00050,  -0.00074, 224.00000,   2.00000
-548929736.54096,-320069231.17801,10880580.99144,  -0.00270,  -0.00089,  -0.00059,483055328.00000,   0.00310,277966304.00000,  -0.00082,  -0.00050,  -0.00073, 320.00000,   2.00000
-548657764.79536,-322481931.98052,10845605.47397,  -0.00271,  -0.00090,  -0.00059,483082240.00000,   0.00312,277984480.00000,  -0.00084,  -0.00050,  -0.00073, 352.00000,   2.00000
-548375372.03176,-324874727.85036,10812128.46691,  -0.00273,  -0.00092,  -0.00059,483097344.00000,   0.00314,278002592.00000,  -0.00086,  -0.00051,  -0.00073, 320.00000,   2.00000
-548081714.93239,-327247173.53869,10773419.11420,  -0.00274,  -0.00093,  -0.00059,483116352.00000,   0.00315,278020672.00000,  -0.00089,  -0.00051,  -0.00073, 384.00000,   2.00000
-547775707.50554,-329596659.13211,10734699.37731,  -0.00276,  -0.00094,  -0.00059,483156320.00000,   0.00317,278038784.00000,  -0.00091,  -0.00051,  -0.00073, 256.00000,   2.00000
-547458980.73235,-331908163.04187,10695892.33041,  -0.00277,  -0.00096,  -0.00059,483188352.00000,   0.00319,278056896.00000,  -0.00093,  -0.00052,  -0.00073, 224.00000,   2.00000
-547128781.11045,-334202482.61993,10657457.64300,  -0.00279,  -0.00097,  -0.00059,483194624.00000,   0.00321,278074880.00000,  -0.00095,  -0.00052,  -0.00072, 288.00000,   2.00000
-546786815.42735,-336473239.83357,10611763.99549,  -0.00280,  -0.00099,  -0.00058,483254656.00000,   0.00322,278092992.00000,  -0.00097,  -0.00052,  -0.00072, 256.00000,   2.00000
-546431268.76449,-338728252.90523,10566262.92272,  -0.00282,  -0.00100,  -0.00058,483261408.00000,   0.00324,278110976.00000,  -0.00099,  -0.00053,  -0.00072, 256.00000,   2.00000
-546065992.32416,-340948418.61476,10520227.49196,  -0.00283,  -0.00102,  -0.00058,483293408.00000,   0.00326,278128992.00000,  -0.00101,  -0.00053,  -0.00072, 192.00000,   2.00000
-545685562.22049,-343166410.84958,10473567.68633,  -0.00284,  -0.00103,  -0.00058,483327360.00000,   0.00327,278146976.00000,  -0.00103,  -0.00053,  -0.00072, 192.00000,   2.00000
-545299373.56121,-345336375.11143,10420558.13347,  -0.00286,  -0.00105,  -0.00058,483347840.00000,   0.00329,278164928.00000,  -0.00105,  -0.00054,  -0.00072, 320.00000,   2.00000
-544898415.29648,-347504911.28742,10367011.64564,  -0.00287,  -0.00106,  -0.00058,483380768.00000,   0.00331,278182912.00000,  -0.00107,  -0.00054,  -0.00071, 320.00000,   2.00000
-544488980.46755,-349640167.28023,10313027.09821,  -0.00289,  -0.00108,  -0.00058,483410912.00000,   0.00333,278200864.00000,  -0.00109,  -0.00055,  -0.00071, 256.00000,   2.00000
-544064940.24485,-351773837.94877,10258552.69966,  -0.00290,  -0.00109,  -0.00058,483443360.00000,   0.00334,278218848.00000,  -0.00111,  -0.00055,  -0.00071, 224.00000,   2.00000
-543635424.98544,-353863243.18867,10204473.55924,  -0.00292,  -0.00111,  -0.00058,483444000.00000,   0.00336,278236704.00000,  -0.00113,  -0.00056,  -0.00071, 352.00000,   2.00000
-543191666.24101,-355950975.74250,10143893.36681,  -0.00293,  -0.00112,  -0.00058,483475616.00000,   0.00338,278254592.00000,  -0.00115,  -0.00056,  -0.00071, 192.00000,   2.00000
-542740697.67080,-358005389.58140,10083101.65915,  -0.00295,  -0.00114,  -0.00057,483503680.00000,   0.00339,278272448.00000,  -0.00117,  -0.00056,  -0.00071, 160.00000,   2.00000
-542279651.56215,-360040345.99336,10021852.64368,  -0.00296,  -0.00115,  -0.00057,483542240.00000,   0.00341,278290336.00000,  -0.00120,  -0.00057,  -0.00070, 320.00000,   2.00000
-541810525.05489,-362048813.59325,9955363.38532,  -0.00297,  -0.00117,  -0.00057,483533984.00000,   0.00343,278308128.00000,  -0.00122,  -0.00057,  -0.00070, 288.00000,   2.00000
-541327609.01847,-364050708.37053,9894337.58797,  -0.00299,  -0.00118,  -0.00057,483583488.00000,   0.00345,278325984.00000,  -0.00124,  -0.00058,  -0.00070, 160.00000,   2.00000
-540842620.50982,-366005879.41172,9827506.46873,  -0.00300,  -0.00120,  -0.00057,483599168.00000,   0.00346,278343776.00000,  -0.00126,  -0.00059,  -0.00070, 192.00000,   2.00000
-540342654.30442,-367961738.76565,9761113.64377,  -0.00302,  -0.00121,  -0.00057,483612832.00000,   0.00348,278361536.00000,  -0.00128,  -0.00059,  -0.00070, 224.00000,   2.00000
-539837813.53153,-369884750.57019,9688794.96071,  -0.00303,  -0.00123,  -0.00057,483639040.00000,   0.00350,278379264.00000,  -0.00130,  -0.00060,  -0.00069, 256.00000,   2.00000
-539323584.57932,-371787697.69218,9622519.81587,  -0.00305,  -0.00124,  -0.00057,483677184.00000,   0.00351,278397056.00000,  -0.00132,  -0.00060,  -0.00069, 192.00000,   2.00000
-538802823.27117,-373666062.72140,9551372.14290,  -0.00306,  -0.00126,  -0.00057,483668032.00000,   0.00353,278414688.00000,  -0.00134,  -0.00061,  -0.00069, 320.00000,   2.00000
-538273531.84925,-375525209.08547,9480322.39124,  -0.00307,  -0.00127,  -0.00057,483705728.00000,   0.00355,278432384.00000,  -0.00136,  -0.00061,  -0.00069, 192.00000,   2.00000
-537736509.05736,-377365706.70111,9409462.14370,  -0.00309,  -0.00129,  -0.00057,483743104.00000,   0.00357,278450080.00000,  -0.00138,  -0.00062,  -0.00069, 288.00000,   2.00000
-537192881.48904,-379182854.90123,9340058.98329,  -0.00310,  -0.00130,  -0.00056,483734400.00000,   0.00358,278467680.00000,  -0.00140,  -0.00063,  -0.00069, 288.00000,   2.00000
-536642158.47759,-380982302.91304,9264923.00696,  -0.00311,  -0.00132,  -0.00056,483771584.00000,   0.00360,278485312.00000,  -0.00142,  -0.00063,  -0.00068, 192.00000,   2.00000
-536087993.04137,-382751409.36357,9196654.23446,  -0.00313,  -0.00134,  -0.00056,483797856.00000,   0.00362,278502912.00000,  -0.00143,  -0.00064,  -0.00068, 352.00000,   2.00000
-535524072.37963,-384511860.79136,9123690.27800,  -0.00314,  -0.00135,  -0.00056,483800256.00000,   0.00363,278520448.00000,  -0.00145,  -0.00065,  -0.00068, 224.00000,   2.00000
-534953758.27550,-386255685.71199,9045319.62248,  -0.00315,  -0.00137,  -0.00056,483837600.00000,   0.00365,278538016.00000,  -0.00147,  -0.00065,  -0.00068, 192.00000,   2.00000
-534379046.34436,-387974612.84678,8974542.93163,  -0.00317,  -0.00138,  -0.00056,483846656.00000,   0.00367,278555520.00000,  -0.00149,  -0.00066,  -0.00068, 256.00000,   2.00000
-533798086.68131,-389677340.60919,8898494.39647,  -0.00318,  -0.00140,  -0.00056,483884160.00000,   0.00368,278573056.00000,  -0.00151,  -0.00067,  -0.00068, 128.00000,   2.00000
-533213106.83930,-391355978.66962,8830142.78355,  -0.00320,  -0.00142,  -0.00056,483893088.00000,   0.00370,278590528.00000,  -0.00153,  -0.00067,  -0.00067,  96.00000,   2.00000
-532620710.55431,-393023435.55890,8757023.73964,  -0.00321,  -0.00143,  -0.00056,483913312.00000,   0.00372,278607968.00000,  -0.00155,  -0.00068,  -0.00067, 192.00000,   2.00000
-532025148.79905,-394667773.93618,8679503.01938,  -0.00322,  -0.00145,  -0.00056,483921728.00000,   0.00373,278625344.00000,  -0.00157,  -0.00069,  -0.00067, 160.00000,   2.00000
-531423235.28002,-396295987.71649,8609135.86823,  -0.00323,  -0.00146,  -0.00056,483960128.00000,   0.00375,278642752.00000,  -0.00159,  -0.00070,  -0.00067,  96.00000,   2.00000
-530818322.50757,-397901413.58886,8540427.60554,  -0.00325,  -0.00148,  -0.00056,483968768.00000,   0.00377,278660128.00000,  -0.00161,  -0.00070,  -0.00067, 160.00000,   2.00000
-530206113.81801,-399495942.28891,8467001.75144,  -0.00326,  -0.00150,  -0.00056,483989344.00000,   0.00378,278677440.00000,  -0.00163,  -0.00071,  -0.00067,  96.00000,   2.00000
-529593230.74645,-401063303.72407,8394857.86383,  -0.00327,  -0.00151,  -0.00056,484015104.00000,   0.00380,278694784.00000,  -0.00165,  -0.00072,  -0.00067, 192.00000,   2.00000
-528970770.47137,-402624332.54747,8324407.61294,  -0.00329,  -0.00153,  -0.00056,484018784.00000,   0.00382,278712032.00000,  -0.00167,  -0.00073,  -0.00066, 192.00000,   2.00000
-528348131.57949,-404158455.79401,8249030.92530,  -0.00330,  -0.00154,  -0.00056,484044192.00000,   0.00383,278729280.00000,  -0.00168,  -0.00074,  -0.00066, 160.00000,   2.00000
-527720225.99328,-405676648.31494,8180615.23764,  -0.00331,  -0.00156,  -0.00055,484082560.00000,   0.00385,278746560.00000,  -0.00170,  -0.00074,  -0.00066,  64.00000,   2.00000
-527088356.95888,-407178188.56387,8107824.03974,  -0.00333,  -0.00158,  -0.00055,484073408.00000,   0.00387,278763712.00000,  -0.00172,  -0.00075,  -0.00066, 128.00000,   2.00000
-526456720.70636,-408653250.42052,8035994.31657,  -0.00334,  -0.00159,  -0.00055,484098976.00000,   0.00388,278780896.00000,  -0.00174,  -0.00076,  -0.00066,  96.00000,   2.00000
-525818485.95440,-410118163.99541,7965129.66550,  -0.00335,  -0.00161,  -0.00055,484119968.00000,   0.00390,278798048.00000,  -0.00176,  -0.00077,  -0.00066,  32.00000,   2.00000
-525173883.58538,-411573144.40417,7895138.73383,  -0.00336,  -0.00163,  -0.00055,484141184.00000,   0.00392,278815168.00000,  -0.00178,  -0.00078,  -0.00066, 128.00000,   2.00000
-524535281.21992,-412991945.49923,7826100.40340,  -0.00338,  -0.00164,  -0.00055,484154240.00000,   0.00393,278832256.00000,  -0.00179,  -0.00079,  -0.00065, 160.00000,   2.00000
-523885742.99489,-414412574.33336,7751436.08519,  -0.00339,  -0.00166,  -0.00055,484188480.00000,   0.00395,278849344.00000,  -0.00181,  -0.00080,  -0.00065,  64.00000,   2.00000
-523239852.59529,-415803228.01576,7684075.63700,  -0.00340,  -0.00168,  -0.00055,484184800.00000,   0.00397,278866368.00000,  -0.00183,  -0.00080,  -0.00065,  96.00000,   2.00000
-522588078.86072,-417186187.79204,7611210.23358,  -0.00341,  -0.00169,  -0.00055,484206624.00000,   0.00398,278883360.00000,  -0.00185,  -0.00081,  -0.00065,  64.00000,   2.00000
-521930023.11044,-418561663.49069,7538934.72777,  -0.00343,  -0.00171,  -0.00055,484228992.00000,   0.00400,278900352.00000,  -0.00187,  -0.00082,  -0.00065,  96.00000,   2.00000
-521279050.91232,-419904830.06408,7461310.24514,  -0.00344,  -0.00173,  -0.00055,484241792.00000,   0.00402,278917280.00000,  -0.00188,  -0.00083,  -0.00065,  32.00000,   2.00000
-520621271.26437,-421241855.23111,7390319.36307,  -0.00345,  -0.00174,  -0.00055,484264352.00000,   0.00403,278934208.00000,  -0.00190,  -0.00084,  -0.00065,  32.00000,   2.00000
-519957078.27942,-422573765.71760,7313657.13676,  -0.00346,  -0.00176,  -0.00055,484286336.00000,   0.00405,278951104.00000,  -0.00192,  -0.00085,  -0.00064,  32.00000,   2.00000
-519293924.01707,-423885426.09721,7243371.99215,  -0.00347,  -0.00178,  -0.00055,484312128.00000,   0.00407,278968000.00000,  -0.00194,  -0.00086,  -0.00064,  64.00000,   2.00000
-518626225.90669,-425188905.20631,7167743.96304,  -0.00349,  -0.00179,  -0.00055,484302816.00000,   0.00408,278984800.00000,  -0.00196,  -0.00087,  -0.00064,   0.00000,   2.00000
-517959658.24228,-426474180.74832,7092053.02211,  -0.00350,  -0.00181,  -0.00055,484327168.00000,   0.00410,279001632.00000,  -0.00197,  -0.00088,  -0.00064,  32.00000,   2.00000
-517285843.19076,-427757370.25804,7010030.16347,  -0.00351,  -0.00183,  -0.00055,484346720.00000,   0.00411,279018400.00000,  -0.00199,  -0.00089,  -0.00064,  32.00000,   2.00000
-516609301.44953,-429028298.48007,6933920.05835,  -0.00352,  -0.00184,  -0.00055,484352640.00000,   0.00413,279035136.00000,  -0.00201,  -0.00090,  -0.00064,  32.00000,   2.00000
-515933495.02255,-430281220.14785,6857159.03563,  -0.00353,  -0.00186,  -0.00055,484374016.00000,   0.00415,279051904.00000,  -0.00202,  -0.00091,  -0.00064,  64.00000,   2.00000
-515250949.71217,-431529760.63383,6774017.48226,  -0.00354,  -0.00188,  -0.00055,484390784.00000,   0.00416,279068640.00000,  -0.00204,  -0.00092,  -0.00064, 672.00000,   1.00000
-514567753.52077,-432754109.02759,6692353.19993,  -0.00356,  -0.00189,  -0.00055,484363520.00000,   0.00418,279085216.00000,  -0.00206,  -0.00093,  -0.00063, -32.00000,   2.00000
-513883217.51389,-433959572.12689,6612339.96981,  -0.00357,  -0.00191,  -0.00055,484395744.00000,   0.00420,279101856.00000,  -0.00208,  -0.00094,  -0.00063,  32.00000,   2.00000
-513198762.53328,-435142349.81116,6535346.29533,  -0.00358,  -0.00193,  -0.00055,484428928.00000,   0.00421,279118528.00000,  -0.00209,  -0.00095,  -0.00063,   0.00000,   2.00000
-512519188.35123,-436295342.83036,6463162.28624,  -0.00359,  -0.00194,  -0.00055,484402080.00000,   0.00423,279135040.00000,  -0.00211,  -0.00096,  -0.00063,-608.00000,   1.00000
-511842472.21404,-437432825.88585,6388160.98546,  -0.00360,  -0.00196,  -0.00055,484436544.00000,   0.00424,279151616.00000,  -0.00213,  -0.00097,  -0.00063, -64.00000,   2.00000
-511162738.90971,-438560553.98614,6322380.22588,  -0.00361,  -0.00198,  -0.00055,484426816.00000,   0.00426,279168064.00000,  -0.00214,  -0.00098,  -0.00063,  64.00000,   2.00000
-510486576.00000,-439672419.23033,6252079.86896,  -0.00362,  -0.00199,  -0.00055,484449984.00000,   0.00428,279184512.00000,  -0.00216,  -0.00099,  -0.00063,   0.00000,   2.00000
-509807298.80654,-440779447.45195,6182646.67268,  -0.00364,  -0.00201,  -0.00055,484487136.00000,   0.00429,279200992.00000,  -0.00218,  -0.00100,  -0.00063, 128.00000,   2.00000
-509127610.35995,-441875480.96333,6114788.61701,  -0.00365,  -0.00203,  -0.00055,484462880.00000,   0.00431,279217344.00000,  -0.00219,  -0.00101,  -0.00062, 128.00000,   2.00000
-508440058.46217,-442972435.69161,6047649.17945,  -0.00366,  -0.00205,  -0.00055,484482400.00000,   0.00432,279233664.00000,  -0.00221,  -0.00102,  -0.00062,   0.00000,   2.00000
-507754271.25292,-444055002.67031,5981218.79969,  -0.00367,  -0.00206,  -0.00055,484503776.00000,   0.00434,279250016.00000,  -0.00222,  -0.00103,  -0.00062,-352.00000,   1.00000
-507069072.89310,-445129729.54081,5916076.88357,  -0.00368,  -0.00208,  -0.00054,484507808.00000,   0.00436,279266304.00000,  -0.00224,  -0.00104,  -0.00062, 640.00000,   1.00000
-506382387.13857,-446192543.46656,5846591.23143,  -0.00369,  -0.00210,  -0.00054,484513120.00000,   0.00437,279282528.00000,  -0.00226,  -0.00105,  -0.00062, -64.00000,   2.00000
-505697393.39593,-447244045.98937,5779263.58319,  -0.00370,  -0.00211,  -0.00054,484517664.00000,   0.00439,279298720.00000,  -0.00227,  -0.00107,  -0.00062, 416.00000,   1.00000
-505005738.42688,-448289668.77014,5719659.49753,  -0.00371,  -0.00213,  -0.00054,484538592.00000,   0.00440,279314880.00000,  -0.00229,  -0.00108,  -0.00062, -32.00000,   2.00000
-504323703.37833,-449308357.51218,5654821.48512,  -0.00372,  -0.00215,  -0.00054,484545984.00000,   0.00442,279331040.00000,  -0.00230,  -0.00109,  -0.00062,  32.00000,   2.00000
-503633745.88577,-450323697.79343,5589427.22497,  -0.00373,  -0.00217,  -0.00054,484564640.00000,   0.00443,279347168.00000,  -0.00232,  -0.00110,  -0.00062,  64.00000,   2.00000
-502936478.13119,-451334853.24941,5516688.68897,  -0.00374,  -0.00218,  -0.00054,484550592.00000,   0.00445,279363200.00000,  -0.00234,  -0.00111,  -0.00062,  32.00000,   2.00000
-502240040.60694,-452332022.80609,5447580.83800,  -0.00375,  -0.00220,  -0.00054,484566592.00000,   0.00447,279379264.00000,  -0.00235,  -0.00112,  -0.00062, 128.00000,   2.00000
-501540547.04034,-453322311.53876,5376091.26415,  -0.00376,  -0.00222,  -0.00054,484564064.00000,   0.00448,279395264.00000,  -0.00237,  -0.00113,  -0.00061,  64.00000,   2.00000
-500849799.41378,-454293065.56998,5296539.08386,  -0.00377,  -0.00223,  -0.00054,484561408.00000,   0.00450,279411232.00000,  -0.00238,  -0.00114,  -0.00061, 288.00000,   2.00000
-500147082.46546,-455271144.65959,5221939.79231,  -0.00378,  -0.00225,  -0.00054,484554944.00000,   0.00451,279427168.00000,  -0.00240,  -0.00115,  -0.00061,  96.00000,   2.00000
-499449051.82944,-456236965.80077,5140681.87246,  -0.00379,  -0.00227,  -0.00054,484565856.00000,   0.00453,279443072.00000,  -0.00241,  -0.00117,  -0.00061, -32.00000,   2.00000
-498747357.56259,-457201221.03893,5060364.20273,  -0.00380,  -0.00229,  -0.00054,484545728.00000,   0.00454,279458880.00000,  -0.00243,  -0.00118,  -0.00061, 192.00000,   2.00000
-498051220.63746,-458151038.51753,4981193.30075,  -0.00381,  -0.00230,  -0.00054,484559296.00000,   0.00456,279474688.00000,  -0.00244,  -0.00119,  -0.00061, 128.00000,   2.00000
-497350517.05274,-459099383.40459,4903737.77767,  -0.00382,  -0.00232,  -0.00054,484572416.00000,   0.00457,279490496.00000,  -0.00246,  -0.00120,  -0.00061,   0.00000,   2.00000
-496657512.51916,-460030285.72775,4822640.15457,  -0.00383,  -0.00234,  -0.00054,484557888.00000,   0.00459,279506208.00000,  -0.00247,  -0.00121,  -0.00061, -32.00000,   2.00000
-495965524.38137,-460950701.93900,4749969.42675,  -0.00384,  -0.00235,  -0.00054,484559456.00000,   0.00460,279521888.00000,  -0.00249,  -0.00122,  -0.00061,  96.00000,   2.00000
-495274371.56009,-461860423.74179,4679477.82010,  -0.00385,  -0.00237,  -0.00054,484561760.00000,   0.00462,279537504.00000,  -0.00250,  -0.00124,  -0.00061,   0.00000,   2.00000
-494595143.51786,-462746478.56326,4604873.92367,  -0.00386,  -0.00239,  -0.00054,484565568.00000,   0.00463,279553088.00000,  -0.00252,  -0.00125,  -0.00060,  96.00000,   2.00000
-493905330.54202,-463635383.79311,4532096.09729,  -0.00387,  -0.00241,  -0.00054,484567392.00000,   0.00465,279568608.00000,  -0.00253,  -0.00126,  -0.00060,  64.00000,   2.00000
-493220523.13341,-464507721.51576,4466702.49989,  -0.00388,  -0.00242,  -0.00054,484586528.00000,   0.00467,279584160.00000,  -0.00254,  -0.00127,  -0.00060,   0.00000,   2.00000
-492536037.93081,-465370121.13445,4396404.91016,  -0.00389,  -0.00244,  -0.00054,484589184.00000,   0.00468,279599648.00000,  -0.00256,  -0.00128,  -0.00060, -32.00000,   2.00000
-491851362.56997,-466222493.68755,4327099.67328,  -0.00390,  -0.00246,  -0.00054,484591968.00000,   0.00470,279615104.00000,  -0.00257,  -0.00129,  -0.00060,  64.00000,   2.00000
-491172618.06698,-467058157.59173,4258771.30200,  -0.00391,  -0.00247,  -0.00054,484579264.00000,   0.00471,279630464.00000,  -0.00259,  -0.00131,  -0.00060,  32.00000,   2.00000
-490487823.06882,-467891996.41908,4184749.41630,  -0.00392,  -0.00249,  -0.00054,484595520.00000,   0.00473,279645824.00000,  -0.00260,  -0.00132,  -0.00060, 192.00000,   2.00000
-489808475.57847,-468709464.04732,4117531.93894,  -0.00393,  -0.00251,  -0.00054,484582496.00000,   0.00474,279661088.00000,  -0.00261,  -0.00133,  -0.00060, 128.00000,   2.00000
-489128967.19251,-469518517.08602,4050656.20759,  -0.00394,  -0.00252,  -0.00055,484583200.00000,   0.00476,279676320.00000,  -0.00263,  -0.00134,  -0.00060, 128.00000,   2.00000
-488454582.65352,-470313423.96665,3977748.20118,  -0.00395,  -0.00254,  -0.00055,484599104.00000,   0.00477,279691552.00000,  -0.00264,  -0.00135,  -0.00060, 128.00000,   2.00000
-487774451.21686,-471106358.18188,3911438.60986,  -0.00396,  -0.00256,  -0.00055,484583936.00000,   0.00479,279706720.00000,  -0.00266,  -0.00137,  -0.00060, 256.00000,   2.00000
-487099625.19568,-471885718.61260,3839029.47617,  -0.00397,  -0.00258,  -0.00055,484599104.00000,   0.00480,279721856.00000,  -0.00267,  -0.00138,  -0.00060, 192.00000,   2.00000
-486430589.62710,-472650989.38078,3767117.10317,  -0.00397,  -0.00259,  -0.00055,484584064.00000,   0.00481,279736928.00000,  -0.00268,  -0.00139,  -0.00059,   0.00000,   2.00000
-485755394.62928,-473416172.40532,3695289.29237,  -0.00398,  -0.00261,  -0.00055,484598400.00000,   0.00483,279752000.00000,  -0.00270,  -0.00140,  -0.00059, 128.00000,   2.00000
-485085856.12950,-474167716.60211,3624002.60432,  -0.00399,  -0.00263,  -0.00055,484583264.00000,   0.00484,279766976.00000,  -0.00271,  -0.00142,  -0.00059, 192.00000,   2.00000
-484416106.17916,-474912853.54706,3553087.23335,  -0.00400,  -0.00264,  -0.00055,484582688.00000,   0.00486,279781920.00000,  -0.00272,  -0.00143,  -0.00059, 192.00000,   2.00000
