# sigma_xx, sigma_yy, sigma_xy, epsilon_xx, epsilon_yy, epsilon_xy, vonMises, epsPlastic, hardening, epsilonP__xx, epsilonP__yy, epsilonP__xy, yieldValue, iteration
   0.00000,   0.00000,   0.00000,   0.00000,   0.00000,   0.00000,   0.00000,   0.00000,274640135.82653,   0.00000,   0.00000,   0.00000,-474640135.82653,   0.00000
   0.00000,   0.00000,   0.00000,   0.00000,   0.00000,   0.00000,   0.00000,   0.00000,274640135.82653,   0.00000,   0.00000,   0.00000,-474640135.82653,   0.00000
-633847.45405,1771522.37156,-595924.95680,  -0.00001,   0.00001,  -0.00001,2393388.54250,   0.00000,274640135.82653,   0.00000,   0.00000,   0.00000,-472246747.28403,   0.00000
-1256859.90888,3532209.74391,-1191849.91359,  -0.00001,   0.00002,  -0.00002,4770452.17689,   0.00000,274640135.82653,   0.00000,   0.00000,   0.00000,-469869683.64964,   0.00000
-1850076.11587,5290188.36646,-1787774.87039,  -0.00002,   0.00003,  -0.00002,7126327.43382,   0.00000,274640135.82653,   0.00000,   0.00000,   0.00000,-467513808.39271,   0.00000
-2443292.32286,7048166.98901,-2378282.32757,  -0.00002,   0.00004,  -0.00003,9478172.19000,   0.00000,274640135.82653,   0.00000,   0.00000,   0.00000,-465161963.63653,   0.00000
-3006712.28201,8803436.86175,-2974207.28437,  -0.00003,   0.00005,  -0.00004,11813041.43618,   0.00000,274640135.82653,   0.00000,   0.00000,   0.00000,-462827094.39035,   0.00000
-3578258.49058,10539745.48587,-3559297.24195,  -0.00004,   0.00005,  -0.00005,14128336.52895,   0.00000,274640135.82653,   0.00000,   0.00000,   0.00000,-460511799.29758,   0.00000
-4120008.45130,12273345.36018,-4149804.69914,  -0.00004,   0.00006,  -0.00005,16426758.64867,   0.00000,274640135.82653,   0.00000,   0.00000,   0.00000,-458213377.17786,   0.00000
-4642797.16340,14015071.48391,-4734894.65672,  -0.00005,   0.00007,  -0.00006,18716426.22299,   0.00000,274640135.82653,   0.00000,   0.00000,   0.00000,-455923709.60354,   0.00000
-5154750.87628,15745962.60842,-5314567.11469,  -0.00005,   0.00008,  -0.00007,20985880.50251,   0.00000,274640135.82653,   0.00000,   0.00000,   0.00000,-453654255.32402,   0.00000
-5655869.58995,17466018.73371,-5899657.07227,  -0.00006,   0.00009,  -0.00008,23243365.85243,   0.00000,274640135.82653,   0.00000,   0.00000,   0.00000,-451396769.97410,   0.00000
-6127192.05578,19183366.10921,-6479329.53025,  -0.00007,   0.00010,  -0.00008,25476053.84828,   0.00000,274640135.82653,   0.00000,   0.00000,   0.00000,-449164081.97825,   0.00000
-6598514.52161,20900713.48470,-7059001.98822,  -0.00007,   0.00011,  -0.00009,27708886.78224,   0.00000,274640135.82653,   0.00000,   0.00000,   0.00000,-446931249.04428,   0.00000
-7040040.73960,22615352.11039,-7633256.94659,  -0.00008,   0.00012,  -0.00010,29917037.95043,   0.00000,274640135.82653,   0.00000,   0.00000,   0.00000,-444723097.87610,   0.00000
-7489693.20700,24311029.48745,-8207511.90496,  -0.00008,   0.00013,  -0.00011,32113759.76886,   0.00000,274640135.82653,   0.00000,   0.00000,   0.00000,-442526376.05767,   0.00000
-7909549.42656,26003998.11471,-8781766.86332,  -0.00009,   0.00013,  -0.00011,34290043.54303,   0.00000,274640135.82653,   0.00000,   0.00000,   0.00000,-440350092.28350,   0.00000
-8310444.39749,27705092.99138,-9350604.32208,  -0.00009,   0.00014,  -0.00012,36457903.15064,   0.00000,274640135.82653,   0.00000,   0.00000,   0.00000,-438182232.67589,   0.00000
-8700504.36921,29395352.86884,-9919441.78084,  -0.00010,   0.00015,  -0.00013,38609919.94763,   0.00000,274640135.82653,   0.00000,   0.00000,   0.00000,-436030215.87890,   0.00000
-9071603.09231,31093738.99570,-10488279.23960,  -0.00010,   0.00016,  -0.00014,40757780.24434,   0.00000,274640135.82653,   0.00000,   0.00000,   0.00000,-433882355.58219,   0.00000
-9439993.06560,32762328.87473,-11057116.69836,  -0.00011,   0.00017,  -0.00014,42878191.52913,   0.00000,274640135.82653,   0.00000,   0.00000,   0.00000,-431761944.29740,   0.00000
-9789421.79027,34439045.00317,-11620536.65751,  -0.00011,   0.00018,  -0.00015,44990327.33748,   0.00000,274640135.82653,   0.00000,   0.00000,   0.00000,-429649808.48905,   0.00000
-10109054.26709,36113052.38180,-12183956.61666,  -0.00012,   0.00018,  -0.00016,47082488.60558,   0.00000,274640135.82653,   0.00000,   0.00000,   0.00000,-427557647.22095,   0.00000
-10428686.74392,37787059.76044,-12741959.07621,  -0.00012,   0.00019,  -0.00017,49170736.87730,   0.00000,274640135.82653,   0.00000,   0.00000,   0.00000,-425469398.94923,   0.00000
-10726649.22232,39439397.14064,-13299961.53575,  -0.00013,   0.00020,  -0.00017,51227400.47651,   0.00000,274640135.82653,   0.00000,   0.00000,   0.00000,-423412735.35002,   0.00000
-11024611.70072,41091734.52085,-13857963.99530,  -0.00013,   0.00021,  -0.00018,53284356.28371,   0.00000,274640135.82653,   0.00000,   0.00000,   0.00000,-421355779.54282,   0.00000
-11292777.93127,42741363.15125,-14415966.45484,  -0.00013,   0.00022,  -0.00019,55321604.69889,   0.00000,274640135.82653,   0.00000,   0.00000,   0.00000,-419318531.12764,   0.00000
-11541982.91321,44399118.03106,-14968551.41478,  -0.00014,   0.00022,  -0.00019,57350898.05358,   0.00000,274640135.82653,   0.00000,   0.00000,   0.00000,-417289237.77295,   0.00000
-11799314.14455,46037911.66225,-15521136.37472,  -0.00014,   0.00023,  -0.00020,59368728.55176,   0.00000,274640135.82653,   0.00000,   0.00000,   0.00000,-415271407.27477,   0.00000
-12026849.12805,47673996.54364,-16068303.83505,  -0.00015,   0.00024,  -0.00021,61362807.74671,   0.00000,274640135.82653,   0.00000,   0.00000,   0.00000,-413277328.07982,   0.00000
-12243549.11234,49299246.42580,-16620888.79499,  -0.00015,   0.00025,  -0.00022,63345716.27853,   0.00000,274640135.82653,   0.00000,   0.00000,   0.00000,-411294419.54800,   0.00000
-12441287.84801,50932622.55738,-17168056.25532,  -0.00016,   0.00026,  -0.00022,65320835.64023,   0.00000,274640135.82653,   0.00000,   0.00000,   0.00000,-409319300.18630,   0.00000
-12628191.58446,52555163.68975,-17709806.21604,  -0.00016,   0.00026,  -0.00023,67276331.92740,   0.00000,274640135.82653,   0.00000,   0.00000,   0.00000,-407363803.89913,   0.00000
-12804260.32169,54166869.82290,-18256973.67637,  -0.00016,   0.00027,  -0.00024,69220783.25387,   0.00000,274640135.82653,   0.00000,   0.00000,   0.00000,-405419352.57266,   0.00000
-12950532.81109,55775867.20625,-18793306.13749,  -0.00017,   0.00028,  -0.00024,71137584.49479,   0.00000,274640135.82653,   0.00000,   0.00000,   0.00000,-403502551.33174,   0.00000
-13096805.30048,57384864.58960,-19335056.09821,  -0.00017,   0.00029,  -0.00025,73059158.04834,   0.00000,274640135.82653,   0.00000,   0.00000,   0.00000,-401580977.77819,   0.00000
-13232242.79066,58983026.97373,-19876806.05893,  -0.00018,   0.00029,  -0.00026,74965523.48255,   0.00000,274640135.82653,   0.00000,   0.00000,   0.00000,-399674612.34398,   0.00000
-13348719.03222,60589315.60727,-20413138.52005,  -0.00018,   0.00030,  -0.00027,76864373.33818,   0.00000,274640135.82653,   0.00000,   0.00000,   0.00000,-397775762.48835,   0.00000
-13443525.27534,62173934.24239,-20944053.48156,  -0.00018,   0.00031,  -0.00027,78728161.77313,   0.00000,274640135.82653,   0.00000,   0.00000,   0.00000,-395911974.05340,   0.00000
-13538331.51847,63758552.87750,-21480385.94267,  -0.00019,   0.00032,  -0.00028,80596804.22988,   0.00000,274640135.82653,   0.00000,   0.00000,   0.00000,-394043331.59665,   0.00000
-13622302.76238,65332336.51341,-22011300.90418,  -0.00019,   0.00032,  -0.00029,82446044.76561,   0.00000,274640135.82653,   0.00000,   0.00000,   0.00000,-392194091.06092,   0.00000
-13668351.50904,66922372.64813,-22542215.86569,  -0.00019,   0.00033,  -0.00029,84288794.00851,   0.00000,274640135.82653,   0.00000,   0.00000,   0.00000,-390351341.81802,   0.00000
-13722526.50512,68493447.53423,-23067713.32759,  -0.00020,   0.00034,  -0.00030,86115744.39389,   0.00000,274640135.82653,   0.00000,   0.00000,   0.00000,-388524391.43264,   0.00000
-13746905.25335,70061813.67052,-23593210.78949,  -0.00020,   0.00035,  -0.00031,87924325.64044,   0.00000,274640135.82653,   0.00000,   0.00000,   0.00000,-386715810.18609,   0.00000
-13779410.25099,71611218.55819,-24118708.25139,  -0.00020,   0.00035,  -0.00031,89721432.18032,   0.00000,274640135.82653,   0.00000,   0.00000,   0.00000,-384918703.64621,   0.00000
-13773992.75139,73176875.94468,-24644205.71330,  -0.00021,   0.00036,  -0.00032,91512438.68396,   0.00000,274640135.82653,   0.00000,   0.00000,   0.00000,-383127697.14256,   0.00000
-13776701.50119,74723572.08254,-25164285.67559,  -0.00021,   0.00037,  -0.00033,93287608.48794,   0.00000,274640135.82653,   0.00000,   0.00000,   0.00000,-381352527.33859,   0.00000
-13749614.00315,76267559.47060,-25684365.63788,  -0.00021,   0.00037,  -0.00033,95044736.47279,   0.00000,274640135.82653,   0.00000,   0.00000,   0.00000,-379595399.35374,   0.00000
-13722526.50512,77811546.85866,-26204445.60018,  -0.00021,   0.00038,  -0.00034,96802554.09870,   0.00000,274640135.82653,   0.00000,   0.00000,   0.00000,-377837581.72783,   0.00000
-13665642.75924,79352825.49692,-26719108.06286,  -0.00022,   0.00039,  -0.00035,98538115.86676,   0.00000,274640135.82653,   0.00000,   0.00000,   0.00000,-376102019.95977,   0.00000
-13616885.26278,80875142.88655,-27233770.52555,  -0.00022,   0.00039,  -0.00035,100262209.29938,   0.00000,274640135.82653,   0.00000,   0.00000,   0.00000,-374377926.52715,   0.00000
-13549166.51769,82405586.52559,-27748432.98824,  -0.00022,   0.00040,  -0.00036,101983891.95203,   0.00000,274640135.82653,   0.00000,   0.00000,   0.00000,-372656243.87450,   0.00000
-13451651.52476,83933321.41483,-28257677.95132,  -0.00022,   0.00041,  -0.00037,103683558.25809,   0.00000,274640135.82653,   0.00000,   0.00000,   0.00000,-370956577.56844,   0.00000
-13362262.78124,85442095.05545,-28766922.91440,  -0.00023,   0.00041,  -0.00037,105371765.49104,   0.00000,274640135.82653,   0.00000,   0.00000,   0.00000,-369268370.33549,   0.00000
-13262039.03850,86940033.69685,-29276167.87748,  -0.00023,   0.00042,  -0.00038,107045482.27896,   0.00000,274640135.82653,   0.00000,   0.00000,   0.00000,-367594653.54757,   0.00000
-13123892.79852,88454224.83707,-29779995.34095,  -0.00023,   0.00043,  -0.00039,108709680.27537,   0.00000,274640135.82653,   0.00000,   0.00000,   0.00000,-365930455.55116,   0.00000
-12993872.80794,89949454.72866,-30289240.30403,  -0.00023,   0.00043,  -0.00039,110366893.33766,   0.00000,274640135.82653,   0.00000,   0.00000,   0.00000,-364273242.48887,   0.00000
-12853017.81816,91433849.62105,-30793067.76750,  -0.00024,   0.00044,  -0.00040,112005307.41676,   0.00000,274640135.82653,   0.00000,   0.00000,   0.00000,-362634828.40977,   0.00000
-12693201.57974,92926370.76284,-31291477.73137,  -0.00024,   0.00045,  -0.00041,113637276.63712,   0.00000,274640135.82653,   0.00000,   0.00000,   0.00000,-361002859.18941,   0.00000
-12522550.34212,94408056.90542,-31789887.69523,  -0.00024,   0.00045,  -0.00041,115255004.22998,   0.00000,274640135.82653,   0.00000,   0.00000,   0.00000,-359385131.59655,   0.00000
-12313976.60724,95905995.54682,-32288297.65910,  -0.00024,   0.00046,  -0.00042,116868219.30933,   0.00000,274640135.82653,   0.00000,   0.00000,   0.00000,-357771916.51720,   0.00000
-12140616.61981,97357885.44155,-32786707.62296,  -0.00025,   0.00047,  -0.00043,118460296.22570,   0.00000,274640135.82653,   0.00000,   0.00000,   0.00000,-356179839.60082,   0.00000
-11929334.13512,98826027.83511,-33285117.58683,  -0.00025,   0.00047,  -0.00043,120047984.80680,   0.00000,274640135.82653,   0.00000,   0.00000,   0.00000,-354592151.01973,   0.00000
-11699090.40182,100302296.47808,-33778110.05109,  -0.00025,   0.00048,  -0.00044,121629548.97920,   0.00000,274640135.82653,   0.00000,   0.00000,   0.00000,-353010586.84733,   0.00000
-11466137.91871,101748768.87321,-34271102.51535,  -0.00025,   0.00049,  -0.00045,123184719.44927,   0.00000,274640135.82653,   0.00000,   0.00000,   0.00000,-351455416.37726,   0.00000
-11214224.18697,103203367.51776,-34758677.48000,  -0.00025,   0.00049,  -0.00045,124733862.97149,   0.00000,274640135.82653,   0.00000,   0.00000,   0.00000,-349906272.85504,   0.00000
-10962310.45523,104657966.16230,-35246252.44465,  -0.00025,   0.00050,  -0.00046,126284006.04433,   0.00000,274640135.82653,   0.00000,   0.00000,   0.00000,-348356129.78220,   0.00000
-10688726.72507,106090894.80841,-35733827.40930,  -0.00026,   0.00050,  -0.00046,127805409.45840,   0.00000,274640135.82653,   0.00000,   0.00000,   0.00000,-346834726.36813,   0.00000
-10415142.99490,107523823.45452,-36221402.37395,  -0.00026,   0.00051,  -0.00047,129327853.84567,   0.00000,274640135.82653,   0.00000,   0.00000,   0.00000,-345312281.98086,   0.00000
-10122598.01611,108964878.35005,-36703559.83899,  -0.00026,   0.00052,  -0.00048,130844462.16945,   0.00000,274640135.82653,   0.00000,   0.00000,   0.00000,-343795673.65708,   0.00000
-9827344.28752,110376136.99773,-37191134.80364,  -0.00026,   0.00052,  -0.00048,132339389.97002,   0.00000,274640135.82653,   0.00000,   0.00000,   0.00000,-342300745.85651,   0.00000
-9513129.31030,111795521.89482,-37667874.76908,  -0.00026,   0.00053,  -0.00049,133824026.13121,   0.00000,274640135.82653,   0.00000,   0.00000,   0.00000,-340816109.69532,   0.00000
-9179953.08445,113223033.04133,-38150032.23412,  -0.00026,   0.00053,  -0.00050,135312171.51278,   0.00000,274640135.82653,   0.00000,   0.00000,   0.00000,-339327964.31375,   0.00000
-8844068.10881,114620747.94000,-38626772.19956,  -0.00026,   0.00054,  -0.00050,136769622.69514,   0.00000,274640135.82653,   0.00000,   0.00000,   0.00000,-337870513.13139,   0.00000
-8489221.88453,116026589.08807,-39103512.16500,  -0.00026,   0.00054,  -0.00051,138226139.76309,   0.00000,274640135.82653,   0.00000,   0.00000,   0.00000,-336413996.06344,   0.00000
-8134375.66026,117432430.23615,-39580252.13043,  -0.00027,   0.00055,  -0.00051,139683829.83335,   0.00000,274640135.82653,   0.00000,   0.00000,   0.00000,-334956305.99317,   0.00000
-7776820.68618,118808475.13639,-40051574.59626,  -0.00027,   0.00056,  -0.00052,141110845.77123,   0.00000,274640135.82653,   0.00000,   0.00000,   0.00000,-333529290.05530,   0.00000
-7381343.21485,120200772.53544,-40522897.06209,  -0.00027,   0.00056,  -0.00053,142535148.86323,   0.00000,274640135.82653,   0.00000,   0.00000,   0.00000,-332104986.96330,   0.00000
-6985865.74352,121593069.93450,-40994219.52792,  -0.00027,   0.00057,  -0.00053,143960716.66360,   0.00000,274640135.82653,   0.00000,   0.00000,   0.00000,-330679419.16293,   0.00000
-6598514.52161,122966406.08494,-41465541.99375,  -0.00027,   0.00057,  -0.00054,145374848.42319,   0.00000,274640135.82653,   0.00000,   0.00000,   0.00000,-329265287.40334,   0.00000
-6181367.05185,124337033.48557,-41931446.95997,  -0.00027,   0.00058,  -0.00055,146769270.52078,   0.00000,274640135.82653,   0.00000,   0.00000,   0.00000,-327870865.30575,   0.00000
-5753384.58288,125696825.88698,-42397351.92619,  -0.00027,   0.00058,  -0.00055,148150538.31646,   0.00000,274640135.82653,   0.00000,   0.00000,   0.00000,-326489597.51007,   0.00000
-5325402.11391,127056618.28840,-42863256.89241,  -0.00027,   0.00059,  -0.00056,149533100.40406,   0.00000,274640135.82653,   0.00000,   0.00000,   0.00000,-325107035.42246,   0.00000
-4886584.64572,128405575.69060,-43323744.35903,  -0.00027,   0.00059,  -0.00056,150897898.48897,   0.00000,274640135.82653,   0.00000,   0.00000,   0.00000,-323742237.33756,   0.00000
-4428805.92891,129762659.34221,-43784231.82564,  -0.00027,   0.00060,  -0.00057,152262380.73224,   0.00000,274640135.82653,   0.00000,   0.00000,   0.00000,-322377755.09429,   0.00000
-3960192.21289,131108907.99460,-44244719.29226,  -0.00027,   0.00060,  -0.00058,153613902.07313,   0.00000,274640135.82653,   0.00000,   0.00000,   0.00000,-321026233.75340,   0.00000
-3499704.74627,132436195.39838,-44705206.75887,  -0.00027,   0.00061,  -0.00058,154954018.66548,   0.00000,274640135.82653,   0.00000,   0.00000,   0.00000,-319686117.16105,   0.00000
-3001294.78241,133779735.30097,-45160276.72588,  -0.00027,   0.00061,  -0.00059,156287841.98073,   0.00000,274640135.82653,   0.00000,   0.00000,   0.00000,-318352293.84580,   0.00000
-2511011.06795,135104313.95494,-45615346.69289,  -0.00027,   0.00062,  -0.00059,157610306.81787,   0.00000,274640135.82653,   0.00000,   0.00000,   0.00000,-317029829.00866,   0.00000
-2009892.35428,136418057.60969,-46070416.65989,  -0.00028,   0.00062,  -0.00060,158919984.87887,   0.00000,274640135.82653,   0.00000,   0.00000,   0.00000,-315720150.94766,   0.00000
-1508773.64061,137731801.26444,-46525486.62690,  -0.00028,   0.00063,  -0.00060,160231065.35962,   0.00000,274640135.82653,   0.00000,   0.00000,   0.00000,-314409070.46691,   0.00000
-977858.67911,139042836.16939,-46975139.09430,  -0.00028,   0.00063,  -0.00061,161523440.46772,   0.00000,274640135.82653,   0.00000,   0.00000,   0.00000,-313116695.35881,   0.00000
-455069.96701,140334909.82572,-47424791.56170,  -0.00028,   0.00064,  -0.00062,162804449.48239,   0.00000,274640135.82653,   0.00000,   0.00000,   0.00000,-311835686.34414,   0.00000
86679.99372,141635109.73145,-47874444.02910,  -0.00028,   0.00064,  -0.00062,164085715.60294,   0.00000,274640135.82653,   0.00000,   0.00000,   0.00000,-310554420.22359,   0.00000
639264.95365,142924474.63798,-48318678.99690,  -0.00028,   0.00065,  -0.00063,165349725.49896,   0.00000,274640135.82653,   0.00000,   0.00000,   0.00000,-309290410.32757,   0.00000
1191849.91359,144213839.54450,-48768331.46430,  -0.00028,   0.00065,  -0.00063,166619990.49219,   0.00000,274640135.82653,   0.00000,   0.00000,   0.00000,-308020145.33434,   0.00000
1755269.87274,145492369.45180,-49212566.43209,  -0.00028,   0.00066,  -0.00064,167873053.98042,   0.00000,274640135.82653,   0.00000,   0.00000,   0.00000,-306767081.84611,   0.00000
2329524.83111,146760064.35990,-49651383.90027,  -0.00028,   0.00066,  -0.00065,169108964.08043,   0.00000,274640135.82653,   0.00000,   0.00000,   0.00000,-305531171.74610,   0.00000
2922741.03810,148035885.51740,-50095618.86807,  -0.00028,   0.00067,  -0.00065,170350251.97430,   0.00000,274640135.82653,   0.00000,   0.00000,   0.00000,-304289883.85223,   0.00000
3507830.99568,149292745.42628,-50534436.33625,  -0.00028,   0.00067,  -0.00066,171575414.21439,   0.00000,274640135.82653,   0.00000,   0.00000,   0.00000,-303064721.61214,   0.00000
4111882.20189,150557731.58456,-50973253.80444,  -0.00027,   0.00068,  -0.00066,172801273.92039,   0.00000,274640135.82653,   0.00000,   0.00000,   0.00000,-301838861.90614,   0.00000
4726768.40731,151811882.74364,-51412071.27262,  -0.00027,   0.00068,  -0.00067,174014981.21760,   0.00000,274640135.82653,   0.00000,   0.00000,   0.00000,-300625154.60893,   0.00000
5333528.36332,153047072.65409,-51845471.24120,  -0.00027,   0.00069,  -0.00067,175212530.18700,   0.00000,274640135.82653,   0.00000,   0.00000,   0.00000,-299427605.63953,   0.00000
5959249.56795,154290388.81395,-52278871.20978,  -0.00027,   0.00069,  -0.00068,176410949.00204,   0.00000,274640135.82653,   0.00000,   0.00000,   0.00000,-298229186.82449,   0.00000
6595805.77180,155522869.97459,-52712271.17836,  -0.00027,   0.00069,  -0.00069,177597352.72191,   0.00000,274640135.82653,   0.00000,   0.00000,   0.00000,-297042783.10462,   0.00000
7251323.22428,156763477.38465,-53145671.14694,  -0.00027,   0.00070,  -0.00069,178784825.89674,   0.00000,274640135.82653,   0.00000,   0.00000,   0.00000,-295855309.92979,   0.00000
7898714.42734,157985123.54608,-53579071.11552,  -0.00027,   0.00070,  -0.00070,179960996.22313,   0.00000,274640135.82653,   0.00000,   0.00000,   0.00000,-294679139.60340,   0.00000
8556940.62962,159195934.70829,-54007053.58449,  -0.00027,   0.00071,  -0.00070,181120463.25428,   0.00000,274640135.82653,   0.00000,   0.00000,   0.00000,-293519672.57225,   0.00000
9215166.83190,160406745.87051,-54435036.05346,  -0.00027,   0.00071,  -0.00071,182281617.13890,   0.00000,274640135.82653,   0.00000,   0.00000,   0.00000,-292358518.68763,   0.00000
9884228.03339,161606722.03351,-54863018.52243,  -0.00027,   0.00072,  -0.00071,183430982.33969,   0.00000,274640135.82653,   0.00000,   0.00000,   0.00000,-291209153.48684,   0.00000
10564124.23410,162795863.19730,-55285583.49180,  -0.00027,   0.00072,  -0.00072,184563770.27320,   0.00000,274640135.82653,   0.00000,   0.00000,   0.00000,-290076365.55333,   0.00000
11262981.68343,163993130.61050,-55708148.46116,  -0.00027,   0.00072,  -0.00072,185697989.84499,   0.00000,274640135.82653,   0.00000,   0.00000,   0.00000,-288942145.98154,   0.00000
11961839.13277,165190398.02370,-56130713.43052,  -0.00027,   0.00073,  -0.00073,186833999.04163,   0.00000,274640135.82653,   0.00000,   0.00000,   0.00000,-287806136.78490,   0.00000
12644444.08328,166349742.93964,-56553278.39989,  -0.00027,   0.00073,  -0.00074,187945574.07058,   0.00000,274640135.82653,   0.00000,   0.00000,   0.00000,-286694561.75595,   0.00000
13373097.78045,167544301.60304,-56975843.36925,  -0.00027,   0.00074,  -0.00074,189071644.09005,   0.00000,274640135.82653,   0.00000,   0.00000,   0.00000,-285568491.73648,   0.00000
14085498.97880,168700937.76918,-57392990.83901,  -0.00026,   0.00074,  -0.00075,190168443.73174,   0.00000,274640135.82653,   0.00000,   0.00000,   0.00000,-284471692.09479,   0.00000
14797900.17715,169857573.93533,-57810138.30876,  -0.00026,   0.00074,  -0.00075,191267023.09404,   0.00000,274640135.82653,   0.00000,   0.00000,   0.00000,-283373112.73249,   0.00000
15529262.62413,171022336.35088,-58227285.77852,  -0.00026,   0.00075,  -0.00076,192367349.56894,   0.00000,274640135.82653,   0.00000,   0.00000,   0.00000,-282272786.25759,   0.00000
16271460.07032,172176263.76722,-58644433.24828,  -0.00026,   0.00075,  -0.00076,193456392.16565,   0.00000,274640135.82653,   0.00000,   0.00000,   0.00000,-281183743.66088,   0.00000
17005531.26710,173311229.93494,-59056163.21843,  -0.00026,   0.00076,  -0.00077,194529206.59347,   0.00000,274640135.82653,   0.00000,   0.00000,   0.00000,-280110929.23306,   0.00000
17758563.71250,174454322.35206,-59473310.68818,  -0.00026,   0.00076,  -0.00077,195608903.23980,   0.00000,274640135.82653,   0.00000,   0.00000,   0.00000,-279031232.58673,   0.00000
18522431.15712,175586579.76997,-59885040.65833,  -0.00026,   0.00076,  -0.00078,196672548.66741,   0.00000,274640135.82653,   0.00000,   0.00000,   0.00000,-277967587.15912,   0.00000
19286298.60174,176718837.18788,-60291353.12888,  -0.00026,   0.00077,  -0.00078,197733149.10396,   0.00000,274640135.82653,   0.00000,   0.00000,   0.00000,-276906986.72257,   0.00000
20061001.04558,177840259.60658,-60703083.09903,  -0.00026,   0.00077,  -0.00079,198787678.08684,   0.00000,274640135.82653,   0.00000,   0.00000,   0.00000,-275852457.73969,   0.00000
20827577.24000,178942720.77665,-61109395.56957,  -0.00025,   0.00077,  -0.00079,199825965.86721,   0.00000,274640135.82653,   0.00000,   0.00000,   0.00000,-274814169.95932,   0.00000
21594153.43442,180045181.94672,-61515708.04011,  -0.00025,   0.00078,  -0.00080,200866121.40359,   0.00000,274640135.82653,   0.00000,   0.00000,   0.00000,-273774014.42294,   0.00000
22390525.87669,181144934.36699,-61922020.51065,  -0.00025,   0.00078,  -0.00080,201895771.19852,   0.00000,274640135.82653,   0.00000,   0.00000,   0.00000,-272744364.62800,   0.00000
23186898.31895,182244686.78726,-62328332.98120,  -0.00025,   0.00078,  -0.00081,202927406.65267,   0.00000,274640135.82653,   0.00000,   0.00000,   0.00000,-271712729.17386,   0.00000
23975144.51180,183325477.95890,-62729227.95213,  -0.00025,   0.00079,  -0.00082,203942765.78215,   0.00000,274640135.82653,   0.00000,   0.00000,   0.00000,-270697370.04438,   0.00000
24782351.95328,184414395.37996,-63135540.42267,  -0.00025,   0.00079,  -0.00082,204965609.63616,   0.00000,274640135.82653,   0.00000,   0.00000,   0.00000,-269674526.19037,   0.00000
25581433.14535,185484351.55238,-63536435.39361,  -0.00025,   0.00079,  -0.00083,205972169.77401,   0.00000,274640135.82653,   0.00000,   0.00000,   0.00000,-268667966.05252,   0.00000
26399475.58604,186562433.97422,-63937330.36454,  -0.00024,   0.00080,  -0.00083,206981328.39236,   0.00000,274640135.82653,   0.00000,   0.00000,   0.00000,-267658807.43417,   0.00000
27209391.77732,187621555.14744,-64332807.83587,  -0.00024,   0.00080,  -0.00084,207974183.61205,   0.00000,274640135.82653,   0.00000,   0.00000,   0.00000,-266665952.21448,   0.00000
28030142.96781,188669841.32144,-64733702.80681,  -0.00024,   0.00080,  -0.00084,208961508.77694,   0.00000,274640135.82653,   0.00000,   0.00000,   0.00000,-265678627.04958,   0.00000
28869855.40694,189726253.74485,-65129180.27813,  -0.00024,   0.00081,  -0.00085,209946614.09478,   0.00000,274640135.82653,   0.00000,   0.00000,   0.00000,-264693521.73175,   0.00000
29709567.84606,190782666.16826,-65524657.74946,  -0.00024,   0.00081,  -0.00085,210933771.32892,   0.00000,274640135.82653,   0.00000,   0.00000,   0.00000,-263706364.49760,   0.00000
30541154.03577,191820117.34304,-65920135.22079,  -0.00024,   0.00081,  -0.00086,211909661.03268,   0.00000,274640135.82653,   0.00000,   0.00000,   0.00000,-262730474.79385,   0.00000
31383575.22469,192846733.51861,-66315612.69212,  -0.00023,   0.00082,  -0.00086,212875205.02552,   0.00000,274640135.82653,   0.00000,   0.00000,   0.00000,-261764930.80101,   0.00000
32225996.41362,193873349.69418,-66705672.66384,  -0.00023,   0.00082,  -0.00087,213837716.48416,   0.00000,274640135.82653,   0.00000,   0.00000,   0.00000,-260802419.34237,   0.00000
33079252.60175,194889130.87054,-67095732.63556,  -0.00023,   0.00082,  -0.00087,214789980.00016,   0.00000,274640135.82653,   0.00000,   0.00000,   0.00000,-259850155.82637,   0.00000
33932508.78989,195904912.04689,-67491210.10689,  -0.00023,   0.00083,  -0.00088,215749379.81820,   0.00000,274640135.82653,   0.00000,   0.00000,   0.00000,-258890756.00833,   0.00000
34796599.97725,196909858.22404,-67875852.57900,  -0.00023,   0.00083,  -0.00088,216688477.21456,   0.00000,274640135.82653,   0.00000,   0.00000,   0.00000,-257951658.61196,   0.00000
35660691.16460,197914804.40118,-68265912.55072,  -0.00022,   0.00083,  -0.00089,217634740.85722,   0.00000,274640135.82653,   0.00000,   0.00000,   0.00000,-257005394.96931,   0.00000
36516656.10254,198900789.32969,-68655972.52244,  -0.00022,   0.00083,  -0.00089,218569728.31437,   0.00000,274640135.82653,   0.00000,   0.00000,   0.00000,-256070407.51216,   0.00000
37391582.28911,199894900.50762,-69040614.99456,  -0.00022,   0.00084,  -0.00090,219502926.19920,   0.00000,274640135.82653,   0.00000,   0.00000,   0.00000,-255137209.62733,   0.00000
38277343.47489,200878176.68633,-69425257.46667,  -0.00022,   0.00084,  -0.00090,220426207.71956,   0.00000,274640135.82653,   0.00000,   0.00000,   0.00000,-254213928.10697,   0.00000
39136017.16264,201834365.36701,-69809899.93878,  -0.00022,   0.00084,  -0.00091,221336874.65904,   0.00000,274640135.82653,   0.00000,   0.00000,   0.00000,-253303261.16749,   0.00000
40032613.34764,202806806.54651,-70194542.41090,  -0.00021,   0.00084,  -0.00091,222252437.09600,   0.00000,274640135.82653,   0.00000,   0.00000,   0.00000,-252387698.73052,   0.00000
40910248.28401,203771121.47659,-70579184.88301,  -0.00021,   0.00085,  -0.00092,223168669.85762,   0.00000,274640135.82653,   0.00000,   0.00000,   0.00000,-251471465.96891,   0.00000
41798718.21959,204724601.40747,-70958409.85552,  -0.00021,   0.00085,  -0.00092,224069982.65512,   0.00000,274640135.82653,   0.00000,   0.00000,   0.00000,-250570153.17141,   0.00000
42706149.40380,205686207.58775,-71343052.32763,  -0.00021,   0.00085,  -0.00093,224980129.39692,   0.00000,274640135.82653,   0.00000,   0.00000,   0.00000,-249660006.42961,   0.00000
43586493.08998,206620726.27000,-71722277.30013,  -0.00020,   0.00086,  -0.00093,225872285.21836,   0.00000,274640135.82653,   0.00000,   0.00000,   0.00000,-248767850.60817,   0.00000
44496633.02399,207552536.20244,-72101502.27264,  -0.00020,   0.00086,  -0.00094,226756469.56119,   0.00000,274640135.82653,   0.00000,   0.00000,   0.00000,-247883666.26534,   0.00000
45387811.70938,208476219.88547,-72480727.24515,  -0.00020,   0.00086,  -0.00094,227641111.75579,   0.00000,274640135.82653,   0.00000,   0.00000,   0.00000,-246999024.07074,   0.00000
46297951.64340,209408029.81792,-72854534.71805,  -0.00020,   0.00086,  -0.00095,228524419.10504,   0.00000,274640135.82653,   0.00000,   0.00000,   0.00000,-246115716.72149,   0.00000
47199965.32800,210320878.50174,-73233759.69055,  -0.00020,   0.00086,  -0.00095,229401659.02388,   0.00000,274640135.82653,   0.00000,   0.00000,   0.00000,-245238476.80264,   0.00000
48112814.01182,211222892.18634,-73607567.16345,  -0.00019,   0.00087,  -0.00096,230264298.49211,   0.00000,274640135.82653,   0.00000,   0.00000,   0.00000,-244375837.33442,   0.00000
49033788.94505,212143867.11957,-73981374.63635,  -0.00019,   0.00087,  -0.00096,231142481.14026,   0.00000,274640135.82653,   0.00000,   0.00000,   0.00000,-243497654.68626,   0.00000
49938511.37946,213026919.55555,-74355182.10925,  -0.00019,   0.00087,  -0.00097,231996024.63677,   0.00000,274640135.82653,   0.00000,   0.00000,   0.00000,-242644111.18976,   0.00000
50843233.81387,213909971.99153,-74728989.58215,  -0.00019,   0.00087,  -0.00097,232851672.68648,   0.00000,274640135.82653,   0.00000,   0.00000,   0.00000,-241788463.14005,   0.00000
51766917.49690,214801150.67692,-75102797.05505,  -0.00018,   0.00088,  -0.00098,233711456.73758,   0.00000,274640135.82653,   0.00000,   0.00000,   0.00000,-240928679.08895,   0.00000
52701436.17915,215681494.36309,-75476604.52795,  -0.00018,   0.00088,  -0.00098,234562097.04265,   0.00000,274640135.82653,   0.00000,   0.00000,   0.00000,-240078038.78388,   0.00000
53608867.36336,216534750.55123,-75844994.50124,  -0.00018,   0.00088,  -0.00099,235394170.92844,   0.00000,274640135.82653,   0.00000,   0.00000,   0.00000,-239245964.89809,   0.00000
54543386.04560,217415094.23741,-76213384.47453,  -0.00018,   0.00088,  -0.00099,236243917.73257,   0.00000,274640135.82653,   0.00000,   0.00000,   0.00000,-238396218.09396,   0.00000
55461652.22903,218257515.42633,-76581774.44782,  -0.00017,   0.00088,  -0.00100,237069019.53615,   0.00000,274640135.82653,   0.00000,   0.00000,   0.00000,-237571116.29038,   0.00000
56379918.41246,219099936.61525,-76950164.42111,  -0.00017,   0.00089,  -0.00100,237896246.89719,   0.00000,274640135.82653,   0.00000,   0.00000,   0.00000,-236743888.92934,   0.00000
57317145.84451,219950484.05359,-77318554.39440,  -0.00017,   0.00089,  -0.00101,238727906.26783,   0.00000,274640135.82653,   0.00000,   0.00000,   0.00000,-235912229.55870,   0.00000
58246247.02715,220782070.24330,-77686944.36770,  -0.00017,   0.00089,  -0.00101,239548335.01128,   0.00000,274640135.82653,   0.00000,   0.00000,   0.00000,-235091800.81525,   0.00000
59175348.20979,221613656.43301,-78055334.34099,  -0.00016,   0.00089,  -0.00101,240370911.14180,   0.00000,274640135.82653,   0.00000,   0.00000,   0.00000,-234269224.68473,   0.00000
60123410.64105,222453368.87213,-78418306.81467,  -0.00016,   0.00089,  -0.00102,241192792.42036,   0.00000,274640135.82653,   0.00000,   0.00000,   0.00000,-233447343.40617,   0.00000
61055220.57350,223255158.81400,-78786696.78796,  -0.00016,   0.00090,  -0.00102,241995338.18456,   0.00000,274640135.82653,   0.00000,   0.00000,   0.00000,-232644797.64197,   0.00000
61995156.75535,224075910.00450,-79149669.26165,  -0.00015,   0.00090,  -0.00103,242808159.19635,   0.00000,274640135.82653,   0.00000,   0.00000,   0.00000,-231831976.63017,   0.00000
62926966.68779,224877699.94637,-79512641.73533,  -0.00015,   0.00090,  -0.00103,243609712.70361,   0.00000,274640135.82653,   0.00000,   0.00000,   0.00000,-231030423.12292,   0.00000
63869611.61945,225668654.88902,-79875614.20902,  -0.00015,   0.00090,  -0.00104,244402620.65125,   0.00000,274640135.82653,   0.00000,   0.00000,   0.00000,-230237515.17528,   0.00000
64812256.55111,226459609.83168,-80238586.68270,  -0.00015,   0.00090,  -0.00104,245197711.10677,   0.00000,274640135.82653,   0.00000,   0.00000,   0.00000,-229442424.71976,   0.00000
65754901.48277,227250564.77433,-80601559.15639,  -0.00014,   0.00091,  -0.00105,245994962.90767,   0.00000,274640135.82653,   0.00000,   0.00000,   0.00000,-228645172.91886,   0.00000
66689420.16502,228022558.46836,-80959114.13046,  -0.00014,   0.00091,  -0.00105,246775623.20046,   0.00000,274640135.82653,   0.00000,   0.00000,   0.00000,-227864512.62607,   0.00000
67615812.59785,228775590.91377,-81322086.60415,  -0.00014,   0.00091,  -0.00106,247550332.13062,   0.00000,274640135.82653,   0.00000,   0.00000,   0.00000,-227089803.69591,   0.00000
68569292.52873,229555710.85721,-81679641.57823,  -0.00014,   0.00091,  -0.00106,248338058.13988,   0.00000,274640135.82653,   0.00000,   0.00000,   0.00000,-226302077.68665,   0.00000
69506519.96078,230297908.30340,-82037196.55230,  -0.00013,   0.00091,  -0.00107,249101147.28770,   0.00000,274640135.82653,   0.00000,   0.00000,   0.00000,-225538988.53883,   0.00000
70451873.64224,231059066.99822,-82400169.02599,  -0.00013,   0.00091,  -0.00107,249885130.24242,   0.00000,274640135.82653,   0.00000,   0.00000,   0.00000,-224755005.58411,   0.00000
71380974.82488,231782303.19578,-82757724.00007,  -0.00013,   0.00092,  -0.00108,250639094.19210,   0.00000,274640135.82653,   0.00000,   0.00000,   0.00000,-224001041.63443,   0.00000
72337163.50556,232532626.89138,-83115278.97414,  -0.00012,   0.00092,  -0.00108,251411586.72199,   0.00000,274640135.82653,   0.00000,   0.00000,   0.00000,-223228549.10454,   0.00000
73266264.68820,233255863.08895,-83472833.94822,  -0.00012,   0.00092,  -0.00109,252169782.93131,   0.00000,274640135.82653,   0.00000,   0.00000,   0.00000,-222470352.89522,   0.00000
74206200.87005,233968264.28730,-83824971.42269,  -0.00012,   0.00092,  -0.00109,252914393.47396,   0.00000,274640135.82653,   0.00000,   0.00000,   0.00000,-221725742.35257,   0.00000
75154263.30132,234699626.73428,-84182526.39677,  -0.00012,   0.00092,  -0.00109,253679904.18811,   0.00000,274640135.82653,   0.00000,   0.00000,   0.00000,-220960231.63841,   0.00000
76086073.23376,235393066.68400,-84540081.37084,  -0.00011,   0.00092,  -0.00110,254420770.27468,   0.00000,274640135.82653,   0.00000,   0.00000,   0.00000,-220219365.55185,   0.00000
77036844.41483,236094632.88314,-84892218.84531,  -0.00011,   0.00092,  -0.00110,255161580.24763,   0.00000,274640135.82653,   0.00000,   0.00000,   0.00000,-219478555.57890,   0.00000
77968654.34727,236788072.83286,-85249773.81939,  -0.00011,   0.00093,  -0.00111,255906676.15585,   0.00000,274640135.82653,   0.00000,   0.00000,   0.00000,-218733459.67068,   0.00000
78919425.52834,237489639.03200,-85601911.29386,  -0.00010,   0.00093,  -0.00111,256651748.76361,   0.00000,274640135.82653,   0.00000,   0.00000,   0.00000,-217988387.06292,   0.00000
79862070.46000,238172243.98251,-85954048.76833,  -0.00010,   0.00093,  -0.00112,257385576.65550,   0.00000,274640135.82653,   0.00000,   0.00000,   0.00000,-217254559.17103,   0.00000
80796589.14225,238835887.68440,-86311603.74241,  -0.00010,   0.00093,  -0.00112,258113587.00215,   0.00000,274640135.82653,   0.00000,   0.00000,   0.00000,-216526548.82438,   0.00000
81731107.82449,239499531.38628,-86663741.21688,  -0.00010,   0.00093,  -0.00113,258838269.23764,   0.00000,274640135.82653,   0.00000,   0.00000,   0.00000,-215801866.58889,   0.00000
82665626.50674,240163175.08817,-87015878.69135,  -0.00009,   0.00093,  -0.00113,259565033.42121,   0.00000,274640135.82653,   0.00000,   0.00000,   0.00000,-215075102.40532,   0.00000
83592018.93958,240807857.54143,-87368016.16582,  -0.00009,   0.00093,  -0.00114,260280513.37343,   0.00000,274640135.82653,   0.00000,   0.00000,   0.00000,-214359622.45310,   0.00000
84537372.62104,241460666.24410,-87720153.64029,  -0.00009,   0.00093,  -0.00114,261001621.56803,   0.00000,274640135.82653,   0.00000,   0.00000,   0.00000,-213638514.25850,   0.00000
85463765.05388,242105348.69736,-88066873.61515,  -0.00008,   0.00093,  -0.00114,261715767.67696,   0.00000,274640135.82653,   0.00000,   0.00000,   0.00000,-212924368.14957,   0.00000
86400992.48593,242739196.15141,-88419011.08962,  -0.00008,   0.00094,  -0.00115,262427715.67475,   0.00000,274640135.82653,   0.00000,   0.00000,   0.00000,-212212420.15178,   0.00000
87338219.91798,243373043.60545,-88771148.56409,  -0.00008,   0.00094,  -0.00115,263141758.48745,   0.00000,274640135.82653,   0.00000,   0.00000,   0.00000,-211498377.33908,   0.00000
88267321.10062,243987929.81088,-89123286.03856,  -0.00007,   0.00094,  -0.00116,263844555.11782,   0.00000,274640135.82653,   0.00000,   0.00000,   0.00000,-210795580.70871,   0.00000
89196422.28326,244602816.01630,-89470006.01342,  -0.00007,   0.00094,  -0.00116,264543926.80668,   0.00000,274640135.82653,   0.00000,   0.00000,   0.00000,-210096209.01985,   0.00000
90117397.21649,245198740.97309,-89822143.48789,  -0.00007,   0.00094,  -0.00117,265237531.09409,   0.00000,274640135.82653,   0.00000,   0.00000,   0.00000,-209402604.73244,   0.00000
91038372.14972,245794665.92989,-90168863.46276,  -0.00007,   0.00094,  -0.00117,265927675.40896,   0.00000,274640135.82653,   0.00000,   0.00000,   0.00000,-208712460.41757,   0.00000
91959347.08295,246390590.88668,-90521000.93723,  -0.00006,   0.00094,  -0.00118,266625358.43412,   0.00000,274640135.82653,   0.00000,   0.00000,   0.00000,-208014777.39241,   0.00000
92872195.76677,246967554.59485,-90867720.91209,  -0.00006,   0.00094,  -0.00118,267306241.60689,   0.00000,274640135.82653,   0.00000,   0.00000,   0.00000,-207333894.21964,   0.00000
93804005.69921,247552644.55243,-91214440.88695,  -0.00006,   0.00094,  -0.00119,267993090.03896,   0.00000,274640135.82653,   0.00000,   0.00000,   0.00000,-206647045.78757,   0.00000
94716854.38303,248129608.26060,-91566578.36142,  -0.00005,   0.00094,  -0.00119,268683538.46951,   0.00000,274640135.82653,   0.00000,   0.00000,   0.00000,-205956597.35702,   0.00000
95621576.81744,248687610.72015,-91913298.33629,  -0.00005,   0.00095,  -0.00119,269357152.19740,   0.00000,274640135.82653,   0.00000,   0.00000,   0.00000,-205282983.62913,   0.00000
96545260.50047,249253739.42910,-92260018.31115,  -0.00005,   0.00095,  -0.00120,270036811.70706,   0.00000,274640135.82653,   0.00000,   0.00000,   0.00000,-204603324.11946,   0.00000
97441856.68547,249792780.64002,-92606738.28601,  -0.00004,   0.00095,  -0.00120,270701127.24168,   0.00000,274640135.82653,   0.00000,   0.00000,   0.00000,-203939008.58485,   0.00000
98357414.11909,250339948.10035,-92953458.26087,  -0.00004,   0.00095,  -0.00121,271371547.49382,   0.00000,274640135.82653,   0.00000,   0.00000,   0.00000,-203268588.33271,   0.00000
99272971.55271,250887115.56068,-93300178.23574,  -0.00004,   0.00095,  -0.00121,272043981.60174,   0.00000,274640135.82653,   0.00000,   0.00000,   0.00000,-202596154.22479,   0.00000
100161441.48830,251407195.52298,-93652315.71021,  -0.00003,   0.00095,  -0.00122,272706534.44918,   0.00000,274640135.82653,   0.00000,   0.00000,   0.00000,-201933601.37735,   0.00000
101068872.67251,251935401.73468,-93999035.68507,  -0.00003,   0.00095,  -0.00122,273369699.78412,   0.00000,274640135.82653,   0.00000,   0.00000,   0.00000,-201270436.04241,   0.00000
101976303.85672,252463607.94639,-94345755.65993,  -0.00003,   0.00095,  -0.00123,274034850.19612,   0.00000,274640135.82653,   0.00000,   0.00000,   0.00000,-200605285.63041,   0.00000
102856647.54289,252964726.66006,-94692475.63480,  -0.00003,   0.00095,  -0.00123,274684426.15598,   0.00000,274640135.82653,   0.00000,   0.00000,   0.00000,-199955709.67055,   0.00000
103755952.47769,253473971.62314,-95039195.60966,  -0.00002,   0.00095,  -0.00124,275340270.78742,   0.00000,274640135.82653,   0.00000,   0.00000,   0.00000,-199299865.03911,   0.00000
104647131.16308,253964255.33759,-95385915.58452,  -0.00002,   0.00095,  -0.00124,275984878.18445,   0.00000,274640135.82653,   0.00000,   0.00000,   0.00000,-198655257.64208,   0.00000
105519348.59985,254446412.80264,-95732635.55938,  -0.00002,   0.00095,  -0.00124,276627010.10205,   0.00000,274640135.82653,   0.00000,   0.00000,   0.00000,-198013125.72448,   0.00000
106410527.28524,254936696.51709,-96079355.53425,  -0.00001,   0.00095,  -0.00125,277275492.83530,   0.00000,274640135.82653,   0.00000,   0.00000,   0.00000,-197364642.99123,   0.00000
107293579.72122,255408018.98292,-96420658.00950,  -0.00001,   0.00095,  -0.00125,277907102.53059,   0.00000,274640135.82653,   0.00000,   0.00000,   0.00000,-196733033.29594,   0.00000
108176632.15719,255879341.44875,-96767377.98437,  -0.00001,   0.00095,  -0.00126,278546283.50509,   0.00000,274640135.82653,   0.00000,   0.00000,   0.00000,-196093852.32144,   0.00000
109040723.34455,256342537.66517,-97114097.95923,  -0.00000,   0.00095,  -0.00126,279182815.19541,   0.00000,274640135.82653,   0.00000,   0.00000,   0.00000,-195457320.63112,   0.00000
109915649.53112,256794898.88237,-97460817.93409,  -0.00000,   0.00095,  -0.00127,279812660.71082,   0.00000,274640135.82653,   0.00000,   0.00000,   0.00000,-194827475.11571,   0.00000
110771614.46906,257239133.85016,-97807537.90895,   0.00000,   0.00095,  -0.00127,280439782.85952,   0.00000,274640135.82653,   0.00000,   0.00000,   0.00000,-194200352.96701,   0.00000
111646540.65563,257691495.06737,-98154257.88382,   0.00001,   0.00095,  -0.00128,281073420.50066,   0.00000,274640135.82653,   0.00000,   0.00000,   0.00000,-193566715.32587,   0.00000
112513340.59278,258124895.03595,-98500977.85868,   0.00001,   0.00096,  -0.00128,281695841.17512,   0.00000,274640135.82653,   0.00000,   0.00000,   0.00000,-192944294.65141,   0.00000
113361179.28131,258550168.75511,-98847697.83354,   0.00001,   0.00096,  -0.00129,282315420.75993,   0.00000,274640135.82653,   0.00000,   0.00000,   0.00000,-192324715.06660,   0.00000
114227979.21847,258983568.72369,-99194417.80840,   0.00001,   0.00096,  -0.00129,282941598.16496,   0.00000,274640135.82653,   0.00000,   0.00000,   0.00000,-191698537.66157,   0.00000
115067691.65759,259389881.19423,-99541137.78327,   0.00002,   0.00096,  -0.00129,283551765.28206,   0.00000,274640135.82653,   0.00000,   0.00000,   0.00000,-191088370.54447,   0.00000
115907404.09671,259796193.66478,-99887857.75813,   0.00002,   0.00096,  -0.00130,284163753.05056,   0.00000,274640135.82653,   0.00000,   0.00000,   0.00000,-190476382.77597,   0.00000
116766077.78446,260210632.38473,-100234577.73299,   0.00002,   0.00096,  -0.00130,284782420.28921,   0.00000,274640135.82653,   0.00000,   0.00000,   0.00000,-189857715.53732,   0.00000
117597663.97417,260597983.60665,-100581297.70786,   0.00003,   0.00096,  -0.00131,285384999.37681,   0.00000,274640135.82653,   0.00000,   0.00000,   0.00000,-189255136.44972,   0.00000
118429250.16388,260985334.82856,-100928017.68272,   0.00003,   0.00096,  -0.00131,285989386.24105,   0.00000,274640135.82653,   0.00000,   0.00000,   0.00000,-188650749.58548,   0.00000
119260836.35359,261372686.05048,-101274737.65758,   0.00003,   0.00096,  -0.00132,286595569.44494,   0.00000,274640135.82653,   0.00000,   0.00000,   0.00000,-188044566.38159,   0.00000
120084296.29389,261741076.02377,-101621457.63244,   0.00004,   0.00096,  -0.00132,287190525.82387,   0.00000,274640135.82653,   0.00000,   0.00000,   0.00000,-187449610.00266,   0.00000
120907756.23419,262109465.99706,-101968177.60731,   0.00004,   0.00096,  -0.00133,287787279.07097,   0.00000,274640135.82653,   0.00000,   0.00000,   0.00000,-186852856.75556,   0.00000
121731216.17449,262477855.97036,-102320315.08178,   0.00004,   0.00096,  -0.00133,288391584.26569,   0.00000,274640135.82653,   0.00000,   0.00000,   0.00000,-186248551.56084,   0.00000
122546549.86538,262827284.69502,-102667035.05664,   0.00005,   0.00096,  -0.00133,288978929.64050,   0.00000,274640135.82653,   0.00000,   0.00000,   0.00000,-185661206.18603,   0.00000
123361883.55626,263176713.41969,-103013755.03150,   0.00005,   0.00096,  -0.00134,289568062.64229,   0.00000,274640135.82653,   0.00000,   0.00000,   0.00000,-185072073.18424,   0.00000
124177217.24715,263526142.14435,-103360475.00637,   0.00005,   0.00096,  -0.00134,290158972.38237,   0.00000,274640135.82653,   0.00000,   0.00000,   0.00000,-184481163.44416,   0.00000
124973589.68941,263867444.61961,-103712612.48084,   0.00005,   0.00096,  -0.00135,290752270.25159,   0.00000,274640135.82653,   0.00000,   0.00000,   0.00000,-183887865.57494,   0.00000
125780797.13089,264197912.09565,-104059332.45570,   0.00006,   0.00096,  -0.00135,291333753.12904,   0.00000,274640135.82653,   0.00000,   0.00000,   0.00000,-183306382.69749,   0.00000
126569043.32374,264520253.32228,-104411469.93017,   0.00006,   0.00096,  -0.00136,291917585.80420,   0.00000,274640135.82653,   0.00000,   0.00000,   0.00000,-182722550.02233,   0.00000
127349163.26719,264823633.30029,-104758189.90503,   0.00006,   0.00096,  -0.00136,292484415.10888,   0.00000,274640135.82653,   0.00000,   0.00000,   0.00000,-182155720.71765,   0.00000
128137409.46004,265145974.52692,-105110327.37950,   0.00007,   0.00096,  -0.00137,293071677.19143,   0.00000,274640135.82653,   0.00000,   0.00000,   0.00000,-181568458.63510,   0.00000
128917529.40348,265449354.50492,-105457047.35436,   0.00007,   0.00096,  -0.00137,293641926.05988,   0.00000,274640135.82653,   0.00000,   0.00000,   0.00000,-180998209.76665,   0.00000
129689523.09751,265733773.23430,-105809184.82883,   0.00007,   0.00096,  -0.00138,294206857.66883,   0.00000,274640135.82653,   0.00000,   0.00000,   0.00000,-180433278.15770,   0.00000
130469643.04095,266037153.21231,-106161322.30330,   0.00007,   0.00096,  -0.00138,294786365.50705,   0.00000,274640135.82653,   0.00000,   0.00000,   0.00000,-179853770.31947,   0.00000
131241636.73498,266321571.94169,-106508042.27817,   0.00008,   0.00096,  -0.00138,295348873.54566,   0.00000,274640135.82653,   0.00000,   0.00000,   0.00000,-179291262.28087,   0.00000
131994669.18039,266597864.42165,-106860179.75264,   0.00008,   0.00096,  -0.00139,295913519.69451,   0.00000,274640135.82653,   0.00000,   0.00000,   0.00000,-178726616.13202,   0.00000
132758536.62501,266863321.90241,-107212317.22711,   0.00008,   0.00096,  -0.00139,296472461.49443,   0.00000,274640135.82653,   0.00000,   0.00000,   0.00000,-178167674.33210,   0.00000
133503442.82100,267120653.13375,-107564454.70158,   0.00009,   0.00096,  -0.00140,297027644.30176,   0.00000,274640135.82653,   0.00000,   0.00000,   0.00000,-177612491.52477,   0.00000
134248349.01699,267377984.36510,-107916592.17605,   0.00009,   0.00095,  -0.00140,297584484.42938,   0.00000,274640135.82653,   0.00000,   0.00000,   0.00000,-177055651.39715,   0.00000
134993255.21299,267635315.59644,-108268729.65052,   0.00009,   0.00095,  -0.00141,298142972.59116,   0.00000,274640135.82653,   0.00000,   0.00000,   0.00000,-176497163.23536,   0.00000
135738161.40898,267892646.82778,-108626284.62459,   0.00010,   0.00095,  -0.00141,298709009.71636,   0.00000,274640135.82653,   0.00000,   0.00000,   0.00000,-175931126.11017,   0.00000
136474941.35557,268131016.81050,-108978422.09906,   0.00010,   0.00095,  -0.00142,299258043.24800,   0.00000,274640135.82653,   0.00000,   0.00000,   0.00000,-175382092.57853,   0.00000
137192760.05352,268361260.54381,-109330559.57353,   0.00010,   0.00095,  -0.00142,299803120.92489,   0.00000,274640135.82653,   0.00000,   0.00000,   0.00000,-174837014.90164,   0.00000
137921413.75070,268580669.27790,-109688114.54761,   0.00010,   0.00095,  -0.00143,300348654.21185,   0.00000,274640135.82653,   0.00000,   0.00000,   0.00000,-174291481.61468,   0.00000
138639232.44866,268810913.01121,-110040252.02208,   0.00011,   0.00095,  -0.00143,300896952.90818,   0.00000,274640135.82653,   0.00000,   0.00000,   0.00000,-173743182.91835,   0.00000
139348924.89720,269022195.49589,-110397806.99616,   0.00011,   0.00095,  -0.00144,301440107.13951,   0.00000,274640135.82653,   0.00000,   0.00000,   0.00000,-173200028.68702,   0.00000
140058617.34575,269233477.98057,-110755361.97024,   0.00011,   0.00095,  -0.00144,301984873.63550,   0.00000,274640135.82653,   0.00000,   0.00000,   0.00000,-172655262.19103,   0.00000
140760183.54489,269425799.21663,-111107499.44471,   0.00012,   0.00095,  -0.00144,302512635.94140,   0.00000,274640135.82653,   0.00000,   0.00000,   0.00000,-172127499.88513,   0.00000
141442788.49540,269609994.20328,-111465054.41878,   0.00012,   0.00095,  -0.00145,303042236.45402,   0.00000,274640135.82653,   0.00000,   0.00000,   0.00000,-171597899.37251,   0.00000
142144354.69453,269802315.43933,-111822609.39286,   0.00012,   0.00095,  -0.00145,303579180.57571,   0.00000,274640135.82653,   0.00000,   0.00000,   0.00000,-171060955.25082,   0.00000
142826959.64505,269986510.42598,-112185581.86655,   0.00012,   0.00095,  -0.00146,304117934.55884,   0.00000,274640135.82653,   0.00000,   0.00000,   0.00000,-170522201.26769,   0.00000
143509564.59556,270170705.41262,-112543136.84062,   0.00013,   0.00095,  -0.00146,304652257.24275,   0.00000,274640135.82653,   0.00000,   0.00000,   0.00000,-169987878.58378,   0.00000
144184043.29666,270335939.15064,-112900691.81470,   0.00013,   0.00095,  -0.00147,305175569.49960,   0.00000,274640135.82653,   0.00000,   0.00000,   0.00000,-169464566.32693,   0.00000
144858521.99776,270501172.88866,-113263664.28838,   0.00013,   0.00095,  -0.00147,305706474.85832,   0.00000,274640135.82653,   0.00000,   0.00000,   0.00000,-168933660.96821,   0.00000
145514039.45023,270658280.37727,-113621219.26246,   0.00013,   0.00095,  -0.00148,306227048.32464,   0.00000,274640135.82653,   0.00000,   0.00000,   0.00000,-168413087.50189,   0.00000
146188518.15133,270823514.11530,-113984191.73615,   0.00014,   0.00095,  -0.00148,306761076.93972,   0.00000,274640135.82653,   0.00000,   0.00000,   0.00000,-167879058.88681,   0.00000
146835909.35440,270961660.35528,-114347164.20983,   0.00014,   0.00095,  -0.00149,307278254.59747,   0.00000,274640135.82653,   0.00000,   0.00000,   0.00000,-167361881.22906,   0.00000
147483300.55746,271099806.59526,-114710136.68351,   0.00014,   0.00095,  -0.00149,307796980.48552,   0.00000,274640135.82653,   0.00000,   0.00000,   0.00000,-166843155.34101,   0.00000
148130691.76052,271237952.83525,-115073109.15720,   0.00015,   0.00095,  -0.00150,308317246.78945,   0.00000,274640135.82653,   0.00000,   0.00000,   0.00000,-166322889.03708,   0.00000
148759121.71496,271367972.82582,-115436081.63088,   0.00015,   0.00094,  -0.00150,308833059.26785,   0.00000,274640135.82653,   0.00000,   0.00000,   0.00000,-165807076.55868,   0.00000
149398386.66862,271487157.81718,-115799054.10457,   0.00015,   0.00094,  -0.00151,309343941.61554,   0.00000,274640135.82653,   0.00000,   0.00000,   0.00000,-165296194.21099,   0.00000
150018690.37364,271598216.55913,-116162026.57825,   0.00015,   0.00094,  -0.00151,309850349.68482,   0.00000,274640135.82653,   0.00000,   0.00000,   0.00000,-164789786.14171,   0.00000
150638994.07867,271709275.30108,-116530416.55154,   0.00016,   0.00094,  -0.00151,310364364.66434,   0.00000,274640135.82653,   0.00000,   0.00000,   0.00000,-164275771.16219,   0.00000
151259297.78370,271820334.04303,-116898806.52484,   0.00016,   0.00094,  -0.00152,310879895.16113,   0.00000,274640135.82653,   0.00000,   0.00000,   0.00000,-163760240.66540,   0.00000
151860640.24010,271923266.53556,-117261778.99852,   0.00016,   0.00094,  -0.00152,311384729.91932,   0.00000,274640135.82653,   0.00000,   0.00000,   0.00000,-163255405.90721,   0.00000
152472817.69572,272015364.02889,-117630168.97181,   0.00016,   0.00094,  -0.00153,311890909.37512,   0.00000,274640135.82653,   0.00000,   0.00000,   0.00000,-162749226.45141,   0.00000
153066033.90271,272099335.27280,-117998558.94510,   0.00017,   0.00094,  -0.00153,312392497.75274,   0.00000,274640135.82653,   0.00000,   0.00000,   0.00000,-162247638.07379,   0.00000
153659250.10970,272183306.51671,-118372366.41800,   0.00017,   0.00094,  -0.00154,312901719.57518,   0.00000,274640135.82653,   0.00000,   0.00000,   0.00000,-161738416.25135,   0.00000
154252466.31670,272267277.76062,-118740756.39129,   0.00017,   0.00094,  -0.00154,313406280.24528,   0.00000,274640135.82653,   0.00000,   0.00000,   0.00000,-161233855.58125,   0.00000
154818595.02565,272324161.50650,-119114563.86419,   0.00017,   0.00094,  -0.00155,313900048.11027,   0.00000,274640135.82653,   0.00000,   0.00000,   0.00000,-160740087.71626,   0.00000
155411811.23264,272408132.75041,-119482953.83749,   0.00018,   0.00094,  -0.00155,314407552.91043,   0.00000,274640135.82653,   0.00000,   0.00000,   0.00000,-160232582.91610,   0.00000
155977939.94160,272465016.49629,-119856761.31038,   0.00018,   0.00094,  -0.00156,314904272.24626,   0.00000,274640135.82653,   0.00000,   0.00000,   0.00000,-159735863.58027,   0.00000
156544068.65056,272521900.24216,-120230568.78328,   0.00018,   0.00093,  -0.00156,315402462.72158,   0.00000,274640135.82653,   0.00000,   0.00000,   0.00000,-159237673.10495,   0.00000
157083109.86147,272551696.49000,-120604376.25618,   0.00018,   0.00093,  -0.00157,315883695.83929,   0.00000,274640135.82653,   0.00000,   0.00000,   0.00000,-158756439.98724,   0.00000
157649238.57043,272608580.23588,-120978183.72908,   0.00019,   0.00093,  -0.00157,316384810.24421,   0.00000,274640135.82653,   0.00000,   0.00000,   0.00000,-158255325.58232,   0.00000
158188279.78135,272638376.48372,-121357408.70159,   0.00019,   0.00093,  -0.00158,316875184.18742,   0.00000,274640135.82653,   0.00000,   0.00000,   0.00000,-157764951.63911,   0.00000
158727320.99227,272668172.73156,-121731216.17449,   0.00019,   0.00093,  -0.00158,317360793.49310,   0.00000,274640135.82653,   0.00000,   0.00000,   0.00000,-157279342.33343,   0.00000
159266362.20319,272697968.97940,-122110441.14699,   0.00019,   0.00093,  -0.00159,317854089.83796,   0.00000,274640135.82653,   0.00000,   0.00000,   0.00000,-156786045.98857,   0.00000
159805403.41411,272727765.22724,-122489666.11950,   0.00020,   0.00093,  -0.00159,318348842.08996,   0.00000,274640135.82653,   0.00000,   0.00000,   0.00000,-156291293.73657,   0.00000
160325483.37640,272749435.22567,-122868891.09201,   0.00020,   0.00093,  -0.00160,318838710.30215,   0.00000,274640135.82653,   0.00000,   0.00000,   0.00000,-155801425.52438,   0.00000
160837437.08929,272752143.97547,-123248116.06451,   0.00020,   0.00093,  -0.00160,319317947.75020,   0.00000,274640135.82653,   0.00000,   0.00000,   0.00000,-155322188.07633,   0.00000
161349390.80217,272754852.72527,-123632758.53662,   0.00020,   0.00093,  -0.00161,319804914.31806,   0.00000,274640135.82653,   0.00000,   0.00000,   0.00000,-154835221.50846,   0.00000
161842383.26643,272749435.22567,-124011983.50913,   0.00020,   0.00093,  -0.00161,320280672.17269,   0.00000,274640135.82653,   0.00000,   0.00000,   0.00000,-154359463.65384,   0.00000
162354336.97931,272752143.97547,-124396625.98124,   0.00021,   0.00092,  -0.00162,320770526.93621,   0.00000,274640135.82653,   0.00000,   0.00000,   0.00000,-153869608.89031,   0.00000
162847329.44357,272746726.47586,-124781268.45336,   0.00021,   0.00092,  -0.00162,321255425.41663,   0.00000,274640135.82653,   0.00000,   0.00000,   0.00000,-153384710.40990,   0.00000
163332195.65842,272722347.72763,-125165910.92547,   0.00021,   0.00092,  -0.00163,321729795.01844,   0.00000,274640135.82653,   0.00000,   0.00000,   0.00000,-152910340.80809,   0.00000
163825188.12267,272716930.22802,-125550553.39758,   0.00021,   0.00092,  -0.00163,322217532.53493,   0.00000,274640135.82653,   0.00000,   0.00000,   0.00000,-152422603.29160,   0.00000
164291093.08890,272684425.23038,-125940613.36931,   0.00022,   0.00092,  -0.00164,322694671.52350,   0.00000,274640135.82653,   0.00000,   0.00000,   0.00000,-151945464.30303,   0.00000
164756998.05512,272651920.23274,-126325255.84142,   0.00022,   0.00092,  -0.00164,323166887.09307,   0.00000,274640135.82653,   0.00000,   0.00000,   0.00000,-151473248.73346,   0.00000
165222903.02134,272619415.23509,-126715315.81314,   0.00022,   0.00092,  -0.00165,323646869.01880,   0.00000,274640135.82653,   0.00000,   0.00000,   0.00000,-150993266.80773,   0.00000
165680681.73815,272567948.98882,-127105375.78486,   0.00022,   0.00092,  -0.00165,324116431.50107,   0.00000,274640135.82653,   0.00000,   0.00000,   0.00000,-150523704.32546,   0.00000
166146586.70437,272535443.99118,-127495435.75658,   0.00022,   0.00092,  -0.00166,324599262.39314,   0.00000,274640135.82653,   0.00000,   0.00000,   0.00000,-150040873.43339,   0.00000
166585404.17256,272475851.49550,-127890913.22791,   0.00023,   0.00091,  -0.00166,325071597.86991,   0.00000,274640135.82653,   0.00000,   0.00000,   0.00000,-149568537.95662,   0.00000
167032347.89015,272435220.24845,-128280973.19963,   0.00023,   0.00091,  -0.00167,325550739.88947,   0.00000,274640135.82653,   0.00000,   0.00000,   0.00000,-149089395.93706,   0.00000
167471165.35834,272375627.75277,-128676450.67096,   0.00023,   0.00091,  -0.00167,326025914.45628,   0.00000,274640135.82653,   0.00000,   0.00000,   0.00000,-148614221.37025,   0.00000
167891021.57790,272307909.00768,-129071928.14229,   0.00023,   0.00091,  -0.00168,326495983.60572,   0.00000,274640135.82653,   0.00000,   0.00000,   0.00000,-148144152.22081,   0.00000
168310877.79746,272240190.26259,-129467405.61361,   0.00023,   0.00091,  -0.00168,326967452.10078,   0.00000,274640135.82653,   0.00000,   0.00000,   0.00000,-147672683.72575,   0.00000
168722607.76761,272153510.26887,-129868300.58455,   0.00024,   0.00091,  -0.00169,327435074.55380,   0.00000,274640135.82653,   0.00000,   0.00000,   0.00000,-147205061.27273,   0.00000
169142463.98717,272085791.52378,-130263778.05588,   0.00024,   0.00091,  -0.00169,327909355.61327,   0.00000,274640135.82653,   0.00000,   0.00000,   0.00000,-146730780.21325,   0.00000
169554193.95732,271999111.53006,-130664673.02681,   0.00024,   0.00091,  -0.00170,328379843.44458,   0.00000,274640135.82653,   0.00000,   0.00000,   0.00000,-146260292.38195,   0.00000
169946962.67885,271904305.28694,-131065567.99775,   0.00024,   0.00091,  -0.00170,328845191.35641,   0.00000,274640135.82653,   0.00000,   0.00000,   0.00000,-145794944.47012,   0.00000
170347857.64978,271828460.29244,-131466462.96868,   0.00025,   0.00090,  -0.00171,329323550.97724,   0.00000,274640135.82653,   0.00000,   0.00000,   0.00000,-145316584.84929,   0.00000
170740626.37130,271733654.04931,-131867357.93962,   0.00025,   0.00090,  -0.00171,329791701.24192,   0.00000,274640135.82653,   0.00000,   0.00000,   0.00000,-144848434.58461,   0.00000
171106307.59479,271611760.30815,-132273670.41016,   0.00025,   0.00090,  -0.00172,330249607.23987,   0.00000,274640135.82653,   0.00000,   0.00000,   0.00000,-144390528.58666,   0.00000
171480115.06769,271508827.81561,-132679982.88070,   0.00025,   0.00090,  -0.00172,330720489.20711,   0.00000,274640135.82653,   0.00000,   0.00000,   0.00000,-143919646.61942,   0.00000
171853922.54059,271405895.32307,-133086295.35124,   0.00025,   0.00090,  -0.00173,331192767.17306,   0.00000,274640135.82653,   0.00000,   0.00000,   0.00000,-143447368.65347,   0.00000
172219603.76408,271284001.58191,-133492607.82179,   0.00025,   0.00090,  -0.00174,331654952.02720,   0.00000,274640135.82653,   0.00000,   0.00000,   0.00000,-142985183.79933,   0.00000
172593411.23698,271181069.08937,-133898920.29233,   0.00026,   0.00090,  -0.00174,332130026.68262,   0.00000,274640135.82653,   0.00000,   0.00000,   0.00000,-142510109.14391,   0.00000
172940131.21184,271051049.09880,-134310650.26248,   0.00026,   0.00090,  -0.00175,332594961.66759,   0.00000,274640135.82653,   0.00000,   0.00000,   0.00000,-142045174.15894,   0.00000
173286851.18670,270921029.10823,-134722380.23263,   0.00026,   0.00089,  -0.00175,333061321.62031,   0.00000,274640135.82653,   0.00000,   0.00000,   0.00000,-141578814.20621,   0.00000
173633571.16157,270791009.11765,-135134110.20278,   0.00026,   0.00089,  -0.00176,333529100.56339,   0.00000,274640135.82653,   0.00000,   0.00000,   0.00000,-141111035.26314,   0.00000
173961329.88780,270652862.87767,-135545840.17293,   0.00026,   0.00089,  -0.00176,333991629.95594,   0.00000,274640135.82653,   0.00000,   0.00000,   0.00000,-140648505.87059,   0.00000
174289088.61404,270514716.63768,-135962987.64268,   0.00027,   0.00089,  -0.00177,334462160.69114,   0.00000,274640135.82653,   0.00000,   0.00000,   0.00000,-140177975.13539,   0.00000
174616847.34028,270376570.39770,-136374717.61283,   0.00027,   0.00089,  -0.00177,334927484.22531,   0.00000,274640135.82653,   0.00000,   0.00000,   0.00000,-139712651.60122,   0.00000
174936479.81711,270219462.90909,-136791865.08259,   0.00027,   0.00089,  -0.00178,335389522.11513,   0.00000,274640135.82653,   0.00000,   0.00000,   0.00000,-139250613.71140,   0.00000
175264238.54334,270081316.66910,-137209012.55235,   0.00027,   0.00089,  -0.00178,335864279.12458,   0.00000,274640135.82653,   0.00000,   0.00000,   0.00000,-138775856.70195,   0.00000
175564909.77154,269916082.93108,-137631577.52171,   0.00027,   0.00089,  -0.00179,336329139.40902,   0.00000,274640135.82653,   0.00000,   0.00000,   0.00000,-138310996.41751,   0.00000
175873707.24916,269769810.44169,-138048724.99147,   0.00027,   0.00088,  -0.00179,336800009.31760,   0.00000,274640135.82653,   0.00000,   0.00000,   0.00000,-137840126.50893,   0.00000
176155417.22873,269596450.45426,-138471289.96083,   0.00028,   0.00088,  -0.00180,337261021.07071,   0.00000,274640135.82653,   0.00000,   0.00000,   0.00000,-137379114.75582,   0.00000
176456088.45693,269431216.71624,-138893854.93020,   0.00028,   0.00088,  -0.00181,337730161.36686,   0.00000,274640135.82653,   0.00000,   0.00000,   0.00000,-136909974.45967,   0.00000
176737798.43651,269257856.72881,-139321837.39917,   0.00028,   0.00088,  -0.00181,338200717.21573,   0.00000,274640135.82653,   0.00000,   0.00000,   0.00000,-136439418.61080,   0.00000
177019508.41609,269084496.74137,-139744402.36853,   0.00028,   0.00088,  -0.00182,338666002.70901,   0.00000,274640135.82653,   0.00000,   0.00000,   0.00000,-135974133.11752,   0.00000
177301218.39566,268911136.75394,-140172384.83750,   0.00028,   0.00088,  -0.00182,339139413.42956,   0.00000,274640135.82653,   0.00000,   0.00000,   0.00000,-135500722.39697,   0.00000
177563967.12661,268729650.51710,-140600367.30647,   0.00028,   0.00088,  -0.00183,339607530.12642,   0.00000,274640135.82653,   0.00000,   0.00000,   0.00000,-135032605.70011,   0.00000
177826715.85756,268548164.28026,-141028349.77544,   0.00029,   0.00088,  -0.00183,340077058.36854,   0.00000,274640135.82653,   0.00000,   0.00000,   0.00000,-134563077.45798,   0.00000
178081338.33910,268347716.79479,-141456332.24442,   0.00029,   0.00087,  -0.00184,340536960.43556,   0.00000,274640135.82653,   0.00000,   0.00000,   0.00000,-134103175.39097,   0.00000
178344087.07005,268166230.55795,-141889732.21299,   0.00029,   0.00087,  -0.00184,341016080.78661,   0.00000,274640135.82653,   0.00000,   0.00000,   0.00000,-133624055.03992,   0.00000
178598709.55159,267965783.07248,-142323132.18157,   0.00029,   0.00087,  -0.00185,341485634.76717,   0.00000,274640135.82653,   0.00000,   0.00000,   0.00000,-133154501.05936,   0.00000
178842497.03392,267776170.58623,-142756532.15015,   0.00029,   0.00087,  -0.00186,341960874.51628,   0.00000,274640135.82653,   0.00000,   0.00000,   0.00000,-132679261.31025,   0.00000
179078158.26683,267567596.85135,-143195349.61834,   0.00029,   0.00087,  -0.00186,342433376.95671,   0.00000,274640135.82653,   0.00000,   0.00000,   0.00000,-132206758.86982,   0.00000
179302984.50053,267369858.11569,-143628749.58692,   0.00029,   0.00087,  -0.00187,342904711.07536,   0.00000,274640135.82653,   0.00000,   0.00000,   0.00000,-131735424.75117,   0.00000
179538645.73345,267161284.38081,-144067567.05510,   0.00030,   0.00087,  -0.00187,343380100.79967,   0.00000,274640135.82653,   0.00000,   0.00000,   0.00000,-131260035.02686,   0.00000
179755345.71774,266944584.39652,-144506384.52329,   0.00030,   0.00086,  -0.00188,343850207.06848,   0.00000,274640135.82653,   0.00000,   0.00000,   0.00000,-130789928.75805,   0.00000
179972045.70203,266727884.41223,-144945201.99147,   0.00030,   0.00086,  -0.00188,344321758.38131,   0.00000,274640135.82653,   0.00000,   0.00000,   0.00000,-130318377.44522,   0.00000
180188745.68632,266511184.42794,-145389436.95927,   0.00030,   0.00086,  -0.00189,344801601.79695,   0.00000,274640135.82653,   0.00000,   0.00000,   0.00000,-129838534.02958,   0.00000
180386484.42198,266286358.19424,-145833671.92706,   0.00030,   0.00086,  -0.00190,345276161.82046,   0.00000,274640135.82653,   0.00000,   0.00000,   0.00000,-129363974.00607,   0.00000
180584223.15764,266061531.96054,-146277906.89485,   0.00030,   0.00086,  -0.00190,345752170.66279,   0.00000,274640135.82653,   0.00000,   0.00000,   0.00000,-128887965.16374,   0.00000
180781961.89331,265836705.72684,-146722141.86264,   0.00030,   0.00086,  -0.00191,346229622.34827,   0.00000,274640135.82653,   0.00000,   0.00000,   0.00000,-128410513.47826,   0.00000
180979700.62897,265611879.49314,-147171794.33004,   0.00031,   0.00086,  -0.00191,346715409.62645,   0.00000,274640135.82653,   0.00000,   0.00000,   0.00000,-127924726.20008,   0.00000
181177439.36464,265387053.25944,-147616029.29784,   0.00031,   0.00085,  -0.00192,347195740.38194,   0.00000,274640135.82653,   0.00000,   0.00000,   0.00000,-127444395.44459,   0.00000
181356216.85167,265154100.77633,-148065681.76524,   0.00031,   0.00085,  -0.00192,347677678.74796,   0.00000,274640135.82653,   0.00000,   0.00000,   0.00000,-126962457.07857,   0.00000
181526868.08930,264902187.04459,-148520751.73225,   0.00031,   0.00085,  -0.00193,348157362.78361,   0.00000,274640135.82653,   0.00000,   0.00000,   0.00000,-126482773.04292,   0.00000
181705645.57634,264669234.56148,-148970404.19965,   0.00031,   0.00085,  -0.00194,348642216.61999,   0.00000,274640135.82653,   0.00000,   0.00000,   0.00000,-125997919.20654,   0.00000
181865461.81475,264428155.82896,-149425474.16665,   0.00031,   0.00085,  -0.00194,349128721.40419,   0.00000,274640135.82653,   0.00000,   0.00000,   0.00000,-125511414.42233,   0.00000
182017151.80376,264168115.84781,-149880544.13366,   0.00031,   0.00085,  -0.00195,349606123.32560,   0.00000,274640135.82653,   0.00000,   0.00000,   0.00000,-125034012.50093,   0.00000
182176968.04217,263927037.11529,-150335614.10067,   0.00031,   0.00085,  -0.00195,350095546.67341,   0.00000,274640135.82653,   0.00000,   0.00000,   0.00000,-124544589.15312,   0.00000
182336784.28058,263685958.38277,-150796101.56728,   0.00032,   0.00084,  -0.00196,350593397.80184,   0.00000,274640135.82653,   0.00000,   0.00000,   0.00000,-124046738.02469,   0.00000
182488474.26959,263425918.40162,-151256589.03390,   0.00032,   0.00084,  -0.00197,351082228.22198,   0.00000,274640135.82653,   0.00000,   0.00000,   0.00000,-123557907.60455,   0.00000
182629329.25937,263176713.41969,-151711659.00090,   0.00032,   0.00084,  -0.00197,351569267.96012,   0.00000,274640135.82653,   0.00000,   0.00000,   0.00000,-123070867.86641,   0.00000
182762057.99975,262908547.18913,-152177563.96713,   0.00032,   0.00084,  -0.00198,352061358.01065,   0.00000,274640135.82653,   0.00000,   0.00000,   0.00000,-122578777.81588,   0.00000
182902912.98954,262659342.20720,-152638051.43374,   0.00032,   0.00084,  -0.00198,352558322.90790,   0.00000,274640135.82653,   0.00000,   0.00000,   0.00000,-122081812.91863,   0.00000
183035641.72992,262391175.97664,-153103956.39996,   0.00032,   0.00084,  -0.00199,353053398.92246,   0.00000,274640135.82653,   0.00000,   0.00000,   0.00000,-121586736.90407,   0.00000
183149409.22167,262114883.49667,-153569861.36618,   0.00032,   0.00084,  -0.00200,353543263.47448,   0.00000,274640135.82653,   0.00000,   0.00000,   0.00000,-121096872.35205,   0.00000
183271302.96283,261857552.26533,-154035766.33241,   0.00032,   0.00083,  -0.00200,354044948.13878,   0.00000,274640135.82653,   0.00000,   0.00000,   0.00000,-120595187.68775,   0.00000
183385070.45458,261581259.78536,-154507088.79824,   0.00032,   0.00083,  -0.00201,354544867.75006,   0.00000,274640135.82653,   0.00000,   0.00000,   0.00000,-120095268.07647,   0.00000
183506964.19575,261323928.55402,-154972993.76446,   0.00033,   0.00083,  -0.00201,355049471.38609,   0.00000,274640135.82653,   0.00000,   0.00000,   0.00000,-119590664.44043,   0.00000
183601770.43887,261039509.82464,-155444316.23029,   0.00033,   0.00083,  -0.00202,355545673.55599,   0.00000,274640135.82653,   0.00000,   0.00000,   0.00000,-119094462.27054,   0.00000
183723664.18003,260782178.59329,-155915638.69612,   0.00033,   0.00083,  -0.00203,356060291.54856,   0.00000,274640135.82653,   0.00000,   0.00000,   0.00000,-118579844.27797,   0.00000
183818470.42316,260497759.86391,-156392378.66155,   0.00033,   0.00083,  -0.00203,356566601.78182,   0.00000,274640135.82653,   0.00000,   0.00000,   0.00000,-118073534.04471,   0.00000
183913276.66629,260213341.13453,-156869118.62699,   0.00033,   0.00083,  -0.00204,357074430.86087,   0.00000,274640135.82653,   0.00000,   0.00000,   0.00000,-117565704.96565,   0.00000
183997247.91020,259939757.40437,-157340441.09282,   0.00033,   0.00082,  -0.00205,357580072.07193,   0.00000,274640135.82653,   0.00000,   0.00000,   0.00000,-117060063.75460,   0.00000
184092054.15333,259655338.67499,-157822598.55786,   0.00033,   0.00082,  -0.00205,358098048.70025,   0.00000,274640135.82653,   0.00000,   0.00000,   0.00000,-116542087.12628,   0.00000
184167899.14783,259362793.69620,-158299338.52330,   0.00033,   0.00082,  -0.00206,358603701.49933,   0.00000,274640135.82653,   0.00000,   0.00000,   0.00000,-116036434.32720,   0.00000
184251870.39174,259089209.96603,-158781495.98834,   0.00033,   0.00082,  -0.00206,359128095.99641,   0.00000,274640135.82653,   0.00000,   0.00000,   0.00000,-115512039.83012,   0.00000
184308754.13762,258788538.73783,-159263653.45338,   0.00033,   0.00082,  -0.00207,359637269.21430,   0.00000,274640135.82653,   0.00000,   0.00000,   0.00000,-115002866.61223,   0.00000
184392725.38153,258514955.00767,-159745810.91843,   0.00033,   0.00082,  -0.00208,360164621.17823,   0.00000,274640135.82653,   0.00000,   0.00000,   0.00000,-114475514.64830,   0.00000
184449609.12740,258214283.77946,-160227968.38347,   0.00034,   0.00082,  -0.00208,360676803.38170,   0.00000,274640135.82653,   0.00000,   0.00000,   0.00000,-113963332.44483,   0.00000
184514619.12269,257932573.79989,-160715543.34812,   0.00034,   0.00081,  -0.00209,361207674.75796,   0.00000,274640135.82653,   0.00000,   0.00000,   0.00000,-113432461.06857,   0.00000
184571502.86857,257631902.57169,-161203118.31277,   0.00034,   0.00081,  -0.00210,361730100.36574,   0.00000,274640135.82653,   0.00000,   0.00000,   0.00000,-112910035.46079,   0.00000
184636512.86385,257350192.59211,-161690693.27742,   0.00034,   0.00081,  -0.00210,362263940.02478,   0.00000,274640135.82653,   0.00000,   0.00000,   0.00000,-112376195.80175,   0.00000
184674435.36110,257041395.11450,-162178268.24208,   0.00034,   0.00081,  -0.00211,362782749.64660,   0.00000,274640135.82653,   0.00000,   0.00000,   0.00000,-111857386.17993,   0.00000
184739445.35639,256759685.13492,-162671260.70633,   0.00034,   0.00081,  -0.00211,363326814.23042,   0.00000,274640135.82653,   0.00000,   0.00000,   0.00000,-111313321.59611,   0.00000
184777367.85364,256450887.65731,-163164253.17059,   0.00034,   0.00081,  -0.00212,363855924.76177,   0.00000,274640135.82653,   0.00000,   0.00000,   0.00000,-110784211.06476,   0.00000
184804455.35168,256152925.17891,-163657245.63485,   0.00034,   0.00081,  -0.00213,364389747.54715,   0.00000,274640135.82653,   0.00000,   0.00000,   0.00000,-110250388.27938,   0.00000
184842377.84893,255844127.70130,-164150238.09911,   0.00034,   0.00080,  -0.00213,364921892.20308,   0.00000,274640135.82653,   0.00000,   0.00000,   0.00000,-109718243.62345,   0.00000
184869465.34696,255546165.22290,-164648648.06297,   0.00034,   0.00080,  -0.00214,365466018.62345,   0.00000,274640135.82653,   0.00000,   0.00000,   0.00000,-109174117.20308,   0.00000
184915514.09363,255256328.99392,-165147058.02684,   0.00034,   0.00080,  -0.00215,366018220.67645,   0.00000,274640135.82653,   0.00000,   0.00000,   0.00000,-108621915.15007,   0.00000
184934475.34225,254939405.26689,-165645467.99070,   0.00034,   0.00080,  -0.00215,366555641.84504,   0.00000,274640135.82653,   0.00000,   0.00000,   0.00000,-108084493.98149,   0.00000
184961562.84029,254641442.78850,-166143877.95457,   0.00035,   0.00080,  -0.00216,367104248.73190,   0.00000,274640135.82653,   0.00000,   0.00000,   0.00000,-107535887.09463,   0.00000
184969689.08970,254335354.06069,-166647705.41804,   0.00035,   0.00080,  -0.00217,367655137.33020,   0.00000,274640135.82653,   0.00000,   0.00000,   0.00000,-106984998.49633,   0.00000
184996776.58773,254037391.58229,-167146115.38191,   0.00035,   0.00080,  -0.00217,368206703.84458,   0.00000,274640135.82653,   0.00000,   0.00000,   0.00000,-106433431.98195,   0.00000
185004902.83714,253731302.85448,-167649942.84538,   0.00035,   0.00079,  -0.00218,368760576.93150,   0.00000,274640135.82653,   0.00000,   0.00000,   0.00000,-105879558.89503,   0.00000
185013029.08656,253425214.12667,-168159187.80846,   0.00035,   0.00079,  -0.00219,369323341.94801,   0.00000,274640135.82653,   0.00000,   0.00000,   0.00000,-105316793.87852,   0.00000
185021155.33597,253119125.39886,-168663015.27193,   0.00035,   0.00079,  -0.00219,369880203.18405,   0.00000,274640135.82653,   0.00000,   0.00000,   0.00000,-104759932.64248,   0.00000
185029281.58538,252813036.67105,-169172260.23501,   0.00035,   0.00079,  -0.00220,370445964.88995,   0.00000,274640135.82653,   0.00000,   0.00000,   0.00000,-104194170.93658,   0.00000
185018446.58616,252498821.69384,-169681505.19809,   0.00035,   0.00079,  -0.00221,371006712.06620,   0.00000,274640135.82653,   0.00000,   0.00000,   0.00000,-103633423.76033,   0.00000
185026572.83557,252192732.96603,-170190750.16117,   0.00035,   0.00079,  -0.00221,371575462.67572,   0.00000,274640135.82653,   0.00000,   0.00000,   0.00000,-103064673.15081,   0.00000
185015737.83636,251878517.98881,-170699995.12425,   0.00035,   0.00079,  -0.00222,372139202.75456,   0.00000,274640135.82653,   0.00000,   0.00000,   0.00000,-102500933.07197,   0.00000
185004902.83714,251564303.01159,-171214657.58694,   0.00035,   0.00078,  -0.00223,372711899.60259,   0.00000,274640135.82653,   0.00000,   0.00000,   0.00000,-101928236.22394,   0.00000
184975106.58930,251241961.78496,-171729320.04962,   0.00035,   0.00078,  -0.00223,373279630.91029,   0.00000,274640135.82653,   0.00000,   0.00000,   0.00000,-101360504.91624,   0.00000
184972397.83950,250946708.05636,-172243982.51231,   0.00035,   0.00078,  -0.00224,373864671.32214,   0.00000,274640135.82653,   0.00000,   0.00000,   0.00000,-100775464.50439,   0.00000
184961562.84029,250632493.07914,-172758644.97500,   0.00035,   0.00078,  -0.00225,374441847.20422,   0.00000,274640135.82653,   0.00000,   0.00000,   0.00000,-100198288.62231,   0.00000
184939892.84186,250329113.10114,-173278724.93729,   0.00035,   0.00078,  -0.00225,375030850.76553,   0.00000,274640135.82653,   0.00000,   0.00000,   0.00000,-99609285.06100,   0.00000
184910096.59402,250006771.87451,-173793387.39998,   0.00035,   0.00078,  -0.00226,375604550.00030,   0.00000,274640135.82653,   0.00000,   0.00000,   0.00000,-99035585.82623,   0.00000
184888426.59559,249703391.89650,-174313467.36227,   0.00035,   0.00078,  -0.00227,376196493.44706,   0.00000,274640135.82653,   0.00000,   0.00000,   0.00000,-98443642.37947,   0.00000
184866756.59716,249400011.91850,-174833547.32457,   0.00035,   0.00077,  -0.00227,376789888.60015,   0.00000,274640135.82653,   0.00000,   0.00000,   0.00000,-97850247.22638,   0.00000
184817999.10070,249069544.44246,-175359044.78647,   0.00036,   0.00077,  -0.00228,377376707.92571,   0.00000,274640135.82653,   0.00000,   0.00000,   0.00000,-97263427.90082,   0.00000
184796329.10227,248766164.46445,-175879124.74876,   0.00036,   0.00077,  -0.00229,377973032.63767,   0.00000,274640135.82653,   0.00000,   0.00000,   0.00000,-96667103.18886,   0.00000
184755697.85521,248454658.23704,-176404622.21066,   0.00036,   0.00077,  -0.00229,378571979.32962,   0.00000,274640135.82653,   0.00000,   0.00000,   0.00000,-96068156.49691,   0.00000
184715066.60816,248143152.00962,-176930119.67257,   0.00036,   0.00077,  -0.00230,379172391.67898,   0.00000,274640135.82653,   0.00000,   0.00000,   0.00000,-95467744.14755,   0.00000
184674435.36110,247831645.78221,-177461034.63407,   0.00036,   0.00077,  -0.00231,379781857.01506,   0.00000,274640135.82653,   0.00000,   0.00000,   0.00000,-94858278.81147,   0.00000
184633804.11405,247520139.55479,-177986532.09598,   0.00036,   0.00077,  -0.00231,380385190.25938,   0.00000,274640135.82653,   0.00000,   0.00000,   0.00000,-94254945.56715,   0.00000
184601299.11641,247227594.57600,-178517447.05748,   0.00036,   0.00076,  -0.00232,381006594.07799,   0.00000,274640135.82653,   0.00000,   0.00000,   0.00000,-93633541.74854,   0.00000
184541706.62073,246907962.09917,-179042944.51939,   0.00036,   0.00076,  -0.00233,381606465.44961,   0.00000,274640135.82653,   0.00000,   0.00000,   0.00000,-93033670.37692,   0.00000
184482114.12505,246588329.62235,-179579276.98050,   0.00036,   0.00076,  -0.00233,382223061.22631,   0.00000,274640135.82653,   0.00000,   0.00000,   0.00000,-92417074.60022,   0.00000
184449609.12740,246295784.64356,-180110191.94201,   0.00036,   0.00076,  -0.00234,382848735.60895,   0.00000,274640135.82653,   0.00000,   0.00000,   0.00000,-91791400.21758,   0.00000
184390016.63172,245976152.16673,-180641106.90352,   0.00036,   0.00076,  -0.00235,383460594.31075,   0.00000,274640135.82653,   0.00000,   0.00000,   0.00000,-91179541.51578,   0.00000
184338550.38546,245675480.93853,-181177439.36464,   0.00036,   0.00076,  -0.00236,384090451.16393,   0.00000,274640135.82653,   0.00000,   0.00000,   0.00000,-90549684.66260,   0.00000
184268122.89056,245366683.46092,-181713771.82575,   0.00036,   0.00076,  -0.00236,384715449.25882,   0.00000,274640135.82653,   0.00000,   0.00000,   0.00000,-89924686.56771,   0.00000
184216656.64429,245066012.23271,-182250104.28687,   0.00036,   0.00076,  -0.00237,385348137.46002,   0.00000,274640135.82653,   0.00000,   0.00000,   0.00000,-89291998.36651,   0.00000
184146229.14940,244757214.75510,-182786436.74798,   0.00036,   0.00075,  -0.00238,385975976.07549,   0.00000,274640135.82653,   0.00000,   0.00000,   0.00000,-88664159.75104,   0.00000
184094762.90313,244456543.52690,-183328186.70871,   0.00036,   0.00075,  -0.00238,386619174.51994,   0.00000,274640135.82653,   0.00000,   0.00000,   0.00000,-88020961.30659,   0.00000
184024335.40824,244147746.04929,-183864519.16982,   0.00036,   0.00075,  -0.00239,387249835.95077,   0.00000,274640135.82653,   0.00000,   0.00000,   0.00000,-87390299.87576,   0.00000
183953907.91334,243838948.57168,-184406269.13055,   0.00036,   0.00075,  -0.00240,387889625.88581,   0.00000,274640135.82653,   0.00000,   0.00000,   0.00000,-86750509.94072,   0.00000
183883480.41845,243530151.09406,-184948019.09127,   0.00036,   0.00075,  -0.00240,388530830.68149,   0.00000,274640135.82653,   0.00000,   0.00000,   0.00000,-86109305.14504,   0.00000
183821179.17296,243240314.86508,-185489769.05199,   0.00036,   0.00075,  -0.00241,389182114.76914,   0.00000,274640135.82653,   0.00000,   0.00000,   0.00000,-85458021.05739,   0.00000
183731790.42945,242923391.13805,-186036936.51232,   0.00036,   0.00075,  -0.00242,389827680.42573,   0.00000,274640135.82653,   0.00000,   0.00000,   0.00000,-84812455.40080,   0.00000
183669489.18396,242633554.90907,-186578686.47305,   0.00036,   0.00075,  -0.00243,390481703.63526,   0.00000,274640135.82653,   0.00000,   0.00000,   0.00000,-84158432.19127,   0.00000
183588226.68985,242335592.43067,-187125853.93338,   0.00036,   0.00074,  -0.00243,391138684.21642,   0.00000,274640135.82653,   0.00000,   0.00000,   0.00000,-83501451.61011,   0.00000
183525925.44437,242045756.20168,-187673021.39371,   0.00036,   0.00074,  -0.00244,391803178.74641,   0.00000,274640135.82653,   0.00000,   0.00000,   0.00000,-82836957.08012,   0.00000
183444662.95026,241747793.72328,-188220188.85404,   0.00036,   0.00074,  -0.00245,392462884.96267,   0.00000,274640135.82653,   0.00000,   0.00000,   0.00000,-82177250.86386,   0.00000
183363400.45615,241449831.24489,-188767356.31437,   0.00036,   0.00074,  -0.00245,393123949.87859,   0.00000,274640135.82653,   0.00000,   0.00000,   0.00000,-81516185.94794,   0.00000
183282137.96204,241151868.76649,-189319941.27430,   0.00036,   0.00074,  -0.00246,393794180.14587,   0.00000,274640135.82653,   0.00000,   0.00000,   0.00000,-80845955.68065,   0.00000
183209001.71735,240872867.53672,-189867108.73463,   0.00036,   0.00074,  -0.00247,394466419.30737,   0.00000,274640135.82653,   0.00000,   0.00000,   0.00000,-80173716.51916,   0.00000
183108777.97461,240566778.80891,-190419693.69457,   0.00036,   0.00074,  -0.00248,395133255.98976,   0.00000,274640135.82653,   0.00000,   0.00000,   0.00000,-79506879.83677,   0.00000
183035641.72992,240287777.57914,-190972278.65451,   0.00036,   0.00074,  -0.00248,395815952.52319,   0.00000,274640135.82653,   0.00000,   0.00000,   0.00000,-78824183.30334,   0.00000
182935417.98718,239981688.85133,-191524863.61445,   0.00036,   0.00074,  -0.00249,396485494.97603,   0.00000,274640135.82653,   0.00000,   0.00000,   0.00000,-78154640.85050,   0.00000
182862281.74248,239702687.62156,-192077448.57438,   0.00036,   0.00073,  -0.00250,397170808.20639,   0.00000,274640135.82653,   0.00000,   0.00000,   0.00000,-77469327.62014,   0.00000
182770184.24916,239415560.14237,-192635451.03393,   0.00036,   0.00073,  -0.00250,397859240.98173,   0.00000,274640135.82653,   0.00000,   0.00000,   0.00000,-76780894.84480,   0.00000
182678086.75584,239128432.66319,-193188035.99387,   0.00036,   0.00073,  -0.00251,398541111.89988,   0.00000,274640135.82653,   0.00000,   0.00000,   0.00000,-76099023.92664,   0.00000
182585989.26252,238841305.18401,-193746038.45341,   0.00037,   0.00073,  -0.00252,399232161.53308,   0.00000,274640135.82653,   0.00000,   0.00000,   0.00000,-75407974.29345,   0.00000
182502018.01860,238573138.95345,-194304040.91296,   0.00037,   0.00073,  -0.00253,399932782.91763,   0.00000,274640135.82653,   0.00000,   0.00000,   0.00000,-74707352.90890,   0.00000
182409920.52528,238286011.47426,-194862043.37250,   0.00037,   0.00073,  -0.00253,400626406.76441,   0.00000,274640135.82653,   0.00000,   0.00000,   0.00000,-74013729.06212,   0.00000
182325949.28137,238017845.24371,-195420045.83205,   0.00037,   0.00073,  -0.00254,401329540.14730,   0.00000,274640135.82653,   0.00000,   0.00000,   0.00000,-73310595.67923,   0.00000
182223016.78883,237741552.76374,-195978048.29159,   0.00037,   0.00073,  -0.00255,402027955.53793,   0.00000,274640135.82653,   0.00000,   0.00000,   0.00000,-72612180.28860,   0.00000
182139045.54492,237473386.53318,-196536050.75114,   0.00037,   0.00073,  -0.00255,402733563.28054,   0.00000,274640135.82653,   0.00000,   0.00000,   0.00000,-71906572.54599,   0.00000
182036113.05238,237197094.05321,-197099470.71029,   0.00037,   0.00072,  -0.00256,403442405.94733,   0.00000,274640135.82653,   0.00000,   0.00000,   0.00000,-71197729.87920,   0.00000
181952141.80847,236928927.82265,-197657473.16983,   0.00037,   0.00072,  -0.00257,404150470.70839,   0.00000,274640135.82653,   0.00000,   0.00000,   0.00000,-70489665.11814,   0.00000
181849209.31593,236652635.34268,-198220893.12899,   0.00037,   0.00072,  -0.00258,404861800.54733,   0.00000,274640135.82653,   0.00000,   0.00000,   0.00000,-69778335.27920,   0.00000
181746276.82339,236376342.86272,-198784313.08814,   0.00037,   0.00072,  -0.00258,405574375.11467,   0.00000,274640135.82653,   0.00000,   0.00000,   0.00000,-69065760.71186,   0.00000
181651470.58027,236119011.63137,-199347733.04729,   0.00037,   0.00072,  -0.00259,406296240.12072,   0.00000,274640135.82653,   0.00000,   0.00000,   0.00000,-68343895.70581,   0.00000
181556664.33714,235861680.40003,-199911153.00644,   0.00037,   0.00072,  -0.00260,407019289.46558,   0.00000,274640135.82653,   0.00000,   0.00000,   0.00000,-67620846.36095,   0.00000
181461858.09402,235604349.16868,-200474572.96559,   0.00037,   0.00072,  -0.00261,407743516.84872,   0.00000,274640135.82653,   0.00000,   0.00000,   0.00000,-66896618.97781,   0.00000
181367051.85089,235347017.93734,-201043410.42435,   0.00037,   0.00072,  -0.00261,408476915.09931,   0.00000,274640135.82653,   0.00000,   0.00000,   0.00000,-66163220.72722,   0.00000
181272245.60776,235089686.70600,-201606830.38350,   0.00037,   0.00072,  -0.00262,409203487.96978,   0.00000,274640135.82653,   0.00000,   0.00000,   0.00000,-65436647.85675,   0.00000
181158478.11601,234824229.22524,-202175667.84226,   0.00037,   0.00072,  -0.00263,409933427.32171,   0.00000,274640135.82653,   0.00000,   0.00000,   0.00000,-64706708.50482,   0.00000
181071798.12229,234585859.24253,-202739087.80142,   0.00037,   0.00071,  -0.00264,410670246.36847,   0.00000,274640135.82653,   0.00000,   0.00000,   0.00000,-63969889.45806,   0.00000
180958030.63054,234320401.76177,-203307925.26018,   0.00037,   0.00071,  -0.00264,411402526.13822,   0.00000,274640135.82653,   0.00000,   0.00000,   0.00000,-63237609.68831,   0.00000
180871350.63683,234082031.77905,-203876762.71893,   0.00037,   0.00071,  -0.00265,412149624.48796,   0.00000,274640135.82653,   0.00000,   0.00000,   0.00000,-62490511.33857,   0.00000
180765709.39449,233835535.54692,-204445600.17769,   0.00037,   0.00071,  -0.00266,412892072.10684,   0.00000,274640135.82653,   0.00000,   0.00000,   0.00000,-61748063.71969,   0.00000
180660068.15215,233589039.31479,-205014437.63645,   0.00037,   0.00071,  -0.00267,413635644.82370,   0.00000,274640135.82653,   0.00000,   0.00000,   0.00000,-61004491.00283,   0.00000
180573388.15843,233350669.33208,-205583275.09521,   0.00037,   0.00071,  -0.00267,414386065.63811,   0.00000,274640135.82653,   0.00000,   0.00000,   0.00000,-60254070.18842,   0.00000
180467746.91609,233104173.09995,-206152112.55397,   0.00037,   0.00071,  -0.00268,415131857.13565,   0.00000,274640135.82653,   0.00000,   0.00000,   0.00000,-59508278.69088,   0.00000
180370231.92316,232876638.11644,-206726367.51234,   0.00037,   0.00071,  -0.00269,415894588.79916,   0.00000,274640135.82653,   0.00000,   0.00000,   0.00000,-58745547.02737,   0.00000
180272716.93023,232649103.13294,-207295204.97110,   0.00037,   0.00071,  -0.00269,416650306.32035,   0.00000,274640135.82653,   0.00000,   0.00000,   0.00000,-57989829.50618,   0.00000
180175201.93730,232421568.14944,-207869459.92946,   0.00037,   0.00071,  -0.00270,417415168.47424,   0.00000,274640135.82653,   0.00000,   0.00000,   0.00000,-57224967.35228,   0.00000
180077686.94437,232194033.16593,-208438297.38822,   0.00037,   0.00071,  -0.00271,418172989.81713,   0.00000,274640135.82653,   0.00000,   0.00000,   0.00000,-56467146.00940,   0.00000
179961210.70281,231958371.93302,-209012552.34659,   0.00037,   0.00070,  -0.00272,418934309.09515,   0.00000,274640135.82653,   0.00000,   0.00000,   0.00000,-55705826.73138,   0.00000
179863695.70988,231730836.94951,-209581389.80535,   0.00037,   0.00070,  -0.00272,419694224.33753,   0.00000,274640135.82653,   0.00000,   0.00000,   0.00000,-54945911.48900,   0.00000
179774306.96636,231522263.21464,-210155644.76372,   0.00037,   0.00070,  -0.00273,420470915.13056,   0.00000,274640135.82653,   0.00000,   0.00000,   0.00000,-54169220.69597,   0.00000
179676791.97343,231294728.23113,-210729899.72208,   0.00037,   0.00070,  -0.00274,421240997.55731,   0.00000,274640135.82653,   0.00000,   0.00000,   0.00000,-53399138.26922,   0.00000
179568441.98129,231078028.24684,-211304154.68045,   0.00037,   0.00070,  -0.00275,422014094.95572,   0.00000,274640135.82653,   0.00000,   0.00000,   0.00000,-52626040.87081,   0.00000
179479053.23777,230869454.51196,-211872992.13921,   0.00037,   0.00070,  -0.00275,422785641.73173,   0.00000,274640135.82653,   0.00000,   0.00000,   0.00000,-51854494.09480,   0.00000
179370703.24562,230652754.52768,-212447247.09757,   0.00037,   0.00070,  -0.00276,423560732.32404,   0.00000,274640135.82653,   0.00000,   0.00000,   0.00000,-51079403.50249,   0.00000
179289440.75152,230463142.04142,-213021502.05594,   0.00037,   0.00070,  -0.00277,424349898.74944,   0.00000,274640135.82653,   0.00000,   0.00000,   0.00000,-50290237.07709,   0.00000
179181090.75937,230246442.05713,-213595757.01431,   0.00037,   0.00070,  -0.00278,425126946.89701,   0.00000,274640135.82653,   0.00000,   0.00000,   0.00000,-49513188.92952,   0.00000
179080867.01664,230048703.32147,-214170011.97267,   0.00037,   0.00070,  -0.00278,425912460.10135,   0.00000,274640135.82653,   0.00000,   0.00000,   0.00000,-48727675.72518,   0.00000
178999604.52253,229859090.83522,-214744266.93104,   0.00037,   0.00070,  -0.00279,426704434.28989,   0.00000,274640135.82653,   0.00000,   0.00000,   0.00000,-47935701.53664,   0.00000
178899380.77979,229661352.09955,-215318521.88941,   0.00037,   0.00070,  -0.00280,427491811.63836,   0.00000,274640135.82653,   0.00000,   0.00000,   0.00000,-47148324.18817,   0.00000
178799157.03706,229463613.36389,-215898194.34738,   0.00037,   0.00070,  -0.00281,428288312.63812,   0.00000,274640135.82653,   0.00000,   0.00000,   0.00000,-46351823.18840,   0.00000
178698933.29433,229265874.62822,-216472449.30575,   0.00037,   0.00069,  -0.00281,429077553.26748,   0.00000,274640135.82653,   0.00000,   0.00000,   0.00000,-45562582.55905,   0.00000
178606835.80100,229087097.14119,-217046704.26411,   0.00037,   0.00069,  -0.00282,429875090.95543,   0.00000,274640135.82653,   0.00000,   0.00000,   0.00000,-44765044.87110,   0.00000
178506612.05827,228889358.40552,-217620959.22248,   0.00037,   0.00069,  -0.00283,430666147.62875,   0.00000,274640135.82653,   0.00000,   0.00000,   0.00000,-43973988.19778,   0.00000
178414514.56495,228710580.91848,-218195214.18085,   0.00037,   0.00069,  -0.00284,431465451.72859,   0.00000,274640135.82653,   0.00000,   0.00000,   0.00000,-43174684.09794,   0.00000
178322417.07162,228531803.43144,-218769469.13921,   0.00037,   0.00069,  -0.00284,432265621.95787,   0.00000,274640135.82653,   0.00000,   0.00000,   0.00000,-42374513.86866,   0.00000
178238445.82771,228371987.19303,-219343724.09758,   0.00037,   0.00069,  -0.00285,433073952.04594,   0.00000,274640135.82653,   0.00000,   0.00000,   0.00000,-41566183.78059,   0.00000
178146348.33439,228193209.70599,-219923396.55555,   0.00037,   0.00069,  -0.00286,433884058.72372,   0.00000,274640135.82653,   0.00000,   0.00000,   0.00000,-40756077.10281,   0.00000
178062377.09048,228033393.46758,-220497651.51392,   0.00037,   0.00069,  -0.00287,434694045.90363,   0.00000,274640135.82653,   0.00000,   0.00000,   0.00000,-39946089.92290,   0.00000
177970279.59715,227854615.98054,-221071906.47229,   0.00037,   0.00069,  -0.00287,435497600.70963,   0.00000,274640135.82653,   0.00000,   0.00000,   0.00000,-39142535.11690,   0.00000
177867347.10462,227686673.49272,-221646161.43065,   0.00037,   0.00069,  -0.00288,436303853.40702,   0.00000,274640135.82653,   0.00000,   0.00000,   0.00000,-38336282.41951,   0.00000
177791502.11012,227545818.50293,-222220416.38902,   0.00037,   0.00069,  -0.00289,437123489.70349,   0.00000,274640135.82653,   0.00000,   0.00000,   0.00000,-37516646.12304,   0.00000
177707530.86620,227386002.26451,-222794671.34739,   0.00037,   0.00069,  -0.00290,437936698.94039,   0.00000,274640135.82653,   0.00000,   0.00000,   0.00000,-36703436.88614,   0.00000
177623559.62229,227226186.02610,-223368926.30575,   0.00037,   0.00069,  -0.00290,438750699.44612,   0.00000,274640135.82653,   0.00000,   0.00000,   0.00000,-35889436.38041,   0.00000
177528753.37917,227077204.78690,-223943181.26412,   0.00036,   0.00069,  -0.00291,439567318.42533,   0.00000,274640135.82653,   0.00000,   0.00000,   0.00000,-35072817.40120,   0.00000
177452908.38466,226936349.79711,-224517436.22249,   0.00036,   0.00069,  -0.00292,440390013.24675,   0.00000,274640135.82653,   0.00000,   0.00000,   0.00000,-34250122.57978,   0.00000
177358102.14154,226787368.55792,-225091691.18085,   0.00036,   0.00069,  -0.00293,441208157.19061,   0.00000,274640135.82653,   0.00000,   0.00000,   0.00000,-33431978.63592,   0.00000
177282257.14704,226646513.56813,-225665946.13922,   0.00036,   0.00069,  -0.00293,442032343.89872,   0.00000,274640135.82653,   0.00000,   0.00000,   0.00000,-32607791.92781,   0.00000
177214538.40195,226524619.82696,-226240201.09759,   0.00036,   0.00069,  -0.00294,442864342.48817,   0.00000,274640135.82653,   0.00000,   0.00000,   0.00000,-31775793.33836,   0.00000
177127858.40823,226394599.83639,-226814456.05595,   0.00036,   0.00068,  -0.00295,443691779.12491,   0.00000,274640135.82653,   0.00000,   0.00000,   0.00000,-30948356.70162,   0.00000
177052013.41373,226253744.84660,-227388711.01432,   0.00036,   0.00068,  -0.00296,444518131.38919,   0.00000,274640135.82653,   0.00000,   0.00000,   0.00000,-30122004.43734,   0.00000
176965333.42001,226123724.85603,-227962965.97268,   0.00036,   0.00068,  -0.00296,445346998.84145,   0.00000,274640135.82653,   0.00000,   0.00000,   0.00000,-29293136.98508,   0.00000
176886779.67571,226012666.11408,-228531803.43144,   0.00036,   0.00068,  -0.00297,446175258.09045,   0.00000,274640135.82653,   0.00000,   0.00000,   0.00000,-28464877.73608,   0.00000
176819060.93062,225890772.37292,-229106058.38981,   0.00036,   0.00068,  -0.00298,447010721.43797,   0.00000,274640135.82653,   0.00000,   0.00000,   0.00000,-27629414.38856,   0.00000
176740507.18631,225779713.63097,-229674895.84857,   0.00036,   0.00068,  -0.00299,447840304.36908,   0.00000,274640135.82653,   0.00000,   0.00000,   0.00000,-26799831.45745,   0.00000
176672788.44122,225657819.88981,-230249150.80694,   0.00036,   0.00068,  -0.00299,448677104.29825,   0.00000,274640135.82653,   0.00000,   0.00000,   0.00000,-25963031.52828,   0.00000
176594234.69692,225546761.14786,-230817988.26570,   0.00036,   0.00068,  -0.00300,449507996.19170,   0.00000,274640135.82653,   0.00000,   0.00000,   0.00000,-25132139.63483,   0.00000
176515680.95261,225435702.40591,-231392243.22406,   0.00036,   0.00068,  -0.00301,450347882.96715,   0.00000,274640135.82653,   0.00000,   0.00000,   0.00000,-24292252.85938,   0.00000
176464214.70634,225351731.16200,-231961080.68282,   0.00036,   0.00068,  -0.00302,451192125.80900,   0.00000,274640135.82653,   0.00000,   0.00000,   0.00000,-23448010.01753,   0.00000
176385660.96204,225240672.42005,-232529918.14158,   0.00036,   0.00068,  -0.00302,452024916.92129,   0.00000,274640135.82653,   0.00000,   0.00000,   0.00000,-22615218.90524,   0.00000
176315233.46715,225148574.92673,-233098755.60034,   0.00036,   0.00068,  -0.00303,452865220.98566,   0.00000,274640135.82653,   0.00000,   0.00000,   0.00000,-21774914.84087,   0.00000
176244805.97225,225056477.43341,-233667593.05910,   0.00036,   0.00068,  -0.00304,453706123.61635,   0.00000,274640135.82653,   0.00000,   0.00000,   0.00000,-20934012.21017,   0.00000
176193339.72598,224972506.18949,-234236430.51786,   0.00036,   0.00068,  -0.00305,454552725.69656,   0.00000,274640135.82653,   0.00000,   0.00000,   0.00000,-20087410.12997,   0.00000
176122912.23109,224880408.69617,-234799850.47701,   0.00036,   0.00068,  -0.00305,455386424.14647,   0.00000,274640135.82653,   0.00000,   0.00000,   0.00000,-19253711.68006,   0.00000
176060610.98561,224807272.45147,-235368687.93577,   0.00036,   0.00068,  -0.00306,456235904.47015,   0.00000,274640135.82653,   0.00000,   0.00000,   0.00000,-18404231.35638,   0.00000
175998309.74012,224734136.20678,-235932107.89492,   0.00036,   0.00068,  -0.00307,457077550.86190,   0.00000,274640135.82653,   0.00000,   0.00000,   0.00000,-17562584.96463,   0.00000
175936008.49464,224660999.96208,-236500945.35368,   0.00036,   0.00068,  -0.00307,457928133.93676,   0.00000,274640135.82653,   0.00000,   0.00000,   0.00000,-16712001.88977,   0.00000
175892668.49778,224595989.96679,-237064365.31283,   0.00036,   0.00068,  -0.00308,458775916.36310,   0.00000,274640135.82653,   0.00000,   0.00000,   0.00000,-15864219.46343,   0.00000
175830367.25230,224522853.72209,-237627785.27199,   0.00036,   0.00068,  -0.00309,459619176.12835,   0.00000,274640135.82653,   0.00000,   0.00000,   0.00000,-15020959.69818,   0.00000
175776192.25623,224468678.72602,-238191205.23114,   0.00036,   0.00068,  -0.00310,460469715.19769,   0.00000,274640135.82653,   0.00000,   0.00000,   0.00000,-14170420.62884,   0.00000
175713891.01074,224395542.48132,-238754625.19029,   0.00036,   0.00068,  -0.00310,461314025.62032,   0.00000,274640135.82653,   0.00000,   0.00000,   0.00000,-13326110.20621,   0.00000
175659716.01467,224341367.48525,-239318045.14944,   0.00036,   0.00068,  -0.00311,462165581.03688,   0.00000,274640135.82653,   0.00000,   0.00000,   0.00000,-12474554.78965,   0.00000
175605541.01860,224287192.48918,-239876047.60899,   0.00036,   0.00068,  -0.00312,463009213.32089,   0.00000,274640135.82653,   0.00000,   0.00000,   0.00000,-11630922.50564,   0.00000
175551366.02253,224233017.49311,-240434050.06853,   0.00036,   0.00068,  -0.00313,463853331.36159,   0.00000,274640135.82653,   0.00000,   0.00000,   0.00000,-10786804.46494,   0.00000
175505317.27586,224197803.74566,-240997470.02768,   0.00036,   0.00068,  -0.00313,464713036.82679,   0.00000,274640135.82653,   0.00000,   0.00000,   0.00000,-9927098.99974,   0.00000
175459268.52920,224162589.99821,-241555472.48723,   0.00036,   0.00068,  -0.00314,465564771.49844,   0.00000,274640135.82653,   0.00000,   0.00000,   0.00000,-9075364.32809,   0.00000
175405093.53313,224108415.00214,-242113474.94677,   0.00036,   0.00068,  -0.00315,466410307.85086,   0.00000,274640135.82653,   0.00000,   0.00000,   0.00000,-8229827.97567,   0.00000
175367171.03588,224092162.50332,-242666059.90671,   0.00036,   0.00068,  -0.00315,467261151.04400,   0.00000,274640135.82653,   0.00000,   0.00000,   0.00000,-7378984.78253,   0.00000
175321122.28922,224056948.75587,-243224062.36626,   0.00036,   0.00068,  -0.00316,468114227.55114,   0.00000,274640135.82653,   0.00000,   0.00000,   0.00000,-6525908.27539,   0.00000
175275073.54256,224021735.00842,-243776647.32619,   0.00036,   0.00068,  -0.00317,468959299.32948,   0.00000,274640135.82653,   0.00000,   0.00000,   0.00000,-5680836.49705,   0.00000
175237151.04531,224005482.50960,-244329232.28613,   0.00036,   0.00068,  -0.00318,469811402.56055,   0.00000,274640135.82653,   0.00000,   0.00000,   0.00000,-4828733.26598,   0.00000
175199228.54806,223989230.01078,-244887234.74568,   0.00036,   0.00068,  -0.00318,470672367.75473,   0.00000,274640135.82653,   0.00000,   0.00000,   0.00000,-3967768.07180,   0.00000
175161306.05081,223972977.51196,-245434402.20601,   0.00036,   0.00068,  -0.00319,471516824.61029,   0.00000,274640135.82653,   0.00000,   0.00000,   0.00000,-3123311.21624,   0.00000
175123383.55355,223956725.01314,-245986987.16594,   0.00036,   0.00068,  -0.00320,472370139.04026,   0.00000,274640135.82653,   0.00000,   0.00000,   0.00000,-2269996.78627,   0.00000
175093587.30571,223959433.76294,-246534154.62627,   0.00036,   0.00068,  -0.00320,473221935.04778,   0.00000,274640135.82653,   0.00000,   0.00000,   0.00000,-1418200.77875,   0.00000
175055664.80846,223943181.26412,-247086739.58621,   0.00036,   0.00068,  -0.00321,474076030.16684,   0.00000,274640135.82653,   0.00000,   0.00000,   0.00000,-564105.65969,   0.00000
175035947.91346,223944973.70912,-247448813.47629,   0.00036,   0.00068,  -0.00322,474640136.76720,   0.00000,274640135.82653,   0.00000,   0.00000,   0.00000,   0.94067,   0.00000
174937561.39450,223827112.80523,-247479667.21862,   0.00036,   0.00068,  -0.00322,474640136.76720,   0.00000,274641458.59786,   0.00000,   0.00000,  -0.00000,   0.38479,   1.00000
174649750.62432,223482714.47409,-247569742.32618,   0.00036,   0.00068,  -0.00323,475485868.98407,   0.00000,274645331.43860,   0.00000,   0.00000,  -0.00001,  -0.00000,   2.00000
174359719.78599,223135284.22075,-247660415.54693,   0.00036,   0.00068,  -0.00323,475498529.14480,   0.00001,274649244.81522,   0.00000,   0.00000,  -0.00001,  -0.00000,   2.00000
174078776.04233,222808046.95300,-247746456.10044,   0.00036,   0.00068,  -0.00324,475500766.04888,   0.00001,274653150.71158,   0.00000,   0.00000,  -0.00002,   0.00000,   2.00000
173798194.98710,222481236.58534,-247832232.86825,   0.00036,   0.00068,  -0.00325,475504955.86808,   0.00002,274657058.11847,   0.00000,   0.00000,  -0.00003,   0.00000,   2.00000
173494350.22940,222132410.78149,-247923782.16763,   0.00036,   0.00068,  -0.00325,475497859.85191,   0.00002,274660915.28648,   0.00000,   0.00001,  -0.00003,   0.00000,   2.00000
173220685.65542,221822778.89491,-248005556.19090,   0.00036,   0.00068,  -0.00326,475519772.75342,   0.00002,274664855.47816,   0.00000,   0.00001,  -0.00004,   0.00000,   2.00000
172943781.91600,221500705.96667,-248089672.71502,   0.00036,   0.00068,  -0.00327,475509021.57181,   0.00003,274668728.46622,   0.00000,   0.00001,  -0.00004,   0.00000,   2.00000
172664673.52640,221175602.20433,-248174396.76298,   0.00036,   0.00068,  -0.00328,475521666.99285,   0.00003,274672641.90579,   0.00000,   0.00001,  -0.00005,   0.00000,   2.00000
172394661.64477,220870689.26991,-248254554.57616,   0.00036,   0.00068,  -0.00328,475523797.95221,   0.00003,274676547.34743,   0.00000,   0.00001,  -0.00006,  -0.00000,   2.00000
172110060.98839,220563434.87233,-248336170.03955,   0.00036,   0.00068,  -0.00329,475514682.07270,   0.00004,274680393.23123,   0.00001,   0.00001,  -0.00006,   0.00000,   2.00000
171840783.59751,220259325.65111,-248415844.67849,   0.00036,   0.00068,  -0.00330,475532061.24211,   0.00004,274684301.39528,   0.00001,   0.00001,  -0.00007,   0.00000,   2.00000
171574407.25324,219959050.38863,-248494428.57825,   0.00036,   0.00068,  -0.00330,475527712.37489,   0.00004,274688171.84027,   0.00001,   0.00001,  -0.00007,   0.00000,   2.00000
171308379.29629,219659167.73943,-248572780.40506,   0.00036,   0.00068,  -0.00331,475531828.19800,   0.00005,274692043.58299,   0.00001,   0.00001,  -0.00008,   0.00000,   2.00000
171033929.53640,219373252.23212,-248649166.41920,   0.00036,   0.00068,  -0.00332,475529085.63723,   0.00005,274695885.13701,   0.00001,   0.00002,  -0.00008,   0.00000,   2.00000
170774828.46742,219090494.98720,-248723637.86555,   0.00036,   0.00068,  -0.00332,475546413.31814,   0.00005,274699788.74101,   0.00001,   0.00002,  -0.00009,   0.00000,   2.00000
170518606.99771,218811531.08105,-248797049.50917,   0.00036,   0.00068,  -0.00333,475542022.95644,   0.00006,274703654.42548,   0.00001,   0.00002,  -0.00010,  -0.00000,   2.00000
170245196.42806,218526710.48787,-248872780.64987,   0.00036,   0.00068,  -0.00334,475541389.29038,   0.00006,274707499.62148,   0.00001,   0.00002,  -0.00010,   0.00000,   2.00000
169998437.40774,218268279.78730,-248941511.85581,   0.00036,   0.00068,  -0.00334,475548019.91391,   0.00006,274711357.73018,   0.00001,   0.00002,  -0.00011,   0.00000,   2.00000
169745776.90646,217993800.84118,-249013460.50453,   0.00036,   0.00068,  -0.00335,475545717.75052,   0.00007,274715187.70259,   0.00001,   0.00002,  -0.00011,   0.00000,   2.00000
169482146.83148,217729836.51117,-249084319.26965,   0.00036,   0.00068,  -0.00336,475551411.33570,   0.00007,274719026.37105,   0.00001,   0.00002,  -0.00012,   0.00000,   2.00000
169236419.20249,217472458.15960,-249152459.69479,   0.00036,   0.00068,  -0.00336,475560149.63206,   0.00008,274722887.65580,   0.00001,   0.00002,  -0.00013,   0.00000,   2.00000
168993535.60340,217218817.68597,-249219579.28291,   0.00036,   0.00068,  -0.00337,475555672.16668,   0.00008,274726710.77804,   0.00001,   0.00002,  -0.00013,   0.00000,   2.00000
168739676.91099,216975668.60675,-249285627.90282,   0.00036,   0.00068,  -0.00338,475561335.09508,   0.00008,274730542.46576,   0.00001,   0.00002,  -0.00014,   0.00000,   2.00000
168497464.70457,216722674.62803,-249352379.60534,   0.00036,   0.00068,  -0.00338,475563703.47381,   0.00009,274734367.55254,   0.00001,   0.00003,  -0.00014,   0.00000,   2.00000
168246779.94535,216483561.08857,-249417236.32612,   0.00036,   0.00068,  -0.00339,475560828.03972,   0.00009,274738161.98932,   0.00001,   0.00003,  -0.00015,   0.00000,   2.00000
168014003.65446,216251024.24927,-249479415.20525,   0.00036,   0.00068,  -0.00340,475569459.01588,   0.00009,274741978.72932,   0.00001,   0.00003,  -0.00015,  -0.00000,   2.00000
167763971.07919,216012518.38808,-249543924.44557,   0.00036,   0.00068,  -0.00340,475568795.09886,   0.00010,274745775.00817,   0.00001,   0.00003,  -0.00016,   0.00000,   2.00000
167540626.47088,215800419.45539,-249601563.57799,   0.00036,   0.00069,  -0.00341,475575160.12131,   0.00010,274749583.15818,   0.00001,   0.00003,  -0.00017,   0.00000,   2.00000
167293724.22516,215565868.38957,-249664921.34510,   0.00035,   0.00069,  -0.00342,475568195.38182,   0.00010,274753341.94897,   0.00001,   0.00003,  -0.00017,   0.00000,   2.00000
167053443.10307,215348068.27840,-249724732.35174,   0.00035,   0.00069,  -0.00342,475578410.01101,   0.00011,274757130.47492,   0.00001,   0.00003,  -0.00018,  -0.00000,   2.00000
166833563.70165,215140212.04044,-249781086.35083,   0.00035,   0.00069,  -0.00343,475578428.42842,   0.00011,274760901.75978,   0.00002,   0.00003,  -0.00018,   0.00000,   2.00000
166596391.73546,214926329.00804,-249839776.40191,   0.00035,   0.00069,  -0.00344,475577728.21648,   0.00011,274764652.59761,   0.00002,   0.00003,  -0.00019,   0.00000,   2.00000
166365845.44050,214729185.03788,-249894944.54500,   0.00035,   0.00069,  -0.00344,475587897.42949,   0.00012,274768432.97973,   0.00002,   0.00003,  -0.00020,   0.00000,   2.00000
166149386.95051,214525491.76725,-249950051.19095,   0.00035,   0.00069,  -0.00345,475581607.34710,   0.00012,274772167.18201,   0.00002,   0.00004,  -0.00020,   0.00000,   2.00000
165921928.30124,214332227.21708,-250004127.26098,   0.00035,   0.00069,  -0.00346,475587135.47428,   0.00012,274775909.68862,   0.00002,   0.00004,  -0.00021,  -0.00000,   2.00000
165694783.24833,214139207.80621,-250058064.53047,   0.00035,   0.00069,  -0.00346,475591016.20557,   0.00013,274779652.89525,   0.00002,   0.00004,  -0.00021,   0.00000,   2.00000
165470414.70506,213949789.03938,-250111059.65261,   0.00035,   0.00069,  -0.00347,475586335.16591,   0.00013,274783357.47571,   0.00002,   0.00004,  -0.00022,   0.00000,   2.00000
165263969.96293,213766931.66627,-250161458.39802,   0.00035,   0.00069,  -0.00348,475594747.89001,   0.00013,274787083.72430,   0.00002,   0.00004,  -0.00022,   0.00000,   2.00000
165048974.01173,213597827.66238,-250210038.56169,   0.00035,   0.00069,  -0.00348,475591689.79023,   0.00014,274790778.85816,   0.00002,   0.00004,  -0.00023,   0.00000,   2.00000
164834275.39765,213428934.60618,-250258498.62395,   0.00035,   0.00069,  -0.00349,475595503.01906,   0.00014,274794474.57699,   0.00002,   0.00004,  -0.00023,   0.00000,   2.00000
164613538.07254,213243750.93950,-250310187.59218,   0.00035,   0.00069,  -0.00349,475593095.95145,   0.00014,274798142.32450,   0.00002,   0.00004,  -0.00024,   0.00000,   2.00000
164408227.54866,213095153.18510,-250354257.74254,   0.00035,   0.00069,  -0.00350,475600753.60474,   0.00015,274801828.42082,   0.00002,   0.00004,  -0.00025,  -0.00000,   2.00000
164196861.06066,212930230.38311,-250401566.33764,   0.00035,   0.00069,  -0.00351,475598331.53093,   0.00015,274805486.50198,   0.00002,   0.00004,  -0.00025,   0.00000,   2.00000
163985784.48804,212765511.26086,-250448759.42384,   0.00035,   0.00069,  -0.00351,475602103.12689,   0.00015,274809145.14252,   0.00002,   0.00005,  -0.00026,   0.00000,   2.00000
163783787.61083,212620850.82768,-250491704.31147,   0.00035,   0.00069,  -0.00352,475603502.98525,   0.00016,274812793.42898,   0.00002,   0.00005,  -0.00026,   0.00000,   2.00000
163584507.31760,212479704.52436,-250533755.73050,   0.00035,   0.00070,  -0.00353,475598675.11843,   0.00016,274816402.80301,   0.00002,   0.00005,  -0.00027,   0.00000,   2.00000
163365417.50663,212329035.06753,-250578932.88098,   0.00035,   0.00070,  -0.00353,475606439.27013,   0.00016,274820031.29454,   0.00002,   0.00005,  -0.00027,   0.00000,   2.00000
163169143.23504,212191573.17100,-250619989.50198,   0.00035,   0.00070,  -0.00354,475597535.96430,   0.00017,274823602.24271,   0.00002,   0.00005,  -0.00028,  -0.00000,   2.00000
162970708.72811,212050942.66240,-250661737.85402,   0.00035,   0.00070,  -0.00354,475609780.20220,   0.00017,274827213.04406,   0.00002,   0.00005,  -0.00028,   0.00000,   2.00000
162763679.57675,211923976.49935,-250701695.65545,   0.00035,   0.00070,  -0.00355,475606587.70110,   0.00017,274830792.61210,   0.00002,   0.00005,  -0.00029,   0.00000,   2.00000
162577020.96129,211806856.20526,-250738349.15973,   0.00035,   0.00070,  -0.00356,475606177.25376,   0.00018,274834353.85113,   0.00002,   0.00005,  -0.00030,   0.00000,   2.00000
162381825.51644,211670007.32680,-250779032.49012,   0.00035,   0.00070,  -0.00356,475612226.65695,   0.00018,274837926.53180,   0.00002,   0.00005,  -0.00030,   0.00000,   2.00000
162186813.95992,211566677.22547,-250813817.37560,   0.00035,   0.00070,  -0.00357,475606584.46918,   0.00018,274841456.88322,   0.00002,   0.00005,  -0.00031,  -0.00000,   2.00000
162000950.30345,211449972.35084,-250850214.33051,   0.00035,   0.00070,  -0.00357,475617092.08765,   0.00019,274845019.27777,   0.00002,   0.00006,  -0.00031,   0.00000,   2.00000
161802485.92427,211333667.51519,-250887378.94126,   0.00035,   0.00070,  -0.00358,475599087.80283,   0.00019,274848482.62292,   0.00003,   0.00006,  -0.00032,   0.00000,   2.00000
161608267.29820,211230714.70869,-250921912.31108,   0.00035,   0.00070,  -0.00358,475617392.92419,   0.00019,274852014.13155,   0.00003,   0.00006,  -0.00032,  -0.00000,   2.00000
161434404.58723,211137585.58937,-250953179.52487,   0.00035,   0.00070,  -0.00359,475616879.24575,   0.00020,274855527.03772,   0.00003,   0.00006,  -0.00033,   0.00000,   2.00000
161245496.27723,211041487.45935,-250986002.98154,   0.00035,   0.00070,  -0.00360,475607414.09303,   0.00020,274858980.32598,   0.00003,   0.00006,  -0.00033,   0.00000,   2.00000
161056842.87984,210945489.82157,-251018750.61862,   0.00035,   0.00071,  -0.00360,475610945.68267,   0.00020,274862433.96428,   0.00003,   0.00006,  -0.00034,   0.00000,   2.00000
160868444.10472,210849592.63504,-251051422.63689,   0.00035,   0.00071,  -0.00361,475614477.40906,   0.00021,274865887.95126,   0.00003,   0.00006,  -0.00034,   0.00000,   2.00000
160689095.43708,210773671.35055,-251079925.02050,   0.00035,   0.00071,  -0.00361,475615568.43736,   0.00021,274869331.05920,   0.00003,   0.00006,  -0.00035,   0.00000,   2.00000
160512381.67741,210701140.73410,-251107587.15231,   0.00035,   0.00071,  -0.00362,475610486.85544,   0.00021,274872734.98633,   0.00003,   0.00006,  -0.00035,   0.00000,   2.00000
160327110.37689,210608801.27611,-251139276.95972,   0.00035,   0.00071,  -0.00362,475616404.68814,   0.00022,274876150.44743,   0.00003,   0.00006,  -0.00036,   0.00000,   2.00000
160153267.85286,210539750.30068,-251166032.46731,   0.00035,   0.00071,  -0.00363,475608849.19804,   0.00022,274879515.49120,   0.00003,   0.00006,  -0.00036,   0.00000,   2.00000
159986070.24878,210487326.78078,-251189410.68306,   0.00035,   0.00071,  -0.00364,475618425.45552,   0.00022,274882909.01869,   0.00003,   0.00007,  -0.00037,   0.00000,   2.00000
159812684.51475,210418379.60733,-251216049.97096,   0.00035,   0.00071,  -0.00364,475615735.48926,   0.00022,274886274.57649,   0.00003,   0.00007,  -0.00038,  -0.00000,   2.00000
159630609.51419,210362958.47884,-251240921.63559,   0.00035,   0.00071,  -0.00365,475612303.30879,   0.00023,274889608.88353,   0.00003,   0.00007,  -0.00038,  -0.00000,   2.00000
159460074.66509,210297429.25629,-251266670.94850,   0.00035,   0.00071,  -0.00365,475613968.38275,   0.00023,274892935.49341,   0.00003,   0.00007,  -0.00039,   0.00000,   2.00000
159280837.81224,210245417.54696,-251290652.07102,   0.00035,   0.00071,  -0.00366,475610501.43531,   0.00023,274896230.87095,   0.00003,   0.00007,  -0.00039,  -0.00000,   2.00000
159119561.54513,210199865.84913,-251312203.88363,   0.00035,   0.00072,  -0.00366,475618256.61712,   0.00024,274899546.68445,   0.00003,   0.00007,  -0.00040,   0.00000,   2.00000
158949566.12455,210167801.70535,-251331991.98572,   0.00034,   0.00072,  -0.00367,475614780.37977,   0.00024,274902831.25810,   0.00003,   0.00007,  -0.00040,   0.00000,   2.00000
158791096.48091,210125604.19375,-251352676.96567,   0.00034,   0.00072,  -0.00367,475616371.85901,   0.00024,274906108.00893,   0.00003,   0.00007,  -0.00041,  -0.00000,   2.00000
158623895.13288,210096886.31312,-251371596.64662,   0.00034,   0.00072,  -0.00368,475612862.22547,   0.00025,274909353.54584,   0.00003,   0.00007,  -0.00041,   0.00000,   2.00000
158450477.90569,210051599.70541,-251393780.16064,   0.00034,   0.00072,  -0.00368,475610033.55476,   0.00025,274912571.15340,   0.00003,   0.00007,  -0.00042,   0.00000,   2.00000
158286076.11981,210026224.08368,-251411830.85412,   0.00034,   0.00072,  -0.00369,475610847.65610,   0.00025,274915777.67438,   0.00003,   0.00007,  -0.00042,   0.00000,   2.00000
158121886.83230,210000848.39729,-251429834.30085,   0.00034,   0.00072,  -0.00369,475614114.98400,   0.00025,274918984.42544,   0.00003,   0.00007,  -0.00043,   0.00000,   2.00000
157966701.13961,209995358.30549,-251443712.67526,   0.00034,   0.00072,  -0.00370,475614912.84040,   0.00026,274922180.05099,   0.00003,   0.00008,  -0.00043,  -0.00000,   2.00000
157787525.40116,209966825.32615,-251463212.56289,   0.00034,   0.00072,  -0.00370,475607680.52900,   0.00026,274925327.75433,   0.00003,   0.00008,  -0.00043,  -0.00000,   2.00000
157635117.43219,209964622.19645,-251476234.97841,   0.00034,   0.00073,  -0.00371,475612772.98876,   0.00026,274928484.32386,   0.00003,   0.00008,  -0.00044,   0.00000,   2.00000
157478801.24569,209949126.56144,-251491767.66260,   0.00034,   0.00073,  -0.00371,475601243.81625,   0.00027,274931573.40653,   0.00003,   0.00008,  -0.00044,   0.00000,   2.00000
157311371.43543,209943745.18300,-251506286.49552,   0.00034,   0.00073,  -0.00372,475606190.14672,   0.00027,274934670.96605,   0.00003,   0.00008,  -0.00045,   0.00000,   2.00000
157161911.26639,209944783.49968,-251518420.82957,   0.00034,   0.00073,  -0.00372,475613684.21672,   0.00027,274937788.64839,   0.00004,   0.00008,  -0.00045,  -0.00000,   2.00000
157003665.07482,209959223.06416,-251528776.60819,   0.00034,   0.00073,  -0.00373,475610061.38338,   0.00027,274940875.31538,   0.00004,   0.00008,  -0.00046,   0.00000,   2.00000
156841495.02604,209960346.16246,-251541644.00783,   0.00034,   0.00073,  -0.00373,475598467.47951,   0.00028,274943894.52318,   0.00004,   0.00008,  -0.00046,   0.00000,   2.00000
156685978.81985,209978004.82095,-251551153.57938,   0.00034,   0.00073,  -0.00374,475607689.36653,   0.00028,274946942.14477,   0.00004,   0.00008,  -0.00047,   0.00000,   2.00000
156524197.25556,209979031.02105,-251563939.98950,   0.00034,   0.00073,  -0.00374,475604661.83568,   0.00028,274949961.82029,   0.00004,   0.00008,  -0.00047,   0.00000,   2.00000
156373721.21162,210003222.14665,-251571843.84667,   0.00034,   0.00073,  -0.00375,475596667.45281,   0.00029,274952930.86083,   0.00004,   0.00008,  -0.00048,  -0.00000,   2.00000
156221104.99256,210024031.19719,-251580473.21612,   0.00034,   0.00074,  -0.00375,475608308.25288,   0.00029,274955939.64886,   0.00004,   0.00008,  -0.00048,  -0.00000,   2.00000
156055532.86473,210044947.59106,-251589861.99389,   0.00034,   0.00074,  -0.00376,475589866.20169,   0.00029,274958849.90036,   0.00004,   0.00009,  -0.00049,   0.00000,   2.00000
155907938.13820,210072261.96059,-251596890.13228,   0.00034,   0.00074,  -0.00376,475597139.32633,   0.00029,274961780.11514,   0.00004,   0.00009,  -0.00049,   0.00000,   2.00000
155749199.32724,210109610.55096,-251602879.19125,   0.00034,   0.00074,  -0.00377,475601990.93645,   0.00030,274964719.08413,   0.00004,   0.00009,  -0.00050,   0.00000,   2.00000
155592959.72233,210150189.98400,-251608066.56998,   0.00034,   0.00074,  -0.00377,475596394.14086,   0.00030,274967618.80037,   0.00004,   0.00009,  -0.00050,   0.00000,   2.00000
155450533.98419,210183900.14142,-251613464.87403,   0.00034,   0.00074,  -0.00377,475588884.06618,   0.00030,274970470.66162,   0.00004,   0.00009,  -0.00050,   0.00000,   2.00000
155296949.65185,210227630.93897,-251617815.96826,   0.00034,   0.00074,  -0.00378,475593675.31385,   0.00030,274973331.35866,   0.00004,   0.00009,  -0.00051,  -0.00000,   2.00000
155145845.78247,210274589.83870,-251621367.81165,   0.00033,   0.00074,  -0.00378,475587998.55881,   0.00031,274976152.79772,   0.00004,   0.00009,  -0.00051,  -0.00000,   2.00000
154977113.50500,210314978.90457,-251627184.50531,   0.00033,   0.00075,  -0.00379,475586631.61518,   0.00031,274978954.95557,   0.00004,   0.00009,  -0.00052,   0.00000,   2.00000
154835146.01622,210381635.41413,-251626571.20449,   0.00033,   0.00075,  -0.00379,475591317.99425,   0.00031,274981765.68296,   0.00004,   0.00009,  -0.00052,   0.00000,   2.00000
154686863.23058,210431610.88738,-251629250.10965,   0.00033,   0.00075,  -0.00380,475588045.10865,   0.00031,274984548.41846,   0.00004,   0.00009,  -0.00053,   0.00000,   2.00000
154529708.59190,210494895.29460,-251630098.13053,   0.00033,   0.00075,  -0.00380,475584203.53682,   0.00032,274987300.68094,   0.00004,   0.00009,  -0.00053,   0.00000,   2.00000
154375016.07214,210561387.29741,-251630143.46473,   0.00033,   0.00075,  -0.00380,475578430.87516,   0.00032,274990013.74757,   0.00004,   0.00009,  -0.00053,   0.00000,   2.00000
154238304.99021,210634237.08819,-251627860.42889,   0.00033,   0.00075,  -0.00381,475585464.72987,   0.00032,274992746.56635,   0.00004,   0.00009,  -0.00054,   0.00000,   2.00000
154086212.19166,210703810.87239,-251627068.70421,   0.00033,   0.00075,  -0.00381,475575430.40441,   0.00032,274995420.72116,   0.00004,   0.00010,  -0.00054,   0.00000,   2.00000
153916461.20875,210766777.43450,-251628520.54042,   0.00033,   0.00075,  -0.00382,475573963.17291,   0.00033,274998075.81310,   0.00004,   0.00010,  -0.00055,  -0.00000,   2.00000
153766989.40951,210839439.71992,-251626883.23316,   0.00033,   0.00076,  -0.00382,475572324.53476,   0.00033,275000711.13195,   0.00004,   0.00010,  -0.00055,  -0.00000,   2.00000
153626435.87074,210931857.92709,-251621109.26348,   0.00033,   0.00076,  -0.00383,475572610.75624,   0.00033,275003335.59138,   0.00004,   0.00010,  -0.00055,   0.00000,   2.00000
153461713.12111,211001094.25379,-251620910.19487,   0.00033,   0.00076,  -0.00383,475564933.51641,   0.00033,275005912.71861,   0.00004,   0.00010,  -0.00056,   0.00000,   2.00000
153305915.71752,211090086.13607,-251616564.03431,   0.00033,   0.00076,  -0.00383,475565178.46668,   0.00034,275008479.07616,   0.00004,   0.00010,  -0.00056,   0.00000,   2.00000
153168108.61738,211185418.03160,-251609904.89092,   0.00033,   0.00076,  -0.00384,475572045.06749,   0.00034,275011065.08879,   0.00004,   0.00010,  -0.00057,   0.00000,   2.00000
153017135.89517,211280791.16180,-251603948.46206,   0.00033,   0.00076,  -0.00384,475553306.09162,   0.00034,275013553.17861,   0.00004,   0.00010,  -0.00057,   0.00000,   2.00000
152846206.88773,211366177.64843,-251600976.15619,   0.00033,   0.00076,  -0.00384,475560312.01591,   0.00034,275016061.94317,   0.00004,   0.00010,  -0.00057,   0.00000,   2.00000
152695545.49309,211461253.46444,-251594928.25535,   0.00033,   0.00077,  -0.00385,475558508.05955,   0.00035,275018550.85167,   0.00004,   0.00010,  -0.00058,   0.00000,   2.00000
152553780.16558,211576054.79334,-251584725.43806,   0.00033,   0.00077,  -0.00385,475558687.72665,   0.00035,275021029.08683,   0.00004,   0.00010,  -0.00058,   0.00000,   2.00000
152390060.65849,211671007.18156,-251579319.43893,   0.00032,   0.00077,  -0.00386,475542285.28538,   0.00035,275023420.63606,   0.00004,   0.00010,  -0.00058,   0.00000,   2.00000
152232987.01781,211782332.50304,-251570512.37911,   0.00032,   0.00077,  -0.00386,475550994.59179,   0.00035,275025841.10585,   0.00004,   0.00010,  -0.00059,  -0.00000,   2.00000
152078305.70657,211896836.77173,-251560889.67712,   0.00032,   0.00077,  -0.00386,475544924.94633,   0.00035,275028222.55636,   0.00004,   0.00010,  -0.00059,   0.00000,   2.00000
151923763.80770,212011166.23402,-251551217.39420,   0.00032,   0.00077,  -0.00387,475547423.65732,   0.00036,275030604.47868,   0.00004,   0.00010,  -0.00060,   0.00000,   2.00000
151771603.35381,212128677.69647,-251540729.07418,   0.00032,   0.00077,  -0.00387,475541316.26912,   0.00036,275032947.38790,   0.00004,   0.00011,  -0.00060,   0.00000,   2.00000
151601714.17890,212239513.46836,-251532431.73394,   0.00032,   0.00078,  -0.00387,475539627.65116,   0.00036,275035271.74615,   0.00004,   0.00011,  -0.00060,   0.00000,   2.00000
151454311.16134,212363398.68727,-251520305.98027,   0.00032,   0.00078,  -0.00388,475529012.87673,   0.00036,275037536.67590,   0.00005,   0.00011,  -0.00061,   0.96564,   1.00000
151293432.13698,212493747.42100,-251507768.76921,   0.00032,   0.00078,  -0.00388,475542095.56916,   0.00036,275039851.17002,   0.00005,   0.00011,  -0.00061,   0.00000,   2.00000
151130647.76367,212614128.21404,-251497004.01923,   0.00032,   0.00078,  -0.00388,475521099.87616,   0.00037,275042058.67444,   0.00005,   0.00011,  -0.00061,   0.91706,   1.00000
150974499.69653,212750832.64228,-251482814.25664,   0.00032,   0.00078,  -0.00389,475529678.71817,   0.00037,275044295.34024,   0.00005,   0.00011,  -0.00062,   0.94140,   1.00000
150802824.65988,212884204.81524,-251470022.29188,   0.00032,   0.00078,  -0.00389,475519327.41460,   0.00037,275046474.21000,   0.00005,   0.00011,  -0.00062,   0.89326,   1.00000
150642658.73721,213007393.40111,-251458316.44824,   0.00032,   0.00079,  -0.00389,475519522.11390,   0.00037,275048643.92378,   0.00005,   0.00011,  -0.00062,   0.88565,   1.00000
150473461.09726,213143762.37767,-251444627.71679,   0.00032,   0.00079,  -0.00390,475515362.39617,   0.00037,275050784.55127,   0.00005,   0.00011,  -0.00063,   0.86197,   1.00000
150313115.55006,213299798.19447,-251426724.59065,   0.00031,   0.00079,  -0.00390,475515310.83470,   0.00038,275052915.06025,   0.00005,   0.00011,  -0.00063,   0.85386,   1.00000
150146379.67695,213439133.76508,-251412134.76374,   0.00031,   0.00079,  -0.00390,475511336.39336,   0.00038,275055017.51448,   0.00005,   0.00011,  -0.00063,   0.83145,   1.00000
149981976.18083,213581654.33190,-251396707.39382,   0.00031,   0.00079,  -0.00390,475504988.37326,   0.00038,275057081.15754,   0.00005,   0.00011,  -0.00064,   0.80099,   1.00000
149806306.61097,213733941.34656,-251380035.75590,   0.00031,   0.00079,  -0.00391,475509389.85629,   0.00038,275059155.46853,   0.00005,   0.00011,  -0.00064,   0.80924,   1.00000
149644351.37391,213879440.32060,-251363700.41095,   0.00031,   0.00079,  -0.00391,475500839.04560,   0.00038,275061180.99748,   0.00005,   0.00011,  -0.00064,   0.77160,   1.00000
149473319.49566,214038085.45897,-251345334.50717,   0.00031,   0.00080,  -0.00391,475496625.50737,   0.00039,275063177.86060,   0.00005,   0.00011,  -0.00065,   0.74990,   1.00000
149304597.94830,214199906.28777,-251326117.64445,   0.00031,   0.00080,  -0.00392,475490198.12718,   0.00039,275065136.03806,   0.00005,   0.00011,  -0.00065,   0.72114,   1.00000
149135986.42141,214361510.08252,-251306825.22262,   0.00031,   0.00080,  -0.00392,475492331.28288,   0.00039,275067094.96503,   0.00005,   0.00012,  -0.00065,   0.72170,   1.00000
148949572.75715,214516381.12369,-251289646.95185,   0.00031,   0.00080,  -0.00392,475490405.84414,   0.00039,275069036.03531,   0.00005,   0.00012,  -0.00065,   0.70852,   1.00000
148767649.35888,214677837.92839,-251270829.65023,   0.00031,   0.00080,  -0.00392,475475341.32024,   0.00039,275070899.08195,   0.00005,   0.00012,  -0.00066,   0.65267,   1.00000
148603754.91007,214845596.85331,-251249745.81246,   0.00031,   0.00080,  -0.00393,475481440.15886,   0.00040,275072781.49951,   0.00005,   0.00012,  -0.00066,   0.66635,   1.00000
148404116.46920,215000100.81729,-251232944.55923,   0.00030,   0.00081,  -0.00393,475475417.25492,   0.00040,275074627.63309,   0.00005,   0.00012,  -0.00066,   0.64080,   1.00000
148233392.71146,215184165.83174,-251208905.50199,   0.00030,   0.00081,  -0.00393,475470635.36175,   0.00040,275076443.32459,   0.00005,   0.00012,  -0.00067,   0.61991,   1.00000
148056242.84631,215351562.79497,-251188191.50440,   0.00030,   0.00081,  -0.00393,475466322.23989,   0.00040,275078230.87189,   0.00005,   0.00012,  -0.00067,   0.60084,   1.00000
147867783.22392,215528650.25386,-251166145.99938,   0.00030,   0.00081,  -0.00394,475470614.51383,   0.00040,275080029.86009,   0.00005,   0.00012,  -0.00067,   0.60854,   1.00000
147683756.07912,215712339.77186,-251142438.93163,   0.00030,   0.00081,  -0.00394,475455444.33392,   0.00040,275081751.00467,   0.00005,   0.00012,  -0.00067,   0.55704,   1.00000
147499822.96739,215895795.45920,-251118634.83299,   0.00030,   0.00081,  -0.00394,475457382.38986,   0.00040,275083473.10130,   0.00005,   0.00012,  -0.00068,   0.55768,   1.00000
147298041.54646,216072492.13399,-251096891.46629,   0.00030,   0.00082,  -0.00394,475455318.32783,   0.00041,275085177.80490,   0.00005,   0.00012,  -0.00068,   0.54642,   1.00000
147116461.43508,216258909.32324,-251072103.71955,   0.00030,   0.00082,  -0.00395,475452659.74332,   0.00041,275086862.46285,   0.00005,   0.00012,  -0.00068,   0.53368,   1.00000
146919170.61554,216441996.46410,-251048582.47109,   0.00030,   0.00082,  -0.00395,475441983.72179,   0.00041,275088490.42000,   0.00005,   0.00012,  -0.00068,   0.49835,   1.00000
146724117.19476,216628284.76886,-251024167.57323,   0.00029,   0.00082,  -0.00395,475435256.40766,   0.00041,275090080.03995,   0.00005,   0.00012,  -0.00069,   0.47515,   1.00000
146529150.53948,216814341.08565,-250999645.93790,   0.00029,   0.00082,  -0.00395,475437079.52635,   0.00041,275091670.69625,   0.00005,   0.00012,  -0.00069,   0.47577,   1.00000
146324979.65295,217013463.79557,-250972926.21070,   0.00029,   0.00082,  -0.00395,475432735.46224,   0.00041,275093234.11331,   0.00005,   0.00012,  -0.00069,   0.45962,   1.00000
146114360.85412,217195952.21813,-250949530.08807,   0.00029,   0.00083,  -0.00396,475428166.11598,   0.00042,275094769.39076,   0.00005,   0.00012,  -0.00069,   0.44318,   1.00000
145912494.20653,217398034.48893,-250921779.80911,   0.00029,   0.00083,  -0.00396,475427766.24197,   0.00042,275096295.76414,   0.00005,   0.00012,  -0.00070,   0.43807,   1.00000
145712832.95453,217603317.29307,-250893116.12868,   0.00029,   0.00083,  -0.00396,475420972.09219,   0.00042,275097783.96460,   0.00005,   0.00012,  -0.00070,   0.41646,   1.00000
145506710.20953,217791983.41329,-250867784.72610,   0.00029,   0.00083,  -0.00396,475416309.68157,   0.00042,275099243.94585,   0.00005,   0.00012,  -0.00070,   0.40079,   1.00000
145291342.41383,217993701.82249,-250840203.53130,   0.00029,   0.00083,  -0.00396,475411925.85947,   0.00042,275100677.11490,   0.00005,   0.00012,  -0.00070,   0.38620,   1.00000
145078163.44071,218198631.88307,-250811695.42425,   0.00029,   0.00084,  -0.00397,475405058.72576,   0.00042,275102072.21305,   0.00005,   0.00013,  -0.00071,   0.36595,   1.00000
144865054.43674,218403314.60836,-250783055.26918,   0.00028,   0.00084,  -0.00397,475406735.03755,   0.00042,275103468.57401,   0.00005,   0.00013,  -0.00071,   0.36661,   1.00000
144636130.69524,218604675.79611,-250755591.29071,   0.00028,   0.00084,  -0.00397,475395922.23467,   0.00042,275104808.95597,   0.00005,   0.00013,  -0.00071,   0.33777,   1.00000
144433914.21312,218832142.86894,-250721613.94187,   0.00028,   0.00084,  -0.00397,475399337.40028,   0.00043,275106158.81572,   0.00005,   0.00013,  -0.00071,   0.34261,   1.00000
144207212.70581,219036468.54465,-250693069.41021,   0.00028,   0.00084,  -0.00397,475390631.12028,   0.00043,275107462.56653,   0.00005,   0.00013,  -0.00071,   0.31958,   1.00000
143964666.03711,219237479.90090,-250665673.77994,   0.00028,   0.00084,  -0.00397,475379769.87865,   0.00043,275108710.54968,   0.00005,   0.00013,  -0.00072,   0.29278,   1.00000
143748823.19296,219464595.39468,-250631752.84382,   0.00028,   0.00085,  -0.00398,475383113.29167,   0.00043,275109968.11137,   0.00005,   0.00013,  -0.00072,   0.29731,   1.00000
143508473.16397,219668583.58971,-250603250.74467,   0.00028,   0.00085,  -0.00398,475374334.91707,   0.00043,275111179.66463,   0.00005,   0.00013,  -0.00072,   0.27592,   1.00000
143276809.60384,219892125.79495,-250570301.45650,   0.00027,   0.00085,  -0.00398,475373778.94493,   0.00043,275112383.09825,   0.00005,   0.00013,  -0.00072,   0.27223,   1.00000
143047269.83709,220118897.76227,-250536385.42758,   0.00027,   0.00085,  -0.00398,475366746.05327,   0.00043,275113548.76717,   0.00005,   0.00013,  -0.00072,   0.25541,   1.00000
142811221.77939,220329109.29831,-250505803.70132,   0.00027,   0.00085,  -0.00398,475361746.03372,   0.00043,275114686.16633,   0.00005,   0.00013,  -0.00072,   0.24315,   1.00000
142565814.21094,220552316.23531,-250472823.99072,   0.00027,   0.00085,  -0.00398,475357303.59529,   0.00043,275115797.98097,   0.00005,   0.00013,  -0.00073,   0.23232,   1.00000
142320448.64106,220775261.75852,-250439671.85740,   0.00027,   0.00086,  -0.00398,475358769.46904,   0.00044,275116911.40430,   0.00005,   0.00013,  -0.00073,   0.23297,   1.00000
142077180.97666,221001452.23356,-250405536.43461,   0.00027,   0.00086,  -0.00398,475351670.77938,   0.00044,275117987.18127,   0.00005,   0.00013,  -0.00073,   0.21747,   1.00000
141817961.85428,221224333.97806,-250372466.34360,   0.00027,   0.00086,  -0.00399,475340721.34723,   0.00044,275119007.84345,   0.00005,   0.00013,  -0.00073,   0.19573,   1.00000
141560821.64024,221450468.48206,-250338397.67480,   0.00026,   0.00086,  -0.00399,475333553.48021,   0.00044,275119990.97287,   0.00005,   0.00013,  -0.00073,   0.18157,   1.00000
141303709.15071,221676343.39144,-250304142.96116,   0.00026,   0.00086,  -0.00399,475334913.48740,   0.00044,275120975.82028,   0.00005,   0.00013,  -0.00073,   0.18219,   1.00000
141053189.23944,221918214.98483,-250266180.63189,   0.00026,   0.00087,  -0.00399,475342830.78163,   0.00044,275121992.42142,   0.00005,   0.00013,  -0.00074,   0.19412,   1.00000
140782134.28769,222144045.01580,-250231947.50870,   0.00026,   0.00087,  -0.00399,475316774.56279,   0.00044,275122884.96112,   0.00005,   0.00013,  -0.00074,   0.14960,   1.00000
140511097.10488,222369615.30804,-250197515.44762,   0.00026,   0.00087,  -0.00399,475318065.79594,   0.00044,275123779.32273,   0.00005,   0.00013,  -0.00074,   0.15018,   1.00000
140246648.34897,222611162.95247,-250159351.42685,   0.00026,   0.00087,  -0.00399,475325938.48386,   0.00044,275124705.65194,   0.00005,   0.00013,  -0.00074,   0.16109,   1.00000
139979674.69338,222843277.62942,-250122875.59247,   0.00025,   0.00087,  -0.00399,475303578.46021,   0.00044,275125525.27288,   0.00005,   0.00013,  -0.00074,   0.12610,   1.00000
139701207.24269,223084786.31281,-250084667.44847,   0.00025,   0.00088,  -0.00399,475307652.58023,   0.00044,275126359.80143,   0.00005,   0.00013,  -0.00074,   0.13071,   1.00000
139422745.30188,223326018.74508,-250046240.31691,   0.00025,   0.00088,  -0.00399,475308924.22858,   0.00044,275127196.32783,   0.00005,   0.00013,  -0.00074,   0.13131,   1.00000
139121626.04152,223547734.55574,-250012316.51541,   0.00025,   0.00088,  -0.00399,475291307.35706,   0.00045,275127948.29979,   0.00005,   0.00013,  -0.00074,   0.10607,   1.00000
138847170.82206,223795524.14334,-249971794.08884,   0.00025,   0.00088,  -0.00400,475294287.36799,   0.00045,275128710.47579,   0.00005,   0.00013,  -0.00075,   0.10895,   1.00000
138554616.88575,224036458.89798,-249933038.11321,   0.00025,   0.00088,  -0.00400,475291785.16170,   0.00045,275129457.69217,   0.00005,   0.00013,  -0.00075,   0.10469,   1.00000
138266022.02152,224284237.59621,-249892387.84995,   0.00024,   0.00088,  -0.00400,475275896.98471,   0.00045,275130128.68166,   0.00005,   0.00013,  -0.00075,   0.08441,   1.00000
137957329.33719,224521592.06636,-249854310.39847,   0.00024,   0.00089,  -0.00400,475281894.55110,   0.00045,275130824.07881,   0.00005,   0.00013,  -0.00075,   0.09063,   1.00000
137670674.09227,224772392.51881,-249812348.51613,   0.00024,   0.00089,  -0.00400,475269658.02656,   0.00045,275131460.21878,   0.00005,   0.00013,  -0.00075,   0.07583,   1.00000
137363917.80749,225012758.04325,-249772949.66289,   0.00024,   0.00089,  -0.00400,475275640.19534,   0.00045,275132120.85522,   0.00005,   0.00013,  -0.00075,   0.08176,   1.00000
137042944.13897,225253403.78694,-249733589.44524,   0.00024,   0.00089,  -0.00400,475256046.06884,   0.00045,275132688.68583,   0.00005,   0.00013,  -0.00075,   0.06038,   1.00000
136740060.66410,225500366.62499,-249692012.87380,   0.00023,   0.00089,  -0.00400,475260769.85865,   0.00045,275133275.55959,   0.00005,   0.00013,  -0.00075,   0.06448,   1.00000
136427566.20998,225760189.15489,-249647708.35915,   0.00023,   0.00090,  -0.00400,475256362.72564,   0.00045,275133839.55058,   0.00005,   0.00014,  -0.00075,   0.05953,   1.00000
136108431.00315,226003577.87095,-249606720.53777,   0.00023,   0.00090,  -0.00400,475250759.41302,   0.00045,275134375.28485,   0.00005,   0.00014,  -0.00075,   0.05370,   1.00000
135773054.93726,226243676.63680,-249566560.60922,   0.00023,   0.00090,  -0.00400,475239659.68217,   0.00045,275134857.70832,   0.00005,   0.00014,  -0.00076,   0.04352,   1.00000
135446167.59170,226503217.27505,-249521680.34111,   0.00023,   0.00090,  -0.00400,475238860.75097,   0.00045,275135334.26229,   0.00005,   0.00014,  -0.00076,   0.04246,   1.00000
135112616.45722,226746343.73838,-249480112.87415,   0.00023,   0.00090,  -0.00400,475233170.96942,   0.00045,275135782.56478,   0.00005,   0.00014,  -0.00076,   0.03756,   1.00000
134780928.80605,226992794.58257,-249437417.16226,   0.00022,   0.00091,  -0.00400,475225627.66177,   0.00045,275136194.25146,   0.00005,   0.00014,  -0.00076,   0.03166,   1.00000
134439548.53230,227252066.18033,-249391890.24648,   0.00022,   0.00091,  -0.00400,475221226.34736,   0.00045,275136583.88687,   0.00005,   0.00014,  -0.00076,   0.02835,   1.00000
134098098.66465,227511041.15544,-249346058.26915,   0.00022,   0.00091,  -0.00400,475222202.53190,   0.00045,275136976.21289,   0.00005,   0.00014,  -0.00076,   0.02873,   1.00000
133749958.53841,227753628.48265,-249303539.08210,   0.00022,   0.00091,  -0.00400,475216421.01935,   0.00045,275137340.25290,   0.00005,   0.00014,  -0.00076,   0.02472,   1.00000
133393979.91234,228012633.55692,-249257282.13780,   0.00021,   0.00091,  -0.00400,475203537.48535,   0.00045,275137643.59165,   0.00005,   0.00014,  -0.00076,   0.01716,   1.00000
133036031.66689,228267713.46426,-249211559.70038,   0.00021,   0.00092,  -0.00400,475212981.17272,   0.00045,275137988.81872,   0.00005,   0.00014,  -0.00076,   0.02221,   1.00000
132675127.07716,228513681.44083,-249167430.42364,   0.00021,   0.00092,  -0.00400,475190105.93125,   0.00046,275138227.64350,   0.00005,   0.00014,  -0.00076,   0.01062,   1.00000
132320764.51884,228775426.10805,-249119351.25955,   0.00021,   0.00092,  -0.00400,475197741.53903,   0.00046,275138500.36679,   0.00005,   0.00014,  -0.00076,   0.01385,   1.00000
131949976.71199,229033873.16625,-249071948.73692,   0.00021,   0.00092,  -0.00400,475186628.53800,   0.00046,275138720.91791,   0.00005,   0.00014,  -0.00076,   0.00905,   1.00000
131579085.63701,229292016.60127,-249024206.15950,   0.00020,   0.00092,  -0.00400,475187495.22791,   0.00046,275138944.43328,   0.00005,   0.00014,  -0.00076,   0.00929,   1.00000
131191732.31100,229546857.76289,-248977106.69106,   0.00020,   0.00093,  -0.00400,475176388.87638,   0.00046,275139116.03095,   0.00005,   0.00014,  -0.00076,   0.00547,   1.00000
130822477.93002,229808036.68404,-248927809.45156,   0.00020,   0.00093,  -0.00400,475180681.58511,   0.00046,275139306.51730,   0.00005,   0.00014,  -0.00076,   0.00674,   1.00000
130436730.56563,230065916.51853,-248879135.16178,   0.00020,   0.00093,  -0.00400,475169573.83445,   0.00046,275139445.22860,   0.00005,   0.00014,  -0.00076,   0.00357,   1.00000
130034463.23531,230320491.51606,-248831057.98959,   0.00020,   0.00093,  -0.00400,475158457.84544,   0.00046,275139532.36289,   0.00005,   0.00014,  -0.00076,   0.00141,   1.00000
129650292.53354,230581410.43618,-248780785.74229,   0.00019,   0.00093,  -0.00400,475162659.88771,   0.00046,275139638.35761,   0.00005,   0.00014,  -0.00076,   0.00208,   1.00000
129247758.10657,230835359.88331,-248731965.01186,   0.00019,   0.00094,  -0.00400,475160052.03671,   0.00046,275139731.91667,   0.00005,   0.00014,  -0.00076,   0.00162,   1.00000
128830456.40385,231089668.55876,-248682819.45163,   0.00019,   0.00094,  -0.00400,475140458.96637,   0.00046,275139735.24893,   0.00005,   0.00014,  -0.00076,   0.00000,   1.00000
128429451.47371,231346651.89388,-248632360.70593,   0.00019,   0.00094,  -0.00399,475153075.41457,   0.00046,275139796.39185,   0.00005,   0.00014,  -0.00076,   0.00069,   1.00000
128012304.00396,231601274.37542,-248578185.70985,   0.00018,   0.00094,  -0.00399,475133487.30444,   0.00046,275139796.39185,   0.00005,   0.00014,  -0.00076,-6309.08741,   0.00000
127595156.53420,231855896.85696,-248524010.71378,   0.00018,   0.00094,  -0.00399,475127922.91054,   0.00046,275139796.39185,   0.00005,   0.00014,  -0.00076,-11873.48131,   0.00000
127159047.81582,232102393.08909,-248469835.71771,   0.00018,   0.00095,  -0.00399,475119777.32240,   0.00046,275139796.39185,   0.00005,   0.00014,  -0.00076,-20019.06945,   0.00000
126731065.34685,232367850.56985,-248410243.22203,   0.00018,   0.00095,  -0.00399,475110831.76476,   0.00046,275139796.39185,   0.00005,   0.00014,  -0.00076,-28964.62708,   0.00000
126294956.62846,232614346.80198,-248345233.22674,   0.00017,   0.00095,  -0.00399,475087251.10943,   0.00046,275139796.39185,   0.00005,   0.00014,  -0.00076,-52545.28241,   0.00000
125858847.91008,232860843.03410,-248280223.23146,   0.00017,   0.00095,  -0.00399,475064450.50303,   0.00046,275139796.39185,   0.00005,   0.00014,  -0.00076,-75345.88881,   0.00000
125411904.19249,233118174.26545,-248209795.73656,   0.00017,   0.00095,  -0.00399,475037622.56088,   0.00046,275139796.39185,   0.00005,   0.00014,  -0.00076,-102173.83097,   0.00000
124956834.22548,233356544.24817,-248139368.24167,   0.00017,   0.00096,  -0.00399,475004663.51624,   0.00046,275139796.39185,   0.00005,   0.00014,  -0.00076,-135132.87561,   0.00000
124482803.00985,233586787.98147,-248063523.24717,   0.00016,   0.00096,  -0.00399,474960790.32704,   0.00046,275139796.39185,   0.00005,   0.00014,  -0.00076,-179006.06481,   0.00000
124035859.29225,233844119.21282,-247987678.25267,   0.00016,   0.00096,  -0.00399,474927969.17978,   0.00046,275139796.39185,   0.00005,   0.00014,  -0.00076,-211827.21207,   0.00000
123561828.07662,234074362.94612,-247906415.75856,   0.00016,   0.00096,  -0.00399,474877299.39168,   0.00046,275139796.39185,   0.00005,   0.00014,  -0.00076,-262497.00016,   0.00000
123076961.86177,234315441.67865,-247825153.26445,   0.00016,   0.00096,  -0.00398,474831287.76726,   0.00046,275139796.39185,   0.00005,   0.00014,  -0.00076,-308508.62458,   0.00000
122583969.39751,234537559.16254,-247738473.27073,   0.00015,   0.00097,  -0.00398,474770686.38635,   0.00046,275139796.39185,   0.00005,   0.00014,  -0.00076,-369110.00550,   0.00000
122090976.93325,234759676.64644,-247651793.27702,   0.00015,   0.00097,  -0.00398,474710971.33027,   0.00046,275139796.39185,   0.00005,   0.00014,  -0.00076,-428825.06158,   0.00000
121606110.71841,235000755.37896,-247559695.78369,   0.00015,   0.00097,  -0.00398,474650694.97975,   0.00046,275139796.39185,   0.00005,   0.00014,  -0.00076,-489101.41209,   0.00000
121113118.25415,235222872.86286,-247462180.79076,   0.00015,   0.00097,  -0.00398,474575815.31210,   0.00046,275139796.39185,   0.00005,   0.00014,  -0.00076,-563981.07975,   0.00000
120609290.79068,235455825.34597,-247364665.79783,   0.00014,   0.00097,  -0.00398,474505764.20386,   0.00046,275139796.39185,   0.00005,   0.00014,  -0.00076,-634032.18798,   0.00000
120078375.82917,235661690.33104,-247267150.80490,   0.00014,   0.00098,  -0.00398,474426503.48908,   0.00046,275139796.39185,   0.00005,   0.00014,  -0.00076,-713292.90277,   0.00000
119574548.36569,235894642.81415,-247164218.31237,   0.00014,   0.00098,  -0.00398,474349883.72590,   0.00046,275139796.39185,   0.00005,   0.00014,  -0.00076,-789912.66594,   0.00000
119051759.65360,236119469.04785,-247061285.81983,   0.00013,   0.00098,  -0.00397,474271149.99152,   0.00046,275139796.39185,   0.00005,   0.00014,  -0.00076,-868646.40033,   0.00000
118520844.69209,236325334.03293,-246952935.82768,   0.00013,   0.00098,  -0.00397,474177850.03342,   0.00046,275139796.39185,   0.00005,   0.00014,  -0.00076,-961946.35843,   0.00000
117979094.73136,236542034.01722,-246839168.33593,   0.00013,   0.00098,  -0.00397,474081122.47346,   0.00046,275139796.39185,   0.00005,   0.00014,  -0.00076,-1058673.91839,   0.00000
117429218.52123,236739772.75288,-246730818.34379,   0.00013,   0.00099,  -0.00397,473986777.26295,   0.00046,275139796.39185,   0.00005,   0.00014,  -0.00076,-1153019.12890,   0.00000
116887468.56051,236956472.73717,-246611633.35243,   0.00012,   0.00099,  -0.00397,473883636.70368,   0.00046,275139796.39185,   0.00005,   0.00014,  -0.00076,-1256159.68816,   0.00000
116337592.35037,237154211.47284,-246492448.36107,   0.00012,   0.00099,  -0.00397,473774404.89307,   0.00046,275139796.39185,   0.00005,   0.00014,  -0.00076,-1365391.49877,   0.00000
115776881.14103,237362785.20771,-246373263.36971,   0.00012,   0.00099,  -0.00397,473670359.79501,   0.00046,275139796.39185,   0.00005,   0.00014,  -0.00076,-1469436.59684,   0.00000
115216169.93168,237571358.94259,-246248660.87874,   0.00011,   0.00099,  -0.00396,473558933.28545,   0.00046,275139796.39185,   0.00005,   0.00014,  -0.00076,-1580863.10640,   0.00000
114647332.47292,237760971.42884,-246124058.38778,   0.00011,   0.00100,  -0.00396,473441427.83376,   0.00046,275139796.39185,   0.00005,   0.00014,  -0.00076,-1698368.55809,   0.00000
114067660.01494,237961418.91431,-245994038.39720,   0.00011,   0.00100,  -0.00396,473320786.04737,   0.00046,275139796.39185,   0.00005,   0.00014,  -0.00076,-1819010.34447,   0.00000
113479861.30756,238142905.15115,-245864018.40663,   0.00010,   0.00100,  -0.00396,473194088.07534,   0.00046,275139796.39185,   0.00005,   0.00014,  -0.00076,-1945708.31651,   0.00000
112900188.84959,238343352.63662,-245733998.41606,   0.00010,   0.00100,  -0.00396,473075671.32251,   0.00046,275139796.39185,   0.00005,   0.00014,  -0.00076,-2064125.06933,   0.00000
112301555.14299,238535673.87268,-245598560.92588,   0.00010,   0.00100,  -0.00396,472947078.70017,   0.00046,275139796.39185,   0.00005,   0.00014,  -0.00076,-2192717.69167,   0.00000
111694795.18698,238709033.86011,-245457705.93609,   0.00010,   0.00101,  -0.00395,472804007.68418,   0.00046,275139796.39185,   0.00005,   0.00014,  -0.00076,-2335788.70766,   0.00000
111096161.48038,238901355.09617,-245316850.94630,   0.00009,   0.00101,  -0.00395,472669295.71683,   0.00046,275139796.39185,   0.00005,   0.00014,  -0.00076,-2470500.67502,   0.00000
110470440.27574,239066588.83419,-245175995.95651,   0.00009,   0.00101,  -0.00395,472525732.34439,   0.00046,275139796.39185,   0.00005,   0.00014,  -0.00076,-2614064.04746,   0.00000
109871806.56914,239258910.07024,-245029723.46712,   0.00009,   0.00101,  -0.00395,472384935.60517,   0.00046,275139796.39185,   0.00005,   0.00014,  -0.00076,-2754860.78667,   0.00000
109235250.36529,239434978.80748,-244883450.97772,   0.00008,   0.00101,  -0.00395,472239793.78165,   0.00046,275139796.39185,   0.00005,   0.00014,  -0.00076,-2900002.61019,   0.00000
108609529.16066,239600212.54550,-244737178.48833,   0.00008,   0.00102,  -0.00394,472091394.76193,   0.00046,275139796.39185,   0.00005,   0.00014,  -0.00076,-3048401.62991,   0.00000
107972972.95681,239776281.28274,-244585488.49932,   0.00008,   0.00102,  -0.00394,471940307.21442,   0.00046,275139796.39185,   0.00005,   0.00014,  -0.00076,-3199489.17742,   0.00000
107328290.50355,239933388.77134,-244428381.01071,   0.00007,   0.00102,  -0.00394,471774790.41246,   0.00046,275139796.39185,   0.00005,   0.00014,  -0.00076,-3365005.97939,   0.00000
106691734.29970,240109457.50858,-244271273.52210,   0.00007,   0.00102,  -0.00394,471617799.19117,   0.00046,275139796.39185,   0.00005,   0.00014,  -0.00076,-3521997.20067,   0.00000
106028090.59781,240258438.74778,-244114166.03349,   0.00007,   0.00102,  -0.00394,471452126.99657,   0.00046,275139796.39185,   0.00005,   0.00014,  -0.00076,-3687669.39528,   0.00000
105372573.14534,240426381.23560,-243951641.04528,   0.00006,   0.00103,  -0.00393,471286629.37596,   0.00046,275139796.39185,   0.00005,   0.00014,  -0.00076,-3853167.01589,   0.00000
104708929.44345,240575362.47480,-243789116.05706,   0.00006,   0.00103,  -0.00393,471115140.49489,   0.00046,275139796.39185,   0.00005,   0.00014,  -0.00076,-4024655.89696,   0.00000
104053411.99098,240743304.96263,-243626591.06884,   0.00006,   0.00103,  -0.00393,470952265.90752,   0.00046,275139796.39185,   0.00005,   0.00014,  -0.00076,-4187530.48433,   0.00000
103370807.04047,240884159.95241,-243458648.58102,   0.00005,   0.00103,  -0.00393,470772400.37339,   0.00046,275139796.39185,   0.00005,   0.00014,  -0.00076,-4367396.01846,   0.00000
102696328.33937,241043976.19083,-243290706.09320,   0.00005,   0.00103,  -0.00393,470601217.59631,   0.00046,275139796.39185,   0.00005,   0.00014,  -0.00076,-4538578.79554,   0.00000
101994762.14023,241176704.93120,-243122763.60537,   0.00005,   0.00104,  -0.00392,470421522.04340,   0.00046,275139796.39185,   0.00005,   0.00014,  -0.00076,-4718274.34844,   0.00000
101320283.43913,241336521.16962,-242949403.61794,   0.00004,   0.00104,  -0.00392,470244691.31747,   0.00046,275139796.39185,   0.00005,   0.00014,  -0.00076,-4895105.07438,   0.00000
100618717.23999,241469249.90999,-242776043.63051,   0.00004,   0.00104,  -0.00392,470059380.09460,   0.00046,275139796.39185,   0.00005,   0.00014,  -0.00076,-5080416.29725,   0.00000
99906316.04164,241612813.64959,-242597266.14347,   0.00004,   0.00104,  -0.00392,469871980.65575,   0.00046,275139796.39185,   0.00005,   0.00014,  -0.00076,-5267815.73610,   0.00000
99204749.84250,241745542.38996,-242418488.65643,   0.00003,   0.00104,  -0.00391,469681120.04401,   0.00046,275139796.39185,   0.00005,   0.00014,  -0.00076,-5458676.34783,   0.00000
98484222.39474,241870144.88093,-242239711.16939,   0.00003,   0.00105,  -0.00391,469489242.59093,   0.00046,275139796.39185,   0.00005,   0.00014,  -0.00076,-5650553.80091,   0.00000
97771821.19639,242013708.62052,-242055516.18275,   0.00003,   0.00105,  -0.00391,469297839.19968,   0.00046,275139796.39185,   0.00005,   0.00014,  -0.00076,-5841957.19217,   0.00000
97051293.74863,242138311.11149,-241871321.19610,   0.00002,   0.00105,  -0.00391,469100508.43947,   0.00046,275139796.39185,   0.00005,   0.00014,  -0.00076,-6039287.95237,   0.00000
96311805.05224,242254787.35304,-241687126.20946,   0.00002,   0.00105,  -0.00390,468902282.84956,   0.00046,275139796.39185,   0.00005,   0.00014,  -0.00076,-6237513.54229,   0.00000
95580442.60527,242390224.84322,-241502931.22281,   0.00001,   0.00105,  -0.00390,468712998.00847,   0.00046,275139796.39185,   0.00005,   0.00014,  -0.00076,-6426798.38337,   0.00000
94840953.90888,242506701.08478,-241313318.73656,   0.00001,   0.00106,  -0.00390,468509437.62975,   0.00046,275139796.39185,   0.00005,   0.00014,  -0.00076,-6630358.76209,   0.00000
94082503.96387,242615051.07692,-241118288.75070,   0.00001,   0.00106,  -0.00390,468296739.86344,   0.00046,275139796.39185,   0.00005,   0.00014,  -0.00076,-6843056.52841,   0.00000
93343015.26748,242731527.31848,-240928676.26444,   0.00000,   0.00106,  -0.00389,468096252.20975,   0.00046,275139796.39185,   0.00005,   0.00014,  -0.00076,-7043544.18210,   0.00000
92584565.32247,242839877.31062,-240733646.27858,   0.00000,   0.00106,  -0.00389,467886683.52088,   0.00046,275139796.39185,   0.00005,   0.00014,  -0.00076,-7253112.87096,   0.00000
91807154.12883,242940101.05336,-240538616.29272,  -0.00000,   0.00106,  -0.00389,467676474.42610,   0.00046,275139796.39185,   0.00005,   0.00014,  -0.00076,-7463321.96575,   0.00000
91056830.43323,243067412.29413,-240343586.30686,  -0.00001,   0.00107,  -0.00389,467477575.48286,   0.00046,275139796.39185,   0.00005,   0.00014,  -0.00076,-7662220.90899,   0.00000
90279419.23959,243167636.03686,-240143138.82139,  -0.00001,   0.00107,  -0.00388,467262261.65152,   0.00046,275139796.39185,   0.00005,   0.00014,  -0.00076,-7877534.74032,   0.00000
89502008.04595,243267859.77960,-239942691.33593,  -0.00001,   0.00107,  -0.00388,467048588.99184,   0.00046,275139796.39185,   0.00005,   0.00014,  -0.00076,-8091207.40000,   0.00000
88724596.85232,243368083.52233,-239742243.85046,  -0.00002,   0.00107,  -0.00388,466836559.75733,   0.00046,275139796.39185,   0.00005,   0.00014,  -0.00076,-8303236.63452,   0.00000
87928224.41005,243460181.01565,-239536378.86538,  -0.00002,   0.00107,  -0.00388,466615732.00723,   0.00046,275139796.39185,   0.00005,   0.00014,  -0.00076,-8524064.38461,   0.00000
87150813.21641,243560404.75839,-239335931.37992,  -0.00003,   0.00108,  -0.00387,466407023.76445,   0.00046,275139796.39185,   0.00005,   0.00014,  -0.00076,-8732772.62739,   0.00000
86327353.27612,243625414.75367,-239130066.39484,  -0.00003,   0.00108,  -0.00387,466179990.29675,   0.00046,275139796.39185,   0.00005,   0.00014,  -0.00076,-8959806.09509,   0.00000
85530980.83385,243717512.24700,-238918783.91016,  -0.00003,   0.00108,  -0.00387,465955934.08038,   0.00046,275139796.39185,   0.00005,   0.00014,  -0.00076,-9183862.31146,   0.00000
84734608.39159,243809609.74032,-238712918.92509,  -0.00004,   0.00108,  -0.00387,465741925.15035,   0.00046,275139796.39185,   0.00005,   0.00014,  -0.00076,-9397871.24150,   0.00000
83919274.70070,243893580.98423,-238501636.44040,  -0.00004,   0.00108,  -0.00386,465519325.96349,   0.00046,275139796.39185,   0.00005,   0.00014,  -0.00076,-9620470.42836,   0.00000
83103941.00981,243977552.22814,-238290353.95572,  -0.00005,   0.00109,  -0.00386,465298499.09444,   0.00046,275139796.39185,   0.00005,   0.00014,  -0.00076,-9841297.29740,   0.00000
82280481.06951,244042562.22343,-238079071.47104,  -0.00005,   0.00109,  -0.00386,465071868.78800,   0.00046,275139796.39185,   0.00005,   0.00014,  -0.00076,-10067927.60385,   0.00000
81446186.13000,244118407.21793,-237867788.98636,  -0.00005,   0.00109,  -0.00386,464852686.18938,   0.00046,275139796.39185,   0.00005,   0.00014,  -0.00076,-10287110.20246,   0.00000
80603764.94108,244175290.96381,-237651089.00207,  -0.00006,   0.00109,  -0.00385,464619427.26739,   0.00046,275139796.39185,   0.00005,   0.00014,  -0.00076,-10520369.12446,   0.00000
79788431.25019,244259262.20772,-237434389.01778,  -0.00006,   0.00109,  -0.00385,464397442.76910,   0.00046,275139796.39185,   0.00005,   0.00014,  -0.00076,-10742353.62274,   0.00000
78927048.81264,244308019.70418,-237217689.03349,  -0.00006,   0.00109,  -0.00385,464165996.70884,   0.00046,275139796.39185,   0.00005,   0.00014,  -0.00076,-10973799.68301,   0.00000
78092753.87312,244383864.69869,-237000989.04920,  -0.00007,   0.00110,  -0.00384,463945847.01986,   0.00046,275139796.39185,   0.00005,   0.00014,  -0.00076,-11193949.37199,   0.00000
77231371.43557,244432622.19515,-236784289.06491,  -0.00007,   0.00110,  -0.00384,463718150.96588,   0.00046,275139796.39185,   0.00005,   0.00014,  -0.00076,-11421645.42596,   0.00000
76397076.49606,244508467.18965,-236562171.58101,  -0.00008,   0.00110,  -0.00384,463493424.78846,   0.00046,275139796.39185,   0.00005,   0.00014,  -0.00076,-11646371.60339,   0.00000
75535694.05851,244557224.68612,-236340054.09712,  -0.00008,   0.00110,  -0.00384,463261201.73318,   0.00046,275139796.39185,   0.00005,   0.00014,  -0.00076,-11878594.65866,   0.00000
74655350.37234,244597855.93317,-236117936.61322,  -0.00008,   0.00110,  -0.00383,463029193.25110,   0.00046,275139796.39185,   0.00005,   0.00014,  -0.00076,-12110603.14075,   0.00000
73793967.93479,244646613.42964,-235895819.12932,  -0.00009,   0.00111,  -0.00383,462800803.01081,   0.00046,275139796.39185,   0.00005,   0.00014,  -0.00076,-12338993.38103,   0.00000
72913624.24861,244687244.67669,-235673701.64543,  -0.00009,   0.00111,  -0.00383,462572687.72975,   0.00046,275139796.39185,   0.00005,   0.00014,  -0.00076,-12567108.66209,   0.00000
72052241.81106,244736002.17316,-235451584.16153,  -0.00010,   0.00111,  -0.00382,462348141.72198,   0.00046,275139796.39185,   0.00005,   0.00014,  -0.00076,-12791654.66986,   0.00000
71152936.87626,244768507.17080,-235224049.17803,  -0.00010,   0.00111,  -0.00382,462114081.50352,   0.00046,275139796.39185,   0.00005,   0.00014,  -0.00076,-13025714.88833,   0.00000
70272593.19009,244809138.41785,-234996514.19452,  -0.00011,   0.00111,  -0.00382,461883604.02165,   0.00046,275139796.39185,   0.00005,   0.00014,  -0.00076,-13256192.37019,   0.00000
69392249.50391,244849769.66491,-234768979.21102,  -0.00011,   0.00112,  -0.00381,461655107.72433,   0.00046,275139796.39185,   0.00005,   0.00014,  -0.00076,-13484688.66752,   0.00000
68492944.56911,244882274.66255,-234541444.22752,  -0.00011,   0.00112,  -0.00381,461427102.60259,   0.00046,275139796.39185,   0.00005,   0.00014,  -0.00076,-13712693.78926,   0.00000
67593639.63431,244914779.66019,-234313909.24401,  -0.00012,   0.00112,  -0.00381,461201140.77611,   0.00046,275139796.39185,   0.00005,   0.00014,  -0.00076,-13938655.61574,   0.00000
66713295.94813,244955410.90725,-234086374.26051,  -0.00012,   0.00112,  -0.00381,460978661.33949,   0.00046,275139796.39185,   0.00005,   0.00014,  -0.00076,-14161135.05236,   0.00000
65786903.51530,244960828.40686,-233858839.27701,  -0.00013,   0.00112,  -0.00380,460747631.43009,   0.00046,275139796.39185,   0.00005,   0.00014,  -0.00076,-14392164.96175,   0.00000
64887598.58050,244993333.40450,-233625886.79389,  -0.00013,   0.00113,  -0.00380,460519564.98073,   0.00046,275139796.39185,   0.00005,   0.00014,  -0.00076,-14620231.41111,   0.00000
63980167.39629,245006877.15352,-233398351.81039,  -0.00013,   0.00113,  -0.00380,460294060.94634,   0.00046,275139796.39185,   0.00005,   0.00014,  -0.00076,-14845735.44551,   0.00000
63061901.21286,245031255.90175,-233165399.32728,  -0.00014,   0.00113,  -0.00379,460068791.84528,   0.00046,275139796.39185,   0.00005,   0.00014,  -0.00076,-15071004.54656,   0.00000
62135508.78002,245036673.40136,-232937864.34378,  -0.00014,   0.00113,  -0.00379,459846126.79299,   0.00046,275139796.39185,   0.00005,   0.00014,  -0.00076,-15293669.59885,   0.00000
61209116.34719,245042090.90096,-232704911.86067,  -0.00015,   0.00113,  -0.00379,459617341.27146,   0.00046,275139796.39185,   0.00005,   0.00014,  -0.00076,-15522455.12039,   0.00000
60282723.91435,245047508.40057,-232471959.37755,  -0.00015,   0.00113,  -0.00378,459390675.32066,   0.00046,275139796.39185,   0.00005,   0.00014,  -0.00076,-15749121.07119,   0.00000
59356331.48151,245052925.90018,-232239006.89444,  -0.00016,   0.00114,  -0.00378,459166132.07954,   0.00046,275139796.39185,   0.00005,   0.00014,  -0.00076,-15973664.31230,   0.00000
58419104.04946,245069178.39900,-232006054.41133,  -0.00016,   0.00114,  -0.00378,458950324.04111,   0.00046,275139796.39185,   0.00005,   0.00014,  -0.00076,-16189472.35074,   0.00000
57492711.61663,245074595.89861,-231773101.92822,  -0.00016,   0.00114,  -0.00378,458730071.73024,   0.00046,275139796.39185,   0.00005,   0.00014,  -0.00076,-16409724.66161,   0.00000
56539231.68575,245052925.90018,-231540149.44511,  -0.00017,   0.00114,  -0.00377,458503041.94662,   0.00046,275139796.39185,   0.00005,   0.00014,  -0.00076,-16636754.44523,   0.00000
55593878.00429,245050217.15037,-231307196.96200,  -0.00017,   0.00114,  -0.00377,458285996.31570,   0.00046,275139796.39185,   0.00005,   0.00014,  -0.00076,-16853800.07615,   0.00000
54667485.57146,245055634.64998,-231074244.47889,  -0.00018,   0.00115,  -0.00377,458072201.80387,   0.00046,275139796.39185,   0.00005,   0.00014,  -0.00076,-17067594.58797,   0.00000
53703170.64137,245044799.65077,-230835874.49617,  -0.00018,   0.00115,  -0.00376,457850308.01085,   0.00046,275139796.39185,   0.00005,   0.00014,  -0.00076,-17289488.38099,   0.00000
52749690.71050,245023129.65234,-230602922.01306,  -0.00019,   0.00115,  -0.00376,457632049.30543,   0.00046,275139796.39185,   0.00005,   0.00014,  -0.00076,-17507747.08642,   0.00000
51804337.02903,245020420.90253,-230369969.52995,  -0.00019,   0.00115,  -0.00376,457423812.36063,   0.00046,275139796.39185,   0.00005,   0.00014,  -0.00076,-17715984.03122,   0.00000
50850857.09816,244998750.90411,-230137017.04684,  -0.00019,   0.00115,  -0.00375,457209952.85141,   0.00046,275139796.39185,   0.00005,   0.00014,  -0.00076,-17929843.54044,   0.00000
49878415.91866,244968954.65627,-229904064.56373,  -0.00020,   0.00115,  -0.00375,456997394.32649,   0.00046,275139796.39185,   0.00005,   0.00014,  -0.00076,-18142402.06536,   0.00000
48905974.73917,244939158.40843,-229665694.58101,  -0.00020,   0.00116,  -0.00375,456778930.33216,   0.00046,275139796.39185,   0.00005,   0.00014,  -0.00076,-18360866.05968,   0.00000
47952494.80829,244917488.41000,-229432742.09790,  -0.00021,   0.00116,  -0.00375,456571749.82213,   0.00046,275139796.39185,   0.00005,   0.00014,  -0.00076,-18568046.56972,   0.00000
46980053.62880,244887692.16216,-229199789.61479,  -0.00021,   0.00116,  -0.00374,456365972.63496,   0.00046,275139796.39185,   0.00005,   0.00014,  -0.00076,-18773823.75689,   0.00000
46007612.44930,244857895.91432,-228966837.13168,  -0.00022,   0.00116,  -0.00374,456162470.98237,   0.00046,275139796.39185,   0.00005,   0.00014,  -0.00076,-18977325.40947,   0.00000
45035171.26980,244828099.66648,-228728467.14896,  -0.00022,   0.00116,  -0.00374,455953094.83586,   0.00046,275139796.39185,   0.00005,   0.00014,  -0.00076,-19186701.55599,   0.00000
44062730.09030,244798303.41864,-228495514.66585,  -0.00022,   0.00116,  -0.00373,455754158.11245,   0.00046,275139796.39185,   0.00005,   0.00014,  -0.00076,-19385638.27940,   0.00000
43082162.66139,244749545.92217,-228262562.18274,  -0.00023,   0.00117,  -0.00373,455549629.68117,   0.00046,275139796.39185,   0.00005,   0.00014,  -0.00076,-19590166.71067,   0.00000
42090760.23327,244711623.42492,-228029609.69963,  -0.00023,   0.00117,  -0.00373,455354610.35076,   0.00046,275139796.39185,   0.00005,   0.00014,  -0.00076,-19785186.04108,   0.00000
41110192.80436,244662865.92846,-227796657.21651,  -0.00024,   0.00117,  -0.00372,455154676.39409,   0.00046,275139796.39185,   0.00005,   0.00014,  -0.00076,-19985119.99776,   0.00000
40137751.62486,244633069.68062,-227563704.73340,  -0.00024,   0.00117,  -0.00372,454964916.92521,   0.00046,275139796.39185,   0.00005,   0.00014,  -0.00076,-20174879.46663,   0.00000
39138222.94733,244576185.93474,-227330752.25029,  -0.00025,   0.00117,  -0.00372,454769003.65481,   0.00046,275139796.39185,   0.00005,   0.00014,  -0.00076,-20370792.73703,   0.00000
38157655.51842,244527428.43828,-227103217.26679,  -0.00025,   0.00118,  -0.00372,454584085.10739,   0.00046,275139796.39185,   0.00005,   0.00014,  -0.00076,-20555711.28445,   0.00000
37158126.84088,244470544.69240,-226870264.78368,  -0.00026,   0.00118,  -0.00371,454392844.61029,   0.00046,275139796.39185,   0.00005,   0.00014,  -0.00076,-20746951.78156,   0.00000
36177559.41198,244421787.19594,-226637312.30057,  -0.00026,   0.00118,  -0.00371,454204421.06355,   0.00046,275139796.39185,   0.00005,   0.00014,  -0.00076,-20935375.32830,   0.00000
35169904.48503,244345942.20143,-226409777.31706,  -0.00026,   0.00118,  -0.00371,454018061.31205,   0.00046,275139796.39185,   0.00005,   0.00014,  -0.00076,-21121735.07980,   0.00000
34189337.05612,244297184.70497,-226176824.83395,  -0.00027,   0.00118,  -0.00370,453834259.07403,   0.00046,275139796.39185,   0.00005,   0.00014,  -0.00076,-21305537.31781,   0.00000
33189808.37859,244240300.95909,-225949289.85045,  -0.00027,   0.00118,  -0.00370,453660494.15549,   0.00046,275139796.39185,   0.00005,   0.00014,  -0.00076,-21479302.23636,   0.00000
32182153.45164,244164455.96459,-225721754.86694,  -0.00028,   0.00119,  -0.00370,453481164.35925,   0.00046,275139796.39185,   0.00005,   0.00014,  -0.00076,-21658632.03260,   0.00000
31193459.77332,244096737.21950,-225494219.88344,  -0.00028,   0.00119,  -0.00369,453304485.86254,   0.00046,275139796.39185,   0.00005,   0.00014,  -0.00076,-21835310.52930,   0.00000
30185804.84638,244020892.22500,-225266684.89994,  -0.00029,   0.00119,  -0.00369,453129837.46691,   0.00046,275139796.39185,   0.00005,   0.00014,  -0.00076,-22009958.92493,   0.00000
29178149.91943,243945047.23050,-225039149.91643,  -0.00029,   0.00119,  -0.00369,452957550.24743,   0.00046,275139796.39185,   0.00005,   0.00014,  -0.00076,-22182246.14442,   0.00000
28170494.99249,243869202.23600,-224811614.93293,  -0.00029,   0.00119,  -0.00369,452787626.89940,   0.00046,275139796.39185,   0.00005,   0.00014,  -0.00076,-22352169.49245,   0.00000
27181801.31417,243801483.49091,-224589497.44903,  -0.00030,   0.00119,  -0.00368,452628299.25219,   0.00046,275139796.39185,   0.00005,   0.00014,  -0.00076,-22511497.13966,   0.00000
26174146.38722,243725638.49641,-224361962.46553,  -0.00030,   0.00119,  -0.00368,452463073.48049,   0.00046,275139796.39185,   0.00005,   0.00014,  -0.00076,-22676722.91136,   0.00000
25158365.21087,243630832.25328,-224139844.98163,  -0.00031,   0.00120,  -0.00368,452300323.49671,   0.00046,275139796.39185,   0.00005,   0.00014,  -0.00076,-22839472.89514,   0.00000
24150710.28392,243554987.25878,-223917727.49774,  -0.00031,   0.00120,  -0.00367,452147883.72125,   0.00046,275139796.39185,   0.00005,   0.00014,  -0.00076,-22991912.67060,   0.00000
23153890.35619,243468307.26506,-223695610.01384,  -0.00032,   0.00120,  -0.00367,451989887.72749,   0.00046,275139796.39185,   0.00005,   0.00014,  -0.00076,-23149908.66435,   0.00000
22138109.17984,243373501.02194,-223473492.52994,  -0.00032,   0.00120,  -0.00367,451834187.87341,   0.00046,275139796.39185,   0.00005,   0.00014,  -0.00076,-23305608.51844,   0.00000
21141289.25211,243286821.02822,-223256792.54565,  -0.00033,   0.00120,  -0.00367,451688853.74337,   0.00046,275139796.39185,   0.00005,   0.00014,  -0.00076,-23450942.64848,   0.00000
20125508.07575,243192014.78509,-223034675.06176,  -0.00033,   0.00120,  -0.00366,451537847.92943,   0.00046,275139796.39185,   0.00005,   0.00014,  -0.00076,-23601948.46242,   0.00000
19109726.89939,243097208.54197,-222817975.07747,  -0.00033,   0.00121,  -0.00366,451397234.42960,   0.00046,275139796.39185,   0.00005,   0.00014,  -0.00076,-23742561.96224,   0.00000
18104780.72225,242991567.29963,-222601275.09318,  -0.00034,   0.00121,  -0.00366,451250882.37004,   0.00046,275139796.39185,   0.00005,   0.00014,  -0.00076,-23888914.02180,   0.00000
17107960.79452,242904887.30591,-222384575.10889,  -0.00034,   0.00121,  -0.00365,451114793.65002,   0.00046,275139796.39185,   0.00005,   0.00014,  -0.00076,-24025002.74182,   0.00000
16084053.36876,242791119.81416,-222167875.12460,  -0.00035,   0.00121,  -0.00365,450973229.26863,   0.00046,275139796.39185,   0.00005,   0.00014,  -0.00076,-24166567.12322,   0.00000
15079107.19161,242685478.57182,-221956592.63992,  -0.00035,   0.00121,  -0.00365,450841798.95731,   0.00046,275139796.39185,   0.00005,   0.00014,  -0.00076,-24297997.43453,   0.00000
14074161.01447,242579837.32948,-221745310.15524,  -0.00036,   0.00121,  -0.00365,450712657.38289,   0.00046,275139796.39185,   0.00005,   0.00014,  -0.00076,-24427139.00896,   0.00000
13069214.83733,242474196.08714,-221534027.67055,  -0.00036,   0.00121,  -0.00364,450585806.51327,   0.00046,275139796.39185,   0.00005,   0.00014,  -0.00076,-24553989.87858,   0.00000
12037181.16215,242341467.34676,-221322745.18587,  -0.00037,   0.00122,  -0.00364,450453599.15355,   0.00046,275139796.39185,   0.00005,   0.00014,  -0.00076,-24686197.23829,   0.00000
11032234.98501,242235826.10442,-221116880.20080,  -0.00037,   0.00122,  -0.00364,450339346.74985,   0.00046,275139796.39185,   0.00005,   0.00014,  -0.00076,-24800449.64199,   0.00000
10038123.80708,242119349.86286,-220911015.21572,  -0.00037,   0.00122,  -0.00363,450219001.62975,   0.00046,275139796.39185,   0.00005,   0.00014,  -0.00076,-24920794.76209,   0.00000
9025051.38053,241994747.37190,-220705150.23065,  -0.00038,   0.00122,  -0.00363,450101304.47951,   0.00046,275139796.39185,   0.00005,   0.00014,  -0.00076,-25038491.91233,   0.00000
8011978.95398,241870144.88093,-220499285.24557,  -0.00038,   0.00122,  -0.00363,449985893.84838,   0.00046,275139796.39185,   0.00005,   0.00014,  -0.00076,-25153902.54347,   0.00000
7017867.77605,241753668.63937,-220298837.76011,  -0.00039,   0.00122,  -0.00363,449880234.33264,   0.00046,275139796.39185,   0.00005,   0.00014,  -0.00076,-25259562.05920,   0.00000
6004795.34950,241629066.14841,-220092972.77503,  -0.00039,   0.00122,  -0.00362,449769363.20417,   0.00046,275139796.39185,   0.00005,   0.00014,  -0.00076,-25370433.18768,   0.00000
5002557.92216,241493628.65823,-219897942.78917,  -0.00040,   0.00123,  -0.00362,449668131.10539,   0.00046,275139796.39185,   0.00005,   0.00014,  -0.00076,-25471665.28646,   0.00000
4008446.74424,241377152.41667,-219697495.30370,  -0.00040,   0.00123,  -0.00362,449569147.31942,   0.00046,275139796.39185,   0.00005,   0.00014,  -0.00076,-25570649.07243,   0.00000
3006209.31690,241241714.92649,-219502465.31784,  -0.00040,   0.00123,  -0.00362,449472330.70115,   0.00046,275139796.39185,   0.00005,   0.00014,  -0.00076,-25667465.69069,   0.00000
2003971.88956,241106277.43631,-219307435.33198,  -0.00041,   0.00123,  -0.00361,449377721.18322,   0.00046,275139796.39185,   0.00005,   0.00014,  -0.00076,-25762075.20862,   0.00000
1001734.46222,240970839.94613,-219112405.34612,  -0.00041,   0.00123,  -0.00361,449285320.15992,   0.00046,275139796.39185,   0.00005,   0.00014,  -0.00076,-25854476.23193,   0.00000
-8629.21453,240816441.20732,-218917375.36026,  -0.00042,   0.00123,  -0.00361,449187141.61342,   0.00046,275139796.39185,   0.00005,   0.00014,  -0.00076,-25952654.77843,   0.00000
-991905.39324,240689129.96655,-218727762.87401,  -0.00042,   0.00123,  -0.00361,449106317.88261,   0.00046,275139796.39185,   0.00005,   0.00014,  -0.00076,-26033478.50923,   0.00000
-1983307.82136,240542857.47716,-218543567.88736,  -0.00043,   0.00124,  -0.00360,449027553.18423,   0.00046,275139796.39185,   0.00005,   0.00014,  -0.00076,-26112243.20762,   0.00000
-2993671.49811,240388458.73835,-218353955.40111,  -0.00043,   0.00124,  -0.00360,448943834.74881,   0.00046,275139796.39185,   0.00005,   0.00014,  -0.00076,-26195961.64303,   0.00000
-3985073.92623,240242186.24896,-218169760.41446,  -0.00043,   0.00124,  -0.00360,448869362.75290,   0.00046,275139796.39185,   0.00005,   0.00014,  -0.00076,-26270433.63895,   0.00000
-4957515.10573,240104040.00897,-217985565.42782,  -0.00044,   0.00124,  -0.00360,448796130.32490,   0.00046,275139796.39185,   0.00005,   0.00014,  -0.00076,-26343666.06695,   0.00000
-5957043.78327,239938806.27095,-217806787.94078,  -0.00044,   0.00124,  -0.00359,448725789.00579,   0.00046,275139796.39185,   0.00005,   0.00014,  -0.00076,-26414007.38606,   0.00000
-6937611.21217,239781698.78234,-217628010.45374,  -0.00045,   0.00124,  -0.00359,448656615.38016,   0.00046,275139796.39185,   0.00005,   0.00014,  -0.00076,-26483181.01168,   0.00000
-7918178.64108,239624591.29373,-217449232.96670,  -0.00045,   0.00124,  -0.00359,448589499.85456,   0.00046,275139796.39185,   0.00005,   0.00014,  -0.00076,-26550296.53729,   0.00000
-8898746.06999,239467483.80512,-217275872.97927,  -0.00045,   0.00124,  -0.00359,448532316.28132,   0.00046,275139796.39185,   0.00005,   0.00014,  -0.00076,-26607480.11052,   0.00000
-9879313.49890,239310376.31651,-217097095.49223,  -0.00046,   0.00125,  -0.00359,448469314.32666,   0.00046,275139796.39185,   0.00005,   0.00014,  -0.00076,-26670482.06519,   0.00000
-10859880.92781,239153268.82790,-216929153.00441,  -0.00046,   0.00125,  -0.00358,448424097.58780,   0.00046,275139796.39185,   0.00005,   0.00014,  -0.00076,-26715698.80404,   0.00000
-11829613.35750,238985326.34008,-216755793.01698,  -0.00047,   0.00125,  -0.00358,448363971.99824,   0.00046,275139796.39185,   0.00005,   0.00014,  -0.00076,-26775824.39361,   0.00000
-12799345.78720,238817383.85226,-216593268.02876,  -0.00047,   0.00125,  -0.00358,448321540.44243,   0.00046,275139796.39185,   0.00005,   0.00014,  -0.00076,-26818255.94942,   0.00000
-13769078.21689,238649441.36443,-216425325.54094,  -0.00048,   0.00125,  -0.00358,448273232.31436,   0.00046,275139796.39185,   0.00005,   0.00014,  -0.00076,-26866564.07749,   0.00000
-14727975.64737,238470663.87739,-216262800.55272,  -0.00048,   0.00125,  -0.00357,448225565.57576,   0.00046,275139796.39185,   0.00005,   0.00014,  -0.00076,-26914230.81609,   0.00000
-15697708.07707,238302721.38957,-216100275.56450,  -0.00048,   0.00125,  -0.00357,448189021.40955,   0.00046,275139796.39185,   0.00005,   0.00014,  -0.00076,-26950774.98229,   0.00000
-16656605.50755,238123943.90253,-215943168.07589,  -0.00049,   0.00125,  -0.00357,448153040.01889,   0.00046,275139796.39185,   0.00005,   0.00014,  -0.00076,-26986756.37295,   0.00000
-17615502.93803,237945166.41549,-215786060.58728,  -0.00049,   0.00125,  -0.00357,448118961.63148,   0.00046,275139796.39185,   0.00005,   0.00014,  -0.00076,-27020834.76037,   0.00000
-18555439.11988,237774515.17786,-215628953.09867,  -0.00050,   0.00126,  -0.00357,448085450.74900,   0.00046,275139796.39185,   0.00005,   0.00014,  -0.00076,-27054345.64285,   0.00000
-19503501.55115,237584902.69161,-215477263.10967,  -0.00050,   0.00126,  -0.00356,448053638.33989,   0.00046,275139796.39185,   0.00005,   0.00014,  -0.00076,-27086158.05195,   0.00000
-20443437.73300,237414251.45398,-215325573.12067,  -0.00050,   0.00126,  -0.00356,448031619.11360,   0.00046,275139796.39185,   0.00005,   0.00014,  -0.00076,-27108177.27824,   0.00000
-21391500.16427,237224638.96773,-215179300.63127,  -0.00051,   0.00126,  -0.00356,448011284.20675,   0.00046,275139796.39185,   0.00005,   0.00014,  -0.00076,-27128512.18509,   0.00000
-22320601.34691,237043152.73089,-215033028.14188,  -0.00051,   0.00126,  -0.00356,447991317.76275,   0.00046,275139796.39185,   0.00005,   0.00014,  -0.00076,-27148478.62910,   0.00000
-23257828.77896,236842705.24542,-214892173.15209,  -0.00052,   0.00126,  -0.00356,447972966.77334,   0.00046,275139796.39185,   0.00005,   0.00014,  -0.00076,-27166829.61851,   0.00000
-24195056.21101,236642257.75995,-214751318.16230,  -0.00052,   0.00126,  -0.00355,447956379.11355,   0.00046,275139796.39185,   0.00005,   0.00014,  -0.00076,-27183417.27830,   0.00000
-25124157.39365,236460771.52311,-214610463.17251,  -0.00052,   0.00126,  -0.00355,447949495.03775,   0.00046,275139796.39185,   0.00005,   0.00014,  -0.00076,-27190301.35409,   0.00000
-26050549.82649,236249489.03843,-214475025.68233,  -0.00053,   0.00126,  -0.00355,447934695.27060,   0.00046,275139796.39185,   0.00005,   0.00014,  -0.00076,-27205101.12124,   0.00000
-26949854.76129,236065294.05178,-214345005.69176,  -0.00053,   0.00126,  -0.00355,447935695.73242,   0.00046,275139796.39185,   0.00005,   0.00014,  -0.00076,-27204100.65943,   0.00000
-27876247.19412,235854011.56710,-214214985.70119,  -0.00053,   0.00126,  -0.00355,447932031.62418,   0.00046,275139796.39185,   0.00005,   0.00014,  -0.00076,-27207764.76766,   0.00000
-28775552.12892,235669816.58045,-214084965.71061,  -0.00054,   0.00127,  -0.00355,447936314.18937,   0.00046,275139796.39185,   0.00005,   0.00014,  -0.00076,-27203482.20248,   0.00000
-29691109.56255,235447699.09656,-213960363.21965,  -0.00054,   0.00127,  -0.00354,447934141.93862,   0.00046,275139796.39185,   0.00005,   0.00014,  -0.00076,-27205654.45322,   0.00000
-30579579.49813,235252669.11070,-213835760.72868,  -0.00055,   0.00127,  -0.00354,447939788.81368,   0.00046,275139796.39185,   0.00005,   0.00014,  -0.00076,-27200007.57816,   0.00000
-31476175.68313,235038677.87621,-213716575.73732,  -0.00055,   0.00127,  -0.00354,447946841.36095,   0.00046,275139796.39185,   0.00005,   0.00014,  -0.00076,-27192955.03090,   0.00000
-32372771.86813,234824686.64173,-213597390.74596,  -0.00055,   0.00127,  -0.00354,447955457.41169,   0.00046,275139796.39185,   0.00005,   0.00014,  -0.00076,-27184338.98016,   0.00000
-33250406.80450,234618821.65665,-213483623.25421,  -0.00056,   0.00127,  -0.00354,447971566.60388,   0.00046,275139796.39185,   0.00005,   0.00014,  -0.00076,-27168229.78797,   0.00000
-34128041.74087,234412956.67158,-213369855.76246,  -0.00056,   0.00127,  -0.00354,447989172.52847,   0.00046,275139796.39185,   0.00005,   0.00014,  -0.00076,-27150623.86338,   0.00000
-35013802.92665,234188130.43788,-213256088.27071,  -0.00056,   0.00127,  -0.00354,448000381.06441,   0.00046,275139796.39185,   0.00005,   0.00014,  -0.00076,-27139415.32744,   0.00000
-35880602.86381,233971430.45359,-213153155.77817,  -0.00057,   0.00127,  -0.00353,448026659.20961,   0.00046,275139796.39185,   0.00005,   0.00014,  -0.00076,-27113137.18223,   0.00000
-36747402.80096,233754730.46930,-213044805.78602,  -0.00057,   0.00127,  -0.00353,448046641.19240,   0.00046,275139796.39185,   0.00005,   0.00014,  -0.00076,-27093155.19945,   0.00000
-37603367.73891,233527195.48579,-212947290.79309,  -0.00057,   0.00127,  -0.00353,448073676.16722,   0.00046,275139796.39185,   0.00005,   0.00014,  -0.00076,-27066120.22462,   0.00000
-38459332.67685,233299660.50229,-212844358.30056,  -0.00058,   0.00127,  -0.00353,448094369.18825,   0.00046,275139796.39185,   0.00005,   0.00014,  -0.00076,-27045427.20360,   0.00000
-39296336.36617,233080251.76820,-212746843.30763,  -0.00058,   0.00127,  -0.00353,448122152.76864,   0.00046,275139796.39185,   0.00005,   0.00014,  -0.00076,-27017643.62320,   0.00000
-40133340.05548,232860843.03410,-212654745.81430,  -0.00058,   0.00127,  -0.00353,448158971.07354,   0.00046,275139796.39185,   0.00005,   0.00014,  -0.00076,-26980825.31831,   0.00000
-40978469.99421,232622473.05139,-212568065.82059,  -0.00059,   0.00128,  -0.00353,448196955.39310,   0.00046,275139796.39185,   0.00005,   0.00014,  -0.00076,-26942840.99875,   0.00000
-41804638.68431,232392229.31808,-212475968.32726,  -0.00059,   0.00128,  -0.00352,448226461.28097,   0.00046,275139796.39185,   0.00005,   0.00014,  -0.00076,-26913335.11087,   0.00000
-42638933.62383,232143024.33615,-212394705.83316,  -0.00059,   0.00128,  -0.00352,448264795.19618,   0.00046,275139796.39185,   0.00005,   0.00014,  -0.00076,-26875001.19567,   0.00000
-43446141.06531,231920906.85225,-212313443.33905,  -0.00060,   0.00128,  -0.00352,448310090.57480,   0.00046,275139796.39185,   0.00005,   0.00014,  -0.00076,-26829705.81705,   0.00000
-44261474.75619,231679828.11973,-212232180.84494,  -0.00060,   0.00128,  -0.00352,448348756.58088,   0.00046,275139796.39185,   0.00005,   0.00014,  -0.00076,-26791039.81097,   0.00000
-45057847.19846,231446875.63662,-212156335.85044,  -0.00060,   0.00128,  -0.00352,448394130.55654,   0.00046,275139796.39185,   0.00005,   0.00014,  -0.00076,-26745665.83530,   0.00000
-45862345.89013,231194961.90488,-212080490.85594,  -0.00061,   0.00128,  -0.00352,448432840.34152,   0.00046,275139796.39185,   0.00005,   0.00014,  -0.00076,-26706956.05032,   0.00000
-46666844.58180,230943048.17314,-212015480.86065,  -0.00061,   0.00128,  -0.00352,448488084.11460,   0.00046,275139796.39185,   0.00005,   0.00014,  -0.00076,-26651712.27724,   0.00000
-47452382.02485,230699260.69082,-211945053.36576,  -0.00061,   0.00128,  -0.00352,448534529.14231,   0.00046,275139796.39185,   0.00005,   0.00014,  -0.00076,-26605267.24954,   0.00000
-48218958.21928,230463599.45790,-211880043.37047,  -0.00062,   0.00128,  -0.00352,448587462.61592,   0.00046,275139796.39185,   0.00005,   0.00014,  -0.00076,-26552333.77593,   0.00000
-48993660.66311,230208976.97636,-211820450.87479,  -0.00062,   0.00128,  -0.00352,448641329.56255,   0.00046,275139796.39185,   0.00005,   0.00014,  -0.00076,-26498466.82929,   0.00000
-49749401.85832,229962480.74424,-211760858.37911,  -0.00062,   0.00128,  -0.00352,448693909.95038,   0.00046,275139796.39185,   0.00005,   0.00014,  -0.00076,-26445886.44147,   0.00000
-50513269.30294,229697023.26348,-211706683.38304,  -0.00063,   0.00128,  -0.00351,448747389.77860,   0.00046,275139796.39185,   0.00005,   0.00014,  -0.00076,-26392406.61325,   0.00000
-51277136.74756,229431565.78273,-211657925.88657,  -0.00063,   0.00128,  -0.00351,448809552.78961,   0.00046,275139796.39185,   0.00005,   0.00014,  -0.00076,-26330243.60224,   0.00000
-52022042.94355,229174234.55138,-211609168.39011,  -0.00063,   0.00128,  -0.00351,448870309.82889,   0.00046,275139796.39185,   0.00005,   0.00014,  -0.00076,-26269486.56296,   0.00000
-52747987.89092,228925029.56945,-211565828.39325,  -0.00063,   0.00128,  -0.00351,448937248.74278,   0.00046,275139796.39185,   0.00005,   0.00014,  -0.00076,-26202547.64906,   0.00000
-53482059.08770,228656863.33889,-211522488.39639,  -0.00064,   0.00128,  -0.00351,448997350.73199,   0.00046,275139796.39185,   0.00005,   0.00014,  -0.00076,-26142445.65986,   0.00000
-54197169.03586,228396823.35775,-211484565.89914,  -0.00064,   0.00128,  -0.00351,449063545.76477,   0.00046,275139796.39185,   0.00005,   0.00014,  -0.00076,-26076250.62708,   0.00000
-54920405.23342,228117822.12797,-211446643.40189,  -0.00064,   0.00128,  -0.00351,449122882.88777,   0.00046,275139796.39185,   0.00005,   0.00014,  -0.00076,-26016913.50407,   0.00000
-55624680.18236,227846947.14761,-211414138.40425,  -0.00064,   0.00128,  -0.00351,449188227.45829,   0.00046,275139796.39185,   0.00005,   0.00014,  -0.00076,-25951568.93356,   0.00000
-56309993.88268,227584198.41666,-211387050.90621,  -0.00065,   0.00128,  -0.00351,449259505.71260,   0.00046,275139796.39185,   0.00005,   0.00014,  -0.00076,-25880290.67924,   0.00000
-57003433.83240,227302488.43709,-211359963.40817,  -0.00065,   0.00128,  -0.00351,449323867.01983,   0.00046,275139796.39185,   0.00005,   0.00014,  -0.00076,-25815929.37201,   0.00000
-57696873.78213,227020778.45751,-211338293.40975,  -0.00065,   0.00128,  -0.00351,449396678.98228,   0.00046,275139796.39185,   0.00005,   0.00014,  -0.00076,-25743117.40957,   0.00000
-58371352.48323,226747194.72734,-211316623.41132,  -0.00066,   0.00128,  -0.00351,449467675.72912,   0.00046,275139796.39185,   0.00005,   0.00014,  -0.00076,-25672120.66273,   0.00000
-59034996.18511,226462775.99796,-211300370.91249,  -0.00066,   0.00128,  -0.00351,449536749.38504,   0.00046,275139796.39185,   0.00005,   0.00014,  -0.00076,-25603047.00681,   0.00000
-59679678.63837,226186483.51800,-211284118.41367,  -0.00066,   0.00128,  -0.00351,449603894.66601,   0.00046,275139796.39185,   0.00005,   0.00014,  -0.00076,-25535901.72584,   0.00000
-60324361.09163,225910191.03803,-211278700.91407,  -0.00066,   0.00128,  -0.00351,449687001.45125,   0.00046,275139796.39185,   0.00005,   0.00014,  -0.00076,-25452794.94060,   0.00000
-60977169.79431,225614937.30943,-211273283.41446,  -0.00066,   0.00128,  -0.00351,449763133.62468,   0.00046,275139796.39185,   0.00005,   0.00014,  -0.00076,-25376662.76717,   0.00000
-61611017.24835,225327809.83025,-211267865.91485,  -0.00067,   0.00128,  -0.00351,449837246.58137,   0.00046,275139796.39185,   0.00005,   0.00014,  -0.00076,-25302549.81048,   0.00000
-62234029.70318,225029847.35185,-211267865.91485,  -0.00067,   0.00128,  -0.00351,449909273.47760,   0.00046,275139796.39185,   0.00005,   0.00014,  -0.00076,-25230522.91425,   0.00000
-62838080.90939,224740011.12286,-211273283.41446,  -0.00067,   0.00128,  -0.00351,449986809.66066,   0.00046,275139796.39185,   0.00005,   0.00014,  -0.00076,-25152986.73119,   0.00000
-63442132.11560,224450174.89388,-211278700.91407,  -0.00067,   0.00128,  -0.00351,450064941.05413,   0.00046,275139796.39185,   0.00005,   0.00014,  -0.00076,-25074855.33772,   0.00000
-64054309.57121,224141377.41627,-211289535.91328,  -0.00068,   0.00128,  -0.00351,450143684.59503,   0.00046,275139796.39185,   0.00005,   0.00014,  -0.00076,-24996111.79681,   0.00000
-64628564.52958,223848832.43748,-211305788.41210,  -0.00068,   0.00128,  -0.00351,450225042.06031,   0.00046,275139796.39185,   0.00005,   0.00014,  -0.00076,-24914754.33153,   0.00000
-65210945.73736,223537326.21006,-211322040.91092,  -0.00068,   0.00128,  -0.00351,450299343.80047,   0.00046,275139796.39185,   0.00005,   0.00014,  -0.00076,-24840452.59137,   0.00000
-65793326.94513,223225819.98264,-211343710.90935,  -0.00068,   0.00128,  -0.00351,450381827.29430,   0.00046,275139796.39185,   0.00005,   0.00014,  -0.00076,-24757969.09754,   0.00000
-66337785.65566,222930566.25405,-211365380.90778,  -0.00068,   0.00128,  -0.00351,450459134.70056,   0.00046,275139796.39185,   0.00005,   0.00014,  -0.00076,-24680661.69128,   0.00000
-66890370.61560,222616351.27683,-211392468.40582,  -0.00069,   0.00128,  -0.00351,450536989.46370,   0.00046,275139796.39185,   0.00005,   0.00014,  -0.00076,-24602806.92814,   0.00000
-67442955.57554,222302136.29961,-211424973.40346,  -0.00069,   0.00128,  -0.00351,450622972.44914,   0.00046,275139796.39185,   0.00005,   0.00014,  -0.00076,-24516823.94271,   0.00000
-67965744.28763,221985212.57259,-211457478.40110,  -0.00069,   0.00128,  -0.00351,450696086.85463,   0.00046,275139796.39185,   0.00005,   0.00014,  -0.00076,-24443709.53722,   0.00000
-68488532.99973,221668288.84556,-211500818.39796,  -0.00069,   0.00128,  -0.00351,450784908.68350,   0.00046,275139796.39185,   0.00005,   0.00014,  -0.00076,-24354887.70834,   0.00000
-68992360.46320,221359491.36795,-211538740.89521,  -0.00069,   0.00128,  -0.00351,450863616.56267,   0.00046,275139796.39185,   0.00005,   0.00014,  -0.00076,-24276179.82918,   0.00000
-69504314.17609,221031732.64171,-211587498.39168,  -0.00069,   0.00128,  -0.00351,450950489.45427,   0.00046,275139796.39185,   0.00005,   0.00014,  -0.00076,-24189306.93757,   0.00000
-69997306.64035,220712100.16489,-211636255.88814,  -0.00070,   0.00128,  -0.00351,451034833.54352,   0.00046,275139796.39185,   0.00005,   0.00014,  -0.00076,-24104962.84833,   0.00000
-70479464.10539,220381632.68885,-211685013.38461,  -0.00070,   0.00128,  -0.00351,451109114.22037,   0.00046,275139796.39185,   0.00005,   0.00014,  -0.00076,-24030682.17147,   0.00000
-70942660.32181,220059291.46222,-211739188.38068,  -0.00070,   0.00128,  -0.00352,451188426.34267,   0.00046,275139796.39185,   0.00005,   0.00014,  -0.00076,-23951370.04917,   0.00000
-71413982.78764,219717988.98696,-211798780.87636,  -0.00070,   0.00128,  -0.00352,451268278.35319,   0.00046,275139796.39185,   0.00005,   0.00014,  -0.00076,-23871518.03865,   0.00000
-71866344.00484,219384812.76112,-211863790.87165,  -0.00070,   0.00128,  -0.00352,451353131.75129,   0.00046,275139796.39185,   0.00005,   0.00014,  -0.00076,-23786664.64056,   0.00000
