# sigma_xx, sigma_yy, sigma_xy, epsilon_xx, epsilon_yy, epsilon_xy, vonMises, epsPlastic, hardening, epsilonP__xx, epsilonP__yy, epsilonP__xy, yieldValue, iteration
   0.00000,   0.00000,   0.00000,   0.00000,   0.00000,   0.00000,   0.00000,   0.00000,274640135.82653,   0.00000,   0.00000,   0.00000,-474640135.82653,   0.00000
   0.00000,   0.00000,   0.00000,   0.00000,   0.00000,   0.00000,   0.00000,   0.00000,274640135.82653,   0.00000,   0.00000,   0.00000,-474640135.82653,   0.00000
3285018.20612,3443332.33654,580485.14486,   0.00001,   0.00001,   0.00001,3513881.29984,   0.00000,274640135.82653,   0.00000,   0.00000,   0.00000,-471126254.52669,   0.00000
6539253.10911,6873471.82888,1152175.06025,   0.00002,   0.00002,   0.00001,7002970.53317,   0.00000,274640135.82653,   0.00000,   0.00000,   0.00000,-467637165.29336,   0.00000
9793488.01210,10303611.32122,1723864.97564,   0.00002,   0.00003,   0.00002,10492075.63397,   0.00000,274640135.82653,   0.00000,   0.00000,   0.00000,-464148060.19256,   0.00000
13065313.37403,13716160.35462,2295554.89103,   0.00003,   0.00004,   0.00003,13979923.17171,   0.00000,274640135.82653,   0.00000,   0.00000,   0.00000,-460660212.65482,   0.00000
16293162.58861,17084733.24069,2867244.80642,   0.00004,   0.00005,   0.00004,17425676.42620,   0.00000,274640135.82653,   0.00000,   0.00000,   0.00000,-457214459.40033,   0.00000
19564987.95054,20497282.27409,3438934.72181,   0.00005,   0.00006,   0.00004,20913561.85540,   0.00000,274640135.82653,   0.00000,   0.00000,   0.00000,-453726573.97113,   0.00000
22792837.16512,23865855.16016,4010624.63720,   0.00006,   0.00006,   0.00005,24359335.95218,   0.00000,274640135.82653,   0.00000,   0.00000,   0.00000,-450280799.87435,   0.00000
26020686.37971,27234428.04623,4573519.32312,   0.00007,   0.00007,   0.00006,27800771.87330,   0.00000,274640135.82653,   0.00000,   0.00000,   0.00000,-446839363.95323,   0.00000
29266126.05323,30585410.47336,5136414.00904,   0.00007,   0.00008,   0.00007,31241082.50847,   0.00000,274640135.82653,   0.00000,   0.00000,   0.00000,-443399053.31806,   0.00000
32480782.42361,33923200.05629,5699308.69496,   0.00008,   0.00009,   0.00007,34660914.69609,   0.00000,274640135.82653,   0.00000,   0.00000,   0.00000,-439979221.13044,   0.00000
35726222.09713,37274182.48342,6262203.38089,   0.00009,   0.00010,   0.00008,38101279.20162,   0.00000,274640135.82653,   0.00000,   0.00000,   0.00000,-436538856.62491,   0.00000
38927685.62332,40581188.76321,6825098.06681,   0.00010,   0.00011,   0.00009,41499538.81543,   0.00000,274640135.82653,   0.00000,   0.00000,   0.00000,-433140597.01110,   0.00000
42142341.99370,43918978.34615,7379197.52326,   0.00011,   0.00012,   0.00010,44915061.06495,   0.00000,274640135.82653,   0.00000,   0.00000,   0.00000,-429725074.76158,   0.00000
45361395.97882,47208394.16700,7933296.97972,   0.00011,   0.00013,   0.00010,48307987.60605,   0.00000,274640135.82653,   0.00000,   0.00000,   0.00000,-426332148.22048,   0.00000
48562859.50500,50515400.44680,8496191.66564,   0.00012,   0.00014,   0.00011,51706291.00336,   0.00000,274640135.82653,   0.00000,   0.00000,   0.00000,-422933844.82317,   0.00000
51751130.18699,53791623.42346,9050291.12210,   0.00013,   0.00014,   0.00012,55078709.38565,   0.00000,274640135.82653,   0.00000,   0.00000,   0.00000,-419561426.44088,   0.00000
54956991.32790,57050255.94118,9595595.34908,   0.00014,   0.00015,   0.00012,58445859.80260,   0.00000,274640135.82653,   0.00000,   0.00000,   0.00000,-416194276.02393,   0.00000
58145262.00989,60326478.91783,10149694.80554,   0.00015,   0.00016,   0.00013,61818326.92614,   0.00000,274640135.82653,   0.00000,   0.00000,   0.00000,-412821808.90039,   0.00000
61337930.30660,63554328.13242,10694999.03252,   0.00016,   0.00017,   0.00014,65164042.09308,   0.00000,274640135.82653,   0.00000,   0.00000,   0.00000,-409476093.73345,   0.00000
64513008.14438,66799767.80594,11249098.48898,   0.00016,   0.00018,   0.00015,68515034.00497,   0.00000,274640135.82653,   0.00000,   0.00000,   0.00000,-406125101.82156,   0.00000
67705676.44110,70027617.02053,11794402.71597,   0.00017,   0.00019,   0.00015,71860854.39422,   0.00000,274640135.82653,   0.00000,   0.00000,   0.00000,-402779281.43231,   0.00000
70867561.43468,73242273.39091,12339706.94295,   0.00018,   0.00020,   0.00016,75186073.63292,   0.00000,274640135.82653,   0.00000,   0.00000,   0.00000,-399454062.19361,   0.00000
74060229.73139,76470122.60550,12885011.16994,   0.00019,   0.00020,   0.00017,78531986.92230,   0.00000,274640135.82653,   0.00000,   0.00000,   0.00000,-396108148.90423,   0.00000
77208921.88077,79653995.67275,13421520.16746,   0.00020,   0.00021,   0.00017,81831467.82292,   0.00000,274640135.82653,   0.00000,   0.00000,   0.00000,-392808668.00361,   0.00000
80388397.33329,82851061.58420,13966824.39445,   0.00020,   0.00022,   0.00018,85156005.80302,   0.00000,274640135.82653,   0.00000,   0.00000,   0.00000,-389484130.02351,   0.00000
83554679.94160,86017344.19251,14503333.39197,   0.00021,   0.00023,   0.00019,88454826.98576,   0.00000,274640135.82653,   0.00000,   0.00000,   0.00000,-386185308.84077,   0.00000
86690179.24678,89170433.95662,15039842.38949,   0.00022,   0.00024,   0.00020,91732999.20934,   0.00000,274640135.82653,   0.00000,   0.00000,   0.00000,-382907136.61719,   0.00000
89856461.85509,92336716.56494,15576351.38701,   0.00023,   0.00024,   0.00020,95031944.52847,   0.00000,274640135.82653,   0.00000,   0.00000,   0.00000,-379608191.29806,   0.00000
93022744.46340,95502999.17325,16112860.38453,   0.00024,   0.00025,   0.00021,98330949.14787,   0.00000,274640135.82653,   0.00000,   0.00000,   0.00000,-376309186.67866,   0.00000
96175834.22751,98638498.47843,16640574.15258,   0.00025,   0.00026,   0.00022,101604284.93773,   0.00000,274640135.82653,   0.00000,   0.00000,   0.00000,-373035850.88880,   0.00000
99284947.84429,101730021.63626,17177083.15010,   0.00025,   0.00027,   0.00022,104839853.27555,   0.00000,274640135.82653,   0.00000,   0.00000,   0.00000,-369800282.55098,   0.00000
102438037.60840,104865520.94144,17704796.91815,   0.00026,   0.00028,   0.00023,108113321.82065,   0.00000,274640135.82653,   0.00000,   0.00000,   0.00000,-366526814.00588,   0.00000
105577934.52831,107970236.94348,18232510.68620,   0.00027,   0.00029,   0.00024,111365484.13058,   0.00000,274640135.82653,   0.00000,   0.00000,   0.00000,-363274651.69595,   0.00000
108704638.60402,111044169.64239,18760224.45426,   0.00028,   0.00029,   0.00024,114596369.05356,   0.00000,274640135.82653,   0.00000,   0.00000,   0.00000,-360043766.77296,   0.00000
111831342.67973,114118102.34129,19287938.22231,   0.00029,   0.00030,   0.00025,117827346.40669,   0.00000,274640135.82653,   0.00000,   0.00000,   0.00000,-356812789.41984,   0.00000
114958046.75544,117192035.04019,19806856.76089,   0.00029,   0.00031,   0.00026,121054090.68434,   0.00000,274640135.82653,   0.00000,   0.00000,   0.00000,-353586045.14219,   0.00000
118084750.83115,120265967.73910,20334570.52895,   0.00030,   0.00032,   0.00026,124285231.69278,   0.00000,274640135.82653,   0.00000,   0.00000,   0.00000,-350354904.13375,   0.00000
121198262.06266,123309117.13487,20853489.06753,   0.00031,   0.00032,   0.00027,127490824.85117,   0.00000,274640135.82653,   0.00000,   0.00000,   0.00000,-347149310.97536,   0.00000
124311773.29417,126352266.53063,21372407.60611,   0.00032,   0.00033,   0.00028,130696508.54347,   0.00000,274640135.82653,   0.00000,   0.00000,   0.00000,-343943627.28306,   0.00000
127412091.68147,129364632.62327,21891326.14470,   0.00033,   0.00034,   0.00028,133880996.89420,   0.00000,274640135.82653,   0.00000,   0.00000,   0.00000,-340759138.93233,   0.00000
130512410.06878,132376998.71590,22401449.45382,   0.00034,   0.00035,   0.00029,137061273.31891,   0.00000,274640135.82653,   0.00000,   0.00000,   0.00000,-337578862.50762,   0.00000
133643511.75922,135402557.65273,22920367.99240,   0.00034,   0.00036,   0.00030,140266879.03802,   0.00000,274640135.82653,   0.00000,   0.00000,   0.00000,-334373256.78850,   0.00000
136730637.30233,138384140.44222,23430491.30152,   0.00035,   0.00036,   0.00030,143426111.83367,   0.00000,274640135.82653,   0.00000,   0.00000,   0.00000,-331214023.99286,   0.00000
139817762.84543,141365723.23172,23949409.84010,   0.00036,   0.00037,   0.00031,146589761.03982,   0.00000,274640135.82653,   0.00000,   0.00000,   0.00000,-328050374.78671,   0.00000
142935671.69167,144360498.86542,24459533.14922,   0.00037,   0.00038,   0.00032,149770161.54489,   0.00000,274640135.82653,   0.00000,   0.00000,   0.00000,-324869974.28164,   0.00000
146009604.39058,147311298.35177,24969656.45834,   0.00038,   0.00039,   0.00032,152908502.15968,   0.00000,274640135.82653,   0.00000,   0.00000,   0.00000,-321731633.66685,   0.00000
149114320.39262,150275290.68233,25470984.53799,   0.00039,   0.00039,   0.00033,156063637.19303,   0.00000,274640135.82653,   0.00000,   0.00000,   0.00000,-318576498.63350,   0.00000
152175060.24732,153195306.86556,25981107.84710,   0.00039,   0.00040,   0.00034,159181028.54902,   0.00000,274640135.82653,   0.00000,   0.00000,   0.00000,-315459107.27751,   0.00000
155266583.40516,156128515.89298,26482435.92675,   0.00040,   0.00041,   0.00034,162315256.21542,   0.00000,274640135.82653,   0.00000,   0.00000,   0.00000,-312324879.61111,   0.00000
158358106.56300,159061724.92040,26992559.23587,   0.00041,   0.00041,   0.00035,165453931.43150,   0.00000,274640135.82653,   0.00000,   0.00000,   0.00000,-309186204.39503,   0.00000
161436436.87664,161964150.64469,27493887.31552,   0.00042,   0.00042,   0.00036,168567302.23506,   0.00000,274640135.82653,   0.00000,   0.00000,   0.00000,-306072833.59147,   0.00000
164483983.88714,164853383.52478,27995215.39517,   0.00043,   0.00043,   0.00036,171659762.29329,   0.00000,274640135.82653,   0.00000,   0.00000,   0.00000,-302980373.53324,   0.00000
167549121.35658,167725025.94593,28487748.24535,   0.00044,   0.00044,   0.00037,174748010.20168,   0.00000,274640135.82653,   0.00000,   0.00000,   0.00000,-299892125.62485,   0.00000
170614258.82601,170596668.36708,28989076.32500,   0.00044,   0.00044,   0.00038,177840726.71801,   0.00000,274640135.82653,   0.00000,   0.00000,   0.00000,-296799409.10852,   0.00000
173679396.29545,173468310.78823,29490404.40465,   0.00045,   0.00045,   0.00038,180933600.82371,   0.00000,274640135.82653,   0.00000,   0.00000,   0.00000,-293706535.00282,   0.00000
176744533.76489,176339953.20938,29982937.25483,   0.00046,   0.00046,   0.00039,184022324.94679,   0.00000,274640135.82653,   0.00000,   0.00000,   0.00000,-290617810.87974,   0.00000
179796478.39012,179180812.32739,30475470.10502,   0.00047,   0.00046,   0.00040,187090141.19032,   0.00000,274640135.82653,   0.00000,   0.00000,   0.00000,-287549994.63621,   0.00000
182866013.47429,182004080.98647,30968002.95520,   0.00048,   0.00047,   0.00040,190158237.46228,   0.00000,274640135.82653,   0.00000,   0.00000,   0.00000,-284481898.36425,   0.00000
185904765.25533,184814156.80135,31460535.80538,   0.00049,   0.00048,   0.00041,193205377.26031,   0.00000,274640135.82653,   0.00000,   0.00000,   0.00000,-281434758.56621,   0.00000
188943517.03636,187624232.61623,31944273.42609,   0.00049,   0.00049,   0.00042,196248395.45154,   0.00000,274640135.82653,   0.00000,   0.00000,   0.00000,-278391740.37499,   0.00000
191982268.81739,190434308.43111,32436806.27628,   0.00050,   0.00049,   0.00042,199295875.46873,   0.00000,274640135.82653,   0.00000,   0.00000,   0.00000,-275344260.35780,   0.00000
195038611.05736,193226793.78705,32920543.89699,   0.00051,   0.00050,   0.00043,202339454.36453,   0.00000,274640135.82653,   0.00000,   0.00000,   0.00000,-272300681.46200,   0.00000
198050977.14999,195975302.99566,33404281.51770,   0.00052,   0.00051,   0.00043,205341049.84122,   0.00000,274640135.82653,   0.00000,   0.00000,   0.00000,-269299085.98531,   0.00000
201094126.54576,198737005.04846,33888019.13842,   0.00053,   0.00051,   0.00044,208364089.96675,   0.00000,274640135.82653,   0.00000,   0.00000,   0.00000,-266276045.85978,   0.00000
204137275.94153,201498707.10127,34371756.75913,   0.00054,   0.00052,   0.00045,211387351.10466,   0.00000,274640135.82653,   0.00000,   0.00000,   0.00000,-263252784.72187,   0.00000
207149642.03416,204247216.30987,34855494.37985,   0.00054,   0.00053,   0.00045,214389547.98576,   0.00000,274640135.82653,   0.00000,   0.00000,   0.00000,-260250587.84077,   0.00000
210179598.58573,206978135.05954,35330436.77110,   0.00055,   0.00053,   0.00046,217388017.14643,   0.00000,274640135.82653,   0.00000,   0.00000,   0.00000,-257252118.68010,   0.00000
213196362.29309,209678270.50608,35814174.39181,   0.00056,   0.00054,   0.00047,220370113.11819,   0.00000,274640135.82653,   0.00000,   0.00000,   0.00000,-254270022.70834,   0.00000
216213126.00046,212378405.95261,36289116.78306,   0.00057,   0.00054,   0.00047,223348167.92295,   0.00000,274640135.82653,   0.00000,   0.00000,   0.00000,-251291967.90358,   0.00000
219229889.70782,215078541.39915,36764059.17430,   0.00058,   0.00055,   0.00048,226326460.54571,   0.00000,274640135.82653,   0.00000,   0.00000,   0.00000,-248313675.28082,   0.00000
222246653.41519,217778676.84568,37239001.56555,   0.00059,   0.00056,   0.00048,229304981.71990,   0.00000,274640135.82653,   0.00000,   0.00000,   0.00000,-245335154.10663,   0.00000
225250224.27835,220448028.98908,37713943.95680,   0.00060,   0.00056,   0.00049,232262897.93558,   0.00000,274640135.82653,   0.00000,   0.00000,   0.00000,-242377237.89094,   0.00000
228240602.29731,223086597.82934,38180091.11858,   0.00060,   0.00057,   0.00050,235195963.58898,   0.00000,274640135.82653,   0.00000,   0.00000,   0.00000,-239444172.23754,   0.00000
231230980.31628,225725166.66960,38655033.50982,   0.00061,   0.00058,   0.00050,238133576.80494,   0.00000,274640135.82653,   0.00000,   0.00000,   0.00000,-236506559.02159,   0.00000
234252141.63838,228376928.35406,39121180.67160,   0.00062,   0.00058,   0.00051,241088579.21994,   0.00000,274640135.82653,   0.00000,   0.00000,   0.00000,-233551556.60659,   0.00000
237229326.81314,230984713.89119,39587327.83338,   0.00063,   0.00059,   0.00051,244001665.86734,   0.00000,274640135.82653,   0.00000,   0.00000,   0.00000,-230638469.95919,   0.00000
240206511.98790,233592499.42831,40053474.99516,   0.00064,   0.00059,   0.00052,246915020.30843,   0.00000,274640135.82653,   0.00000,   0.00000,   0.00000,-227725115.51810,   0.00000
243214480.46580,236213477.80964,40519622.15694,   0.00065,   0.00060,   0.00053,249850098.38282,   0.00000,274640135.82653,   0.00000,   0.00000,   0.00000,-224790037.44371,   0.00000
246178472.79636,238790480.04362,40976974.08925,   0.00065,   0.00061,   0.00053,252738986.60258,   0.00000,274640135.82653,   0.00000,   0.00000,   0.00000,-221901149.22395,   0.00000
249160055.58585,241349891.81868,41443121.25103,   0.00066,   0.00061,   0.00054,255633229.48383,   0.00000,274640135.82653,   0.00000,   0.00000,   0.00000,-219006906.34270,   0.00000
252154831.21955,243940086.89687,41900473.18335,   0.00067,   0.00062,   0.00054,258544198.19909,   0.00000,274640135.82653,   0.00000,   0.00000,   0.00000,-216095937.62743,   0.00000
255092437.86170,246455522.52458,42357825.11566,   0.00068,   0.00062,   0.00055,261392602.07091,   0.00000,274640135.82653,   0.00000,   0.00000,   0.00000,-213247533.75562,   0.00000
258074020.65120,249014934.29964,42815177.04797,   0.00069,   0.00063,   0.00056,264283504.02432,   0.00000,274640135.82653,   0.00000,   0.00000,   0.00000,-210356631.80221,   0.00000
261042410.59649,251543562.77155,43272528.98028,   0.00070,   0.00064,   0.00056,267154078.01298,   0.00000,274640135.82653,   0.00000,   0.00000,   0.00000,-207486057.81355,   0.00000
263997607.69758,254041407.94033,43729880.91259,   0.00071,   0.00064,   0.00057,270004365.37188,   0.00000,274640135.82653,   0.00000,   0.00000,   0.00000,-204635770.45465,   0.00000
266952804.79868,256539253.10911,44187232.84490,   0.00071,   0.00065,   0.00057,272854997.85911,   0.00000,274640135.82653,   0.00000,   0.00000,   0.00000,-201785137.96742,   0.00000
269908001.89977,259037098.27789,44635789.54775,   0.00072,   0.00065,   0.00058,275701692.56882,   0.00000,274640135.82653,   0.00000,   0.00000,   0.00000,-198938443.25771,   0.00000
272850006.15666,261504160.14354,45084346.25059,   0.00073,   0.00066,   0.00059,278528157.92562,   0.00000,274640135.82653,   0.00000,   0.00000,   0.00000,-196111977.90091,   0.00000
275792010.41355,263971222.00918,45541698.18291,   0.00074,   0.00066,   0.00059,281359243.43779,   0.00000,274640135.82653,   0.00000,   0.00000,   0.00000,-193280892.38874,   0.00000
278720821.82624,266407500.57169,45981459.65628,   0.00075,   0.00067,   0.00060,284161607.67546,   0.00000,274640135.82653,   0.00000,   0.00000,   0.00000,-190478528.15107,   0.00000
281680416.54207,268856971.97840,46430016.35913,   0.00076,   0.00067,   0.00060,286990285.27969,   0.00000,274640135.82653,   0.00000,   0.00000,   0.00000,-187649850.54684,   0.00000
284609227.95476,271293250.54091,46878573.06197,   0.00077,   0.00068,   0.00061,289797652.98782,   0.00000,274640135.82653,   0.00000,   0.00000,   0.00000,-184842482.83871,   0.00000
287524846.52325,273698745.80028,47327129.76482,   0.00077,   0.00068,   0.00062,292584898.06611,   0.00000,274640135.82653,   0.00000,   0.00000,   0.00000,-182055237.76041,   0.00000
290458055.55067,276086650.60071,47766891.23819,   0.00078,   0.00069,   0.00062,295369525.63340,   0.00000,274640135.82653,   0.00000,   0.00000,   0.00000,-179270610.19313,   0.00000
293360481.27496,278461362.55695,48206652.71157,   0.00079,   0.00069,   0.00063,298132834.77625,   0.00000,274640135.82653,   0.00000,   0.00000,   0.00000,-176507301.05028,   0.00000
296293690.30238,280849267.35739,48646414.18495,   0.00080,   0.00070,   0.00063,300918289.37986,   0.00000,274640135.82653,   0.00000,   0.00000,   0.00000,-173721846.44667,   0.00000
299182923.18247,283193196.01048,49086175.65832,   0.00081,   0.00071,   0.00064,303661979.02456,   0.00000,274640135.82653,   0.00000,   0.00000,   0.00000,-170978156.80196,   0.00000
302102939.36569,285550317.50778,49525937.13170,   0.00082,   0.00071,   0.00064,306427862.46129,   0.00000,274640135.82653,   0.00000,   0.00000,   0.00000,-168212273.36524,   0.00000
305022955.54891,287907439.00508,49965698.60508,   0.00083,   0.00072,   0.00065,309194165.51366,   0.00000,274640135.82653,   0.00000,   0.00000,   0.00000,-165445970.31287,   0.00000
307916586.04373,290202993.89611,50396664.84899,   0.00084,   0.00072,   0.00066,311915946.96430,   0.00000,274640135.82653,   0.00000,   0.00000,   0.00000,-162724188.86223,   0.00000
310792626.07961,292516139.24607,50836426.32236,   0.00084,   0.00072,   0.00066,314640931.51022,   0.00000,274640135.82653,   0.00000,   0.00000,   0.00000,-159999204.31631,   0.00000
313686256.57443,294811694.13710,51267392.56627,   0.00085,   0.00073,   0.00067,317363612.37084,   0.00000,274640135.82653,   0.00000,   0.00000,   0.00000,-157276523.45569,   0.00000
316566694.22505,297076465.72499,51698358.81018,   0.00086,   0.00073,   0.00067,320066469.04136,   0.00000,274640135.82653,   0.00000,   0.00000,   0.00000,-154573666.78517,   0.00000
319447131.87567,299341237.31288,52129325.05409,   0.00087,   0.00074,   0.00068,322769803.88455,   0.00000,274640135.82653,   0.00000,   0.00000,   0.00000,-151870331.94198,   0.00000
322327569.52629,301606008.90077,52560291.29800,   0.00088,   0.00074,   0.00068,325473604.98550,   0.00000,274640135.82653,   0.00000,   0.00000,   0.00000,-149166530.84103,   0.00000
325194814.33271,303839997.18553,52982462.31244,   0.00089,   0.00075,   0.00069,328153384.29621,   0.00000,274640135.82653,   0.00000,   0.00000,   0.00000,-146486751.53032,   0.00000
328062059.13912,306073985.47028,53413428.55635,   0.00090,   0.00075,   0.00069,330837906.46841,   0.00000,274640135.82653,   0.00000,   0.00000,   0.00000,-143802229.35812,   0.00000
330916111.10134,308277190.45190,53835599.57079,   0.00090,   0.00076,   0.00070,333498463.38057,   0.00000,274640135.82653,   0.00000,   0.00000,   0.00000,-141141672.44596,   0.00000
333770163.06355,310480395.43352,54257770.58523,   0.00091,   0.00076,   0.00071,336159519.41717,   0.00000,274640135.82653,   0.00000,   0.00000,   0.00000,-138480616.40936,   0.00000
336611022.18157,312652817.11200,54679941.59968,   0.00092,   0.00077,   0.00071,338800926.77885,   0.00000,274640135.82653,   0.00000,   0.00000,   0.00000,-135839209.04768,   0.00000
339482664.60272,314838431.63468,55102112.61412,   0.00093,   0.00077,   0.00072,341464868.40213,   0.00000,274640135.82653,   0.00000,   0.00000,   0.00000,-133175267.42440,   0.00000
342310330.87653,316980070.01003,55524283.62856,   0.00094,   0.00077,   0.00072,344087217.11124,   0.00000,274640135.82653,   0.00000,   0.00000,   0.00000,-130552918.71529,   0.00000
345137997.15035,319121708.38537,55946454.64300,   0.00095,   0.00078,   0.00073,346710097.80765,   0.00000,274640135.82653,   0.00000,   0.00000,   0.00000,-127930038.01888,   0.00000
347952470.57996,321232563.45758,56359830.42798,   0.00096,   0.00078,   0.00073,349309188.22733,   0.00000,274640135.82653,   0.00000,   0.00000,   0.00000,-125330947.59920,   0.00000
350797727.31271,323356611.37399,56782001.44242,   0.00097,   0.00079,   0.00074,351935173.41822,   0.00000,274640135.82653,   0.00000,   0.00000,   0.00000,-122704962.40830,   0.00000
353599007.89812,325436683.14306,57195377.22739,   0.00097,   0.00079,   0.00074,354515357.01180,   0.00000,274640135.82653,   0.00000,   0.00000,   0.00000,-120124778.81473,   0.00000
356400288.48353,327516754.91214,57608753.01237,   0.00098,   0.00080,   0.00075,357096107.11455,   0.00000,274640135.82653,   0.00000,   0.00000,   0.00000,-117544028.71198,   0.00000
359232352.37207,329610019.52541,58022128.79734,   0.00099,   0.00080,   0.00075,359699551.81140,   0.00000,274640135.82653,   0.00000,   0.00000,   0.00000,-114940584.01513,   0.00000
362020440.11328,331659307.99135,58435504.58231,   0.00100,   0.00080,   0.00076,362261468.52486,   0.00000,274640135.82653,   0.00000,   0.00000,   0.00000,-112378667.30167,   0.00000
364795335.01029,333677813.15415,58848880.36729,   0.00101,   0.00081,   0.00077,364804032.27347,   0.00000,274640135.82653,   0.00000,   0.00000,   0.00000,-109836103.55306,   0.00000
367601013.21043,335709511.16115,59253460.92280,   0.00102,   0.00081,   0.00077,367365134.76943,   0.00000,274640135.82653,   0.00000,   0.00000,   0.00000,-107275001.05710,   0.00000
370362715.26324,337697233.02081,59666836.70777,   0.00103,   0.00081,   0.00078,369889026.73199,   0.00000,274640135.82653,   0.00000,   0.00000,   0.00000,-104751109.09454,   0.00000
373155200.61918,339698147.72467,60071417.26328,   0.00104,   0.00082,   0.00078,372431510.97700,   0.00000,274640135.82653,   0.00000,   0.00000,   0.00000,-102208624.84953,   0.00000
375916902.67199,341685869.58434,60475997.81878,   0.00104,   0.00082,   0.00079,374952392.10293,   0.00000,274640135.82653,   0.00000,   0.00000,   0.00000,-99687743.72360,   0.00000
378696195.18373,343656000.98507,60880578.37429,   0.00105,   0.00083,   0.00079,377476316.74603,   0.00000,274640135.82653,   0.00000,   0.00000,   0.00000,-97163819.08050,   0.00000
381431511.54814,345582156.23846,61285158.92980,   0.00106,   0.00083,   0.00080,379958830.15054,   0.00000,274640135.82653,   0.00000,   0.00000,   0.00000,-94681305.67599,   0.00000
384166827.91254,347508311.49185,61689739.48530,   0.00107,   0.00083,   0.00080,382442001.35253,   0.00000,274640135.82653,   0.00000,   0.00000,   0.00000,-92198134.47400,   0.00000
386932927.58008,349447659.58944,62085524.81134,   0.00108,   0.00084,   0.00081,384943877.01401,   0.00000,274640135.82653,   0.00000,   0.00000,   0.00000,-89696258.81252,   0.00000
389655051.10028,351343031.53969,62490105.36685,   0.00109,   0.00084,   0.00081,387408618.33137,   0.00000,274640135.82653,   0.00000,   0.00000,   0.00000,-87231517.49516,   0.00000
392394765.07942,353220813.03101,62885890.69289,   0.00110,   0.00084,   0.00082,389872417.86804,   0.00000,274640135.82653,   0.00000,   0.00000,   0.00000,-84767717.95849,   0.00000
395103695.75542,355085401.67813,63281676.01893,   0.00111,   0.00085,   0.00082,392314580.32041,   0.00000,274640135.82653,   0.00000,   0.00000,   0.00000,-82325555.50612,   0.00000
397843409.73456,356963183.16945,63677461.34497,   0.00111,   0.00085,   0.00083,394779812.19392,   0.00000,274640135.82653,   0.00000,   0.00000,   0.00000,-79860323.63261,   0.00000
400539147.56636,358796988.51343,64073246.67101,   0.00112,   0.00085,   0.00083,397203714.21707,   0.00000,274640135.82653,   0.00000,   0.00000,   0.00000,-77436421.60946,   0.00000
403221692.55396,360600010.55428,64469031.99704,   0.00113,   0.00085,   0.00084,399608711.90086,   0.00000,274640135.82653,   0.00000,   0.00000,   0.00000,-75031423.92567,   0.00000
405935020.84469,362416225.43932,64864817.32308,   0.00114,   0.00086,   0.00084,402036885.32369,   0.00000,274640135.82653,   0.00000,   0.00000,   0.00000,-72603250.50284,   0.00000
408604372.98809,364188464.17703,65251807.41966,   0.00115,   0.00086,   0.00085,404419543.45044,   0.00000,274640135.82653,   0.00000,   0.00000,   0.00000,-70220592.37609,   0.00000
411273725.13149,365960702.91474,65647592.74569,   0.00116,   0.00086,   0.00085,406807215.79369,   0.00000,274640135.82653,   0.00000,   0.00000,   0.00000,-67832920.03284,   0.00000
413973860.57802,367746134.49665,66034582.84227,   0.00117,   0.00087,   0.00086,409213865.92140,   0.00000,274640135.82653,   0.00000,   0.00000,   0.00000,-65426269.90513,   0.00000
416616827.03302,369456806.62809,66421572.93884,   0.00118,   0.00087,   0.00086,411559796.48496,   0.00000,274640135.82653,   0.00000,   0.00000,   0.00000,-63080339.34156,   0.00000
419272986.33221,371198262.06266,66808563.03541,   0.00118,   0.00087,   0.00087,413926002.14833,   0.00000,274640135.82653,   0.00000,   0.00000,   0.00000,-60714133.67820,   0.00000
421915952.78721,372908934.19409,67195553.13198,   0.00119,   0.00087,   0.00087,416273519.72818,   0.00000,274640135.82653,   0.00000,   0.00000,   0.00000,-58366616.09835,   0.00000
424545726.39800,374588823.02239,67582543.22855,   0.00120,   0.00088,   0.00088,418602408.75228,   0.00000,274640135.82653,   0.00000,   0.00000,   0.00000,-56037727.07425,   0.00000
427206283.31193,376281904.69489,67969533.32512,   0.00121,   0.00088,   0.00088,420954699.10796,   0.00000,274640135.82653,   0.00000,   0.00000,   0.00000,-53685436.71856,   0.00000
429822864.07852,377931010.22006,68347728.19223,   0.00122,   0.00088,   0.00089,423261608.91446,   0.00000,274640135.82653,   0.00000,   0.00000,   0.00000,-51378526.91207,   0.00000
432439444.84512,379580115.74522,68734718.28880,   0.00123,   0.00088,   0.00089,425573621.94422,   0.00000,274640135.82653,   0.00000,   0.00000,   0.00000,-49066513.88231,   0.00000
435042832.76751,381198437.96725,69112913.15590,   0.00124,   0.00089,   0.00090,427862888.60558,   0.00000,274640135.82653,   0.00000,   0.00000,   0.00000,-46777247.22095,   0.00000
437602244.54256,382772784.04194,69491108.02301,   0.00124,   0.00089,   0.00090,430111080.38290,   0.00000,274640135.82653,   0.00000,   0.00000,   0.00000,-44529055.44363,   0.00000
440192439.62075,384360322.96083,69869302.89011,   0.00125,   0.00089,   0.00091,432382807.20598,   0.00000,274640135.82653,   0.00000,   0.00000,   0.00000,-42257328.62055,   0.00000
442782634.69894,385947861.87972,70247497.75722,   0.00126,   0.00089,   0.00091,434655421.41378,   0.00000,274640135.82653,   0.00000,   0.00000,   0.00000,-39984714.41275,   0.00000
445359636.93293,387504617.49547,70625692.62432,   0.00127,   0.00089,   0.00092,436909698.23033,   0.00000,274640135.82653,   0.00000,   0.00000,   0.00000,-37730437.59620,   0.00000
447905855.86378,389048180.26702,71003887.49142,   0.00128,   0.00090,   0.00092,439142164.05179,   0.00000,274640135.82653,   0.00000,   0.00000,   0.00000,-35497971.77474,   0.00000
450469665.25357,390574152.57964,71373287.12906,   0.00129,   0.00090,   0.00093,441374805.07449,   0.00000,274640135.82653,   0.00000,   0.00000,   0.00000,-33265330.75204,   0.00000
452989498.49602,392056148.74492,71751481.99617,   0.00130,   0.00090,   0.00093,443570757.39962,   0.00000,274640135.82653,   0.00000,   0.00000,   0.00000,-31069378.42691,   0.00000
455540115.04160,393551337.75440,72120881.63380,   0.00131,   0.00090,   0.00094,445786153.76421,   0.00000,274640135.82653,   0.00000,   0.00000,   0.00000,-28853982.06232,   0.00000
458046755.43985,395002550.61655,72490281.27144,   0.00131,   0.00090,   0.00094,447960635.65744,   0.00000,274640135.82653,   0.00000,   0.00000,   0.00000,-26679500.16909,   0.00000
460553395.83810,396453763.47869,72859680.90907,   0.00132,   0.00091,   0.00095,450136078.57850,   0.00000,274640135.82653,   0.00000,   0.00000,   0.00000,-24504057.24803,   0.00000
463077626.69528,397887385.88190,73229080.54671,   0.00133,   0.00091,   0.00095,452316270.49735,   0.00000,274640135.82653,   0.00000,   0.00000,   0.00000,-22323865.32918,   0.00000
465571074.24933,399307815.44091,73598480.18435,   0.00134,   0.00091,   0.00096,454474638.36305,   0.00000,274640135.82653,   0.00000,   0.00000,   0.00000,-20165497.46348,   0.00000
468051328.95917,400697461.69678,73967879.82198,   0.00135,   0.00091,   0.00096,456615007.01250,   0.00000,274640135.82653,   0.00000,   0.00000,   0.00000,-18025128.81403,   0.00000
470531583.66902,402087107.95265,74328484.23015,   0.00136,   0.00091,   0.00097,458752112.40691,   0.00000,274640135.82653,   0.00000,   0.00000,   0.00000,-15888023.41962,   0.00000
472967862.23153,403432778.06118,74697883.86779,   0.00137,   0.00091,   0.00097,460852675.03539,   0.00000,274640135.82653,   0.00000,   0.00000,   0.00000,-13787460.79114,   0.00000
475421731.25297,404760857.71078,75058488.27596,   0.00137,   0.00091,   0.00098,462953989.88761,   0.00000,274640135.82653,   0.00000,   0.00000,   0.00000,-11686145.93892,   0.00000
477875600.27441,406088937.36038,75419092.68413,   0.00138,   0.00092,   0.00098,465056381.85290,   0.00000,274640135.82653,   0.00000,   0.00000,   0.00000,-9583753.97363,   0.00000
480285493.14852,407373040.86264,75779697.09230,   0.00139,   0.00092,   0.00099,467118052.52919,   0.00000,274640135.82653,   0.00000,   0.00000,   0.00000,-7522083.29734,   0.00000
482695386.02262,408657144.36490,76140301.50047,   0.00140,   0.00092,   0.00099,469180792.24925,   0.00000,274640135.82653,   0.00000,   0.00000,   0.00000,-5459343.57728,   0.00000
485105278.89673,409941247.86716,76500905.90864,   0.00141,   0.00092,   0.00099,471244586.97476,   0.00000,274640135.82653,   0.00000,   0.00000,   0.00000,-3395548.85177,   0.00000
487519569.38557,411176977.60735,76861510.31680,   0.00142,   0.00092,   0.00100,473294928.86397,   0.00000,274640135.82653,   0.00000,   0.00000,   0.00000,-1345206.96256,   0.00000
489100353.16870,411987785.52563,77100669.48695,   0.00142,   0.00092,   0.00100,474640136.52059,   0.00000,274640135.82653,   0.00000,   0.00000,   0.00000,   0.69407,   0.00000
489204067.02410,411831139.79452,77091954.27550,   0.00142,   0.00092,   0.00100,474640136.52059,   0.00000,274642546.15950,   0.00000,   0.00000,   0.00000,   0.00000,   2.00000
489507098.23131,411377491.01410,77062345.98435,   0.00143,   0.00092,   0.00101,476644809.81363,   0.00001,274649610.69587,   0.00001,   0.00000,   0.00001,   0.00000,   2.00000
489816402.66686,410900677.02415,77039836.73227,   0.00144,   0.00092,   0.00101,476661533.78780,   0.00002,274656710.22147,   0.00001,   0.00001,   0.00001,   0.00000,   2.00000
490133455.94249,410413675.10643,77012863.67431,   0.00145,   0.00092,   0.00102,476646773.31779,   0.00002,274663733.51718,   0.00002,   0.00001,   0.00002,   0.00000,   2.00000
490440871.14733,409934085.19231,76990220.51442,   0.00146,   0.00092,   0.00102,476631815.64644,   0.00003,274670680.16056,   0.00003,   0.00002,   0.00002,   0.00000,   2.00000
490745816.28446,409456012.98635,76967517.84916,   0.00147,   0.00092,   0.00103,476639829.22139,   0.00003,274677631.51153,   0.00003,   0.00002,   0.00003,   0.00000,   2.00000
491060007.20296,408948643.29526,76951789.17955,   0.00148,   0.00093,   0.00103,476610717.77163,   0.00004,274684456.64335,   0.00004,   0.00002,   0.00003,  -0.00000,   2.00000
491365795.36084,408458264.22984,76932440.95153,   0.00148,   0.00093,   0.00104,476637238.71338,   0.00005,274691352.36017,   0.00004,   0.00003,   0.00004,   0.00000,   2.00000
491680741.55929,407938414.20842,76920019.15626,   0.00149,   0.00093,   0.00104,476608219.10829,   0.00005,274698122.43115,   0.00005,   0.00003,   0.00004,   0.00000,   2.00000
491997466.68118,407423598.84214,76899519.10954,   0.00150,   0.00093,   0.00105,476611915.16793,   0.00006,274704882.78040,   0.00006,   0.00003,   0.00005,  -0.00000,   2.00000
492300356.87834,406912603.84360,76891259.46625,   0.00151,   0.00093,   0.00105,476600945.97033,   0.00007,274711581.70592,   0.00006,   0.00004,   0.00005,   0.00000,   2.00000
492616698.54791,406375316.17715,76881880.08316,   0.00152,   0.00093,   0.00105,476567677.15077,   0.00007,274718140.70576,   0.00007,   0.00004,   0.00005,   0.00000,   2.00000
492920280.82671,405851755.97407,76876811.60562,   0.00152,   0.00093,   0.00106,476598162.86781,   0.00008,274724785.57234,   0.00007,   0.00004,   0.00006,   0.00000,   2.00000
493237221.92651,405301704.28848,76870576.99665,   0.00153,   0.00093,   0.00106,476564997.21533,   0.00008,274731291.10160,   0.00008,   0.00004,   0.00006,   0.00000,   2.00000
493545792.75424,404768957.81259,76860696.79374,   0.00154,   0.00093,   0.00107,476591137.46735,   0.00009,274737867.37845,   0.00009,   0.00005,   0.00007,   0.00000,   2.00000
493856531.13726,404211736.05140,76861989.07860,   0.00155,   0.00093,   0.00107,476539047.51815,   0.00009,274744237.66136,   0.00009,   0.00005,   0.00007,   0.00000,   2.00000
494171316.27099,403650322.76468,76858663.04610,   0.00156,   0.00093,   0.00108,476570035.18388,   0.00010,274750696.50807,   0.00010,   0.00005,   0.00008,   0.00000,   2.00000
494476826.64694,403096089.25945,76859546.97516,   0.00157,   0.00093,   0.00108,476554503.97097,   0.00011,274757079.04145,   0.00010,   0.00006,   0.00008,   0.00000,   2.00000
494795476.96154,402514791.86550,76859157.44562,   0.00157,   0.00093,   0.00109,476521477.78294,   0.00011,274763323.68530,   0.00011,   0.00006,   0.00009,   0.00000,   2.00000
495101384.61781,401947581.85276,76863058.79475,   0.00158,   0.00093,   0.00109,476551584.92190,   0.00012,274769654.36992,   0.00011,   0.00006,   0.00009,  -0.00000,   2.00000
495413818.21761,401358693.43398,76870058.61213,   0.00159,   0.00093,   0.00109,476495295.56091,   0.00012,274775764.98819,   0.00012,   0.00007,   0.00009,   0.00000,   2.00000
495719174.88184,400767824.72157,76884753.35301,   0.00160,   0.00093,   0.00110,476507099.75772,   0.00013,274781897.48756,   0.00012,   0.00007,   0.00010,   0.00000,   2.00000
496026324.64748,400181833.25764,76891210.78210,   0.00161,   0.00093,   0.00110,476510367.06324,   0.00013,274788021.49788,   0.00013,   0.00007,   0.00010,  -0.00000,   2.00000
496336401.79088,399581030.53493,76900830.98938,   0.00161,   0.00092,   0.00111,476499833.74059,   0.00014,274794088.21830,   0.00013,   0.00007,   0.00011,   0.00000,   2.00000
496649327.53976,398965356.97182,76913585.11883,   0.00162,   0.00092,   0.00111,476489333.43809,   0.00015,274800098.02561,   0.00014,   0.00008,   0.00011,   0.00000,   2.00000
496953181.85729,398356620.06382,76930479.36150,   0.00163,   0.00092,   0.00112,476473385.07416,   0.00015,274806031.78192,   0.00015,   0.00008,   0.00012,   0.00000,   2.00000
497259882.12159,397732871.36831,76950465.15794,   0.00164,   0.00092,   0.00112,476462830.56988,   0.00016,274811908.93452,   0.00015,   0.00008,   0.00012,   0.00000,   2.00000
497573784.15292,397097429.79836,76965562.67533,   0.00165,   0.00092,   0.00112,476448033.30170,   0.00016,274817714.62356,   0.00016,   0.00008,   0.00012,   0.00000,   2.00000
497880475.92174,396459990.74950,76988296.43588,   0.00165,   0.00092,   0.00113,476459702.03268,   0.00017,274823543.07169,   0.00016,   0.00009,   0.00013,   0.00000,   2.00000
498182682.04014,395832734.41287,77007186.45714,   0.00166,   0.00092,   0.00113,476439280.16778,   0.00017,274829280.21187,   0.00017,   0.00009,   0.00013,  -0.00000,   2.00000
498483177.24123,395186823.72395,77037079.73692,   0.00167,   0.00092,   0.00114,476433006.77087,   0.00018,274834976.70973,   0.00017,   0.00009,   0.00014,   0.00000,   2.00000
498790793.78879,394528933.75247,77062014.56948,   0.00168,   0.00092,   0.00114,476418226.41547,   0.00018,274840602.48234,   0.00018,   0.00009,   0.00014,   0.00000,   2.00000
499100977.32945,393855615.84741,77089945.79069,   0.00168,   0.00092,   0.00115,476407753.57738,   0.00019,274846173.12942,   0.00018,   0.00010,   0.00014,   0.00000,   2.00000
499402265.23336,393188931.93262,77121962.15114,   0.00169,   0.00091,   0.00115,476391420.04899,   0.00019,274851667.97729,   0.00019,   0.00010,   0.00015,   0.00000,   2.00000
499700814.52063,392523551.51277,77153588.32442,   0.00170,   0.00091,   0.00115,476398581.33487,   0.00020,274857170.83069,   0.00019,   0.00010,   0.00015,  -0.00000,   2.00000
500007169.35437,391825592.92582,77191511.30824,   0.00171,   0.00091,   0.00116,476370459.39621,   0.00020,274862556.25407,   0.00020,   0.00010,   0.00016,   0.00000,   2.00000
500299462.71539,391151139.56292,77230149.99417,   0.00172,   0.00091,   0.00116,476371573.49815,   0.00021,274867928.60247,   0.00020,   0.00011,   0.00016,   0.00000,   2.00000
500603968.07223,390447154.47417,77267086.40996,   0.00172,   0.00091,   0.00117,476339191.48877,   0.00021,274873168.71056,   0.00021,   0.00011,   0.00016,   0.00000,   2.00000
500901133.95735,389741062.81951,77311543.42360,   0.00173,   0.00091,   0.00117,476350541.84547,   0.00022,274878432.83415,   0.00021,   0.00011,   0.00017,   0.00000,   2.00000
501199975.65479,389039524.20437,77347597.16200,   0.00174,   0.00091,   0.00118,476353312.70670,   0.00022,274883690.27558,   0.00022,   0.00011,   0.00017,  -0.00000,   2.00000
501495930.90254,388306528.94962,77402308.30969,   0.00175,   0.00090,   0.00118,476306011.49598,   0.00023,274888762.68089,   0.00022,   0.00012,   0.00017,   0.00000,   2.00000
501788415.48834,387595311.62405,77445261.04080,   0.00175,   0.00090,   0.00118,476326103.29533,   0.00023,274893890.89958,   0.00023,   0.00012,   0.00018,  -0.00000,   2.00000
502088245.31351,386850538.16678,77494369.46807,   0.00176,   0.00090,   0.00119,476298291.17194,   0.00024,274898903.92898,   0.00023,   0.00012,   0.00018,   0.00000,   2.00000
502379410.75109,386111927.66733,77547508.41708,   0.00177,   0.00090,   0.00119,476281468.14439,   0.00024,274903841.33339,   0.00023,   0.00012,   0.00018,   0.00000,   2.00000
502667726.14697,385374429.97064,77600152.67687,   0.00177,   0.00090,   0.00120,476288322.21829,   0.00025,274908787.91917,   0.00024,   0.00012,   0.00019,   0.00000,   2.00000
502963154.29455,384602927.62646,77658873.66155,   0.00178,   0.00089,   0.00120,476260660.40026,   0.00025,274913620.42164,   0.00024,   0.00013,   0.00019,   0.00000,   2.00000
503245026.28124,383855050.32820,77718321.28349,   0.00179,   0.00089,   0.00120,476260917.56793,   0.00025,274918438.93245,   0.00025,   0.00013,   0.00019,   0.00000,   2.00000
503538442.38941,383076130.23336,77775856.00622,   0.00180,   0.00089,   0.00121,476228992.62775,   0.00026,274923128.42896,   0.00025,   0.00013,   0.00020,   0.00000,   2.00000
503824327.36395,382294945.64933,77840803.14627,   0.00180,   0.00089,   0.00121,476240090.89097,   0.00026,274927843.32961,   0.00026,   0.00013,   0.00020,   0.00000,   2.00000
504106283.37112,381522875.65287,77901813.11516,   0.00181,   0.00089,   0.00122,476218647.55925,   0.00027,274932466.96150,   0.00026,   0.00013,   0.00020,   0.00000,   2.00000
504390415.53351,380712758.77618,77976745.76033,   0.00182,   0.00088,   0.00122,476195527.30770,   0.00027,274936993.73404,   0.00027,   0.00013,   0.00021,   0.00000,   2.00000
504665840.86959,379929538.35090,78044462.09224,   0.00182,   0.00088,   0.00122,476190980.59207,   0.00027,274941490.39528,   0.00027,   0.00014,   0.00021,  -0.00000,   2.00000
504953306.14027,379106472.75086,78113536.57258,   0.00183,   0.00088,   0.00123,476187559.19317,   0.00028,274945961.19611,   0.00027,   0.00014,   0.00021,   0.00000,   2.00000
505226872.54558,378293692.03400,78191193.40407,   0.00184,   0.00088,   0.00123,476146329.54150,   0.00028,274950270.47334,   0.00028,   0.00014,   0.00022,  -0.00000,   2.00000
505507517.21341,377458925.65765,78266895.47676,   0.00185,   0.00087,   0.00124,476159931.93313,   0.00029,274954615.66487,   0.00028,   0.00014,   0.00022,   0.00000,   2.00000
505779731.68961,376629619.40743,78346587.67495,   0.00185,   0.00087,   0.00124,476142553.27486,   0.00029,274958885.32974,   0.00029,   0.00014,   0.00022,   0.00000,   2.00000
506053523.83731,375782829.24091,78428890.41691,   0.00186,   0.00087,   0.00124,476132276.36758,   0.00029,274963105.26359,   0.00029,   0.00014,   0.00022,   0.00000,   2.00000
506323561.94531,374944575.29695,78507244.25535,   0.00187,   0.00086,   0.00125,476110410.42702,   0.00030,274967233.84974,   0.00029,   0.00015,   0.00023,   0.00000,   2.00000
506590483.17830,374085422.74627,78596134.47931,   0.00187,   0.00086,   0.00125,476104475.82739,   0.00030,274971328.78139,   0.00030,   0.00015,   0.00023,  -0.00000,   2.00000
506858199.95544,373216147.22903,78684277.21447,   0.00188,   0.00086,   0.00126,476065822.73056,   0.00031,274975272.28060,   0.00030,   0.00015,   0.00023,   0.00000,   2.00000
507118168.08987,372344306.43264,78779702.77868,   0.00189,   0.00086,   0.00126,476076548.58344,   0.00031,274979242.78068,   0.00031,   0.00015,   0.00024,   0.00000,   2.00000
507384075.40345,371457658.95077,78869724.39800,   0.00189,   0.00085,   0.00126,476061975.76465,   0.00031,274983148.97244,   0.00031,   0.00015,   0.00024,   0.00000,   2.00000
507641681.60491,370575962.90594,78963735.38166,   0.00190,   0.00085,   0.00127,476044224.98468,   0.00032,274986979.53804,   0.00031,   0.00015,   0.00024,   0.00000,   2.00000
507904806.79331,369657258.70967,79063443.67683,   0.00191,   0.00085,   0.00127,476017549.25253,   0.00032,274990702.53420,   0.00032,   0.00015,   0.00024,   0.00000,   2.00000
508155308.70850,368762161.83689,79163942.73491,   0.00191,   0.00084,   0.00128,476016146.01338,   0.00032,274994409.51554,   0.00032,   0.00015,   0.00025,   0.00000,   2.00000
508411148.68254,367829698.98782,79270098.09771,   0.00192,   0.00084,   0.00128,475989581.68773,   0.00033,274998009.61423,   0.00032,   0.00016,   0.00025,   0.00000,   2.00000
508663682.00815,366897643.47771,79375531.29483,   0.00193,   0.00083,   0.00128,475995849.01766,   0.00033,275001621.93103,   0.00033,   0.00016,   0.00025,   0.00000,   2.00000
508912643.57496,365973297.16780,79477021.14417,   0.00193,   0.00083,   0.00129,475973480.62960,   0.00033,275005142.66760,   0.00033,   0.00016,   0.00025,  -0.00000,   2.00000
509152838.62400,365031119.69232,79593586.28481,   0.00194,   0.00083,   0.00129,475943560.53861,   0.00034,275008544.74240,   0.00033,   0.00016,   0.00026,  -0.00000,   2.00000
509403455.92169,364069114.40892,79699932.88132,   0.00194,   0.00082,   0.00129,475953283.27229,   0.00034,275011972.27129,   0.00034,   0.00016,   0.00026,   0.00000,   2.00000
509636180.54148,363112259.20356,79822898.87048,   0.00195,   0.00082,   0.00130,475915391.00043,   0.00034,275015252.34964,   0.00034,   0.00016,   0.00026,   0.00000,   2.00000
509874310.52761,362139378.52537,79940334.06535,   0.00196,   0.00082,   0.00130,475900878.91684,   0.00035,275018470.27844,   0.00034,   0.00016,   0.00026,   0.00000,   2.00000
510112981.68078,361147208.14266,80060144.32753,   0.00196,   0.00081,   0.00131,475890878.34819,   0.00035,275021642.65050,   0.00035,   0.00016,   0.00027,   0.00000,   2.00000
510348193.62499,360155160.50812,80179183.69282,   0.00197,   0.00081,   0.00131,475896953.48565,   0.00035,275024828.06673,   0.00035,   0.00016,   0.00027,   0.00000,   2.00000
510574206.18853,359151242.40215,80310082.52381,   0.00197,   0.00080,   0.00131,475838439.50785,   0.00035,275027791.31110,   0.00035,   0.00017,   0.00027,   0.00000,   2.00000
510801536.05488,358143565.82563,80435429.77567,   0.00198,   0.00080,   0.00132,475868684.71834,   0.00036,275030856.38304,   0.00035,   0.00017,   0.00027,  -0.00000,   2.00000
511019640.04506,357123583.82420,80572646.39811,   0.00199,   0.00080,   0.00132,475810149.65225,   0.00036,275033699.24729,   0.00036,   0.00017,   0.00027,  -0.00000,   2.00000
511247413.44528,356083101.81885,80699473.22865,   0.00199,   0.00079,   0.00133,475820120.67137,   0.00036,275036570.50495,   0.00036,   0.00017,   0.00028,   0.00000,   2.00000
511462098.08201,355043027.71251,80838187.66961,   0.00200,   0.00079,   0.00133,475806190.34527,   0.00036,275039382.78379,   0.00036,   0.00017,   0.00028,  -0.00000,   2.00000
511676921.53399,353989443.90707,80976078.17244,   0.00200,   0.00078,   0.00133,475767518.90819,   0.00037,275042045.74207,   0.00037,   0.00017,   0.00028,   0.00000,   2.00000
511883322.05558,352932544.53910,81121043.33980,   0.00201,   0.00078,   0.00134,475777830.47484,   0.00037,275044738.99930,   0.00037,   0.00017,   0.00028,  -0.00000,   2.00000
512089780.33756,351861769.22334,81265182.22058,   0.00201,   0.00077,   0.00134,475739168.99929,   0.00037,275047283.09971,   0.00037,   0.00017,   0.00028,   0.00000,   2.00000
512292583.83884,350790661.90224,81408489.03462,   0.00202,   0.00077,   0.00134,475744922.28279,   0.00037,275049841.19811,   0.00037,   0.00017,   0.00029,   0.00000,   2.00000
512493853.98464,349681914.31873,81561925.04813,   0.00202,   0.00076,   0.00135,475695343.33677,   0.00038,275052210.27628,   0.00037,   0.00017,   0.00029,   0.00000,   2.00000
512688018.87526,348593066.13181,81711441.29812,   0.00203,   0.00076,   0.00135,475716482.94469,   0.00038,275054650.43687,   0.00038,   0.00017,   0.00029,   0.00000,   2.00000
512880418.18707,347466047.23832,81871066.44630,   0.00204,   0.00075,   0.00135,475667055.96974,   0.00038,275056902.16323,   0.00038,   0.00017,   0.00029,   0.00000,   2.00000
513068931.32826,346338418.87088,82029806.79705,   0.00204,   0.00075,   0.00136,475672780.23404,   0.00038,275059168.77983,   0.00038,   0.00017,   0.00029,   0.00000,   2.00000
513249102.79459,345213303.74341,82192553.37057,   0.00205,   0.00074,   0.00136,475653975.85165,   0.00038,275061359.90054,   0.00038,   0.00017,   0.00029,   0.00000,   2.00000
513431989.29352,344052149.67357,82357500.61924,   0.00205,   0.00074,   0.00137,475600193.61874,   0.00039,275063346.74655,   0.00039,   0.00018,   0.00029,  -0.00000,   2.00000
513602971.76341,342907965.24509,82526398.63475,   0.00206,   0.00073,   0.00137,475625466.00992,   0.00039,275065421.44885,   0.00039,   0.00018,   0.00030,   0.00000,   2.00000
513780834.31820,341724258.40731,82692560.49290,   0.00206,   0.00073,   0.00137,475596415.84417,   0.00039,275067383.20798,   0.00039,   0.00018,   0.00030,   0.00000,   2.00000
513945800.63183,340545372.66548,82867669.69983,   0.00207,   0.00072,   0.00138,475552926.38686,   0.00039,275069178.82491,   0.00039,   0.00018,   0.00030,  -0.00000,   2.00000
514111102.45394,339362717.27209,83036925.68728,   0.00207,   0.00072,   0.00138,475582999.54605,   0.00039,275071080.90786,   0.00039,   0.00018,   0.00030,   0.00000,   2.00000
514269109.18134,338142300.73036,83221158.70181,   0.00208,   0.00071,   0.00138,475509684.97100,   0.00040,275072706.22009,   0.00039,   0.00018,   0.00030,   0.00000,   2.00000
514420201.50045,336941943.87432,83401465.28986,   0.00208,   0.00071,   0.00139,475529972.74323,   0.00040,275074402.41427,   0.00040,   0.00018,   0.00030,   0.00000,   2.00000
514572396.79108,335697861.85040,83586797.19085,   0.00208,   0.00070,   0.00139,475506004.47101,   0.00040,275076005.09194,   0.00040,   0.00018,   0.00030,   0.00000,   2.00000
514715930.18148,334455072.28520,83776153.22267,   0.00209,   0.00070,   0.00139,475486955.89890,   0.00040,275077532.69447,   0.00040,   0.00018,   0.00030,   0.00000,   2.00000
514855865.75682,333216432.08494,83961713.11028,   0.00209,   0.00069,   0.00140,475463126.39330,   0.00040,275078967.53911,   0.00040,   0.00018,   0.00031,   0.94442,   1.00000
514988920.29813,331951936.03831,84157121.71936,   0.00210,   0.00069,   0.00140,475458648.54084,   0.00040,275080381.90440,   0.00040,   0.00018,   0.00031,   0.92195,   1.00000
515120671.08726,330669641.37209,84351693.35078,   0.00210,   0.00068,   0.00140,475420307.02057,   0.00040,275081649.55220,   0.00040,   0.00018,   0.00031,   0.74404,   1.00000
515238645.67001,329385132.22529,84558157.64868,   0.00211,   0.00067,   0.00141,475405725.14722,   0.00040,275082859.42477,   0.00040,   0.00018,   0.00031,   0.68088,   1.00000
515359380.76409,328080122.56473,84758741.17099,   0.00211,   0.00067,   0.00141,475392066.90203,   0.00041,275084015.07459,   0.00041,   0.00018,   0.00031,   0.62404,   1.00000
515473425.05257,326753624.37626,84966316.19955,   0.00212,   0.00066,   0.00141,475358508.14599,   0.00041,275085042.14297,   0.00041,   0.00018,   0.00031,   0.49513,   1.00000
515582754.24393,325425316.67708,85172879.50627,   0.00212,   0.00066,   0.00142,475363915.04737,   0.00041,275086086.78466,   0.00041,   0.00018,   0.00031,   0.51450,   1.00000
515685165.75576,324075074.56075,85386426.46214,   0.00212,   0.00065,   0.00142,475330467.73958,   0.00041,275087003.27825,   0.00041,   0.00018,   0.00031,   0.39777,   1.00000
515778580.01753,322724792.05459,85604050.69688,   0.00213,   0.00064,   0.00143,475311111.03523,   0.00041,275087844.71547,   0.00041,   0.00018,   0.00031,   0.33674,   1.00000
515874135.36130,321353117.86090,85815736.49649,   0.00213,   0.00064,   0.00143,475297683.25166,   0.00041,275088633.49955,   0.00041,   0.00018,   0.00031,   0.29718,   1.00000
515955488.33555,319978243.85496,86039319.92992,   0.00213,   0.00063,   0.00143,475283048.63936,   0.00041,275089365.16950,   0.00041,   0.00018,   0.00031,   0.25679,   1.00000
516034595.36748,318583318.13564,86262084.24019,   0.00214,   0.00062,   0.00144,475244949.15051,   0.00041,275089951.39924,   0.00041,   0.00018,   0.00031,   0.16553,   1.00000
516105103.44990,317160685.18833,86494459.72893,   0.00214,   0.00062,   0.00144,475241270.73381,   0.00041,275090522.25700,   0.00041,   0.00018,   0.00031,   0.15762,   1.00000
516171456.46761,315740054.52743,86723137.83594,   0.00215,   0.00061,   0.00144,475217065.78423,   0.00041,275091000.22754,   0.00041,   0.00018,   0.00031,   0.11095,   1.00000
516232649.98289,314317022.59067,86950753.37045,   0.00215,   0.00060,   0.00145,475222359.11594,   0.00041,275091496.99047,   0.00041,   0.00018,   0.00031,   0.12032,   1.00000
516283169.32294,312848614.36958,87193371.36761,   0.00215,   0.00060,   0.00145,475150918.49387,   0.00041,275091721.98839,   0.00041,   0.00018,   0.00032,   0.02478,   1.00000
516328235.82580,311377457.24404,87434893.67350,   0.00216,   0.00059,   0.00145,475156229.56900,   0.00041,275091966.55297,   0.00041,   0.00018,   0.00032,   0.02939,   1.00000
516367854.77971,309903588.95020,87675316.26540,   0.00216,   0.00058,   0.00146,475161557.57079,   0.00041,275092230.72291,   0.00041,   0.00018,   0.00032,   0.03442,   1.00000
516400184.52351,308408916.65160,87920159.04908,   0.00216,   0.00058,   0.00146,475098983.15858,   0.00041,275092256.38805,   0.00041,   0.00018,   0.00032,   0.00033,   1.00000
516422704.64628,306885285.13474,88174459.57344,   0.00217,   0.00057,   0.00146,475095857.97401,   0.00041,275092270.09508,   0.00041,   0.00018,   0.00032,   0.00009,   1.00000
516418307.03155,305350517.59265,88420725.99853,   0.00217,   0.00056,   0.00146,475071450.88223,   0.00041,275092270.09508,   0.00041,   0.00018,   0.00032,-20819.21285,   0.00000
516400716.57261,303784966.74743,88675787.65309,   0.00217,   0.00056,   0.00147,475047805.52463,   0.00041,275092270.09508,   0.00041,   0.00018,   0.00032,-44464.57045,   0.00000
516352342.81054,302206223.05801,88922054.07818,   0.00217,   0.00055,   0.00147,474999838.94465,   0.00041,275092270.09508,   0.00041,   0.00018,   0.00032,-92431.15043,   0.00000
516259992.90113,300583503.22125,89168320.50327,   0.00218,   0.00054,   0.00147,474919523.27100,   0.00041,275092270.09508,   0.00041,   0.00018,   0.00032,-172746.82408,   0.00000
516136859.68859,298947590.54029,89414586.92836,   0.00218,   0.00054,   0.00148,474819917.75073,   0.00041,275092270.09508,   0.00041,   0.00018,   0.00032,-272352.34435,   0.00000
516000533.63184,297280894.55619,89660853.35345,   0.00218,   0.00053,   0.00148,474713162.46670,   0.00041,275092270.09508,   0.00041,   0.00018,   0.00032,-379107.62838,   0.00000
515820231.42775,295570222.42475,89907119.77854,   0.00218,   0.00052,   0.00148,474574585.87743,   0.00041,275092270.09508,   0.00041,   0.00018,   0.00032,-517684.21765,   0.00000
515609145.92053,293846357.44911,90144590.97417,   0.00219,   0.00051,   0.00149,474411999.84035,   0.00041,275092270.09508,   0.00041,   0.00018,   0.00032,-680270.25474,   0.00000
515384867.56911,292091709.17034,90390857.39926,   0.00219,   0.00051,   0.00149,474247828.39841,   0.00041,275092270.09508,   0.00041,   0.00018,   0.00032,-844441.69667,   0.00000
515099022.61142,290310675.20317,90628328.59488,   0.00219,   0.00050,   0.00149,474034838.39592,   0.00041,275092270.09508,   0.00041,   0.00018,   0.00032,-1057431.69916,   0.00000
514799984.80952,288498857.93285,90865799.79051,   0.00219,   0.00049,   0.00150,473815563.71836,   0.00041,275092270.09508,   0.00041,   0.00018,   0.00032,-1276706.37672,   0.00000
514500947.00762,286687040.66254,91112066.21560,   0.00220,   0.00048,   0.00150,473607596.71919,   0.00041,275092270.09508,   0.00041,   0.00018,   0.00032,-1484673.37590,   0.00000
514127149.75525,284818054.40069,91349537.41122,   0.00220,   0.00047,   0.00150,473338747.27929,   0.00041,275092270.09508,   0.00041,   0.00018,   0.00032,-1753522.81580,   0.00000
513753352.50288,282949068.13884,91578213.37738,   0.00220,   0.00047,   0.00151,473071197.09497,   0.00041,275092270.09508,   0.00041,   0.00018,   0.00032,-2021073.00011,   0.00000
513335579.10317,281036105.72965,91815684.57300,   0.00220,   0.00046,   0.00151,472778211.44176,   0.00041,275092270.09508,   0.00041,   0.00018,   0.00032,-2314058.65332,   0.00000
512873829.55613,279079167.17312,92053155.76862,   0.00220,   0.00045,   0.00151,472454966.99377,   0.00041,275092270.09508,   0.00041,   0.00018,   0.00032,-2637303.10131,   0.00000
512381296.70595,277109035.77239,92281831.73478,   0.00221,   0.00044,   0.00152,472108391.41849,   0.00041,275092270.09508,   0.00041,   0.00018,   0.00032,-2983878.67659,   0.00000
511888763.85576,275138904.37166,92519302.93040,   0.00221,   0.00044,   0.00152,471773752.82795,   0.00041,275092270.09508,   0.00041,   0.00018,   0.00032,-3318517.26713,   0.00000
511339062.01404,273094013.52046,92747978.89656,   0.00221,   0.00043,   0.00152,471392514.38170,   0.00041,275092270.09508,   0.00041,   0.00018,   0.00032,-3699755.71338,   0.00000
510771769.71339,271066713.12819,92976654.86271,   0.00221,   0.00042,   0.00152,471005004.19398,   0.00041,275092270.09508,   0.00041,   0.00018,   0.00032,-4087265.90110,   0.00000
510160501.26539,268995436.58859,93205330.82887,   0.00221,   0.00041,   0.00153,470588074.93759,   0.00041,275092270.09508,   0.00041,   0.00018,   0.00032,-4504195.15750,   0.00000
509536039.97320,266893376.74585,93434006.79503,   0.00221,   0.00040,   0.00153,470166988.60887,   0.00041,275092270.09508,   0.00041,   0.00018,   0.00032,-4925281.48621,   0.00000
508850012.07473,264764931.21470,93662682.76118,   0.00221,   0.00039,   0.00153,469703374.02458,   0.00041,275092270.09508,   0.00041,   0.00018,   0.00032,-5388896.07050,   0.00000
508150791.33206,262605702.38042,93882563.49787,   0.00221,   0.00039,   0.00154,469230746.40094,   0.00041,275092270.09508,   0.00041,   0.00018,   0.00032,-5861523.69414,   0.00000
507407594.44205,260402497.39881,94111239.46403,   0.00221,   0.00038,   0.00154,468734998.62667,   0.00041,275092270.09508,   0.00041,   0.00018,   0.00032,-6357271.46841,   0.00000
506646807.09311,258216882.87612,94331120.20072,   0.00222,   0.00037,   0.00154,468227794.14314,   0.00041,275092270.09508,   0.00041,   0.00018,   0.00032,-6864475.95194,   0.00000
505859634.05577,255969701.74717,94551000.93740,   0.00222,   0.00036,   0.00154,467706524.71307,   0.00041,275092270.09508,   0.00041,   0.00018,   0.00032,-7385745.38201,   0.00000
505010894.41215,253696134.92981,94779676.90356,   0.00222,   0.00035,   0.00155,467148779.09003,   0.00041,275092270.09508,   0.00041,   0.00018,   0.00032,-7943491.00505,   0.00000
504162154.76853,251422568.11245,94990762.41078,   0.00222,   0.00034,   0.00155,466588445.19581,   0.00041,275092270.09508,   0.00041,   0.00018,   0.00032,-8503824.89927,   0.00000
503269438.97758,249105025.14776,95210643.14747,   0.00222,   0.00033,   0.00155,466006110.70642,   0.00041,275092270.09508,   0.00041,   0.00018,   0.00032,-9086159.38866,   0.00000
502345939.88349,246774289.33886,95430523.88416,   0.00222,   0.00032,   0.00156,465407225.49777,   0.00041,275092270.09508,   0.00041,   0.00018,   0.00032,-9685044.59732,   0.00000
501409247.94519,244412770.22682,95641609.39138,   0.00222,   0.00032,   0.00156,464800995.27454,   0.00041,275092270.09508,   0.00041,   0.00018,   0.00032,-10291274.82054,   0.00000
500397796.55643,241994082.12325,95861490.12807,   0.00222,   0.00031,   0.00156,464148748.76030,   0.00041,275092270.09508,   0.00041,   0.00018,   0.00032,-10943521.33478,   0.00000
499386345.16766,239575394.01968,96072575.63529,   0.00222,   0.00030,   0.00156,463499978.54973,   0.00041,275092270.09508,   0.00041,   0.00018,   0.00032,-11592291.54535,   0.00000
498344110.47576,237143513.07191,96283661.14251,   0.00222,   0.00029,   0.00157,462835235.66174,   0.00041,275092270.09508,   0.00041,   0.00018,   0.00032,-12257034.43334,   0.00000
497227116.33338,234654463.13259,96494746.64973,   0.00222,   0.00028,   0.00157,462119755.73445,   0.00041,275092270.09508,   0.00041,   0.00018,   0.00032,-12972514.36064,   0.00000
496096929.34680,232134629.89014,96705832.15695,   0.00222,   0.00027,   0.00157,461403756.52730,   0.00041,275092270.09508,   0.00041,   0.00018,   0.00032,-13688513.56778,   0.00000
494966742.36022,229614796.64769,96916917.66417,   0.00222,   0.00026,   0.00158,460697308.19315,   0.00041,275092270.09508,   0.00041,   0.00018,   0.00032,-14394961.90194,   0.00000
493774988.76737,227068577.71684,97119207.94192,   0.00222,   0.00025,   0.00158,459945122.55356,   0.00041,275092270.09508,   0.00041,   0.00018,   0.00032,-15147147.54152,   0.00000
492539259.02718,224478382.63865,97330293.44915,   0.00222,   0.00024,   0.00158,459173831.75802,   0.00041,275092270.09508,   0.00041,   0.00018,   0.00032,-15918438.33706,   0.00000
491290336.44279,221857404.25733,97532583.72690,   0.00222,   0.00023,   0.00158,458397554.95781,   0.00041,275092270.09508,   0.00041,   0.00018,   0.00032,-16694715.13727,   0.00000
490010630.55527,219223233.03180,97734874.00465,   0.00222,   0.00022,   0.00159,457606649.97127,   0.00041,275092270.09508,   0.00041,   0.00018,   0.00032,-17485620.12382,   0.00000
488700141.36460,216575868.96207,97937164.28241,   0.00222,   0.00021,   0.00159,456801206.05310,   0.00041,275092270.09508,   0.00041,   0.00018,   0.00032,-18291064.04198,   0.00000
487345676.02660,213884528.74500,98130659.33069,   0.00221,   0.00020,   0.00159,455966641.57311,   0.00041,275092270.09508,   0.00041,   0.00018,   0.00032,-19125628.52197,   0.00000
485960427.38547,211179995.68374,98332949.60844,   0.00221,   0.00019,   0.00159,455123624.45824,   0.00041,275092270.09508,   0.00041,   0.00018,   0.00032,-19968645.63684,   0.00000
484531202.59699,208431486.47513,98535239.88620,   0.00221,   0.00018,   0.00160,454257848.07941,   0.00041,275092270.09508,   0.00041,   0.00018,   0.00032,-20834422.01567,   0.00000
483058001.66118,205639001.11919,98728734.93448,   0.00221,   0.00018,   0.00160,453364043.69033,   0.00041,275092270.09508,   0.00041,   0.00018,   0.00032,-21728226.40476,   0.00000
481597993.56957,202877299.06638,98922229.98277,   0.00221,   0.00017,   0.00160,452490163.94814,   0.00041,275092270.09508,   0.00041,   0.00018,   0.00032,-22602106.14694,   0.00000
480050033.18328,200027644.71890,99115725.03106,   0.00221,   0.00016,   0.00160,451561287.50312,   0.00041,275092270.09508,   0.00041,   0.00018,   0.00032,-23530982.59196,   0.00000
478515265.64120,197208773.67455,99309220.07934,   0.00221,   0.00015,   0.00161,450652543.23318,   0.00041,275092270.09508,   0.00041,   0.00018,   0.00032,-24439726.86190,   0.00000
476892545.80444,194301950.33553,99493919.89816,   0.00221,   0.00014,   0.00161,449684018.71520,   0.00041,275092270.09508,   0.00041,   0.00018,   0.00032,-25408251.37988,   0.00000
475283018.81188,191425910.29965,99687414.94645,   0.00220,   0.00013,   0.00161,448741668.08428,   0.00041,275092270.09508,   0.00041,   0.00018,   0.00032,-26350602.01080,   0.00000
473629515.67198,188505894.11643,99872114.76526,   0.00220,   0.00012,   0.00161,447773104.17631,   0.00041,275092270.09508,   0.00041,   0.00018,   0.00032,-27319165.91877,   0.00000
471932036.38475,185541901.78587,100056814.58408,   0.00220,   0.00011,   0.00162,446784707.85626,   0.00041,275092270.09508,   0.00041,   0.00018,   0.00032,-28307562.23882,   0.00000
470203773.79437,182564716.61111,100241514.40290,   0.00220,   0.00010,   0.00162,445784622.38943,   0.00041,275092270.09508,   0.00041,   0.00018,   0.00032,-29307647.70566,   0.00000
468444727.90087,179574338.59214,100426214.22172,   0.00220,   0.00008,   0.00162,444773006.72126,   0.00041,275092270.09508,   0.00041,   0.00018,   0.00032,-30319263.37382,   0.00000
466672489.16316,176553177.27004,100610914.04054,   0.00219,   0.00007,   0.00162,443767274.49399,   0.00041,275092270.09508,   0.00041,   0.00018,   0.00032,-31324995.60109,   0.00000
464825490.97498,173474846.95641,100786818.62989,   0.00219,   0.00006,   0.00163,442712860.78784,   0.00041,275092270.09508,   0.00041,   0.00018,   0.00032,-32379409.30724,   0.00000
462947709.48366,170383323.79857,100971518.44871,   0.00219,   0.00005,   0.00163,441653973.00552,   0.00041,275092270.09508,   0.00041,   0.00018,   0.00032,-33438297.08956,   0.00000
461069927.99234,167291800.64073,101147423.03806,   0.00219,   0.00004,   0.00163,440603234.38108,   0.00041,275092270.09508,   0.00041,   0.00018,   0.00032,-34489035.71401,   0.00000
459130579.89475,164173891.79449,101323327.62741,   0.00218,   0.00003,   0.00163,439517863.30333,   0.00041,275092270.09508,   0.00041,   0.00018,   0.00032,-35574406.79175,   0.00000
457164846.10875,160994416.34197,101499232.21676,   0.00218,   0.00002,   0.00163,438433795.98448,   0.00041,275092270.09508,   0.00041,   0.00018,   0.00032,-36658474.11060,   0.00000
455150738.56068,157819338.50419,101666341.57664,   0.00218,   0.00001,   0.00164,437316458.60593,   0.00041,275092270.09508,   0.00041,   0.00018,   0.00032,-37775811.48915,   0.00000
453123438.16842,154613477.36327,101842246.16599,   0.00217,   0.00000,   0.00164,436214071.82978,   0.00041,275092270.09508,   0.00041,   0.00018,   0.00032,-38878198.26531,   0.00000
451065354.47301,151394423.37816,102009355.52588,   0.00217,  -0.00001,   0.00164,435096738.70759,   0.00041,275092270.09508,   0.00041,   0.00018,   0.00032,-39995531.38750,   0.00000
448963294.63027,148131393.24570,102176464.88576,   0.00217,  -0.00002,   0.00164,433964838.63335,   0.00041,275092270.09508,   0.00041,   0.00018,   0.00032,-41127431.46173,   0.00000
446830451.48439,144855170.26904,102343574.24564,   0.00216,  -0.00003,   0.00165,432824898.96536,   0.00041,275092270.09508,   0.00041,   0.00018,   0.00032,-42267371.12972,   0.00000
444622848.88804,141521778.30085,102501888.37606,   0.00216,  -0.00004,   0.00165,431641039.06012,   0.00041,275092270.09508,   0.00041,   0.00018,   0.00032,-43451231.03496,   0.00000
442415246.29169,138188386.33265,102668997.73594,   0.00216,  -0.00005,   0.00165,430480429.96501,   0.00041,275092270.09508,   0.00041,   0.00018,   0.00032,-44611840.13008,   0.00000
440163667.54800,134811018.21711,102827311.86636,   0.00215,  -0.00006,   0.00165,429301200.62108,   0.00041,275092270.09508,   0.00041,   0.00018,   0.00032,-45791069.47400,   0.00000
437894498.34538,131451240.56052,102985625.99677,   0.00215,  -0.00007,   0.00165,428120733.87044,   0.00041,275092270.09508,   0.00041,   0.00018,   0.00032,-46971536.22464,   0.00000
435568160.15121,128016703.45344,103143940.12719,   0.00215,  -0.00009,   0.00166,426923782.03099,   0.00041,275092270.09508,   0.00041,   0.00018,   0.00032,-48168488.06409,   0.00000
433255014.80125,124612949.64951,103302254.25760,   0.00214,  -0.00010,   0.00166,425750134.38643,   0.00041,275092270.09508,   0.00041,   0.00018,   0.00032,-49342135.70865,   0.00000
430867110.00082,121152026.85403,103460568.38802,   0.00214,  -0.00011,   0.00166,424542252.36538,   0.00041,275092270.09508,   0.00041,   0.00018,   0.00032,-50550017.72970,   0.00000
428435229.05304,117647127.91122,103610087.28897,   0.00213,  -0.00012,   0.00166,423318519.04860,   0.00041,275092270.09508,   0.00041,   0.00018,   0.00032,-51773751.04648,   0.00000
425985757.64633,114159819.42734,103759606.18991,   0.00213,  -0.00013,   0.00166,422094824.11863,   0.00041,275092270.09508,   0.00041,   0.00018,   0.00032,-52997445.97645,   0.00000
423479117.24808,110597751.49299,103909125.09086,   0.00213,  -0.00014,   0.00167,420858534.47458,   0.00041,275092270.09508,   0.00041,   0.00018,   0.00032,-54233735.62050,   0.00000
420985669.69404,107066466.86177,104058643.99181,   0.00212,  -0.00015,   0.00167,419646658.90326,   0.00041,275092270.09508,   0.00041,   0.00018,   0.00032,-55445611.19182,   0.00000
418417462.68952,103478013.23901,104199367.66329,   0.00212,  -0.00016,   0.00167,418397405.85727,   0.00041,275092270.09508,   0.00041,   0.00018,   0.00032,-56694864.23781,   0.00000
415818472.38186,99876366.77206,104348886.56424,   0.00211,  -0.00018,   0.00167,417152157.77574,   0.00041,275092270.09508,   0.00041,   0.00018,   0.00032,-57940112.31935,   0.00000
413206289.23000,96243937.00197,104489610.23572,   0.00211,  -0.00019,   0.00167,415918223.62219,   0.00041,275092270.09508,   0.00041,   0.00018,   0.00032,-59174046.47289,   0.00000
410532539.47187,92585121.54347,104630333.90720,   0.00210,  -0.00020,   0.00168,414659240.76582,   0.00041,275092270.09508,   0.00041,   0.00018,   0.00032,-60433029.32926,   0.00000
407814813.56640,88882329.93764,104762262.34921,   0.00210,  -0.00021,   0.00168,413389471.03676,   0.00041,275092270.09508,   0.00041,   0.00018,   0.00032,-61702799.05832,   0.00000
405110280.50513,85210321.63494,104902986.02069,   0.00209,  -0.00022,   0.00168,412152241.79032,   0.00041,275092270.09508,   0.00041,   0.00018,   0.00032,-62940028.30476,   0.00000
402330987.99339,81481144.34070,105034914.46271,   0.00209,  -0.00023,   0.00168,410881991.87351,   0.00041,275092270.09508,   0.00041,   0.00018,   0.00032,-64210278.22157,   0.00000
399538502.63745,77721183.74333,105166842.90472,   0.00208,  -0.00024,   0.00168,409632990.19471,   0.00041,275092270.09508,   0.00041,   0.00018,   0.00032,-65459279.90037,   0.00000
396684450.67523,73934837.45756,105298771.34673,   0.00207,  -0.00026,   0.00168,408362102.74237,   0.00041,275092270.09508,   0.00041,   0.00018,   0.00032,-66730167.35271,   0.00000
393830398.71302,70148491.17178,105430699.78875,   0.00207,  -0.00027,   0.00169,407116055.80064,   0.00041,275092270.09508,   0.00041,   0.00018,   0.00032,-67976214.29445,   0.00000
390914780.14453,66335759.19761,105553833.00129,   0.00206,  -0.00028,   0.00169,405842339.51759,   0.00041,275092270.09508,   0.00041,   0.00018,   0.00032,-69249930.57749,   0.00000
387985968.73184,62492243.92029,105685761.44331,   0.00206,  -0.00029,   0.00169,404599455.26766,   0.00041,275092270.09508,   0.00041,   0.00018,   0.00032,-70492814.82742,   0.00000
384995590.71288,58622342.95458,105808894.65585,   0.00205,  -0.00030,   0.00169,403330394.30714,   0.00041,275092270.09508,   0.00041,   0.00018,   0.00032,-71761875.78795,   0.00000
381961236.54658,54708465.84152,105923232.63893,   0.00205,  -0.00031,   0.00169,402057312.87289,   0.00041,275092270.09508,   0.00041,   0.00018,   0.00032,-73034957.22219,   0.00000
378940075.22448,50825372.03161,106046365.85147,   0.00204,  -0.00033,   0.00169,400819814.73379,   0.00041,275092270.09508,   0.00041,   0.00018,   0.00032,-74272455.36129,   0.00000
375861744.91084,46867518.77121,106160703.83455,   0.00203,  -0.00034,   0.00170,399578769.87416,   0.00041,275092270.09508,   0.00041,   0.00018,   0.00032,-75513500.22092,   0.00000
372735040.83513,42914063.12556,106275041.81763,   0.00203,  -0.00035,   0.00170,398322238.83286,   0.00041,275092270.09508,   0.00041,   0.00018,   0.00032,-76770031.26222,   0.00000
369595143.91522,38929824.17676,106389379.80071,   0.00202,  -0.00036,   0.00170,397094356.60820,   0.00041,275092270.09508,   0.00041,   0.00018,   0.00032,-77997913.48688,   0.00000
366393680.38904,34919199.53957,106503717.78379,   0.00201,  -0.00037,   0.00170,395851779.32564,   0.00041,275092270.09508,   0.00041,   0.00018,   0.00032,-79240490.76944,   0.00000
363192216.86285,30908574.90237,106609260.53740,   0.00201,  -0.00039,   0.00170,394632456.66110,   0.00041,275092270.09508,   0.00041,   0.00018,   0.00032,-80459813.43398,   0.00000
359915993.88620,26840781.27363,106714803.29101,   0.00200,  -0.00040,   0.00170,393400141.64970,   0.00041,275092270.09508,   0.00041,   0.00018,   0.00032,-81692128.44539,   0.00000
356639770.90954,22772987.64490,106820346.04462,   0.00199,  -0.00041,   0.00170,392199618.88222,   0.00041,275092270.09508,   0.00041,   0.00018,   0.00032,-82892651.21286,   0.00000
353301981.32661,18678808.32776,106925888.79823,   0.00199,  -0.00042,   0.00171,390987678.81445,   0.00041,275092270.09508,   0.00041,   0.00018,   0.00032,-84104591.28064,   0.00000
349964191.74368,14584629.01062,107022636.32237,   0.00198,  -0.00043,   0.00171,389801337.93866,   0.00041,275092270.09508,   0.00041,   0.00018,   0.00032,-85290932.15642,   0.00000
346551642.71027,10433280.70194,107119383.84651,   0.00197,  -0.00045,   0.00171,388606370.29294,   0.00041,275092270.09508,   0.00041,   0.00018,   0.00032,-86485899.80215,   0.00000
343139093.67687,6281932.39327,107216131.37066,   0.00196,  -0.00046,   0.00171,387445764.17130,   0.00041,275092270.09508,   0.00041,   0.00018,   0.00032,-87646505.92378,   0.00000
339651785.19299,2073415.09305,107312878.89480,   0.00196,  -0.00047,   0.00171,386279118.03151,   0.00041,275092270.09508,   0.00041,   0.00018,   0.00032,-88813152.06357,   0.00000
336177669.55331,-2104318.90403,107400831.18948,   0.00195,  -0.00048,   0.00171,385139058.40627,   0.00041,275092270.09508,   0.00041,   0.00018,   0.00032,-89953211.68881,   0.00000
332628794.46316,-6339221.89265,107497578.71362,   0.00194,  -0.00050,   0.00171,384002469.60675,   0.00041,275092270.09508,   0.00041,   0.00018,   0.00032,-91089800.48834,   0.00000
329079919.37301,-10574124.88127,107585531.00829,   0.00193,  -0.00051,   0.00171,382895647.74483,   0.00041,275092270.09508,   0.00041,   0.00018,   0.00032,-92196622.35025,   0.00000
325456284.83239,-14866196.86143,107664688.07350,   0.00192,  -0.00052,   0.00172,381780237.20463,   0.00041,275092270.09508,   0.00041,   0.00018,   0.00032,-93312032.89045,   0.00000
321832650.29176,-19158268.84158,107752640.36818,   0.00192,  -0.00053,   0.00172,380711104.40077,   0.00041,275092270.09508,   0.00041,   0.00018,   0.00032,-94381165.69431,   0.00000
318147449.14486,-23476726.51015,107831797.43338,   0.00191,  -0.00055,   0.00172,379632857.31300,   0.00041,275092270.09508,   0.00041,   0.00018,   0.00032,-95459412.78208,   0.00000
314462247.99797,-27795184.17871,107910954.49859,   0.00190,  -0.00056,   0.00172,378594685.75537,   0.00041,275092270.09508,   0.00041,   0.00018,   0.00032,-96497584.33971,   0.00000
310715480.24480,-32140027.53567,107981316.33433,   0.00189,  -0.00057,   0.00172,377549187.73116,   0.00041,275092270.09508,   0.00041,   0.00018,   0.00032,-97543082.36392,   0.00000
306955519.64742,-36515654.19577,108060473.39954,   0.00188,  -0.00058,   0.00172,376556720.01213,   0.00041,275092270.09508,   0.00041,   0.00018,   0.00032,-98535550.08296,   0.00000
303133992.44378,-40917666.54427,108130835.23528,   0.00187,  -0.00060,   0.00172,375559370.82893,   0.00041,275092270.09508,   0.00041,   0.00018,   0.00032,-99532899.26615,   0.00000
299312465.24013,-45319678.89277,108201197.07102,   0.00186,  -0.00061,   0.00172,374605214.99195,   0.00041,275092270.09508,   0.00041,   0.00018,   0.00032,-100487055.10313,   0.00000
295429371.43022,-49748076.92968,108262763.67729,   0.00186,  -0.00062,   0.00172,373648104.17850,   0.00041,275092270.09508,   0.00041,   0.00018,   0.00032,-101444165.91658,   0.00000
291533084.77610,-54207258.26972,108333125.51303,   0.00185,  -0.00063,   0.00172,372748405.54868,   0.00041,275092270.09508,   0.00041,   0.00018,   0.00032,-102343864.54640,   0.00000
287575231.51571,-58692825.29816,108394692.11931,   0.00184,  -0.00065,   0.00172,371848345.68025,   0.00041,275092270.09508,   0.00041,   0.00018,   0.00032,-103243924.41483,   0.00000
283617378.25531,-63178392.32661,108456258.72558,   0.00183,  -0.00066,   0.00173,370994739.40974,   0.00041,275092270.09508,   0.00041,   0.00018,   0.00032,-104097530.68534,   0.00000
279597958.38865,-67690345.04345,108509030.10238,   0.00182,  -0.00067,   0.00173,370142826.84561,   0.00041,275092270.09508,   0.00041,   0.00018,   0.00032,-104949443.24948,   0.00000
275578538.52199,-72202297.76030,108561801.47919,   0.00181,  -0.00068,   0.00173,369338734.24231,   0.00041,275092270.09508,   0.00041,   0.00018,   0.00032,-105753535.85277,   0.00000
271484359.20485,-76771419.46868,108614572.85600,   0.00180,  -0.00070,   0.00173,368552878.25477,   0.00041,275092270.09508,   0.00041,   0.00018,   0.00032,-106539391.84031,   0.00000
267390179.88771,-81340541.17707,108667344.23280,   0.00179,  -0.00071,   0.00173,367816841.62731,   0.00041,275092270.09508,   0.00041,   0.00018,   0.00032,-107275428.46777,   0.00000
263234433.96430,-85936048.57386,108711320.38014,   0.00178,  -0.00072,   0.00173,367087390.56094,   0.00041,275092270.09508,   0.00041,   0.00018,   0.00032,-108004879.53414,   0.00000
259078688.04089,-90531555.97065,108755296.52748,   0.00177,  -0.00074,   0.00173,366409155.91585,   0.00041,275092270.09508,   0.00041,   0.00018,   0.00032,-108683114.17923,   0.00000
254861375.51120,-95153449.05584,108799272.67481,   0.00176,  -0.00075,   0.00173,365747568.28911,   0.00041,275092270.09508,   0.00041,   0.00018,   0.00032,-109344701.80597,   0.00000
250630870.13732,-99806125.44416,108834453.59268,   0.00175,  -0.00076,   0.00173,365138886.82736,   0.00041,275092270.09508,   0.00041,   0.00018,   0.00032,-109953383.26772,   0.00000
246382774.30450,-104441211.37356,108878429.74002,   0.00174,  -0.00077,   0.00173,364566168.07523,   0.00041,275092270.09508,   0.00041,   0.00018,   0.00032,-110526102.01986,   0.00000
242059919.02120,-109133466.29449,108913610.65789,   0.00173,  -0.00079,   0.00173,364014394.81889,   0.00041,275092270.09508,   0.00041,   0.00018,   0.00032,-111077875.27619,   0.00000
237737063.73791,-113825721.21542,108939996.34629,   0.00172,  -0.00080,   0.00173,363510065.11007,   0.00041,275092270.09508,   0.00041,   0.00018,   0.00032,-111582204.98501,   0.00000
233352641.84834,-118544361.82475,108966382.03470,   0.00171,  -0.00081,   0.00173,363028757.02520,   0.00041,275092270.09508,   0.00041,   0.00018,   0.00032,-112063513.06988,   0.00000
228955027.11457,-123293785.73722,109001562.95257,   0.00170,  -0.00083,   0.00173,362621726.15176,   0.00041,275092270.09508,   0.00041,   0.00018,   0.00032,-112470543.94332,   0.00000
224509038.61873,-128038812.03496,109019153.41150,   0.00169,  -0.00084,   0.00173,362214913.87899,   0.00041,275092270.09508,   0.00041,   0.00018,   0.00032,-112877356.21609,   0.00000
220049857.27869,-132814621.63583,109045539.09990,   0.00167,  -0.00085,   0.00173,361884361.00071,   0.00041,275092270.09508,   0.00041,   0.00018,   0.00032,-113207909.09437,   0.00000
215559892.63551,-137603624.08090,109063129.55884,   0.00166,  -0.00087,   0.00173,361589471.35374,   0.00041,275092270.09508,   0.00041,   0.00018,   0.00032,-113502798.74134,   0.00000
211008361.38606,-142419012.21438,109080720.01777,   0.00165,  -0.00088,   0.00173,361324115.51309,   0.00041,275092270.09508,   0.00041,   0.00018,   0.00032,-113768154.58199,   0.00000
206456830.13661,-147234400.34786,109089515.24724,   0.00164,  -0.00089,   0.00173,361111486.86987,   0.00041,275092270.09508,   0.00041,   0.00018,   0.00032,-113980783.22521,   0.00000
201874515.58403,-152062981.32553,109098310.47671,   0.00163,  -0.00090,   0.00173,360945196.77074,   0.00041,275092270.09508,   0.00041,   0.00018,   0.00032,-114147073.32434,   0.00000
197261417.72830,-156904755.14741,109107105.70618,   0.00162,  -0.00092,   0.00173,360826142.49452,   0.00041,275092270.09508,   0.00041,   0.00018,   0.00032,-114266127.60056,   0.00000
192573560.42211,-161803697.96083,109115900.93564,   0.00161,  -0.00093,   0.00173,360753332.02095,   0.00041,275092270.09508,   0.00041,   0.00018,   0.00032,-114338938.07413,   0.00000
187898895.96011,-166671857.47111,109115900.93564,   0.00159,  -0.00094,   0.00173,360723995.17267,   0.00041,275092270.09508,   0.00041,   0.00018,   0.00032,-114368274.92241,   0.00000
183180255.35078,-171583993.12873,109115900.93564,   0.00158,  -0.00096,   0.00173,360757136.91457,   0.00041,275092270.09508,   0.00041,   0.00018,   0.00032,-114335133.18051,   0.00000
178430831.43831,-176509321.63055,109107105.70618,   0.00157,  -0.00097,   0.00173,360833602.63719,   0.00041,275092270.09508,   0.00041,   0.00018,   0.00032,-114258667.45789,   0.00000
173663817.06690,-181417059.67344,109107105.70618,   0.00156,  -0.00098,   0.00173,360956966.28474,   0.00041,275092270.09508,   0.00041,   0.00018,   0.00032,-114135303.81034,   0.00000
168852826.54816,-186368773.86366,109089515.24724,   0.00155,  -0.00100,   0.00173,361130250.96574,   0.00041,275092270.09508,   0.00041,   0.00018,   0.00032,-113962019.12934,   0.00000
164011052.72628,-191333680.89809,109080720.01777,   0.00153,  -0.00101,   0.00173,361365260.81967,   0.00041,275092270.09508,   0.00041,   0.00018,   0.00032,-113727009.27541,   0.00000
159125302.75706,-196342564.07985,109063129.55884,   0.00152,  -0.00102,   0.00173,361660936.63511,   0.00041,275092270.09508,   0.00041,   0.00018,   0.00032,-113431333.45997,   0.00000
154221962.32891,-201333856.80267,109045539.09990,   0.00151,  -0.00104,   0.00173,361998103.35379,   0.00041,275092270.09508,   0.00041,   0.00018,   0.00032,-113094166.74129,   0.00000
149287838.59762,-206338342.36970,109027948.64097,   0.00150,  -0.00105,   0.00173,362391302.58850,   0.00041,275092270.09508,   0.00041,   0.00018,   0.00032,-112700967.50658,   0.00000
144322931.56320,-211356020.78093,109001562.95257,   0.00148,  -0.00106,   0.00173,362833320.95646,   0.00041,275092270.09508,   0.00041,   0.00018,   0.00032,-112258949.13863,   0.00000
139314048.38144,-216417675.33950,108975177.26416,   0.00147,  -0.00108,   0.00173,363348048.77403,   0.00041,275092270.09508,   0.00041,   0.00018,   0.00032,-111744221.32105,   0.00000
134318358.04388,-221448546.59493,108948791.57576,   0.00146,  -0.00109,   0.00173,363916203.02468,   0.00041,275092270.09508,   0.00041,   0.00018,   0.00032,-111176067.07040,   0.00000
129247908.25584,-226536586.84190,108913610.65789,   0.00144,  -0.00110,   0.00173,364540465.13225,   0.00041,275092270.09508,   0.00041,   0.00018,   0.00032,-110551804.96283,   0.00000
124159868.00887,-231607036.62994,108878429.74002,   0.00143,  -0.00111,   0.00173,365208609.87433,   0.00041,275092270.09508,   0.00041,   0.00018,   0.00032,-109883660.22075,   0.00000
119058634.91770,-236708269.72111,108834453.59268,   0.00142,  -0.00113,   0.00173,365954562.52929,   0.00041,275092270.09508,   0.00041,   0.00018,   0.00032,-109137707.56579,   0.00000
113909028.06446,-241805105.19755,108799272.67481,   0.00140,  -0.00114,   0.00173,366743241.64457,   0.00041,275092270.09508,   0.00041,   0.00018,   0.00032,-108349028.45051,   0.00000
108746228.36701,-246932723.97712,108746501.29801,   0.00139,  -0.00115,   0.00173,367602937.12291,   0.00041,275092270.09508,   0.00041,   0.00018,   0.00032,-107489332.97217,   0.00000
103552645.36643,-252073535.60089,108702525.15067,   0.00138,  -0.00117,   0.00173,368531974.28915,   0.00041,275092270.09508,   0.00041,   0.00018,   0.00032,-106560295.80593,   0.00000
98328279.06272,-257227540.06887,108649753.77387,   0.00136,  -0.00118,   0.00173,369515231.29797,   0.00041,275092270.09508,   0.00041,   0.00018,   0.00032,-105577038.79711,   0.00000
93055538.99693,-262377146.92211,108596982.39706,   0.00135,  -0.00119,   0.00173,370535640.86273,   0.00041,275092270.09508,   0.00041,   0.00018,   0.00032,-104556629.23235,   0.00000
87769606.08694,-267557537.07849,108535415.79079,   0.00134,  -0.00121,   0.00173,371636608.09691,   0.00041,275092270.09508,   0.00041,   0.00018,   0.00032,-103455661.99818,   0.00000
82452889.87381,-272751120.07907,108473849.18451,   0.00132,  -0.00122,   0.00173,372800883.16752,   0.00041,275092270.09508,   0.00041,   0.00018,   0.00032,-102291386.92756,   0.00000
77136173.66069,-277944703.07965,108412282.57824,   0.00131,  -0.00123,   0.00172,374035435.73215,   0.00041,275092270.09508,   0.00041,   0.00018,   0.00032,-101056834.36293,   0.00000
71771083.68549,-283133888.46550,108350715.97197,   0.00129,  -0.00125,   0.00172,375308334.85170,   0.00041,275092270.09508,   0.00041,   0.00018,   0.00032,-99783935.24338,   0.00000
66362017.56295,-288367049.99869,108280354.13623,   0.00128,  -0.00126,   0.00172,376656338.60611,   0.00041,275092270.09508,   0.00041,   0.00018,   0.00032,-98435931.48897,   0.00000
60922168.13728,-293613404.37607,108201197.07102,   0.00126,  -0.00127,   0.00172,378061376.14337,   0.00041,275092270.09508,   0.00041,   0.00018,   0.00032,-97030893.95171,   0.00000
55482318.71161,-298859758.75346,108122040.00581,   0.00125,  -0.00129,   0.00172,379536562.24675,   0.00041,275092270.09508,   0.00041,   0.00018,   0.00032,-95555707.84833,   0.00000
50011685.98280,-304119305.97504,108042882.94061,   0.00123,  -0.00130,   0.00172,381076152.35759,   0.00041,275092270.09508,   0.00041,   0.00018,   0.00032,-94016117.73749,   0.00000
44492679.49192,-309374455.58190,107963725.87540,   0.00122,  -0.00131,   0.00172,382655914.76528,   0.00041,275092270.09508,   0.00041,   0.00018,   0.00032,-92436355.32980,   0.00000
38960480.15684,-314660388.49189,107875773.58072,   0.00120,  -0.00133,   0.00172,384317507.40607,   0.00041,275092270.09508,   0.00041,   0.00018,   0.00032,-90774762.68901,   0.00000
33397497.51863,-319959514.24608,107787821.28605,   0.00119,  -0.00134,   0.00172,386044005.17683,   0.00041,275092270.09508,   0.00041,   0.00018,   0.00032,-89048264.91826,   0.00000
27816924.42147,-325241049.54133,107691073.76190,   0.00117,  -0.00135,   0.00172,387807722.18826,   0.00041,275092270.09508,   0.00041,   0.00018,   0.00032,-87284547.90682,   0.00000
22223158.48012,-330553368.13973,107594326.23776,   0.00116,  -0.00137,   0.00171,389660050.50984,   0.00041,275092270.09508,   0.00041,   0.00018,   0.00032,-85432219.58524,   0.00000
16581018.77670,-335861289.12338,107497578.71362,   0.00114,  -0.00138,   0.00171,391553120.71861,   0.00041,275092270.09508,   0.00041,   0.00018,   0.00032,-83539149.37647,   0.00000
10925686.22907,-341199993.41018,107392035.96001,   0.00113,  -0.00139,   0.00171,393527379.42226,   0.00041,275092270.09508,   0.00041,   0.00018,   0.00032,-81564890.67282,   0.00000
5221979.91937,-346534300.08224,107286493.20640,   0.00111,  -0.00141,   0.00171,395542741.35389,   0.00041,275092270.09508,   0.00041,   0.00018,   0.00032,-79549528.74119,   0.00000
-481726.39033,-351868606.75430,107172155.22332,   0.00110,  -0.00142,   0.00171,397617726.78210,   0.00041,275092270.09508,   0.00041,   0.00018,   0.00032,-77474543.31299,   0.00000
-6229408.84736,-357246889.57370,107066612.46971,   0.00108,  -0.00143,   0.00171,399785551.54893,   0.00041,275092270.09508,   0.00041,   0.00018,   0.00032,-75306718.54615,   0.00000
-11994681.76333,-362607581.93416,106943479.25716,   0.00107,  -0.00145,   0.00171,401981954.30063,   0.00041,275092270.09508,   0.00041,   0.00018,   0.00032,-73110315.79445,   0.00000
-17790737.98244,-367981467.13883,106820346.04462,   0.00105,  -0.00146,   0.00170,404242461.44934,   0.00041,275092270.09508,   0.00041,   0.00018,   0.00032,-70849808.64574,   0.00000
-23586794.20154,-373355352.34349,106697212.83207,   0.00103,  -0.00147,   0.00170,406567566.09802,   0.00041,275092270.09508,   0.00041,   0.00018,   0.00032,-68524703.99706,   0.00000
-29444417.02692,-378755623.23656,106574079.61953,   0.00102,  -0.00148,   0.00170,408955572.94864,   0.00041,275092270.09508,   0.00041,   0.00018,   0.00032,-66136697.14644,   0.00000
-35302039.85230,-384155894.12963,106442151.17751,   0.00100,  -0.00150,   0.00170,411400404.67906,   0.00041,275092270.09508,   0.00041,   0.00018,   0.00032,-63691865.41602,   0.00000
-41190445.98082,-389569357.86690,106310222.73550,   0.00099,  -0.00151,   0.00170,413908192.97538,   0.00041,275092270.09508,   0.00041,   0.00018,   0.00032,-61184077.11970,   0.00000
-47096442.56827,-394965231.14523,106169499.06402,   0.00097,  -0.00152,   0.00170,416449323.43037,   0.00041,275092270.09508,   0.00041,   0.00018,   0.00032,-58642946.66471,   0.00000
-53015631.99992,-400391887.72670,106028775.39254,   0.00095,  -0.00154,   0.00169,419074689.82504,   0.00041,275092270.09508,   0.00041,   0.00018,   0.00032,-56017580.27004,   0.00000
-58983195.19365,-405814146.69344,105879256.49159,   0.00094,  -0.00155,   0.00169,421733535.31661,   0.00041,275092270.09508,   0.00041,   0.00018,   0.00032,-53358734.77847,   0.00000
-64950758.38737,-411236405.66017,105729737.59064,   0.00092,  -0.00156,   0.00169,424452822.07123,   0.00041,275092270.09508,   0.00041,   0.00018,   0.00032,-50639448.02386,   0.00000
-70962297.72843,-416702640.77425,105580218.68970,   0.00090,  -0.00158,   0.00169,427256491.35382,   0.00041,275092270.09508,   0.00041,   0.00018,   0.00032,-47835778.74126,   0.00000
-76991427.52843,-422151285.42939,105421904.55928,   0.00089,  -0.00159,   0.00169,430091491.99571,   0.00041,275092270.09508,   0.00041,   0.00018,   0.00032,-45000778.09937,   0.00000
-83020557.32842,-427599930.08453,105263590.42886,   0.00087,  -0.00160,   0.00168,432984756.13828,   0.00041,275092270.09508,   0.00041,   0.00018,   0.00032,-42107513.95680,   0.00000
-89098060.89049,-433044177.12493,105105276.29845,   0.00085,  -0.00162,   0.00168,435917061.66635,   0.00041,275092270.09508,   0.00041,   0.00018,   0.00032,-39175208.42873,   0.00000
-95188757.29676,-438519207.46847,104938166.93856,   0.00084,  -0.00163,   0.00168,438923630.10673,   0.00041,275092270.09508,   0.00041,   0.00018,   0.00032,-36168639.98835,   0.00000
-101297044.16197,-443976647.35308,104762262.34921,   0.00082,  -0.00164,   0.00168,441959531.33132,   0.00041,275092270.09508,   0.00041,   0.00018,   0.00032,-33132738.76376,   0.00000
-107449307.17451,-449478063.38502,104586357.75986,   0.00080,  -0.00165,   0.00168,445078302.39655,   0.00041,275092270.09508,   0.00041,   0.00018,   0.00032,-30013967.69853,   0.00000
-113588377.34285,-454948696.11383,104410453.17051,   0.00078,  -0.00167,   0.00167,448228044.18182,   0.00041,275092270.09508,   0.00041,   0.00018,   0.00032,-26864225.91326,   0.00000
-119758230.81433,-460432521.68684,104234548.58116,   0.00077,  -0.00168,   0.00167,451435576.82336,   0.00041,275092270.09508,   0.00041,   0.00018,   0.00032,-23656693.27172,   0.00000
-125958867.58894,-465929540.10405,104041053.53288,   0.00075,  -0.00169,   0.00167,454688506.42920,   0.00041,275092270.09508,   0.00041,   0.00018,   0.00032,-20403763.66589,   0.00000
-132177094.82249,-471408968.06233,103856353.71406,   0.00073,  -0.00171,   0.00167,457980521.76255,   0.00041,275092270.09508,   0.00041,   0.00018,   0.00032,-17111748.33253,   0.00000
-138408514.90024,-476919179.32374,103662858.66577,   0.00071,  -0.00172,   0.00166,461342725.16900,   0.00041,275092270.09508,   0.00041,   0.00018,   0.00032,-13749544.92608,   0.00000
-144688308.74006,-482424992.97042,103469363.61749,   0.00070,  -0.00173,   0.00166,464741919.58975,   0.00041,275092270.09508,   0.00041,   0.00018,   0.00032,-10350350.50533,   0.00000
-150937319.27674,-487917613.77289,103267073.33973,   0.00068,  -0.00174,   0.00166,468180478.91594,   0.00041,275092270.09508,   0.00041,   0.00018,   0.00032,-6911791.17914,   0.00000
-157247896.41970,-493436620.26377,103064783.06198,   0.00066,  -0.00176,   0.00166,471679739.98855,   0.00041,275092270.09508,   0.00041,   0.00018,   0.00032,-3412530.10653,   0.00000
-163357712.14315,-498761375.86633,102859984.76957,   0.00064,  -0.00177,   0.00165,475092269.25537,   0.00041,275092270.09508,   0.00041,   0.00018,   0.00032,  -0.83971,   0.00000
-163519223.19786,-498818121.30772,102828959.45000,   0.00064,  -0.00177,   0.00165,475092269.25537,   0.00041,275092714.53017,   0.00041,   0.00018,   0.00032,   0.09683,   1.00000
-168933288.61490,-500694483.92287,101780786.53377,   0.00062,  -0.00178,   0.00165,478689782.78272,   0.00043,275107821.44152,   0.00042,   0.00017,   0.00033,   0.00000,   2.00000
-174316478.10348,-502508482.39469,100724628.86339,   0.00061,  -0.00180,   0.00165,478732014.89476,   0.00044,275122987.37048,   0.00042,   0.00015,   0.00034,   0.00000,   2.00000
-179644215.68244,-504253764.73462,99664071.95805,   0.00059,  -0.00181,   0.00164,478797864.59239,   0.00046,275138309.46821,   0.00042,   0.00014,   0.00035,   0.00000,   2.00000
-184972808.28134,-505942851.07756,98596372.71261,   0.00057,  -0.00182,   0.00164,478877225.57854,   0.00047,275153840.87950,   0.00043,   0.00012,   0.00036,   0.00000,   2.00000
-190211375.55101,-507558674.60947,97524671.74526,   0.00055,  -0.00183,   0.00164,478905250.12534,   0.00048,275169366.31803,   0.00043,   0.00011,   0.00037,   0.00000,   2.00000
-195455770.74412,-509128613.85991,96433354.05929,   0.00053,  -0.00185,   0.00164,479004453.93970,   0.00050,275185178.07650,   0.00043,   0.00009,   0.00038,   0.00000,   2.00000
-200634076.13715,-510621019.02004,95352255.65840,   0.00051,  -0.00186,   0.00163,479049857.55566,   0.00051,275201051.28525,   0.00043,   0.00007,   0.00039,   0.00000,   2.00000
-205784132.14473,-512062858.54695,94251749.29867,   0.00050,  -0.00187,   0.00163,479111675.16475,   0.00053,275217051.39207,   0.00043,   0.00006,   0.00040,   0.00000,   2.00000
-210867430.00310,-513428957.94222,93162190.24725,   0.00048,  -0.00188,   0.00163,479155968.63995,   0.00054,275233105.02773,   0.00044,   0.00004,   0.00041,   0.00000,   2.00000
-215919330.29380,-514739832.46471,92061440.76071,   0.00046,  -0.00190,   0.00162,479222755.48899,   0.00056,275249301.99192,   0.00044,   0.00002,   0.00043,   0.00000,   2.00000
-220938737.30831,-515995405.54589,90949836.80593,   0.00044,  -0.00191,   0.00162,479289808.31009,   0.00057,275265640.74709,   0.00044,   0.00001,   0.00044,   0.00000,   2.00000
-225895612.26147,-517186892.37875,89837294.47473,   0.00042,  -0.00192,   0.00162,479353020.49348,   0.00059,275282103.61372,   0.00044,  -0.00001,   0.00045,   0.00000,   2.00000
-230818399.49565,-518323776.03932,88714619.78666,   0.00040,  -0.00193,   0.00161,479419954.84268,   0.00060,275298703.17426,   0.00044,  -0.00003,   0.00046,   0.00000,   2.00000
-235701169.92436,-519397261.37815,87595040.50028,   0.00038,  -0.00195,   0.00161,479466647.99233,   0.00062,275315356.18916,   0.00044,  -0.00004,   0.00047,   0.00000,   2.00000
-240519723.44373,-520408861.44382,86475626.74859,   0.00036,  -0.00196,   0.00161,479528743.16112,   0.00063,275332122.90697,   0.00044,  -0.00006,   0.00048,   0.00000,   2.00000
-245275827.88055,-521364772.47255,85349030.85955,   0.00034,  -0.00197,   0.00160,479585401.64197,   0.00065,275348979.93776,   0.00044,  -0.00008,   0.00049,   0.00000,   2.00000
-250017278.01120,-522261740.18277,84224411.32007,   0.00033,  -0.00198,   0.00160,479641360.04767,   0.00066,275365922.48457,   0.00044,  -0.00009,   0.00050,   0.00000,   2.00000
-254695163.98222,-523104171.94762,83093223.19364,   0.00031,  -0.00199,   0.00160,479697674.28298,   0.00068,275382950.50735,   0.00044,  -0.00011,   0.00051,   0.00000,   2.00000
-259307314.07052,-523888187.65934,81963725.79688,   0.00029,  -0.00201,   0.00159,479757995.21399,   0.00070,275400078.38005,   0.00044,  -0.00013,   0.00053,   0.00000,   2.00000
-263905247.38992,-524619225.10070,80829111.98851,   0.00027,  -0.00202,   0.00159,479809607.57071,   0.00071,275417269.97874,   0.00044,  -0.00015,   0.00054,   0.00000,   2.00000
-268412299.86419,-525295293.46240,79694165.40888,   0.00025,  -0.00203,   0.00158,479883704.07018,   0.00073,275434611.93597,   0.00044,  -0.00016,   0.00055,   0.00000,   2.00000
-272878505.69025,-525915501.70478,78561495.51744,   0.00023,  -0.00204,   0.00158,479898550.52823,   0.00074,275451872.75938,   0.00044,  -0.00018,   0.00056,   0.00000,   2.00000
-277303490.52682,-526484530.01472,77425076.52452,   0.00021,  -0.00206,   0.00158,479994055.50486,   0.00076,275469363.62526,   0.00044,  -0.00020,   0.00057,   0.00000,   2.00000
-281687674.94307,-527001635.13277,76286650.09150,   0.00019,  -0.00207,   0.00157,480034425.12480,   0.00078,275486869.74747,   0.00044,  -0.00022,   0.00058,   0.00000,   2.00000
-285980179.38530,-527465725.24975,75154140.50527,   0.00017,  -0.00208,   0.00157,480080294.93603,   0.00079,275504412.27525,   0.00044,  -0.00024,   0.00059,   0.00000,   2.00000
-290256194.08123,-527882330.98503,74013465.66444,   0.00015,  -0.00209,   0.00156,480157560.65112,   0.00081,275522109.42631,   0.00044,  -0.00026,   0.00060,   0.00000,   2.00000
-294465042.68574,-528245143.09216,72881694.94252,   0.00013,  -0.00210,   0.00156,480189127.79247,   0.00082,275539786.27270,   0.00044,  -0.00027,   0.00061,   0.00000,   2.00000
-298606671.50167,-528558294.61941,71754647.37332,   0.00011,  -0.00212,   0.00156,480245363.40356,   0.00084,275557536.25023,   0.00044,  -0.00029,   0.00062,   0.00000,   2.00000
-302707858.73598,-528823695.36588,70626717.72936,   0.00009,  -0.00213,   0.00155,480284390.13539,   0.00086,275575293.53359,   0.00044,  -0.00031,   0.00063,   0.00000,   2.00000
-306767208.20672,-529044450.58934,69493850.45733,   0.00007,  -0.00214,   0.00155,480348911.51478,   0.00087,275593153.18866,   0.00043,  -0.00033,   0.00064,   0.00000,   2.00000
-310759171.89198,-529218397.03896,68366645.39626,   0.00005,  -0.00215,   0.00154,480403982.97242,   0.00089,275611079.00664,   0.00043,  -0.00035,   0.00065,   0.00000,   2.00000
-314685877.86220,-529344327.94739,67249499.41255,   0.00003,  -0.00216,   0.00154,480432867.41119,   0.00091,275628973.29556,   0.00043,  -0.00037,   0.00066,   0.00000,   2.00000
-318568716.40716,-529430792.58661,66124179.47743,   0.00001,  -0.00217,   0.00153,480521926.15440,   0.00092,275647058.78008,   0.00043,  -0.00039,   0.00067,   0.00000,   2.00000
-322389134.37484,-529468813.31910,65013385.28070,  -0.00001,  -0.00219,   0.00153,480524508.07666,   0.00094,275665015.14516,   0.00042,  -0.00041,   0.00068,   0.00000,   2.00000
-326167592.27995,-529466368.24328,63898921.49319,  -0.00003,  -0.00220,   0.00152,480587661.56442,   0.00096,275683066.05900,   0.00042,  -0.00042,   0.00069,   0.00000,   2.00000
-329903652.26951,-529423942.96947,62781109.32988,  -0.00005,  -0.00221,   0.00152,480650886.23472,   0.00097,275701210.68967,   0.00042,  -0.00044,   0.00070,   0.00000,   2.00000
-333552087.44552,-529344065.04361,61672763.60074,  -0.00007,  -0.00222,   0.00152,480688605.71611,   0.00099,275719356.00144,   0.00041,  -0.00046,   0.00071,   0.00000,   2.00000
-337159562.74178,-529219902.71789,60573523.25916,  -0.00009,  -0.00223,   0.00151,480729034.34658,   0.00101,275737512.02363,   0.00041,  -0.00048,   0.00072,   0.00000,   2.00000
-340725035.02533,-529058435.01757,59471611.53551,  -0.00011,  -0.00224,   0.00151,480791344.76026,   0.00102,275755757.81102,   0.00040,  -0.00050,   0.00073,   0.00000,   2.00000
-344228913.04692,-528857486.55745,58381255.12101,  -0.00013,  -0.00225,   0.00150,480816615.22561,   0.00104,275773959.73240,   0.00040,  -0.00052,   0.00074,   0.00000,   2.00000
-347690979.73185,-528620825.58465,57288634.61564,  -0.00016,  -0.00227,   0.00150,480878474.46075,   0.00106,275792249.66668,   0.00040,  -0.00054,   0.00075,   0.00000,   2.00000
-351074566.33339,-528354042.49862,56201672.91555,  -0.00018,  -0.00228,   0.00149,480884364.09546,   0.00107,275810427.71847,   0.00039,  -0.00056,   0.00076,   0.00000,   2.00000
-354434931.88495,-528045876.24122,55119091.58551,  -0.00020,  -0.00229,   0.00149,480964114.10085,   0.00109,275828758.01027,   0.00039,  -0.00058,   0.00077,   0.00000,   2.00000
-357712201.73191,-527709334.39309,54047340.77854,  -0.00022,  -0.00230,   0.00148,480997117.06057,   0.00111,275847074.30955,   0.00038,  -0.00060,   0.00078,   0.00000,   2.00000
-360953129.87449,-527337749.88241,52977392.86171,  -0.00024,  -0.00231,   0.00148,481032614.82990,   0.00113,275865385.96486,   0.00038,  -0.00062,   0.00079,   0.00000,   2.00000
-364151210.19130,-526931313.03397,51914501.92029,  -0.00026,  -0.00232,   0.00147,481096145.19880,   0.00114,275883792.26380,   0.00037,  -0.00063,   0.00080,   0.00000,   2.00000
-367275289.33511,-526500495.15222,50857654.60308,  -0.00028,  -0.00233,   0.00147,481099225.94952,   0.00116,275902081.26755,   0.00036,  -0.00065,   0.00080,   0.00000,   2.00000
-370357573.93161,-526036778.16741,49808190.44998,  -0.00030,  -0.00234,   0.00146,481161852.40288,   0.00118,275920462.99784,   0.00036,  -0.00067,   0.00081,   0.00000,   2.00000
-373405022.64611,-525540849.26062,48760903.36063,  -0.00032,  -0.00235,   0.00146,481196670.21244,   0.00119,275938840.13488,   0.00035,  -0.00069,   0.00082,  -0.00000,   2.00000
-376376155.25184,-525026742.81998,47716865.54526,  -0.00034,  -0.00237,   0.00145,481223114.33626,   0.00121,275957184.86406,   0.00035,  -0.00071,   0.00083,   0.00000,   2.00000
-379324431.01096,-524476841.81713,46678847.72520,  -0.00036,  -0.00238,   0.00144,481301695.47828,   0.00123,275975678.41058,   0.00034,  -0.00073,   0.00084,   0.00000,   2.00000
-382201403.53197,-523904887.92192,45655538.18689,  -0.00038,  -0.00239,   0.00144,481304834.69036,   0.00124,275994060.33129,   0.00033,  -0.00075,   0.00085,   0.00000,   2.00000
-385045745.86977,-523303634.53478,44634661.77182,  -0.00041,  -0.00240,   0.00143,481338690.36943,   0.00126,276012438.01855,   0.00033,  -0.00077,   0.00085,   0.00000,   2.00000
-387832685.03092,-522680066.32940,43623913.19604,  -0.00043,  -0.00241,   0.00143,481382535.75001,   0.00128,276030846.88635,   0.00032,  -0.00079,   0.00086,   0.00000,   2.00000
-390564885.72850,-522037879.33263,42614950.09115,  -0.00045,  -0.00242,   0.00142,481423419.86013,   0.00130,276049277.54230,   0.00031,  -0.00081,   0.00087,   0.00000,   2.00000
-393249140.67503,-521374394.40644,41610453.75791,  -0.00047,  -0.00243,   0.00142,481439196.10336,   0.00131,276067645.19326,   0.00030,  -0.00082,   0.00087,  -0.00000,   2.00000
-395901159.42010,-520681662.84381,40617107.66194,  -0.00049,  -0.00244,   0.00141,481474547.46933,   0.00133,276086017.80329,   0.00030,  -0.00084,   0.00088,   0.00000,   2.00000
-398492218.19109,-519974052.63017,39631837.42009,  -0.00051,  -0.00245,   0.00140,481541166.59817,   0.00135,276104502.54642,   0.00029,  -0.00086,   0.00089,   0.00000,   2.00000
-401060155.20822,-519237196.99390,38651664.92581,  -0.00053,  -0.00246,   0.00140,481549403.44943,   0.00136,276122901.80801,   0.00028,  -0.00088,   0.00090,   0.00000,   2.00000
-403560305.74320,-518492206.76722,37675302.78397,  -0.00055,  -0.00247,   0.00139,481570559.69348,   0.00138,276141261.26711,   0.00027,  -0.00090,   0.00090,   0.00000,   2.00000
-406023937.29203,-517724622.65915,36708016.66672,  -0.00058,  -0.00248,   0.00139,481629362.81292,   0.00140,276159708.81564,   0.00026,  -0.00092,   0.00091,   0.00000,   2.00000
-408442456.54256,-516937838.18617,35753674.72364,  -0.00060,  -0.00249,   0.00138,481645341.91665,   0.00142,276178101.25549,   0.00025,  -0.00094,   0.00092,   0.00000,   2.00000
-410818410.23660,-516134705.94677,34803641.78197,  -0.00062,  -0.00250,   0.00137,481658923.41472,   0.00143,276196432.10650,   0.00024,  -0.00095,   0.00092,   0.00000,   2.00000
-413153780.40248,-515317379.14404,33852284.08993,  -0.00064,  -0.00251,   0.00137,481739332.64292,   0.00145,276214925.87129,   0.00023,  -0.00097,   0.00093,   0.00000,   2.00000
-415453327.28886,-514478476.93196,32915880.99537,  -0.00066,  -0.00252,   0.00136,481730192.18983,   0.00147,276233284.20726,   0.00023,  -0.00099,   0.00093,  -0.00000,   2.00000
-417689118.34936,-513634671.78747,31991822.69372,  -0.00068,  -0.00253,   0.00136,481750174.43674,   0.00148,276251606.39615,   0.00022,  -0.00101,   0.00094,   0.00000,   2.00000
-419900306.93725,-512769786.60377,31070434.82490,  -0.00070,  -0.00254,   0.00135,481781324.19291,   0.00150,276269930.60367,   0.00021,  -0.00103,   0.00094,  -0.00000,   2.00000
-422079656.31272,-511888782.66695,30149958.80604,  -0.00073,  -0.00255,   0.00134,481836661.21857,   0.00152,276288337.75658,   0.00020,  -0.00105,   0.00095,   0.00000,   2.00000
-424197761.80816,-511005234.37168,29241897.81156,  -0.00075,  -0.00256,   0.00134,481855330.13839,   0.00154,276306707.64587,   0.00019,  -0.00106,   0.00096,   0.00000,   2.00000
-426300181.56614,-510096981.89866,28338245.38861,  -0.00077,  -0.00257,   0.00133,481862256.75395,   0.00155,276325002.70385,   0.00018,  -0.00108,   0.00096,   0.00000,   2.00000
-428335719.78536,-509192667.58704,27445233.63130,  -0.00079,  -0.00258,   0.00132,481903790.86847,   0.00157,276343338.71206,   0.00017,  -0.00110,   0.00097,   0.00000,   2.00000
-430356988.17562,-508264296.25946,26556451.12948,  -0.00081,  -0.00259,   0.00132,481910459.75946,   0.00159,276361601.80903,   0.00015,  -0.00112,   0.00097,   0.00000,   2.00000
-432334134.41079,-507328579.78295,25678596.58331,  -0.00083,  -0.00260,   0.00131,481946723.14520,   0.00160,276379890.64030,   0.00014,  -0.00113,   0.00098,   0.00000,   2.00000
-434268016.59005,-506386258.53460,24811640.95944,  -0.00086,  -0.00261,   0.00130,481982548.60753,   0.00162,276398204.78750,   0.00013,  -0.00115,   0.00098,   0.00000,   2.00000
-436169643.89518,-505435367.52031,23939761.33463,  -0.00088,  -0.00262,   0.00130,481991637.15865,   0.00164,276416457.78767,   0.00012,  -0.00117,   0.00098,   0.00000,   2.00000
-438037300.45864,-504473357.68867,23080201.76258,  -0.00090,  -0.00263,   0.00129,482003228.11937,   0.00166,276434659.31408,   0.00011,  -0.00119,   0.00099,   0.00000,   2.00000
-439863841.71416,-503506399.84008,22231496.86917,  -0.00092,  -0.00264,   0.00128,482038030.06338,   0.00167,276452886.36471,   0.00010,  -0.00120,   0.00099,   0.00000,   2.00000
-441671517.80103,-502522567.30194,21385168.41536,  -0.00094,  -0.00265,   0.00127,482067862.94270,   0.00169,276471123.51048,   0.00009,  -0.00122,   0.00100,  -0.00000,   2.00000
-443426897.24874,-501542892.49463,20550714.86012,  -0.00096,  -0.00266,   0.00127,482082045.33144,   0.00171,276489321.18491,   0.00008,  -0.00124,   0.00100,   0.00000,   2.00000
-445164526.71687,-500546959.56312,19718538.03275,  -0.00099,  -0.00266,   0.00126,482111609.80222,   0.00172,276507530.31605,   0.00006,  -0.00125,   0.00100,   0.00000,   2.00000
-446851619.82662,-499556305.40648,18898097.06303,  -0.00101,  -0.00267,   0.00125,482124956.09426,   0.00174,276525699.58542,   0.00005,  -0.00127,   0.00101,   0.00000,   2.00000
-448530217.57106,-498543669.85903,18080868.84572,  -0.00103,  -0.00268,   0.00125,482131040.21136,   0.00176,276543806.56447,   0.00004,  -0.00129,   0.00101,  -0.00000,   2.00000
-450152514.59580,-497544653.19068,17265536.82205,  -0.00105,  -0.00269,   0.00124,482165845.11784,   0.00177,276561945.44187,   0.00003,  -0.00130,   0.00101,  -0.00000,   2.00000
-451766498.00411,-496522875.46993,16461959.88596,  -0.00107,  -0.00270,   0.00123,482172824.99390,   0.00179,276580027.19764,   0.00002,  -0.00132,   0.00102,   0.00000,   2.00000
-453344386.21100,-495499993.15859,15668942.34947,  -0.00109,  -0.00271,   0.00122,482205367.05776,   0.00181,276598135.46237,   0.00000,  -0.00134,   0.00102,   0.00000,   2.00000
-454876662.48998,-494485716.65175,14878540.83746,  -0.00112,  -0.00272,   0.00122,482215935.98831,   0.00182,276616200.46266,  -0.00001,  -0.00135,   0.00102,   0.00000,   2.00000
-456403010.65245,-493449937.45368,14090856.11435,  -0.00114,  -0.00273,   0.00121,482221870.18610,   0.00184,276634208.30197,  -0.00002,  -0.00137,   0.00102,   0.00000,   2.00000
-457875935.86149,-492429589.16749,13313563.71826,  -0.00116,  -0.00273,   0.00120,482255555.71721,   0.00186,276652249.42235,  -0.00004,  -0.00139,   0.00103,   0.00000,   2.00000
-459343261.46777,-491387177.63507,12547429.50033,  -0.00118,  -0.00274,   0.00119,482262138.20153,   0.00188,276670237.52577,  -0.00005,  -0.00140,   0.00103,   0.00000,   2.00000
-460768396.45297,-490355435.19378,11774848.91254,  -0.00120,  -0.00275,   0.00118,482270882.40188,   0.00189,276688180.70980,  -0.00006,  -0.00142,   0.00103,  -0.00000,   2.00000
-462179654.58367,-489308374.27068,11021319.90383,  -0.00122,  -0.00276,   0.00118,482300784.18641,   0.00191,276706147.76238,  -0.00008,  -0.00143,   0.00103,  -0.00000,   2.00000
-463549506.88059,-488271974.44751,10269818.42266,  -0.00125,  -0.00277,   0.00117,482309619.87708,   0.00193,276724072.07174,  -0.00009,  -0.00145,   0.00104,   0.00000,   2.00000
-464897545.57735,-487230405.62720,9520325.00259,  -0.00127,  -0.00278,   0.00116,482316752.09232,   0.00194,276741949.18133,  -0.00010,  -0.00146,   0.00104,  -0.00000,   2.00000
-466223725.21464,-486183249.33924,8781438.12155,  -0.00129,  -0.00278,   0.00115,482324304.45463,   0.00196,276759781.45563,  -0.00012,  -0.00148,   0.00104,   0.00000,   2.00000
-467520459.70586,-485138970.20724,8043865.13229,  -0.00131,  -0.00279,   0.00114,482353685.14595,   0.00198,276777639.55916,  -0.00013,  -0.00150,   0.00104,   0.00000,   2.00000
-468805012.19715,-484081522.32899,7317115.72244,  -0.00133,  -0.00280,   0.00114,482338518.17211,   0.00199,276795381.99227,  -0.00014,  -0.00151,   0.00104,   0.00000,   2.00000
-470052384.39800,-483035437.73485,6591157.07549,  -0.00135,  -0.00281,   0.00113,482389929.09929,   0.00201,276813222.32581,  -0.00016,  -0.00153,   0.00104,   0.00000,   2.00000
-471288989.41000,-481976588.58357,5867080.49951,  -0.00138,  -0.00281,   0.00112,482374254.27918,   0.00203,276830947.01339,  -0.00017,  -0.00154,   0.00104,   0.00000,   2.00000
-472488362.59287,-480929720.47577,5153119.04145,  -0.00140,  -0.00282,   0.00111,482381613.92278,   0.00204,276848630.67887,  -0.00018,  -0.00156,   0.00104,  -0.00000,   2.00000
-473669755.13654,-479877931.28730,4448620.87167,  -0.00142,  -0.00283,   0.00110,482432075.57139,   0.00206,276866411.42188,  -0.00020,  -0.00157,   0.00105,   0.00000,   2.00000
-474832805.13634,-478821916.47055,3745718.06278,  -0.00144,  -0.00284,   0.00109,482394394.26416,   0.00208,276884008.93626,  -0.00021,  -0.00158,   0.00105,  -0.00000,   2.00000
-475969572.33264,-477769987.79811,3052369.15693,  -0.00146,  -0.00284,   0.00109,482422716.52888,   0.00209,276901634.65215,  -0.00023,  -0.00160,   0.00105,   0.00000,   2.00000
-477089381.69387,-476713798.80488,2359936.69937,  -0.00148,  -0.00285,   0.00108,482428688.68163,   0.00211,276919217.98449,  -0.00024,  -0.00161,   0.00105,   0.00000,   2.00000
-478183924.98430,-475662227.25953,1668276.82015,  -0.00150,  -0.00286,   0.00107,482456561.84788,   0.00213,276936829.35982,  -0.00026,  -0.00163,   0.00105,   0.00000,   2.00000
-479253722.24932,-474614981.50909,986196.01476,  -0.00153,  -0.00287,   0.00106,482440394.97748,   0.00214,276954329.24643,  -0.00027,  -0.00164,   0.00105,   0.00000,   2.00000
-480316335.88196,-473554907.93015,304739.77761,  -0.00155,  -0.00287,   0.00105,482468193.88918,   0.00216,276971858.41816,  -0.00029,  -0.00166,   0.00105,   0.00000,   2.00000
-481355117.16226,-472499264.78531,-367432.17559,  -0.00157,  -0.00288,   0.00104,482451749.49944,   0.00218,276989276.71421,  -0.00030,  -0.00167,   0.00105,   0.00000,   2.00000
-482370385.48622,-471448818.56613,-1030447.90358,  -0.00159,  -0.00289,   0.00103,482478921.24064,   0.00219,277006723.68574,  -0.00031,  -0.00168,   0.00105,   0.00000,   2.00000
-483363122.75682,-470402834.47769,-1693262.36208,  -0.00161,  -0.00289,   0.00103,482462010.00756,   0.00221,277024059.67766,  -0.00033,  -0.00170,   0.00105,   0.00000,   2.00000
-484349817.89565,-469344042.65791,-2355731.48634,  -0.00163,  -0.00290,   0.00102,482489664.08614,   0.00222,277041427.23118,  -0.00034,  -0.00171,   0.00105,   0.00000,   2.00000
-485306239.37810,-468299470.94379,-3009326.42455,  -0.00165,  -0.00291,   0.00101,482494003.61136,   0.00224,277058752.62451,  -0.00036,  -0.00172,   0.00105,  -0.00000,   2.00000
-486241622.52433,-467259245.52077,-3663084.49681,  -0.00167,  -0.00291,   0.00100,482476669.72393,   0.00226,277075967.62184,  -0.00037,  -0.00174,   0.00105,  -0.00000,   2.00000
-487172030.63696,-466206363.93794,-4307961.20559,  -0.00170,  -0.00292,   0.00099,482503992.54654,   0.00227,277093214.98519,  -0.00039,  -0.00175,   0.00104,   0.00000,   2.00000
-488082056.77738,-465157769.77596,-4953274.17350,  -0.00172,  -0.00293,   0.00098,482486527.51885,   0.00229,277110352.75696,  -0.00040,  -0.00176,   0.00104,  -0.00000,   2.00000
-488971140.65118,-464114936.20395,-5598521.62345,  -0.00174,  -0.00293,   0.00097,482512789.60113,   0.00231,277127520.67086,  -0.00042,  -0.00178,   0.00104,   0.00000,   2.00000
-489848866.26158,-463068349.86073,-6226663.50024,  -0.00176,  -0.00294,   0.00096,482517068.28875,   0.00232,277144649.19418,  -0.00043,  -0.00179,   0.00104,  -0.00000,   2.00000
-490707198.22329,-462025549.86389,-6864375.31610,  -0.00178,  -0.00295,   0.00095,482499561.10678,   0.00234,277161669.64598,  -0.00045,  -0.00180,   0.00104,  -0.00000,   2.00000
-491554514.36776,-460978584.61323,-7493875.34016,  -0.00180,  -0.00295,   0.00094,482503945.19541,   0.00235,277178652.36899,  -0.00046,  -0.00181,   0.00104,  -0.00000,   2.00000
-492375533.62589,-459946524.62729,-8115350.97552,  -0.00182,  -0.00296,   0.00093,482506464.71164,   0.00237,277195591.86117,  -0.00048,  -0.00183,   0.00104,  -0.00000,   2.00000
-493192917.04962,-458901391.10047,-8737094.28863,  -0.00184,  -0.00296,   0.00092,482533872.71112,   0.00239,277212567.85286,  -0.00049,  -0.00184,   0.00104,   0.00000,   2.00000
-493986350.37363,-457868962.33995,-9351997.04365,  -0.00186,  -0.00297,   0.00091,482492229.25761,   0.00240,277229360.91586,  -0.00051,  -0.00185,   0.00103,   0.00000,   2.00000
-494768091.89209,-456834235.19695,-9966783.29979,  -0.00189,  -0.00298,   0.00090,482540458.14685,   0.00242,277246257.87028,  -0.00053,  -0.00186,   0.00103,  -0.00000,   2.00000
-495533117.55476,-455803107.50153,-10583116.00532,  -0.00191,  -0.00298,   0.00089,482521990.50444,   0.00243,277263046.53027,  -0.00054,  -0.00187,   0.00103,   0.00000,   2.00000
-496297462.51075,-454756470.32258,-11192359.80189,  -0.00193,  -0.00299,   0.00088,482505055.93914,   0.00245,277279732.51252,  -0.00056,  -0.00189,   0.00103,   0.00000,   2.00000
-497029527.17512,-453736264.72706,-11793565.02069,  -0.00195,  -0.00299,   0.00087,482527181.86924,   0.00247,277296440.61168,  -0.00057,  -0.00190,   0.00103,   0.00000,   2.00000
-497760936.10822,-452699628.61059,-12396690.80349,  -0.00197,  -0.00300,   0.00086,482510747.44815,   0.00248,277313048.40228,  -0.00059,  -0.00191,   0.00103,  -0.00000,   2.00000
-498468569.20739,-451677558.53426,-13001225.84768,  -0.00199,  -0.00300,   0.00085,482512477.05982,   0.00250,277329614.25633,  -0.00060,  -0.00192,   0.00102,   0.00000,   2.00000
-499168357.27410,-450650834.88353,-13598459.14800,  -0.00201,  -0.00301,   0.00084,482515905.07522,   0.00251,277346144.01452,  -0.00062,  -0.00193,   0.00102,   0.00000,   2.00000
-499859645.10823,-449618735.71588,-14197181.79573,  -0.00203,  -0.00301,   0.00083,482520083.50229,   0.00253,277362640.51384,  -0.00063,  -0.00194,   0.00102,  -0.00000,   2.00000
-500537184.82656,-448590131.48022,-14789612.22545,  -0.00205,  -0.00302,   0.00082,482500214.97717,   0.00254,277379027.39101,  -0.00065,  -0.00195,   0.00102,   0.00000,   2.00000
-501193195.05432,-447576767.19922,-15375167.77059,  -0.00207,  -0.00302,   0.00081,482500490.59681,   0.00256,277395369.34550,  -0.00066,  -0.00196,   0.00101,   0.00000,   2.00000
-501849719.11628,-446545691.47402,-15963328.29360,  -0.00209,  -0.00303,   0.00080,482484084.15431,   0.00257,277411613.66572,  -0.00068,  -0.00198,   0.00101,   0.00000,   2.00000
-502490297.25324,-445520886.23046,-16552487.52865,  -0.00211,  -0.00303,   0.00079,482508366.26288,   0.00259,277427890.76144,  -0.00069,  -0.00199,   0.00101,   0.00000,   2.00000
-503118416.46785,-444499130.43181,-17135824.06372,  -0.00213,  -0.00304,   0.00078,482488029.78046,   0.00261,277444058.20849,  -0.00071,  -0.00200,   0.00101,   0.00000,   2.00000
-503725337.72273,-443491693.83449,-17721282.12896,  -0.00215,  -0.00304,   0.00077,482488613.55891,   0.00262,277460183.29380,  -0.00072,  -0.00201,   0.00100,   0.00000,   2.00000
-504334442.27294,-442466531.81178,-18301006.97420,  -0.00217,  -0.00305,   0.00076,482471319.47228,   0.00264,277476209.31244,  -0.00074,  -0.00202,   0.00100,  -0.00000,   2.00000
-504928478.34145,-441447595.65154,-18881925.08698,  -0.00219,  -0.00305,   0.00075,482495224.75828,   0.00265,277492268.51530,  -0.00076,  -0.00203,   0.00100,   0.00000,   2.00000
-505511197.23416,-440431226.03587,-19457468.89355,  -0.00221,  -0.00306,   0.00074,482474475.03457,   0.00267,277508218.05609,  -0.00077,  -0.00204,   0.00099,  -0.00000,   2.00000
-506081759.30627,-439416283.08764,-20036448.96177,  -0.00223,  -0.00306,   0.00073,482454646.84602,   0.00268,277524061.37625,  -0.00079,  -0.00205,   0.00099,  -0.00000,   2.00000
-506639145.11120,-438408450.15498,-20608079.11687,  -0.00225,  -0.00306,   0.00072,482477107.05243,   0.00270,277539934.35619,  -0.00080,  -0.00206,   0.00099,   0.00000,   2.00000
-507194025.76590,-437389859.39589,-21175758.04530,  -0.00227,  -0.00307,   0.00071,482436150.55870,   0.00271,277555633.87440,  -0.00082,  -0.00207,   0.00098,   0.00000,   2.00000
-507733575.14126,-436376314.41121,-21753539.18615,  -0.00229,  -0.00307,   0.00070,482460756.53143,   0.00273,277571370.87899,  -0.00083,  -0.00208,   0.00098,   0.00000,   2.00000
-508264357.90014,-435365702.01504,-22317811.45182,  -0.00231,  -0.00308,   0.00069,482438302.70389,   0.00274,277586994.31650,  -0.00085,  -0.00209,   0.00098,  -0.00000,   2.00000
-508784060.29098,-434355706.36424,-22886092.06394,  -0.00233,  -0.00308,   0.00067,482418112.41700,   0.00276,277602511.92040,  -0.00086,  -0.00210,   0.00097,  -0.00000,   2.00000
-509290292.72721,-433351671.74639,-23455919.57822,  -0.00235,  -0.00308,   0.00066,482441249.92669,   0.00277,277618063.31398,  -0.00088,  -0.00211,   0.00097,   0.00000,   2.00000
-509794966.72394,-432335639.27612,-24022383.72291,  -0.00237,  -0.00309,   0.00065,482400142.71947,   0.00278,277633442.09363,  -0.00089,  -0.00211,   0.00097,   0.00000,   2.00000
-510281307.32965,-431333186.04980,-24591919.42910,  -0.00239,  -0.00309,   0.00064,482399316.56494,   0.00280,277648778.31875,  -0.00091,  -0.00212,   0.00096,   0.00000,   2.00000
-510763833.49966,-430324141.79418,-25155665.64388,  -0.00241,  -0.00309,   0.00063,482401386.82452,   0.00281,277664081.60325,  -0.00092,  -0.00213,   0.00096,  -0.00000,   2.00000
-511236112.35037,-429314841.12124,-25723849.45363,  -0.00243,  -0.00310,   0.00062,482380974.37131,   0.00283,277679279.76946,  -0.00094,  -0.00214,   0.00095,   0.00000,   2.00000
-511704745.45305,-428298753.27551,-26286366.98281,  -0.00245,  -0.00310,   0.00061,482382996.54494,   0.00284,277694445.56252,  -0.00095,  -0.00215,   0.00095,  -0.00000,   2.00000
-512158467.79627,-427289597.72381,-26855093.25713,  -0.00247,  -0.00310,   0.00060,482338579.65714,   0.00286,277709429.34428,  -0.00097,  -0.00216,   0.00095,  -0.00000,   2.00000
-512601337.82276,-426287347.74874,-27416988.41877,  -0.00248,  -0.00311,   0.00058,482359648.40703,   0.00287,277724442.95565,  -0.00098,  -0.00217,   0.00094,   0.00000,   2.00000
-513048503.73598,-425263871.89227,-27974772.90032,  -0.00250,  -0.00311,   0.00057,482342296.78748,   0.00289,277739362.53119,  -0.00100,  -0.00218,   0.00094,   0.00000,   2.00000
-513472149.60468,-424259538.97501,-28546434.15952,  -0.00252,  -0.00311,   0.00056,482318353.27851,   0.00290,277754166.98635,  -0.00101,  -0.00218,   0.00093,  -0.00000,   2.00000
-513894559.51464,-423249097.03655,-29104104.04416,  -0.00254,  -0.00312,   0.00055,482318468.00400,   0.00291,277768934.49771,  -0.00103,  -0.00219,   0.00093,  -0.00000,   2.00000
-514307699.75458,-422237111.69183,-29666902.66732,  -0.00256,  -0.00312,   0.00054,482297687.26343,   0.00293,277783597.66015,  -0.00104,  -0.00220,   0.00092,   0.00000,   2.00000
-514708953.80226,-421230563.04424,-30231660.62268,  -0.00258,  -0.00312,   0.00053,482319943.94496,   0.00294,277798296.21375,  -0.00106,  -0.00221,   0.00092,   0.00000,   2.00000
-515110253.39146,-420208950.14868,-30794472.84789,  -0.00260,  -0.00312,   0.00051,482278577.77755,   0.00296,277812824.04260,  -0.00107,  -0.00222,   0.00092,  -0.00000,   2.00000
-515492651.05980,-419208536.20316,-31354460.89199,  -0.00262,  -0.00313,   0.00050,482250707.30008,   0.00297,277827225.15725,  -0.00109,  -0.00222,   0.00091,   0.00000,   2.00000
-515877991.40453,-418183794.58349,-31919508.49097,  -0.00263,  -0.00313,   0.00049,482235029.59612,   0.00298,277841539.78812,  -0.00110,  -0.00223,   0.00091,  -0.00000,   2.00000
-516251736.47529,-417164285.61595,-32486625.58591,  -0.00265,  -0.00313,   0.00048,482257055.21807,   0.00300,277855890.71224,  -0.00112,  -0.00224,   0.00090,   0.00000,   2.00000
-516614337.56324,-416150660.21744,-33052685.19185,  -0.00267,  -0.00313,   0.00047,482210120.15047,   0.00301,277870053.58753,  -0.00113,  -0.00225,   0.00090,  -0.00000,   2.00000
-516967699.74871,-415143629.06789,-33612322.52625,  -0.00269,  -0.00313,   0.00046,482230066.16359,   0.00302,277884246.47754,  -0.00115,  -0.00225,   0.00089,   0.00000,   2.00000
-517319675.60746,-414118354.66366,-34179312.09512,  -0.00271,  -0.00314,   0.00044,482190398.78141,   0.00304,277898275.43959,  -0.00116,  -0.00226,   0.00089,   0.00000,   2.00000
-517658286.50974,-413106580.93568,-34742001.54152,  -0.00272,  -0.00314,   0.00043,482185947.59351,   0.00305,277912255.52902,  -0.00117,  -0.00227,   0.00088,   0.00000,   2.00000
-517995548.34319,-412075941.14515,-35312246.75621,  -0.00274,  -0.00314,   0.00042,482146300.71589,   0.00306,277926072.31079,  -0.00119,  -0.00227,   0.00088,   0.00000,   2.00000
-518317586.60690,-411056978.56314,-35886849.62776,  -0.00276,  -0.00314,   0.00041,482143582.69653,   0.00308,277939846.68921,  -0.00120,  -0.00228,   0.00087,   0.00000,   2.00000
-518639934.76062,-410030521.59674,-36448235.98154,  -0.00278,  -0.00314,   0.00039,482142727.20034,   0.00309,277953584.89826,  -0.00122,  -0.00229,   0.00087,   0.00000,   2.00000
-518947812.90830,-409005062.81448,-37026580.51038,  -0.00279,  -0.00314,   0.00038,482099181.87342,   0.00310,277967147.51860,  -0.00123,  -0.00230,   0.00086,   0.00000,   2.00000
-519256155.89212,-407971851.88296,-37591812.42510,  -0.00281,  -0.00315,   0.00037,482098174.83853,   0.00312,277980674.21597,  -0.00124,  -0.00230,   0.00086,   0.00000,   2.00000
-519556415.80043,-406934136.54068,-38163417.26927,  -0.00283,  -0.00315,   0.00036,482076903.07612,   0.00313,277994098.79891,  -0.00126,  -0.00231,   0.00085,   0.00000,   2.00000
-519842000.76855,-405907576.63574,-38739695.81083,  -0.00285,  -0.00315,   0.00034,482073780.74345,   0.00314,278007480.96914,  -0.00127,  -0.00231,   0.00085,   0.00000,   2.00000
-520124615.53134,-404868310.87606,-39318009.30201,  -0.00286,  -0.00315,   0.00033,482007755.11971,   0.00315,278020614.47645,  -0.00129,  -0.00232,   0.00084,   0.00000,   2.00000
-520403052.14075,-403828647.71136,-39887834.27276,  -0.00288,  -0.00315,   0.00032,482051110.45753,   0.00317,278033859.20648,  -0.00130,  -0.00233,   0.00084,  -0.00000,   2.00000
-520669671.36500,-402790119.13345,-40466742.19156,  -0.00290,  -0.00315,   0.00031,482005308.39287,   0.00318,278046921.82190,  -0.00131,  -0.00233,   0.00083,   0.00000,   2.00000
-520928452.01276,-401745960.90752,-41052341.14660,  -0.00291,  -0.00315,   0.00029,481983906.16798,   0.00319,278059883.11595,  -0.00133,  -0.00234,   0.00083,   0.00000,   2.00000
-521181867.49236,-400697757.73948,-41636179.63615,  -0.00293,  -0.00315,   0.00028,481960226.36167,   0.00320,278072735.83178,  -0.00134,  -0.00234,   0.00082,   0.00000,   2.00000
-521429973.85277,-399645323.57451,-42218378.64222,  -0.00295,  -0.00315,   0.00027,481936466.08505,   0.00322,278085479.96228,  -0.00135,  -0.00235,   0.00082,  -0.00000,   2.00000
-521666581.76697,-398605013.63457,-42797194.06374,  -0.00296,  -0.00315,   0.00026,481930386.13273,   0.00323,278098173.96463,  -0.00137,  -0.00236,   0.00081,   0.00000,   2.00000
-521902911.32188,-397533532.32149,-43390800.36614,  -0.00298,  -0.00315,   0.00024,481918079.07916,   0.00324,278110797.79570,  -0.00138,  -0.00236,   0.00081,  -0.00000,   2.00000
-522126658.24599,-396482039.75053,-43975222.95597,  -0.00300,  -0.00315,   0.00023,481884978.60024,   0.00325,278123282.56261,  -0.00139,  -0.00237,   0.00080,   0.00000,   2.00000
-522348802.23491,-395406790.67578,-44568757.74861,  -0.00301,  -0.00315,   0.00022,481845803.00783,   0.00326,278135608.69850,  -0.00141,  -0.00237,   0.00080,   0.00000,   2.00000
-522557015.55625,-394341296.51834,-45167562.68671,  -0.00303,  -0.00315,   0.00020,481841860.23937,   0.00328,278147893.21379,  -0.00142,  -0.00238,   0.00079,  -0.00000,   2.00000
-522762938.30322,-393272297.06213,-45756734.78727,  -0.00304,  -0.00315,   0.00019,481815302.59897,   0.00329,278160061.14027,  -0.00143,  -0.00238,   0.00078,   0.00000,   2.00000
-522961983.35932,-392187849.18353,-46358969.33277,  -0.00306,  -0.00315,   0.00018,481820906.76077,   0.00330,278172219.75002,  -0.00144,  -0.00239,   0.00078,  -0.00000,   2.00000
-523155098.76731,-391105461.61758,-46954541.79117,  -0.00307,  -0.00315,   0.00016,481769676.61012,   0.00331,278184180.05703,  -0.00146,  -0.00239,   0.00077,   0.00000,   2.00000
-523331713.09963,-390030315.52981,-47564066.93203,  -0.00309,  -0.00315,   0.00015,481768030.65330,   0.00332,278196107.43963,  -0.00147,  -0.00240,   0.00077,  -0.00000,   2.00000
-523512066.80169,-388933534.89903,-48166302.41288,  -0.00311,  -0.00315,   0.00014,481723930.81202,   0.00333,278207860.68084,  -0.00148,  -0.00240,   0.00076,   0.00000,   2.00000
-523678786.98871,-387845738.62702,-48774161.95648,  -0.00312,  -0.00315,   0.00012,481719577.16831,   0.00334,278219572.57503,  -0.00149,  -0.00241,   0.00076,   0.00000,   2.00000
-523843266.39496,-386731651.98213,-49391787.35046,  -0.00314,  -0.00315,   0.00011,481680872.67203,   0.00336,278231128.82010,  -0.00151,  -0.00241,   0.00075,  -0.00000,   2.00000
-523996520.53094,-385635957.26361,-50001282.69770,  -0.00315,  -0.00315,   0.00010,481646274.00485,   0.00337,278242543.15111,  -0.00152,  -0.00242,   0.00075,   0.00000,   2.00000
-524145416.83907,-384525522.40204,-50615635.96626,  -0.00317,  -0.00315,   0.00008,481649320.61353,   0.00338,278253941.91799,  -0.00153,  -0.00242,   0.00074,   0.00000,   2.00000
-524282739.99606,-383411113.66974,-51240995.91424,  -0.00318,  -0.00315,   0.00007,481603043.60028,   0.00339,278265160.04240,  -0.00154,  -0.00243,   0.00074,   0.00000,   2.00000
-524418594.10007,-382283738.38569,-51862809.96782,  -0.00319,  -0.00315,   0.00006,481603389.79684,   0.00340,278276354.22815,  -0.00155,  -0.00243,   0.00073,  -0.00000,   2.00000
-524542739.39801,-381151808.06024,-52495821.77519,  -0.00321,  -0.00314,   0.00004,481557156.59634,   0.00341,278287368.25040,  -0.00157,  -0.00243,   0.00072,  -0.00000,   2.00000
-524659749.49895,-380032132.20268,-53118025.70639,  -0.00322,  -0.00314,   0.00003,481546605.95941,   0.00342,278298322.10937,  -0.00158,  -0.00244,   0.00072,   0.00000,   2.00000
-524773828.31807,-378883855.55161,-53750662.73263,  -0.00324,  -0.00314,   0.00002,481508232.72744,   0.00343,278309122.58927,  -0.00159,  -0.00244,   0.00071,   0.00000,   2.00000
-524874359.88381,-377743248.17805,-54389339.73393,  -0.00325,  -0.00314,   0.00000,481503435.51456,   0.00344,278319882.97555,  -0.00160,  -0.00245,   0.00071,   0.00000,   2.00000
-524974894.17914,-376575582.89880,-55030193.93302,  -0.00327,  -0.00314,  -0.00001,481462312.88496,   0.00345,278330481.05274,  -0.00161,  -0.00245,   0.00070,   0.00000,   2.00000
-525061706.80009,-375422520.92624,-55672208.42595,  -0.00328,  -0.00314,  -0.00003,481429593.95387,   0.00346,278340945.27939,  -0.00162,  -0.00245,   0.00070,   0.00000,   2.00000
-525140015.10969,-374258034.98833,-56322693.16851,  -0.00329,  -0.00314,  -0.00004,481408051.85979,   0.00347,278351313.75518,  -0.00163,  -0.00246,   0.00069,   0.00000,   2.00000
-525213106.27501,-373084146.98103,-56973367.28910,  -0.00331,  -0.00313,  -0.00005,481383461.88995,   0.00348,278361576.35675,  -0.00164,  -0.00246,   0.00069,   0.00000,   2.00000
-525277453.22516,-371898362.13491,-57632616.41749,  -0.00332,  -0.00313,  -0.00007,481362034.65972,   0.00349,278371744.07555,  -0.00165,  -0.00246,   0.00068,  -0.00000,   2.00000
-525336412.97037,-370702732.52943,-58292177.60944,  -0.00333,  -0.00313,  -0.00008,481337494.22023,   0.00350,278381806.53468,  -0.00167,  -0.00247,   0.00068,   0.00000,   2.00000
-525386500.30500,-369501688.06348,-58955705.04074,  -0.00335,  -0.00313,  -0.00010,481288074.09258,   0.00351,278391679.38686,  -0.00168,  -0.00247,   0.00067,   0.00000,   2.00000
-525422916.07432,-368306992.85678,-59625666.85357,  -0.00336,  -0.00312,  -0.00011,481282904.39810,   0.00352,278401513.34321,  -0.00169,  -0.00247,   0.00066,   0.00000,   2.00000
-525458404.14427,-367082548.17930,-60298541.92621,  -0.00337,  -0.00312,  -0.00012,481242108.35267,   0.00353,278411187.35187,  -0.00170,  -0.00248,   0.00066,   0.00000,   2.00000
-525483743.96498,-365866524.66751,-60969678.51942,  -0.00338,  -0.00312,  -0.00014,481233597.51059,   0.00354,278420811.59402,  -0.00171,  -0.00248,   0.00065,   0.00000,   2.00000
-525496349.66914,-364641444.39810,-61653502.12755,  -0.00340,  -0.00312,  -0.00015,481187440.75093,   0.00355,278430257.71038,  -0.00172,  -0.00248,   0.00065,   0.00000,   2.00000
-525506642.49331,-363400704.35476,-62334347.28205,  -0.00341,  -0.00311,  -0.00017,481187667.25631,   0.00356,278439684.55615,  -0.00173,  -0.00249,   0.00064,   0.00000,   2.00000
-525504255.24961,-362156897.78749,-63023644.71132,  -0.00342,  -0.00311,  -0.00018,481113285.54639,   0.00356,278448836.78746,  -0.00174,  -0.00249,   0.00064,   0.00000,   2.00000
-525495555.89258,-360894601.50364,-63718279.68163,  -0.00343,  -0.00311,  -0.00020,481116959.72646,   0.00357,278457982.39584,  -0.00175,  -0.00249,   0.00063,  -0.00000,   2.00000
-525477352.48652,-359624303.08978,-64417779.81927,  -0.00345,  -0.00311,  -0.00021,481067487.70198,   0.00358,278466939.02731,  -0.00176,  -0.00249,   0.00063,  -0.00000,   2.00000
-525445061.01977,-358358965.55937,-65124074.77717,  -0.00346,  -0.00310,  -0.00023,481062139.20655,   0.00359,278475858.50100,  -0.00177,  -0.00250,   0.00062,   0.00000,   2.00000
-525414490.95114,-357063568.60105,-65825816.36662,  -0.00347,  -0.00310,  -0.00024,481018263.81338,   0.00360,278484608.41583,  -0.00177,  -0.00250,   0.00062,   0.00000,   2.00000
-525362233.99062,-355774175.44058,-66546634.28361,  -0.00348,  -0.00310,  -0.00025,480991648.92401,   0.00361,278493248.44958,  -0.00178,  -0.00250,   0.00061,   0.00000,   2.00000
-525311339.05414,-354453969.90955,-67263079.37332,  -0.00349,  -0.00309,  -0.00027,480947875.30303,   0.00362,278501719.63912,  -0.00179,  -0.00250,   0.00061,   0.00000,   2.00000
-525245977.51195,-353137999.08122,-67986514.71497,  -0.00350,  -0.00309,  -0.00028,480942514.15969,   0.00362,278510154.86905,  -0.00180,  -0.00251,   0.00060,   0.00000,   2.00000
-525173910.85162,-351808347.58924,-68711374.67831,  -0.00351,  -0.00308,  -0.00030,480918004.82168,   0.00363,278518487.97044,  -0.00181,  -0.00251,   0.00060,   0.00000,   2.00000
-525091518.63627,-350468291.99397,-69441916.58446,  -0.00352,  -0.00308,  -0.00031,480868597.52761,   0.00364,278526632.79770,  -0.00182,  -0.00251,   0.00059,   0.00000,   2.00000
-524994441.03200,-349114835.33950,-70186377.21299,  -0.00354,  -0.00308,  -0.00033,480823015.70500,   0.00365,278534602.89977,  -0.00183,  -0.00251,   0.00058,   0.00000,   2.00000
-524886811.13596,-347767341.04472,-70929895.74944,  -0.00355,  -0.00307,  -0.00034,480813706.74784,   0.00365,278542524.41834,  -0.00184,  -0.00251,   0.00058,   0.00000,   2.00000
-524771009.22106,-346381705.61974,-71685829.50917,  -0.00356,  -0.00307,  -0.00036,480778054.18192,   0.00366,278550305.95581,  -0.00184,  -0.00252,   0.00057,   0.00000,   2.00000
-524644450.97844,-345001711.93569,-72440894.97044,  -0.00357,  -0.00307,  -0.00037,480768797.94960,   0.00367,278558039.56078,  -0.00185,  -0.00252,   0.00057,   0.00000,   2.00000
-524509899.77198,-343588551.66153,-73204824.49221,  -0.00358,  -0.00306,  -0.00039,480704596.18364,   0.00368,278565533.63536,  -0.00186,  -0.00252,   0.00056,   0.00000,   2.00000
-524364427.38776,-342180622.87588,-73968038.56397,  -0.00359,  -0.00306,  -0.00040,480695229.80449,   0.00368,278572980.00506,  -0.00187,  -0.00252,   0.00056,  -0.00000,   2.00000
-524202998.45718,-340756984.26086,-74745760.71324,  -0.00360,  -0.00305,  -0.00042,480650140.52815,   0.00369,278580253.72250,  -0.00188,  -0.00252,   0.00056,   0.00000,   2.00000
-524033425.61630,-339316977.86783,-75525541.18337,  -0.00361,  -0.00305,  -0.00043,480625943.91268,   0.00370,278587428.23416,  -0.00188,  -0.00253,   0.00055,   0.00000,   2.00000
-523851877.62769,-337863085.85466,-76312019.14548,  -0.00362,  -0.00304,  -0.00045,480576893.46082,   0.00370,278594416.35838,  -0.00189,  -0.00253,   0.00055,   0.00000,   2.00000
-523659129.69410,-336413593.77918,-77098029.80516,  -0.00362,  -0.00304,  -0.00046,480567352.64875,   0.00371,278601357.13896,  -0.00190,  -0.00253,   0.00054,   0.00000,   2.00000
-523455767.12489,-334922688.26450,-77897024.89721,  -0.00363,  -0.00303,  -0.00048,480532975.28947,   0.00372,278608163.32477,  -0.00191,  -0.00253,   0.00054,   0.00000,   2.00000
-523237200.00501,-333438291.96949,-78700310.43673,  -0.00364,  -0.00303,  -0.00049,480498637.87827,   0.00372,278614835.06528,  -0.00191,  -0.00253,   0.00053,   0.00000,   2.00000
-523007241.56102,-331911580.50630,-79516681.41491,  -0.00365,  -0.00302,  -0.00051,480464697.52842,   0.00373,278621374.05931,  -0.00192,  -0.00253,   0.00053,   0.00000,   2.00000
-522766472.54373,-330393451.15944,-80329607.55015,  -0.00366,  -0.00302,  -0.00052,480426001.17963,   0.00374,278627763.42182,  -0.00193,  -0.00253,   0.00052,   0.00000,   2.00000
-522511377.27659,-328854025.58495,-81153014.02205,  -0.00367,  -0.00301,  -0.00054,480406631.50330,   0.00374,278634071.86508,  -0.00193,  -0.00254,   0.00052,   0.00000,   2.00000
-522242636.77613,-327297834.87885,-81983894.87725,  -0.00368,  -0.00301,  -0.00055,480358105.51238,   0.00375,278640195.91208,  -0.00194,  -0.00254,   0.00051,   0.00000,   2.00000
-521958915.93963,-325719623.78740,-82825322.61243,  -0.00368,  -0.00300,  -0.00057,480339073.22454,   0.00375,278646240.67708,  -0.00195,  -0.00254,   0.00051,  -0.00000,   2.00000
-521659005.11019,-324145958.32921,-83671621.33719,  -0.00369,  -0.00300,  -0.00058,480304798.31364,   0.00376,278652151.81047,  -0.00195,  -0.00254,   0.00050,   0.00000,   2.00000
-521355430.62295,-322532879.90263,-84515702.40234,  -0.00370,  -0.00299,  -0.00060,480262791.39499,   0.00377,278657901.87180,  -0.00196,  -0.00254,   0.00050,   0.00000,   2.00000
-521025228.12010,-320918069.41390,-85380541.72192,  -0.00371,  -0.00298,  -0.00061,480237853.62209,   0.00377,278663551.99022,  -0.00196,  -0.00254,   0.00050,   0.00000,   2.00000
-520689029.22007,-319285460.86667,-86240487.79941,  -0.00372,  -0.00298,  -0.00063,480209945.06078,   0.00378,278669091.56104,  -0.00197,  -0.00254,   0.00049,   0.00000,   2.00000
-520332330.20848,-317630615.67680,-87116360.68300,  -0.00372,  -0.00297,  -0.00064,480166782.06707,   0.00378,278674465.96899,  -0.00197,  -0.00254,   0.00049,   0.00000,   2.00000
-519963949.80532,-315954440.85729,-87995269.50446,  -0.00373,  -0.00297,  -0.00066,480143839.25795,   0.00379,278679747.98752,  -0.00198,  -0.00254,   0.00048,   0.00000,   2.00000
-519579445.16541,-314257896.67918,-88882511.70265,  -0.00374,  -0.00296,  -0.00068,480096229.70617,   0.00379,278684848.85979,  -0.00199,  -0.00254,   0.00048,   0.00000,   2.00000
-519177264.15813,-312563397.76282,-89775352.37973,  -0.00374,  -0.00295,  -0.00069,480062128.69969,   0.00380,278689817.31180,  -0.00199,  -0.00254,   0.00048,  -0.00000,   2.00000
-518758362.13444,-310820571.01150,-90682020.54127,  -0.00375,  -0.00295,  -0.00071,480031073.36222,   0.00380,278694664.54207,  -0.00200,  -0.00255,   0.00047,   0.00000,   2.00000
-518325477.77527,-309078077.05111,-91589056.71875,  -0.00376,  -0.00294,  -0.00072,480021977.48153,   0.00381,278699470.02173,  -0.00200,  -0.00255,   0.00047,   0.00000,   2.00000
-517875095.58086,-307313349.70509,-92504833.18464,  -0.00376,  -0.00294,  -0.00074,479974928.41265,   0.00381,278704096.14459,  -0.00201,  -0.00255,   0.00047,  -0.00000,   2.00000
-517406779.76344,-305525831.98817,-93429468.41392,  -0.00377,  -0.00293,  -0.00075,479928017.55913,   0.00381,278708543.47715,  -0.00201,  -0.00255,   0.00046,   0.00000,   2.00000
-516919036.20250,-303711472.75372,-94365167.29181,  -0.00377,  -0.00292,  -0.00077,479911179.67170,   0.00382,278712921.57753,  -0.00201,  -0.00255,   0.00046,   0.00000,   2.00000
-516411948.06506,-301896886.83227,-95306973.08799,  -0.00378,  -0.00292,  -0.00078,479877618.79023,   0.00382,278717169.41961,  -0.00202,  -0.00255,   0.00045,   0.00000,   2.00000
-515890706.29187,-300033945.31511,-96255220.09761,  -0.00379,  -0.00291,  -0.00080,479843105.74428,   0.00383,278721283.63762,  -0.00202,  -0.00255,   0.00045,  -0.00000,   2.00000
-515349469.00629,-298169971.52330,-97209759.46956,  -0.00379,  -0.00290,  -0.00082,479809749.37044,   0.00383,278725268.43014,  -0.00203,  -0.00255,   0.00045,   0.00000,   2.00000
-514792925.42587,-296280550.90283,-98167928.82483,  -0.00380,  -0.00289,  -0.00083,479788385.69855,   0.00383,278729167.81310,  -0.00203,  -0.00255,   0.00044,   0.00000,   2.00000
-514205394.48626,-294362432.33732,-99148770.28062,  -0.00380,  -0.00289,  -0.00085,479723446.94472,   0.00384,278732821.72089,  -0.00203,  -0.00255,   0.00044,   0.00000,   2.00000
-513612208.44800,-292420942.90144,-100120025.33691,  -0.00381,  -0.00288,  -0.00086,479721654.61447,   0.00384,278736462.63318,  -0.00204,  -0.00255,   0.00044,   0.00000,   2.00000
-512987063.97181,-290473685.69689,-101111242.69871,  -0.00381,  -0.00287,  -0.00088,479669639.17638,   0.00385,278739905.27035,  -0.00204,  -0.00255,   0.00044,   0.00000,   2.00000
-512344611.74059,-288474945.30633,-102109189.80612,  -0.00381,  -0.00286,  -0.00089,479636822.07797,   0.00385,278743220.65992,  -0.00205,  -0.00255,   0.00043,   0.00000,   2.00000
-511679132.07571,-286470146.09874,-103115386.37478,  -0.00382,  -0.00286,  -0.00091,479634431.34535,   0.00385,278746521.45769,  -0.00205,  -0.00255,   0.00043,   0.00000,   2.00000
-510991514.37469,-284439189.63560,-104129971.99205,  -0.00382,  -0.00285,  -0.00093,479559701.44485,   0.00385,278749539.22201,  -0.00205,  -0.00255,   0.00043,   0.00000,   2.00000
-510286271.99855,-282404456.14202,-105145515.49084,  -0.00383,  -0.00284,  -0.00094,479551723.99558,   0.00386,278752522.08428,  -0.00205,  -0.00255,   0.00043,   0.00000,   2.00000
-509555507.69064,-280313300.03427,-106175265.56818,  -0.00383,  -0.00283,  -0.00096,479525964.10213,   0.00386,278755403.87340,  -0.00206,  -0.00255,   0.00042,   0.00000,   2.00000
-508801043.45046,-278216840.93704,-107212069.89926,  -0.00383,  -0.00283,  -0.00097,479494037.56047,   0.00386,278758161.51713,  -0.00206,  -0.00255,   0.00042,   0.00000,   2.00000
-508020319.87650,-276064645.98880,-108261922.14022,  -0.00384,  -0.00282,  -0.00099,479438908.07922,   0.00387,278760708.25309,  -0.00206,  -0.00255,   0.00042,  -0.00000,   2.00000
-507214859.03610,-273906080.58546,-109318978.00003,  -0.00384,  -0.00281,  -0.00101,479407377.98084,   0.00387,278763132.46566,  -0.00207,  -0.00255,   0.00042,   0.00000,   2.00000
-506383751.63861,-271739217.80482,-110384281.20750,  -0.00384,  -0.00280,  -0.00102,479406306.27801,   0.00387,278765548.52089,  -0.00207,  -0.00255,   0.00041,  -0.00000,   2.00000
-505530547.89909,-269517536.07842,-111455602.87852,  -0.00384,  -0.00279,  -0.00104,479346288.47456,   0.00387,278767734.57476,  -0.00207,  -0.00255,   0.00041,   0.00000,   2.00000
-504650800.17499,-267286901.36821,-112535123.83557,  -0.00385,  -0.00279,  -0.00105,479345746.35081,   0.00387,278769914.88457,  -0.00207,  -0.00255,   0.00041,   0.00000,   2.00000
-503735124.52902,-264995282.57665,-113634344.17079,  -0.00385,  -0.00278,  -0.00107,479268574.58506,   0.00388,278771799.84745,  -0.00207,  -0.00255,   0.00041,   0.00000,   2.00000
-502804643.26512,-262699715.39492,-114727474.01668,  -0.00385,  -0.00277,  -0.00109,479256092.41161,   0.00388,278773634.35687,  -0.00208,  -0.00255,   0.00041,   0.00000,   2.00000
-501846389.98131,-260394253.38504,-115828748.32888,  -0.00385,  -0.00276,  -0.00110,479256230.57369,   0.00388,278775466.28703,  -0.00208,  -0.00255,   0.00040,   0.00000,   2.00000
-500855867.10039,-258027604.11751,-116943441.58297,  -0.00386,  -0.00275,  -0.00112,479204600.07993,   0.00388,278777098.74972,  -0.00208,  -0.00255,   0.00040,   0.00000,   2.00000
-499830123.78491,-255647950.19296,-118072725.90364,  -0.00386,  -0.00274,  -0.00113,479181438.66808,   0.00388,278778640.18494,  -0.00208,  -0.00255,   0.00040,  -0.00000,   2.00000
-498779335.43005,-253234526.94018,-119205547.67256,  -0.00386,  -0.00273,  -0.00115,479134962.42387,   0.00388,278780001.48214,  -0.00208,  -0.00255,   0.00040,   0.00000,   2.00000
-497696141.03507,-250783760.85427,-120348955.52683,  -0.00386,  -0.00272,  -0.00117,479095357.06770,   0.00388,278781208.87252,  -0.00208,  -0.00255,   0.00040,   0.85398,   1.00000
-496582545.82240,-248321291.72197,-121500257.85821,  -0.00386,  -0.00271,  -0.00118,479097121.21316,   0.00389,278782421.01018,  -0.00208,  -0.00255,   0.00040,   0.85967,   1.00000
-495438942.28564,-245796815.62532,-122658136.56153,  -0.00386,  -0.00271,  -0.00120,479041488.21108,   0.00389,278783417.20775,  -0.00209,  -0.00255,   0.00040,   0.57979,   1.00000
-494263843.02283,-243259963.64159,-123823760.28796,  -0.00386,  -0.00270,  -0.00121,479044006.31251,   0.00389,278784421.44654,  -0.00209,  -0.00255,   0.00040,   0.58813,   1.00000
-493046339.56862,-240680127.57432,-125006791.94472,  -0.00386,  -0.00269,  -0.00123,478982460.92022,   0.00389,278785186.31502,  -0.00209,  -0.00255,   0.00040,   0.34045,   1.00000
-491803105.28056,-238090040.01993,-126190638.87247,  -0.00386,  -0.00268,  -0.00125,478978787.49292,   0.00389,278785935.68219,  -0.00209,  -0.00255,   0.00039,   0.32601,   1.00000
-490526679.64153,-235435811.40081,-127380932.79768,  -0.00386,  -0.00267,  -0.00126,478955955.89858,   0.00389,278786595.23320,  -0.00209,  -0.00255,   0.00039,   0.25186,   1.00000
-489208696.36377,-232763195.32312,-128585863.57423,  -0.00386,  -0.00266,  -0.00128,478905693.12678,   0.00389,278787058.26742,  -0.00209,  -0.00255,   0.00039,   0.12375,   1.00000
-487859549.20062,-230052237.38597,-129794265.03576,  -0.00386,  -0.00265,  -0.00129,478893538.75959,   0.00389,278787473.16790,  -0.00209,  -0.00255,   0.00039,   0.09903,   1.00000
-486475002.04166,-227325661.17410,-131010319.99685,  -0.00386,  -0.00264,  -0.00131,478867612.19791,   0.00389,278787786.12154,  -0.00209,  -0.00255,   0.00039,   0.05613,   1.00000
-485050226.25648,-224555694.71387,-132236809.60671,  -0.00386,  -0.00263,  -0.00133,478832820.72890,   0.00389,278787962.37964,  -0.00209,  -0.00255,   0.00039,   0.01773,   1.00000
-483584215.71689,-221741629.24527,-133473669.27008,  -0.00386,  -0.00262,  -0.00134,478798666.08172,   0.00389,278788004.36602,  -0.00209,  -0.00255,   0.00039,   0.00100,   1.00000
-482084131.34737,-218887388.75250,-134713638.35768,  -0.00386,  -0.00261,  -0.00136,478788518.65112,   0.00389,278788006.38789,  -0.00209,  -0.00255,   0.00039,   0.00000,   1.00000
-480509785.27269,-215976167.79874,-135962560.94208,  -0.00386,  -0.00260,  -0.00137,478763146.78620,   0.00389,278788006.38789,  -0.00209,  -0.00255,   0.00039,-24859.60169,   0.00000
-478873872.59172,-213038561.15658,-137202688.29700,  -0.00385,  -0.00259,  -0.00139,478707370.55743,   0.00389,278788006.38789,  -0.00209,  -0.00255,   0.00039,-80635.83046,   0.00000
-477163200.46029,-210043785.52289,-138442815.65192,  -0.00385,  -0.00258,  -0.00141,478620085.65280,   0.00389,278788006.38789,  -0.00209,  -0.00255,   0.00039,-167920.73509,   0.00000
-475421745.02572,-207035817.04499,-139691738.23631,  -0.00385,  -0.00257,  -0.00142,478541200.89588,   0.00389,278788006.38789,  -0.00209,  -0.00255,   0.00039,-246805.49201,   0.00000
-473592337.29647,-203939896.27242,-140931865.59123,  -0.00385,  -0.00256,  -0.00144,478416328.43263,   0.00389,278788006.38789,  -0.00209,  -0.00255,   0.00039,-371677.95526,   0.00000
-471701362.96095,-200817589.81144,-142180788.17562,  -0.00384,  -0.00255,  -0.00146,478278244.28363,   0.00389,278788006.38789,  -0.00209,  -0.00255,   0.00039,-509762.10426,   0.00000
-469748822.01915,-197668897.66206,-143420915.53055,  -0.00384,  -0.00254,  -0.00147,478111800.83700,   0.00389,278788006.38789,  -0.00209,  -0.00255,   0.00039,-676205.55089,   0.00000
-467739112.08582,-194445446.06221,-144669838.11494,  -0.00384,  -0.00253,  -0.00149,477940638.94955,   0.00389,278788006.38789,  -0.00209,  -0.00255,   0.00039,-847367.43834,   0.00000
-465637052.24308,-191182415.92975,-145909965.46986,  -0.00384,  -0.00251,  -0.00150,477719706.58365,   0.00389,278788006.38789,  -0.00209,  -0.00255,   0.00039,-1068299.80424,   0.00000
-463491016.25300,-187875409.64996,-147150092.82478,  -0.00383,  -0.00250,  -0.00152,477495525.22071,   0.00389,278788006.38789,  -0.00209,  -0.00255,   0.00039,-1292481.16718,   0.00000
-461283413.65665,-184542017.68176,-148399015.40917,  -0.00383,  -0.00249,  -0.00154,477261747.31346,   0.00389,278788006.38789,  -0.00209,  -0.00255,   0.00039,-1526259.07443,   0.00000
-459031834.91296,-181164649.56623,-149639142.76409,  -0.00383,  -0.00248,  -0.00155,477017959.14387,   0.00389,278788006.38789,  -0.00209,  -0.00255,   0.00039,-1770047.24402,   0.00000
-456674713.41566,-177716919.61496,-150888065.34849,  -0.00382,  -0.00247,  -0.00157,476736718.58821,   0.00389,278788006.38789,  -0.00209,  -0.00255,   0.00039,-2051287.79968,   0.00000
-454273615.77102,-174225213.51634,-152128192.70341,  -0.00382,  -0.00246,  -0.00159,476447254.53460,   0.00389,278788006.38789,  -0.00209,  -0.00255,   0.00039,-2340751.85329,   0.00000
-451810951.52011,-170707121.72933,-153368320.05833,  -0.00381,  -0.00245,  -0.00160,476143082.50291,   0.00389,278788006.38789,  -0.00209,  -0.00255,   0.00039,-2644923.88498,   0.00000
-449273527.81873,-167131860.95077,-154608447.41325,  -0.00381,  -0.00244,  -0.00162,475818407.58624,   0.00389,278788006.38789,  -0.00209,  -0.00255,   0.00039,-2969598.80165,   0.00000
-446674537.51107,-163530214.48382,-155857369.99764,  -0.00380,  -0.00243,  -0.00163,475489274.25753,   0.00389,278788006.38789,  -0.00209,  -0.00255,   0.00039,-3298732.13036,   0.00000
-444000787.75294,-159871399.02532,-157097497.35257,  -0.00380,  -0.00241,  -0.00165,475133042.07186,   0.00389,278788006.38789,  -0.00209,  -0.00255,   0.00039,-3654964.31603,   0.00000
-441283061.84747,-156168607.41949,-158337624.70749,  -0.00379,  -0.00240,  -0.00167,474781237.58666,   0.00389,278788006.38789,  -0.00209,  -0.00255,   0.00039,-4006768.80123,   0.00000
-438503769.33573,-152439430.12525,-159577752.06241,  -0.00379,  -0.00239,  -0.00168,474418852.63248,   0.00389,278788006.38789,  -0.00209,  -0.00255,   0.00039,-4369153.75541,   0.00000
-435636524.52931,-148622300.53634,-160817879.41733,  -0.00378,  -0.00238,  -0.00170,474035482.07740,   0.00389,278788006.38789,  -0.00209,  -0.00255,   0.00039,-4752524.31049,   0.00000
-432720905.96082,-144809568.56217,-162058006.77226,  -0.00378,  -0.00237,  -0.00171,473649088.01738,   0.00389,278788006.38789,  -0.00209,  -0.00255,   0.00039,-5138918.37051,   0.00000
-429717335.09766,-140908884.29331,-163298134.12718,  -0.00377,  -0.00236,  -0.00173,473244285.05199,   0.00389,278788006.38789,  -0.00209,  -0.00255,   0.00039,-5543721.33590,   0.00000
-426696173.77556,-137025790.48340,-164538261.48210,  -0.00376,  -0.00234,  -0.00175,472859207.31136,   0.00389,278788006.38789,  -0.00209,  -0.00255,   0.00039,-5928799.07653,   0.00000
-423587060.15879,-133054744.37880,-165769593.60756,  -0.00376,  -0.00233,  -0.00176,472448906.25180,   0.00389,278788006.38789,  -0.00209,  -0.00255,   0.00039,-6339100.13609,   0.00000
-420385596.63260,-129044119.74161,-167009720.96248,  -0.00375,  -0.00232,  -0.00178,472022124.60268,   0.00389,278788006.38789,  -0.00209,  -0.00255,   0.00039,-6765881.78521,   0.00000
-417140156.95908,-124989518.95707,-168249848.31740,  -0.00374,  -0.00231,  -0.00179,471608075.86116,   0.00389,278788006.38789,  -0.00209,  -0.00255,   0.00039,-7179930.52673,   0.00000
-413863933.98243,-120921725.32834,-169481180.44286,  -0.00374,  -0.00230,  -0.00181,471202599.87863,   0.00389,278788006.38789,  -0.00209,  -0.00255,   0.00039,-7585406.50926,   0.00000
-410482168.25216,-116783569.86386,-170712512.56831,  -0.00373,  -0.00228,  -0.00183,470770353.26298,   0.00389,278788006.38789,  -0.00209,  -0.00255,   0.00039,-8017653.12491,   0.00000
-407056426.37455,-112601438.25205,-171943844.69377,  -0.00372,  -0.00227,  -0.00184,470354054.16979,   0.00389,278788006.38789,  -0.00209,  -0.00255,   0.00039,-8433952.21810,   0.00000
-403538334.58754,-108379728.10763,-173183972.04869,  -0.00371,  -0.00226,  -0.00186,469927699.21175,   0.00389,278788006.38789,  -0.00209,  -0.00255,   0.00039,-8860307.17614,   0.00000
-399976266.65318,-104114041.81587,-174415304.17415,  -0.00371,  -0.00225,  -0.00187,469510060.41176,   0.00389,278788006.38789,  -0.00209,  -0.00255,   0.00039,-9277945.97613,   0.00000
-396352632.11256,-99821969.83572,-175637841.07013,  -0.00370,  -0.00223,  -0.00189,469085373.68450,   0.00389,278788006.38789,  -0.00209,  -0.00255,   0.00039,-9702632.70339,   0.00000
-392654238.12146,-95472728.86402,-176869173.19559,  -0.00369,  -0.00222,  -0.00191,468671243.34514,   0.00389,278788006.38789,  -0.00209,  -0.00255,   0.00039,-10116763.04275,   0.00000
-388911867.98302,-91079511.74498,-178100505.32104,  -0.00368,  -0.00221,  -0.00192,468279174.69909,   0.00389,278788006.38789,  -0.00209,  -0.00255,   0.00039,-10508831.68880,   0.00000
-385077147.93518,-86646716.09335,-179323042.21703,  -0.00367,  -0.00220,  -0.00194,467863926.12638,   0.00389,278788006.38789,  -0.00209,  -0.00255,   0.00039,-10924080.26151,   0.00000
-381198451.73999,-82169944.29437,-180545579.11302,  -0.00366,  -0.00218,  -0.00195,467473231.55610,   0.00389,278788006.38789,  -0.00209,  -0.00255,   0.00039,-11314774.83179,   0.00000
-377258188.93854,-77666786.80699,-181776911.23847,  -0.00365,  -0.00217,  -0.00197,467101676.23423,   0.00389,278788006.38789,  -0.00209,  -0.00255,   0.00039,-11686330.15366,   0.00000
-373243166.68661,-73106460.32807,-182990652.90499,  -0.00365,  -0.00216,  -0.00199,466717544.57448,   0.00389,278788006.38789,  -0.00209,  -0.00255,   0.00039,-12070461.81341,   0.00000
-369166577.82840,-68519748.16075,-184213189.80098,  -0.00364,  -0.00214,  -0.00200,466355245.51712,   0.00389,278788006.38789,  -0.00209,  -0.00255,   0.00039,-12432760.87077,   0.00000
-365015229.51973,-63875867.00189,-185435726.69697,  -0.00363,  -0.00213,  -0.00202,466004083.80079,   0.00389,278788006.38789,  -0.00209,  -0.00255,   0.00039,-12783922.58710,   0.00000
-360833097.90791,-59218792.99883,-186649468.36349,  -0.00362,  -0.00212,  -0.00203,465675167.44942,   0.00389,278788006.38789,  -0.00209,  -0.00255,   0.00039,-13112838.93847,   0.00000
-356545423.54249,-54491357.16003,-187872005.25948,  -0.00361,  -0.00211,  -0.00205,465352526.71159,   0.00389,278788006.38789,  -0.00209,  -0.00255,   0.00039,-13435479.67630,   0.00000
-352226965.87393,-49750728.47703,-189085746.92600,  -0.00360,  -0.00209,  -0.00207,465054492.93922,   0.00389,278788006.38789,  -0.00209,  -0.00255,   0.00039,-13733513.44867,   0.00000
-347833748.75489,-44952930.80249,-190299488.59252,  -0.00358,  -0.00208,  -0.00208,464773732.47397,   0.00389,278788006.38789,  -0.00209,  -0.00255,   0.00039,-14014273.91392,   0.00000
-343365772.18538,-40097964.13641,-191504435.02957,  -0.00357,  -0.00207,  -0.00210,464501321.55417,   0.00389,278788006.38789,  -0.00209,  -0.00255,   0.00039,-14286684.83372,   0.00000
-338867012.31274,-35229804.62613,-192718176.69609,  -0.00356,  -0.00205,  -0.00211,464278644.15342,   0.00389,278788006.38789,  -0.00209,  -0.00255,   0.00039,-14509362.23447,   0.00000
-334275902.53069,-30322066.58324,-193923123.13314,  -0.00355,  -0.00204,  -0.00213,464050001.20462,   0.00389,278788006.38789,  -0.00209,  -0.00255,   0.00039,-14738005.18327,   0.00000
-329640816.60129,-25370352.39302,-195128069.57020,  -0.00354,  -0.00203,  -0.00214,463862597.83732,   0.00389,278788006.38789,  -0.00209,  -0.00255,   0.00039,-14925408.55057,   0.00000
-324900187.91829,-20348276.36705,-196333016.00725,  -0.00353,  -0.00201,  -0.00216,463684143.75358,   0.00389,278788006.38789,  -0.00209,  -0.00255,   0.00039,-15103862.63431,   0.00000
-320128775.93215,-15313007.49689,-197537962.44430,  -0.00352,  -0.00200,  -0.00218,463549918.40420,   0.00389,278788006.38789,  -0.00209,  -0.00255,   0.00039,-15238087.98369,   0.00000
-315295797.33974,-10251352.93832,-198734113.65189,  -0.00350,  -0.00198,  -0.00219,463432913.53299,   0.00389,278788006.38789,  -0.00209,  -0.00255,   0.00039,-15355092.85491,   0.00000
-310418842.59999,-5145722.23242,-199939060.08894,  -0.00349,  -0.00197,  -0.00221,463374460.24401,   0.00389,278788006.38789,  -0.00209,  -0.00255,   0.00039,-15413546.14388,   0.00000
-305436345.10663,30270.30923,-201126416.06706,  -0.00348,  -0.00196,  -0.00222,463309953.70372,   0.00389,278788006.38789,  -0.00209,  -0.00255,   0.00039,-15478052.68417,   0.00000
-300423064.31014,5219455.69508,-202322567.27464,  -0.00347,  -0.00194,  -0.00224,463306128.65253,   0.00389,278788006.38789,  -0.00209,  -0.00255,   0.00039,-15481877.73536,   0.00000
-295348216.90737,10435026.76933,-203518718.48223,  -0.00345,  -0.00193,  -0.00225,463336844.94294,   0.00389,278788006.38789,  -0.00209,  -0.00255,   0.00039,-15451161.44495,   0.00000
-290167826.75099,15720959.67932,-204706074.46034,  -0.00344,  -0.00192,  -0.00227,463378855.49743,   0.00389,278788006.38789,  -0.00209,  -0.00255,   0.00039,-15409150.89046,   0.00000
-284987436.59461,21006892.58931,-205893430.43846,  -0.00343,  -0.00190,  -0.00228,463489097.08430,   0.00389,278788006.38789,  -0.00209,  -0.00255,   0.00039,-15298909.30359,   0.00000
-279701503.68462,26363187.33503,-207071991.18711,  -0.00341,  -0.00189,  -0.00230,463614279.92676,   0.00389,278788006.38789,  -0.00209,  -0.00255,   0.00039,-15173726.46113,   0.00000
-274354004.16836,31745867.76917,-208259347.16523,  -0.00340,  -0.00187,  -0.00231,463792402.59728,   0.00389,278788006.38789,  -0.00209,  -0.00255,   0.00039,-14995603.79061,   0.00000
-268962528.50476,37172524.35064,-209437907.91388,  -0.00339,  -0.00186,  -0.00233,464018713.26548,   0.00389,278788006.38789,  -0.00209,  -0.00255,   0.00039,-14769293.12241,   0.00000
-263509486.23488,42625566.62051,-210616468.66253,  -0.00337,  -0.00185,  -0.00235,464289047.94509,   0.00389,278788006.38789,  -0.00209,  -0.00255,   0.00039,-14498958.44280,   0.00000
-257994877.35874,48104994.57879,-211786234.18171,  -0.00336,  -0.00183,  -0.00236,464592850.12803,   0.00389,278788006.38789,  -0.00209,  -0.00255,   0.00039,-14195156.25986,   0.00000
-252405509.03212,53641591.52860,-212964794.93036,  -0.00334,  -0.00182,  -0.00238,464959574.78661,   0.00389,278788006.38789,  -0.00209,  -0.00255,   0.00039,-13828431.60128,   0.00000
-246754574.09923,59204574.16682,-214134560.44954,  -0.00333,  -0.00180,  -0.00239,465363117.21190,   0.00389,278788006.38789,  -0.00209,  -0.00255,   0.00039,-13424889.17599,   0.00000
-241059663.01900,64811532.95237,-215295530.73926,  -0.00331,  -0.00179,  -0.00241,465822110.78974,   0.00389,278788006.38789,  -0.00209,  -0.00255,   0.00039,-12965895.59815,   0.00000
-235303185.33249,70444877.42633,-216465296.25844,  -0.00330,  -0.00177,  -0.00242,466344987.41250,   0.00389,278788006.38789,  -0.00209,  -0.00255,   0.00039,-12443018.97539,   0.00000
-229441164.89238,76148583.73603,-217626266.54815,  -0.00328,  -0.00176,  -0.00244,466901542.49535,   0.00389,278788006.38789,  -0.00209,  -0.00255,   0.00039,-11886463.89254,   0.00000
-223579144.45227,81852290.04572,-218778441.60840,  -0.00327,  -0.00174,  -0.00245,467525310.26397,   0.00389,278788006.38789,  -0.00209,  -0.00255,   0.00039,-11262696.12392,   0.00000
-217624774.10274,87595574.88803,-219939411.89812,  -0.00325,  -0.00173,  -0.00247,468205648.14930,   0.00389,278788006.38789,  -0.00209,  -0.00255,   0.00039,-10582358.23859,   0.00000
-211595644.30275,93396028.72187,-221091586.95836,  -0.00323,  -0.00172,  -0.00248,468937306.27125,   0.00389,278788006.38789,  -0.00209,  -0.00255,   0.00039,-9850700.11664,   0.00000
-205535731.19962,99209675.39991,-222243762.01861,  -0.00322,  -0.00170,  -0.00250,469739820.47157,   0.00389,278788006.38789,  -0.00209,  -0.00255,   0.00039,-9048185.91632,   0.00000
-199414251.49021,105049707.76635,-223387141.84939,  -0.00320,  -0.00169,  -0.00251,470590415.40772,   0.00389,278788006.38789,  -0.00209,  -0.00255,   0.00039,-8197590.98017,   0.00000
-193218012.33033,110946909.12434,-224530521.68017,  -0.00319,  -0.00167,  -0.00253,471509516.00814,   0.00389,278788006.38789,  -0.00209,  -0.00255,   0.00039,-7278490.37975,   0.00000
-186960206.56418,116870496.17072,-225673901.51095,  -0.00317,  -0.00166,  -0.00254,472492426.69970,   0.00389,278788006.38789,  -0.00209,  -0.00255,   0.00039,-6295579.68819,   0.00000
-180671617.49489,122807276.06131,-226808486.11226,  -0.00315,  -0.00164,  -0.00256,473537662.43623,   0.00389,278788006.38789,  -0.00209,  -0.00255,   0.00039,-5250343.95166,   0.00000
-174277485.67199,128814417.78764,-227943070.71357,  -0.00313,  -0.00163,  -0.00257,474646583.84049,   0.00389,278788006.38789,  -0.00209,  -0.00255,   0.00039,-4141422.54740,   0.00000
-167852570.54595,134834752.35817,-229077655.31489,  -0.00312,  -0.00161,  -0.00259,475832924.62619,   0.00389,278788006.38789,  -0.00209,  -0.00255,   0.00039,-2955081.76170,   0.00000
-161383679.27258,140899063.07603,-230203444.68673,  -0.00310,  -0.00160,  -0.00260,477092155.61927,   0.00389,278788006.38789,  -0.00209,  -0.00255,   0.00039,-1695850.76862,   0.00000
-154822438.08980,147002952.32650,-231329234.05858,  -0.00308,  -0.00158,  -0.00261,478412849.33073,   0.00389,278788006.38789,  -0.00209,  -0.00255,   0.00039,-375157.05716,   0.00000
-152978721.40420,148709553.29578,-231640192.91524,  -0.00308,  -0.00158,  -0.00262,478788005.99963,   0.00389,278788006.38789,  -0.00209,  -0.00255,   0.00039,  -0.38826,   0.00000
-147889851.69972,152814878.61010,-231961694.87546,  -0.00306,  -0.00157,  -0.00263,478788005.99963,   0.00390,278792490.15120,  -0.00209,  -0.00255,   0.00039,   0.14499,   1.00000
-140804102.62593,158481467.33152,-232372889.65513,  -0.00304,  -0.00155,  -0.00264,480253209.73232,   0.00390,278799008.79432,  -0.00209,  -0.00255,   0.00038,   0.32572,   1.00000
-133638602.18133,164163347.38322,-232742808.79300,  -0.00303,  -0.00154,  -0.00266,480342541.50505,   0.00391,278805895.57040,  -0.00210,  -0.00254,   0.00037,   0.40971,   1.00000
-126442907.17439,169819359.21378,-233068732.44646,  -0.00301,  -0.00152,  -0.00267,480419638.41836,   0.00392,278813093.64085,  -0.00210,  -0.00254,   0.00036,   0.52490,   1.00000
-119142026.55639,175502028.74507,-233355063.08046,  -0.00299,  -0.00151,  -0.00269,480506056.48109,   0.00392,278820642.50310,  -0.00210,  -0.00254,   0.00035,   0.69318,   1.00000
-111829907.81036,181127864.90079,-233600770.87510,  -0.00297,  -0.00149,  -0.00270,480576822.13772,   0.00393,278828470.07571,  -0.00211,  -0.00253,   0.00034,   0.90160,   1.00000
-104445177.39891,186760561.47993,-233801935.73299,  -0.00295,  -0.00148,  -0.00272,480674053.30793,   0.00394,278836692.24336,  -0.00211,  -0.00253,   0.00032,   0.00000,   2.00000
-96989937.03391,192397520.64506,-233957518.23347,  -0.00293,  -0.00146,  -0.00273,480773849.53582,   0.00395,278845317.67884,  -0.00211,  -0.00253,   0.00031,   0.00000,   2.00000
-89529172.84806,197972685.85188,-234071488.17364,  -0.00291,  -0.00145,  -0.00274,480847914.76516,   0.00396,278854229.04320,  -0.00212,  -0.00252,   0.00030,   0.00000,   2.00000
-81972487.38769,203563140.70328,-234141170.23241,  -0.00289,  -0.00143,  -0.00276,480945892.88642,   0.00396,278863530.37041,  -0.00212,  -0.00252,   0.00029,  -0.00000,   2.00000
-74399108.55393,209114721.04589,-234163312.58702,  -0.00287,  -0.00142,  -0.00277,481033069.09163,   0.00397,278873170.71247,  -0.00212,  -0.00251,   0.00027,   0.00000,   2.00000
-66809044.44776,214620502.78363,-234140361.70718,  -0.00285,  -0.00140,  -0.00279,481133760.85772,   0.00398,278883207.35446,  -0.00213,  -0.00251,   0.00026,   0.00000,   2.00000
-59129843.91110,220134264.97015,-234070641.01619,  -0.00283,  -0.00138,  -0.00280,481238483.41594,   0.00399,278893654.93735,  -0.00213,  -0.00250,   0.00024,   0.00000,   2.00000
-51440887.14096,225603386.17336,-233952402.91794,  -0.00281,  -0.00137,  -0.00281,481329481.06825,   0.00400,278904449.28267,  -0.00214,  -0.00250,   0.00023,  -0.00000,   2.00000
-43714199.37539,231040975.02088,-233787291.96339,  -0.00279,  -0.00135,  -0.00283,481417760.24129,   0.00401,278915575.29726,  -0.00214,  -0.00249,   0.00021,   0.00000,   2.00000
-35980905.39975,236424692.73479,-233575925.04575,  -0.00277,  -0.00134,  -0.00284,481523424.83787,   0.00403,278927106.84875,  -0.00214,  -0.00248,   0.00019,   0.00000,   2.00000
-28168594.74765,241806382.60353,-233314876.52882,  -0.00275,  -0.00132,  -0.00286,481636885.76607,   0.00404,278939074.64915,  -0.00215,  -0.00248,   0.00018,   0.00000,   2.00000
-20370621.44209,247111118.31628,-233010524.47707,  -0.00272,  -0.00131,  -0.00287,481720142.81917,   0.00405,278951341.58916,  -0.00215,  -0.00247,   0.00016,  -0.00000,   2.00000
-12560142.71955,252380745.04046,-232653423.90641,  -0.00270,  -0.00129,  -0.00288,481841530.83064,   0.00406,278964072.55222,  -0.00215,  -0.00246,   0.00014,   0.00000,   2.00000
-4679948.24974,257646936.04709,-232242357.37017,  -0.00268,  -0.00128,  -0.00290,481948455.14149,   0.00407,278977199.42397,  -0.00216,  -0.00246,   0.00012,   0.00000,   2.00000
3178463.52165,262831163.68744,-231788046.65435,  -0.00266,  -0.00126,  -0.00291,482034334.96580,   0.00409,278990625.88430,  -0.00216,  -0.00245,   0.00010,  -0.00000,   2.00000
11057733.36444,267956864.77660,-231289981.06813,  -0.00264,  -0.00125,  -0.00292,482158149.60283,   0.00410,279004514.91784,  -0.00216,  -0.00244,   0.00008,  -0.00000,   2.00000
18936714.69800,273051783.00516,-230733470.37796,  -0.00261,  -0.00123,  -0.00294,482259254.05730,   0.00411,279018762.37917,  -0.00217,  -0.00243,   0.00006,   0.00000,   2.00000
26830220.56200,278090393.50135,-230130481.59723,  -0.00259,  -0.00121,  -0.00295,482372950.11438,   0.00413,279033419.27244,  -0.00217,  -0.00243,   0.00004,  -0.00000,   2.00000
34735123.42050,283070569.39858,-229480912.83384,  -0.00257,  -0.00120,  -0.00296,482488023.02201,   0.00414,279048487.06479,  -0.00217,  -0.00242,   0.00002,   0.00000,   2.00000
42661310.34291,288019826.67431,-228775134.72668,  -0.00255,  -0.00118,  -0.00298,482606171.23330,   0.00416,279063974.38614,  -0.00218,  -0.00241,  -0.00000,   0.00000,   2.00000
50549393.16244,292871053.60669,-228030130.82047,  -0.00252,  -0.00117,  -0.00299,482708639.18062,   0.00417,279079808.42561,  -0.00218,  -0.00240,  -0.00003,   0.00000,   2.00000
58452631.78847,297687438.63222,-227229055.06390,  -0.00250,  -0.00115,  -0.00300,482829123.08753,   0.00419,279096062.85138,  -0.00218,  -0.00239,  -0.00005,   0.00000,   2.00000
66324198.22030,302425172.66769,-226382584.11359,  -0.00248,  -0.00114,  -0.00302,482947144.57692,   0.00421,279112722.02236,  -0.00219,  -0.00238,  -0.00007,  -0.00000,   2.00000
74180851.07936,307080304.46974,-225494722.09632,  -0.00245,  -0.00112,  -0.00303,483039975.51432,   0.00422,279129672.22319,  -0.00219,  -0.00237,  -0.00010,  -0.00000,   2.00000
82054729.57449,311716177.19707,-224543823.26168,  -0.00243,  -0.00110,  -0.00304,483179420.34139,   0.00424,279147109.81379,  -0.00219,  -0.00236,  -0.00012,   0.00000,   2.00000
89876186.16610,316247089.89843,-223556192.02415,  -0.00240,  -0.00109,  -0.00306,483283977.62162,   0.00426,279164879.09676,  -0.00220,  -0.00235,  -0.00015,   0.00000,   2.00000
97684014.38250,320704770.62701,-222523716.01500,  -0.00238,  -0.00107,  -0.00307,483407002.12166,   0.00427,279183054.48932,  -0.00220,  -0.00234,  -0.00018,   0.00000,   2.00000
105489190.42458,325123169.73084,-221433290.97468,  -0.00235,  -0.00106,  -0.00308,483522559.79457,   0.00429,279201598.37454,  -0.00220,  -0.00233,  -0.00020,   0.00000,   2.00000
113231603.59840,329425701.56437,-220311152.85383,  -0.00233,  -0.00104,  -0.00309,483639954.95496,   0.00431,279220513.61073,  -0.00220,  -0.00232,  -0.00023,   0.00000,   2.00000
120963181.31385,333678211.58126,-219134941.45756,  -0.00230,  -0.00102,  -0.00311,483769389.48352,   0.00433,279239845.81051,  -0.00220,  -0.00231,  -0.00026,   0.00000,   2.00000
128640689.55774,337848404.40528,-217914932.78999,  -0.00228,  -0.00101,  -0.00312,483879051.88819,   0.00435,279259505.34027,  -0.00221,  -0.00229,  -0.00029,   0.00000,   2.00000
136291107.37937,341945248.84344,-216649582.64602,  -0.00225,  -0.00099,  -0.00313,483993860.55745,   0.00437,279279508.75391,  -0.00221,  -0.00228,  -0.00032,   0.00000,   2.00000
143908755.05804,345959480.65354,-215342598.80304,  -0.00223,  -0.00098,  -0.00314,484121454.51895,   0.00439,279299904.49904,  -0.00221,  -0.00227,  -0.00035,   0.00000,   2.00000
151461226.30654,349880620.46992,-213997426.49753,  -0.00220,  -0.00096,  -0.00316,484243759.08672,   0.00441,279320664.54529,  -0.00221,  -0.00226,  -0.00038,   0.00000,   2.00000
158977762.43398,353724875.61882,-212608948.21869,  -0.00218,  -0.00095,  -0.00317,484360321.71439,   0.00443,279341759.00386,  -0.00221,  -0.00224,  -0.00041,   0.00000,   2.00000
166455360.39390,357490946.09167,-211177795.89017,  -0.00215,  -0.00093,  -0.00318,484477685.26455,   0.00445,279363185.59442,  -0.00221,  -0.00223,  -0.00044,   0.00000,   2.00000
173867539.39500,361180013.74738,-209703414.68591,  -0.00213,  -0.00091,  -0.00319,484617673.12140,   0.00447,279385032.83865,  -0.00221,  -0.00222,  -0.00047,   0.00000,   2.00000
181198749.49854,364762494.61348,-208199433.49639,  -0.00210,  -0.00090,  -0.00321,484711055.31494,   0.00449,279407101.25446,  -0.00221,  -0.00220,  -0.00050,   0.00000,   2.00000
188490934.22620,368282703.90069,-206647584.38079,  -0.00207,  -0.00088,  -0.00322,484846733.90449,   0.00451,279429560.78189,  -0.00221,  -0.00219,  -0.00053,   0.00000,   2.00000
195722252.31056,371695227.73453,-205068282.78339,  -0.00205,  -0.00087,  -0.00323,484959162.86726,   0.00454,279452309.44906,  -0.00221,  -0.00217,  -0.00056,   0.00000,   2.00000
202876848.95693,375028228.37091,-203450295.69863,  -0.00202,  -0.00085,  -0.00324,485098955.37622,   0.00456,279475454.15330,  -0.00221,  -0.00216,  -0.00060,   0.00000,   2.00000
209946373.54283,378262374.44502,-201803502.03512,  -0.00199,  -0.00083,  -0.00325,485180085.83729,   0.00458,279498748.92751,  -0.00221,  -0.00215,  -0.00063,   0.00000,   2.00000
216988872.99936,381429506.01295,-200112590.52129,  -0.00196,  -0.00082,  -0.00327,485337285.19612,   0.00461,279522499.03397,  -0.00221,  -0.00213,  -0.00066,   0.00000,   2.00000
223913345.98356,384492256.94022,-198398861.97954,  -0.00194,  -0.00080,  -0.00328,485449349.89766,   0.00463,279546514.64129,  -0.00221,  -0.00211,  -0.00070,   0.00000,   2.00000
230797132.21701,387460559.21512,-196655300.32605,  -0.00191,  -0.00079,  -0.00329,485559797.90320,   0.00465,279570783.83887,  -0.00220,  -0.00210,  -0.00073,   0.00000,   2.00000
237569645.18030,390350413.02164,-194879715.78947,  -0.00188,  -0.00077,  -0.00330,485677887.46004,   0.00468,279595332.56515,  -0.00220,  -0.00208,  -0.00077,   0.00000,   2.00000
244302542.72761,393161581.56625,-193068338.44422,  -0.00185,  -0.00075,  -0.00331,485807527.20759,   0.00470,279620201.25537,  -0.00220,  -0.00207,  -0.00080,   0.00000,   2.00000
250910835.64557,395870321.83037,-191239997.82252,  -0.00183,  -0.00074,  -0.00332,485916565.46606,   0.00473,279645302.48318,  -0.00220,  -0.00205,  -0.00084,   0.00000,   2.00000
257445188.65430,398479437.57686,-189390783.97923,  -0.00180,  -0.00072,  -0.00333,486016609.69302,   0.00475,279670595.84655,  -0.00219,  -0.00203,  -0.00087,   0.00000,   2.00000
263907862.03847,401013009.90921,-187510178.68340,  -0.00177,  -0.00071,  -0.00335,486164847.32701,   0.00478,279696267.44123,  -0.00219,  -0.00202,  -0.00091,   0.00000,   2.00000
270272150.72065,403458873.61942,-185607956.91098,  -0.00174,  -0.00069,  -0.00336,486272351.61672,   0.00480,279722150.48188,  -0.00218,  -0.00200,  -0.00094,   0.00000,   2.00000
276561634.48202,405821505.16685,-183680559.33261,  -0.00171,  -0.00067,  -0.00337,486391135.77447,   0.00483,279748284.59993,  -0.00218,  -0.00198,  -0.00098,   0.00000,   2.00000
282741931.50562,408074572.91363,-181746696.69568,  -0.00168,  -0.00066,  -0.00338,486488447.50309,   0.00485,279774581.67937,  -0.00217,  -0.00196,  -0.00102,   0.00000,   2.00000
288824211.09995,410257911.46871,-179787445.73657,  -0.00165,  -0.00064,  -0.00339,486613141.67740,   0.00488,279801144.37770,  -0.00217,  -0.00195,  -0.00105,   0.00000,   2.00000
294827987.31686,412359767.42831,-177806948.58368,  -0.00162,  -0.00063,  -0.00340,486730851.43363,   0.00490,279827940.52809,  -0.00216,  -0.00193,  -0.00109,   0.00000,   2.00000
300743970.03959,414357947.09256,-175819000.12791,  -0.00159,  -0.00061,  -0.00341,486838804.21841,   0.00493,279854928.31251,  -0.00216,  -0.00191,  -0.00113,   0.00000,   2.00000
306535302.07142,416286294.23934,-173815146.96980,  -0.00157,  -0.00059,  -0.00342,486948734.43887,   0.00496,279882111.75567,  -0.00215,  -0.00189,  -0.00116,   0.00000,   2.00000
312265989.94516,418122939.14487,-171796246.21708,  -0.00154,  -0.00058,  -0.00343,487059324.05530,   0.00498,279909489.22433,  -0.00214,  -0.00187,  -0.00120,   0.00000,   2.00000
317870927.40466,419892062.31316,-169764326.33425,  -0.00151,  -0.00056,  -0.00344,487167650.92588,   0.00501,279937048.69756,  -0.00213,  -0.00185,  -0.00124,   0.00000,   2.00000
323386198.58761,421561959.46533,-167730325.21333,  -0.00148,  -0.00055,  -0.00345,487272899.25040,   0.00504,279964775.32530,  -0.00212,  -0.00183,  -0.00127,   0.00000,   2.00000
328790933.70944,423147159.24866,-165693421.20335,  -0.00145,  -0.00053,  -0.00347,487382752.33329,   0.00507,279992683.66725,  -0.00212,  -0.00181,  -0.00131,   0.00000,   2.00000
334118354.49095,424678914.76211,-163631455.72685,  -0.00141,  -0.00051,  -0.00348,487508109.24573,   0.00509,280020827.85418,  -0.00211,  -0.00179,  -0.00135,   0.00000,   2.00000
339333968.20407,426114306.34635,-161576836.02209,  -0.00138,  -0.00050,  -0.00349,487596732.06802,   0.00512,280049067.68564,  -0.00210,  -0.00178,  -0.00139,   0.00000,   2.00000
344465102.08967,427476928.31667,-159512333.29058,  -0.00135,  -0.00048,  -0.00350,487710456.59562,   0.00515,280077494.22623,  -0.00209,  -0.00176,  -0.00142,   0.00000,   2.00000
349490943.15611,428767662.49771,-157444808.10651,  -0.00132,  -0.00047,  -0.00351,487808414.41594,   0.00518,280106046.39998,  -0.00208,  -0.00174,  -0.00146,   0.00000,   2.00000
354406417.53369,429980986.91526,-155381082.06085,  -0.00129,  -0.00045,  -0.00352,487913985.26963,   0.00521,280134750.56972,  -0.00207,  -0.00172,  -0.00150,   0.00000,   2.00000
359217982.14053,431125946.89390,-153316780.04935,  -0.00126,  -0.00043,  -0.00353,488009890.80110,   0.00523,280163569.23524,  -0.00205,  -0.00170,  -0.00153,   0.00000,   2.00000
363946215.52284,432190075.41295,-151254371.43043,  -0.00123,  -0.00042,  -0.00354,488101104.18916,   0.00526,280192483.67318,  -0.00204,  -0.00168,  -0.00157,   0.00000,   2.00000
368564821.94951,433195436.78327,-149192355.23254,  -0.00120,  -0.00040,  -0.00355,488223850.13752,   0.00529,280221607.15721,  -0.00203,  -0.00166,  -0.00161,   0.00000,   2.00000
373106639.48872,434129720.15678,-147128428.61716,  -0.00117,  -0.00039,  -0.00356,488305828.33805,   0.00532,280250789.57369,  -0.00202,  -0.00163,  -0.00164,   0.00000,   2.00000
377533691.64172,435001470.54061,-145073331.34760,  -0.00113,  -0.00037,  -0.00356,488435020.95521,   0.00535,280280200.56965,  -0.00200,  -0.00161,  -0.00168,   0.00000,   2.00000
381867401.33791,435806698.36459,-143023886.44063,  -0.00110,  -0.00036,  -0.00357,488498857.52930,   0.00538,280309603.72620,  -0.00199,  -0.00159,  -0.00172,   0.00000,   2.00000
386101538.43111,436553530.60974,-140980204.86775,  -0.00107,  -0.00034,  -0.00358,488589896.83469,   0.00541,280339096.66443,  -0.00198,  -0.00157,  -0.00175,   0.00000,   2.00000
390248658.03535,437235045.86666,-138943681.85713,  -0.00104,  -0.00032,  -0.00359,488705310.20863,   0.00544,280368765.34697,  -0.00196,  -0.00155,  -0.00179,   0.00000,   2.00000
394297989.86541,437861549.48243,-136914842.78811,  -0.00101,  -0.00031,  -0.00360,488794833.55449,   0.00547,280398516.91472,  -0.00195,  -0.00153,  -0.00182,   0.00000,   2.00000
398247680.99514,438415579.36760,-134907260.83663,  -0.00097,  -0.00029,  -0.00361,488870655.30686,   0.00550,280428303.63570,  -0.00193,  -0.00151,  -0.00186,   0.00000,   2.00000
402105521.08194,438937691.84464,-132896218.98608,  -0.00094,  -0.00028,  -0.00362,488971077.16668,   0.00553,280458211.67628,  -0.00191,  -0.00149,  -0.00189,   0.00000,   2.00000
405882650.14042,439388073.84782,-130902397.46303,  -0.00091,  -0.00026,  -0.00363,489063327.50931,   0.00555,280488212.40064,  -0.00190,  -0.00147,  -0.00193,   0.00000,   2.00000
409567004.33005,439790556.13078,-128919430.22250,  -0.00088,  -0.00025,  -0.00364,489149540.22847,   0.00558,280518284.93540,  -0.00188,  -0.00145,  -0.00196,   0.00000,   2.00000
413154480.86511,440140798.32724,-126954597.79604,  -0.00084,  -0.00023,  -0.00365,489241900.67032,   0.00561,280548451.32960,  -0.00186,  -0.00143,  -0.00200,   0.00000,   2.00000
416657908.44407,440452679.43767,-124995420.50633,  -0.00081,  -0.00021,  -0.00366,489319396.89065,   0.00564,280578660.31732,  -0.00185,  -0.00141,  -0.00203,   0.00000,   2.00000
420082101.15242,440712175.11789,-123050310.37704,  -0.00078,  -0.00020,  -0.00366,489429016.93158,   0.00567,280609023.14714,  -0.00183,  -0.00138,  -0.00207,   0.00000,   2.00000
423408516.90973,440921490.40227,-121130139.68208,  -0.00074,  -0.00018,  -0.00367,489472669.63684,   0.00570,280639314.64624,  -0.00181,  -0.00136,  -0.00210,   0.00000,   2.00000
426654712.32556,441094666.34503,-119219475.94480,  -0.00071,  -0.00017,  -0.00368,489600846.03754,   0.00574,280669824.91469,  -0.00179,  -0.00134,  -0.00213,   0.00000,   2.00000
429826522.58961,441222941.05027,-117322321.68233,  -0.00067,  -0.00015,  -0.00369,489655618.13366,   0.00577,280700304.02209,  -0.00177,  -0.00132,  -0.00217,   0.00000,   2.00000
432914760.98998,441296762.94161,-115452670.71979,  -0.00064,  -0.00014,  -0.00370,489722582.51636,   0.00580,280730795.91413,  -0.00175,  -0.00130,  -0.00220,   0.00000,   2.00000
435931302.71074,441344583.14231,-113587526.17885,  -0.00061,  -0.00012,  -0.00371,489842568.57026,   0.00583,280761480.35058,  -0.00173,  -0.00128,  -0.00223,   0.00000,   2.00000
438859841.23791,441350974.44888,-111749133.54292,  -0.00057,  -0.00011,  -0.00372,489881911.28817,   0.00586,280792086.94017,  -0.00171,  -0.00126,  -0.00226,   0.00000,   2.00000
441713889.86505,441328772.05677,-109923410.53242,  -0.00054,  -0.00009,  -0.00372,490006808.73038,   0.00589,280822904.48722,  -0.00169,  -0.00124,  -0.00229,   0.00000,   2.00000
444501770.70650,441268931.71289,-108112592.25562,  -0.00050,  -0.00007,  -0.00373,490058739.49591,   0.00592,280853689.35342,  -0.00167,  -0.00122,  -0.00233,   0.00000,   2.00000
447214682.29783,441162589.20268,-106331039.73525,  -0.00047,  -0.00006,  -0.00374,490121955.77694,   0.00595,280884482.00824,  -0.00164,  -0.00119,  -0.00236,   0.00000,   2.00000
449849856.20394,441041999.66664,-104561559.25331,  -0.00043,  -0.00004,  -0.00375,490218741.28059,   0.00598,280915395.35262,  -0.00162,  -0.00117,  -0.00239,   0.00000,   2.00000
452418937.12115,440882837.92086,-102814578.83837,  -0.00040,  -0.00003,  -0.00375,490274721.64568,   0.00601,280946295.73062,  -0.00160,  -0.00115,  -0.00242,   0.00000,   2.00000
454913472.86169,440694503.60111,-101092509.20051,  -0.00037,  -0.00001,  -0.00376,490355732.53605,   0.00604,280977268.11195,  -0.00158,  -0.00113,  -0.00245,   0.00000,   2.00000
457340301.95578,440483287.92999,-99388227.50636,  -0.00033,   0.00000,  -0.00377,490430445.41993,   0.00607,281008293.20378,  -0.00155,  -0.00111,  -0.00248,   0.00000,   2.00000
459716755.88020,440249652.72372,-97689670.13038,  -0.00030,   0.00002,  -0.00378,490520310.75405,   0.00610,281039421.65211,  -0.00153,  -0.00109,  -0.00251,   0.00000,   2.00000
462012993.12973,439978664.30759,-96033776.44651,  -0.00026,   0.00003,  -0.00378,490563715.23378,   0.00613,281070504.09722,  -0.00150,  -0.00107,  -0.00254,   0.00000,   2.00000
464261629.47987,439687677.36663,-94383685.91879,  -0.00022,   0.00005,  -0.00379,490652756.98152,   0.00617,281101691.10258,  -0.00148,  -0.00105,  -0.00256,   0.00000,   2.00000
466438017.45730,439384110.32388,-92756784.96422,  -0.00019,   0.00006,  -0.00380,490704156.47153,   0.00620,281132861.77894,  -0.00145,  -0.00103,  -0.00259,   0.00000,   2.00000
468565447.70451,439040546.21137,-91155449.91665,  -0.00015,   0.00008,  -0.00381,490782844.64055,   0.00623,281164107.19490,  -0.00143,  -0.00101,  -0.00262,   0.00000,   2.00000
470624268.01091,438687097.48266,-89577107.96962,  -0.00012,   0.00009,  -0.00381,490832905.26304,   0.00626,281195336.44515,  -0.00140,  -0.00098,  -0.00265,   0.00000,   2.00000
472635822.51854,438313155.35621,-88012465.18098,  -0.00008,   0.00011,  -0.00382,490925622.27624,   0.00629,281226689.06173,  -0.00138,  -0.00096,  -0.00268,   0.00000,   2.00000
474582121.53410,437931356.60746,-86470835.53436,  -0.00005,   0.00012,  -0.00383,490974571.60470,   0.00632,281258025.45912,  -0.00135,  -0.00094,  -0.00270,   0.00000,   2.00000
476489624.38819,437517690.95726,-84947153.29606,  -0.00001,   0.00014,  -0.00383,491046816.41751,   0.00635,281289422.67836,  -0.00132,  -0.00092,  -0.00273,   0.00000,   2.00000
478330637.46832,437094362.73151,-83453930.94831,   0.00003,   0.00015,  -0.00384,491099324.48002,   0.00638,281320819.50142,  -0.00130,  -0.00090,  -0.00275,   0.00000,   2.00000
480129419.64664,436654246.25842,-81974460.07865,   0.00006,   0.00017,  -0.00385,491190622.24913,   0.00642,281352341.69888,  -0.00127,  -0.00088,  -0.00278,   0.00000,   2.00000
481875605.44377,436197165.61079,-80521335.29129,   0.00010,   0.00018,  -0.00385,491217745.42396,   0.00645,281383786.02567,  -0.00124,  -0.00086,  -0.00281,   0.00000,   2.00000
483581757.42417,435724960.35219,-79081879.83250,   0.00014,   0.00020,  -0.00386,491308489.84821,   0.00648,281415357.31654,  -0.00121,  -0.00084,  -0.00283,   0.00000,   2.00000
485232039.75497,435250789.77355,-77664615.34374,   0.00017,   0.00021,  -0.00386,491354436.94722,   0.00651,281446914.31762,  -0.00119,  -0.00082,  -0.00286,   0.00000,   2.00000
486832356.84526,434765515.10287,-76272995.97632,   0.00021,   0.00023,  -0.00387,491426392.42934,   0.00654,281478541.73079,  -0.00116,  -0.00080,  -0.00288,   0.00000,   2.00000
488406556.19945,434257373.66315,-74890613.55720,   0.00025,   0.00024,  -0.00388,491492571.15469,   0.00657,281510222.46813,  -0.00113,  -0.00078,  -0.00290,   0.00000,   2.00000
489925046.19164,433746194.62648,-73537783.75910,   0.00028,   0.00026,  -0.00388,491541368.09725,   0.00661,281541903.39119,  -0.00110,  -0.00076,  -0.00293,   0.00000,   2.00000
491407829.10510,433216329.64309,-72205650.26021,   0.00032,   0.00027,  -0.00389,491588604.89066,   0.00664,281573581.58534,  -0.00107,  -0.00074,  -0.00295,   0.00000,   2.00000
492842056.68796,432688496.08757,-70894464.75323,   0.00036,   0.00029,  -0.00389,491632308.17492,   0.00667,281605247.65400,  -0.00104,  -0.00072,  -0.00297,   0.00000,   2.00000
494240209.86437,432147049.56543,-69604229.17242,   0.00039,   0.00030,  -0.00390,491724980.79510,   0.00670,281637057.52512,  -0.00101,  -0.00070,  -0.00300,   0.00000,   2.00000
495603453.34240,431605614.72345,-68322733.43281,   0.00043,   0.00032,  -0.00391,491787073.89247,   0.00673,281668915.54054,  -0.00098,  -0.00068,  -0.00302,   0.00000,   2.00000
496924774.09711,431051033.38634,-67072822.42155,   0.00047,   0.00033,  -0.00391,491814137.70075,   0.00677,281700713.75061,  -0.00095,  -0.00066,  -0.00304,   0.00000,   2.00000
498216665.64577,430487872.20690,-65835451.55457,   0.00051,   0.00035,  -0.00392,491902385.47453,   0.00680,281732645.55844,  -0.00092,  -0.00064,  -0.00306,   0.00000,   2.00000
499472778.03780,429915940.18319,-64620888.69009,   0.00054,   0.00036,  -0.00392,491925167.38890,   0.00683,281764507.22698,  -0.00089,  -0.00062,  -0.00308,   0.00000,   2.00000
500694444.08914,429343052.44561,-63422129.81023,   0.00058,   0.00037,  -0.00393,491989970.93732,   0.00686,281796431.81146,  -0.00086,  -0.00060,  -0.00310,   0.00000,   2.00000
501876170.32219,428776191.50182,-62242526.61798,   0.00062,   0.00039,  -0.00393,492031343.59162,   0.00689,281828347.21421,  -0.00083,  -0.00058,  -0.00312,   0.00000,   2.00000
503035308.90309,428185634.09742,-61085814.73806,   0.00066,   0.00040,  -0.00394,492103051.03426,   0.00693,281860349.91604,  -0.00080,  -0.00056,  -0.00314,   0.00000,   2.00000
504159989.37840,427605016.59019,-59939461.46495,   0.00070,   0.00042,  -0.00394,492140580.07193,   0.00696,281892334.03634,  -0.00076,  -0.00055,  -0.00316,   0.00000,   2.00000
505256921.60570,427015668.52710,-58812910.11740,   0.00073,   0.00043,  -0.00395,492231154.86402,   0.00699,281924466.10454,  -0.00073,  -0.00053,  -0.00318,   0.00000,   2.00000
506318771.42964,426426676.76934,-57710340.86910,   0.00077,   0.00045,  -0.00395,492229009.66818,   0.00702,281956458.82753,  -0.00070,  -0.00051,  -0.00320,   0.00000,   2.00000
507357973.33787,425832517.57710,-56618837.35761,   0.00081,   0.00046,  -0.00396,492315910.61975,   0.00706,281988590.39138,  -0.00067,  -0.00049,  -0.00322,   0.00000,   2.00000
508370114.24122,425232651.96072,-55547289.27629,   0.00085,   0.00047,  -0.00396,492336765.56551,   0.00709,282020656.74475,  -0.00064,  -0.00047,  -0.00324,   0.00000,   2.00000
509357720.11434,424625895.61140,-54494685.35269,   0.00089,   0.00049,  -0.00396,492426538.26545,   0.00712,282052873.00129,  -0.00060,  -0.00045,  -0.00326,   0.00000,   2.00000
510310819.52581,424037697.48802,-53453630.07864,   0.00093,   0.00050,  -0.00397,492439377.39207,   0.00715,282085001.01834,  -0.00057,  -0.00043,  -0.00327,   0.00000,   2.00000
511247825.63714,423428578.29265,-52433623.54451,   0.00096,   0.00052,  -0.00397,492509842.82512,   0.00719,282117221.01883,  -0.00054,  -0.00041,  -0.00329,   0.00000,   2.00000
512154616.47316,422829464.22039,-51429673.48948,   0.00100,   0.00053,  -0.00398,492548844.88531,   0.00722,282149436.22495,  -0.00050,  -0.00040,  -0.00331,   0.00000,   2.00000
513044257.38889,422219164.66266,-50440857.32553,   0.00104,   0.00054,  -0.00398,492592530.13620,   0.00725,282181662.36559,  -0.00047,  -0.00038,  -0.00333,   0.00000,   2.00000
513910486.14467,421612654.02745,-49464625.79450,   0.00108,   0.00056,  -0.00399,492654984.98009,   0.00729,282213958.13943,  -0.00044,  -0.00036,  -0.00334,   0.00000,   2.00000
514746143.38432,421014599.90292,-48511888.49943,   0.00112,   0.00057,  -0.00399,492696124.76169,   0.00732,282246258.49173,  -0.00040,  -0.00034,  -0.00336,   0.00000,   2.00000
515569594.99262,420408036.28140,-47565005.10326,   0.00116,   0.00059,  -0.00399,492736854.01128,   0.00735,282278563.05772,  -0.00037,  -0.00032,  -0.00337,   0.00000,   2.00000
516375678.43755,419788958.49373,-46640437.67189,   0.00120,   0.00060,  -0.00400,492782844.66509,   0.00738,282310889.35558,  -0.00033,  -0.00030,  -0.00339,   0.00000,   2.00000
517152000.86536,419198292.12230,-45719646.02267,   0.00124,   0.00061,  -0.00400,492836951.87618,   0.00742,282343262.29794,  -0.00030,  -0.00029,  -0.00341,   0.00000,   2.00000
