# sigma_xx, sigma_yy, sigma_xy, epsilon_xx, epsilon_yy, epsilon_xy, vonMises, epsPlastic, hardening, epsilonP__xx, epsilonP__yy, epsilonP__xy, yieldValue, iteration
   0.00000,   0.00000,   0.00000,   0.00000,   0.00000,   0.00000,   0.00000,   0.00000,274640135.82653,   0.00000,   0.00000,   0.00000,-474640135.82653,   0.00000
   0.00000,   0.00000,   0.00000,   0.00000,   0.00000,   0.00000,   0.00000,   0.00000,274640135.82653,   0.00000,   0.00000,   0.00000,-474640135.82653,   0.00000
492833.38125,1343212.54889,241584.99081,  -0.00000,   0.00001,   0.00000,1249085.51922,   0.00000,274640135.82653,   0.00000,   0.00000,   0.00000,-473391050.30731,   0.00000
1009825.26158,2710583.59686,488001.68143,  -0.00000,   0.00001,   0.00001,2518775.81932,   0.00000,274640135.82653,   0.00000,   0.00000,   0.00000,-472121360.00721,   0.00000
1536480.54154,4068291.24520,734418.37206,  -0.00000,   0.00002,   0.00001,3778759.95670,   0.00000,274640135.82653,   0.00000,   0.00000,   0.00000,-470861375.86983,   0.00000
2104205.26993,5457404.94235,990498.46231,  -0.00000,   0.00002,   0.00001,5066627.07276,   0.00000,274640135.82653,   0.00000,   0.00000,   0.00000,-469573508.75377,   0.00000
2664682.44861,6829607.69013,1241746.85275,  -0.00000,   0.00003,   0.00002,6338070.98013,   0.00000,274640135.82653,   0.00000,   0.00000,   0.00000,-468302064.84639,   0.00000
3249318.12636,8225968.93700,1502658.64282,  -0.00000,   0.00003,   0.00002,7633465.28488,   0.00000,274640135.82653,   0.00000,   0.00000,   0.00000,-467006670.54165,   0.00000
3867775.70283,9636825.28332,1763570.43290,  -0.00000,   0.00004,   0.00002,8937871.88098,   0.00000,274640135.82653,   0.00000,   0.00000,   0.00000,-465702263.94555,   0.00000
4478985.72957,11030770.68028,2034145.62260,  -0.00000,   0.00004,   0.00003,10234539.35189,   0.00000,274640135.82653,   0.00000,   0.00000,   0.00000,-464405596.47464,   0.00000
5114354.25540,12448874.57632,2299889.11249,  -0.00000,   0.00005,   0.00003,11546930.88191,   0.00000,274640135.82653,   0.00000,   0.00000,   0.00000,-463093204.94462,   0.00000
5783544.67994,13881473.57181,2575296.00201,  -0.00000,   0.00005,   0.00003,12874665.95519,   0.00000,274640135.82653,   0.00000,   0.00000,   0.00000,-461765469.87134,   0.00000
6469646.05383,15321320.11702,2850702.89153,  -0.00000,   0.00006,   0.00004,14207574.48979,   0.00000,274640135.82653,   0.00000,   0.00000,   0.00000,-460432561.33674,   0.00000
7155747.42772,16761166.66224,3130941.48087,  -0.00000,   0.00006,   0.00004,15543845.64931,   0.00000,274640135.82653,   0.00000,   0.00000,   0.00000,-459096290.17722,   0.00000
7868423.15061,18198597.35754,3411180.07020,   0.00000,   0.00007,   0.00004,16876469.18986,   0.00000,274640135.82653,   0.00000,   0.00000,   0.00000,-457763666.63667,   0.00000
8605257.37257,19660186.55193,3696250.35936,   0.00000,   0.00007,   0.00005,18231270.51497,   0.00000,274640135.82653,   0.00000,   0.00000,   0.00000,-456408865.31156,   0.00000
9342091.59453,21121775.74632,3986152.34833,   0.00000,   0.00008,   0.00005,19589557.26935,   0.00000,274640135.82653,   0.00000,   0.00000,   0.00000,-455050578.55718,   0.00000
10112747.71521,22597860.04015,4280886.03711,   0.00000,   0.00008,   0.00006,20961451.35825,   0.00000,274640135.82653,   0.00000,   0.00000,   0.00000,-453678684.46828,   0.00000
10900314.78524,24081191.88371,4575619.72590,   0.00000,   0.00009,   0.00006,22339135.62896,   0.00000,274640135.82653,   0.00000,   0.00000,   0.00000,-452301000.19757,   0.00000
11704792.80463,25571771.27699,4875185.11450,   0.00000,   0.00009,   0.00006,23725675.25065,   0.00000,274640135.82653,   0.00000,   0.00000,   0.00000,-450914460.57588,   0.00000
12526181.77338,27069598.22000,5174750.50310,   0.00000,   0.00010,   0.00007,25118196.55318,   0.00000,274640135.82653,   0.00000,   0.00000,   0.00000,-449521939.27335,   0.00000
13364481.69148,28574672.71273,5479147.59152,   0.00001,   0.00010,   0.00007,26519780.84754,   0.00000,274640135.82653,   0.00000,   0.00000,   0.00000,-448120354.97899,   0.00000
14219692.55894,30086994.75519,5788376.37975,   0.00001,   0.00011,   0.00008,27930538.80199,   0.00000,274640135.82653,   0.00000,   0.00000,   0.00000,-446709597.02454,   0.00000
15091814.37576,31606564.34737,6097605.16799,   0.00001,   0.00011,   0.00008,29347567.78959,   0.00000,274640135.82653,   0.00000,   0.00000,   0.00000,-445292568.03694,   0.00000
15988094.69165,33150292.43863,6411665.65604,   0.00001,   0.00012,   0.00008,30787650.37358,   0.00000,274640135.82653,   0.00000,   0.00000,   0.00000,-443852485.45295,   0.00000
16894038.40718,34684357.13026,6725726.14409,   0.00001,   0.00012,   0.00009,32220497.79646,   0.00000,274640135.82653,   0.00000,   0.00000,   0.00000,-442419638.03007,   0.00000
17816893.07207,36225669.37161,7049450.03177,   0.00001,   0.00013,   0.00009,33665949.55970,   0.00000,274640135.82653,   0.00000,   0.00000,   0.00000,-440974186.26683,   0.00000
18773569.63567,37781476.71241,7368342.21963,   0.00001,   0.00014,   0.00010,35120807.45988,   0.00000,274640135.82653,   0.00000,   0.00000,   0.00000,-439519328.36665,   0.00000
19730246.19926,39337284.05322,7696897.80713,   0.00001,   0.00014,   0.00010,36582741.01468,   0.00000,274640135.82653,   0.00000,   0.00000,   0.00000,-438057394.81185,   0.00000
20703833.71222,40900338.94374,8025453.39463,   0.00001,   0.00015,   0.00010,38051495.98110,   0.00000,274640135.82653,   0.00000,   0.00000,   0.00000,-436588639.84543,   0.00000
21711243.12389,42477888.93372,8354008.98213,   0.00002,   0.00015,   0.00011,39533147.48968,   0.00000,274640135.82653,   0.00000,   0.00000,   0.00000,-435106988.33685,   0.00000
22718652.53556,44055438.92369,8687396.26944,   0.00002,   0.00016,   0.00011,41018913.00862,   0.00000,274640135.82653,   0.00000,   0.00000,   0.00000,-433621222.81791,   0.00000
23750220.44630,45657147.41275,9025615.25658,   0.00002,   0.00016,   0.00012,42528413.53018,   0.00000,274640135.82653,   0.00000,   0.00000,   0.00000,-432111722.29635,   0.00000
24808362.70604,47256440.05189,9363834.24371,   0.00002,   0.00017,   0.00012,44037657.25785,   0.00000,274640135.82653,   0.00000,   0.00000,   0.00000,-430602478.56868,   0.00000
25866504.96578,48855732.69104,9706884.93065,   0.00002,   0.00017,   0.00013,45551097.55905,   0.00000,274640135.82653,   0.00000,   0.00000,   0.00000,-429089038.26748,   0.00000
26958469.12423,50469520.42963,10049935.61760,   0.00002,   0.00018,   0.00013,47078170.73184,   0.00000,274640135.82653,   0.00000,   0.00000,   0.00000,-427561965.09469,   0.00000
28050433.28268,52083308.16823,10397818.00436,   0.00003,   0.00018,   0.00014,48609487.69463,   0.00000,274640135.82653,   0.00000,   0.00000,   0.00000,-426030648.13190,   0.00000
29176219.33984,53711591.00627,10745700.39113,   0.00003,   0.00019,   0.00014,50154719.15771,   0.00000,274640135.82653,   0.00000,   0.00000,   0.00000,-424485416.66882,   0.00000
30302005.39701,55339873.84432,11098414.47771,   0.00003,   0.00019,   0.00014,51704239.90392,   0.00000,274640135.82653,   0.00000,   0.00000,   0.00000,-422935895.92261,   0.00000
31468860.90261,56999562.73117,11451128.56428,   0.00003,   0.00020,   0.00015,53281451.58629,   0.00000,274640135.82653,   0.00000,   0.00000,   0.00000,-421358684.24023,   0.00000
32628468.85849,58642340.66866,11808674.35068,   0.00003,   0.00020,   0.00015,54849482.06331,   0.00000,274640135.82653,   0.00000,   0.00000,   0.00000,-419790653.76322,   0.00000
33821898.71308,60299613.70560,12171051.83689,   0.00004,   0.00021,   0.00016,56435098.35964,   0.00000,274640135.82653,   0.00000,   0.00000,   0.00000,-418205037.46689,   0.00000
35015328.56767,61956886.74254,12533429.32310,   0.00004,   0.00021,   0.00016,58021968.72738,   0.00000,274640135.82653,   0.00000,   0.00000,   0.00000,-416618167.09915,   0.00000
36242580.32097,63628654.87893,12895806.80931,   0.00004,   0.00022,   0.00017,59623562.57931,   0.00000,274640135.82653,   0.00000,   0.00000,   0.00000,-415016573.24722,   0.00000
37469832.07427,65300423.01532,13263015.99534,   0.00004,   0.00022,   0.00017,61229571.75066,   0.00000,274640135.82653,   0.00000,   0.00000,   0.00000,-413410564.07587,   0.00000
38730905.72629,66986686.25116,13635056.88119,   0.00005,   0.00023,   0.00018,62853707.06362,   0.00000,274640135.82653,   0.00000,   0.00000,   0.00000,-411786428.76291,   0.00000
39991979.37831,68672949.48699,14007097.76703,   0.00005,   0.00023,   0.00018,64479156.24194,   0.00000,274640135.82653,   0.00000,   0.00000,   0.00000,-410160979.58459,   0.00000
41286874.92903,70373707.82228,14379138.65287,   0.00005,   0.00024,   0.00019,66119839.73140,   0.00000,274640135.82653,   0.00000,   0.00000,   0.00000,-408520296.09513,   0.00000
42581770.47976,72074466.15757,14756011.23853,   0.00005,   0.00024,   0.00019,67765013.66289,   0.00000,274640135.82653,   0.00000,   0.00000,   0.00000,-406875122.16364,   0.00000
43903240.37948,73772808.64294,15132883.82419,   0.00006,   0.00025,   0.00020,69412311.43015,   0.00000,274640135.82653,   0.00000,   0.00000,   0.00000,-405227824.39638,   0.00000
45231957.82892,75488062.07768,15514588.10967,   0.00006,   0.00026,   0.00020,71077507.11325,   0.00000,274640135.82653,   0.00000,   0.00000,   0.00000,-403562628.71328,   0.00000
46594497.17708,77217810.61186,15901124.09496,   0.00006,   0.00026,   0.00021,72761594.44892,   0.00000,274640135.82653,   0.00000,   0.00000,   0.00000,-401878541.37760,   0.00000
47957036.52523,78947559.14605,16282828.38044,   0.00006,   0.00027,   0.00021,74443904.85497,   0.00000,274640135.82653,   0.00000,   0.00000,   0.00000,-400196230.97156,   0.00000
49353397.77210,80691802.77968,16674196.06555,   0.00007,   0.00027,   0.00022,76148517.45930,   0.00000,274640135.82653,   0.00000,   0.00000,   0.00000,-398491618.36723,   0.00000
50742511.46925,82419135.46395,17060732.05084,   0.00007,   0.00028,   0.00022,77838089.44597,   0.00000,274640135.82653,   0.00000,   0.00000,   0.00000,-396802046.38056,   0.00000
52155783.66547,84170626.64731,17452099.73595,   0.00007,   0.00028,   0.00023,79552891.34366,   0.00000,274640135.82653,   0.00000,   0.00000,   0.00000,-395087244.48287,   0.00000
53602877.76041,85936612.93011,17848299.12087,   0.00008,   0.00029,   0.00023,81287179.38633,   0.00000,274640135.82653,   0.00000,   0.00000,   0.00000,-393352956.44020,   0.00000
55042724.30562,87685688.26356,18244498.50580,   0.00008,   0.00029,   0.00024,83009682.79534,   0.00000,274640135.82653,   0.00000,   0.00000,   0.00000,-391630453.03119,   0.00000
56506729.34992,89458922.09609,18640697.89072,   0.00008,   0.00030,   0.00024,84754380.17683,   0.00000,274640135.82653,   0.00000,   0.00000,   0.00000,-389885755.64970,   0.00000
57980397.79385,91222492.52898,19041728.97546,   0.00009,   0.00030,   0.00025,86498066.99621,   0.00000,274640135.82653,   0.00000,   0.00000,   0.00000,-388142068.83032,   0.00000
59478224.73685,93010221.46096,19442760.06020,   0.00009,   0.00031,   0.00025,88264038.06455,   0.00000,274640135.82653,   0.00000,   0.00000,   0.00000,-386376097.76198,   0.00000
60985715.07949,94788286.99331,19848622.84476,   0.00009,   0.00031,   0.00026,90029155.37722,   0.00000,274640135.82653,   0.00000,   0.00000,   0.00000,-384610980.44931,   0.00000
62510116.37149,96573600.07537,20254485.62932,   0.00010,   0.00032,   0.00026,91803488.30788,   0.00000,274640135.82653,   0.00000,   0.00000,   0.00000,-382836647.51865,   0.00000
64058676.16257,98383071.65652,20660348.41387,   0.00010,   0.00032,   0.00027,93600232.06647,   0.00000,274640135.82653,   0.00000,   0.00000,   0.00000,-381039903.76006,   0.00000
65599988.40392,100175632.28832,21071042.89825,   0.00010,   0.00033,   0.00027,95388479.45611,   0.00000,274640135.82653,   0.00000,   0.00000,   0.00000,-379251656.37042,   0.00000
67175122.54399,101982688.01956,21481737.38262,   0.00011,   0.00033,   0.00028,97193936.55132,   0.00000,274640135.82653,   0.00000,   0.00000,   0.00000,-377446199.27521,   0.00000
68767167.63341,103796991.30052,21892431.86699,   0.00011,   0.00034,   0.00028,99008834.78715,   0.00000,274640135.82653,   0.00000,   0.00000,   0.00000,-375631301.03938,   0.00000
70359212.72283,105611294.58149,22307958.05118,   0.00011,   0.00034,   0.00029,100828427.50932,   0.00000,274640135.82653,   0.00000,   0.00000,   0.00000,-373811708.31721,   0.00000
71968168.76161,107432845.41218,22723484.23537,   0.00012,   0.00035,   0.00030,102657482.17485,   0.00000,274640135.82653,   0.00000,   0.00000,   0.00000,-371982653.65168,   0.00000
73610946.69910,109268891.34232,23143842.11938,   0.00012,   0.00035,   0.00030,104507357.81173,   0.00000,274640135.82653,   0.00000,   0.00000,   0.00000,-370132778.01480,   0.00000
75253724.63660,111104937.27246,23564200.00338,   0.00013,   0.00036,   0.00031,106358753.13357,   0.00000,274640135.82653,   0.00000,   0.00000,   0.00000,-368281382.69296,   0.00000
76913413.52344,112948230.75232,23984557.88739,   0.00013,   0.00036,   0.00031,108219772.14203,   0.00000,274640135.82653,   0.00000,   0.00000,   0.00000,-366420363.68450,   0.00000
78582765.80993,114781860.83255,24409747.47121,   0.00013,   0.00037,   0.00032,110080688.06250,   0.00000,274640135.82653,   0.00000,   0.00000,   0.00000,-364559447.76403,   0.00000
80276276.59549,116639649.41186,24830105.35521,   0.00014,   0.00037,   0.00032,111961127.34616,   0.00000,274640135.82653,   0.00000,   0.00000,   0.00000,-362679008.48037,   0.00000
81969787.38105,118497437.99117,25260126.63885,   0.00014,   0.00038,   0.00033,113849466.62090,   0.00000,274640135.82653,   0.00000,   0.00000,   0.00000,-360790669.20563,   0.00000
83689872.51560,120352810.72058,25685316.22267,   0.00015,   0.00038,   0.00033,115739746.12162,   0.00000,274640135.82653,   0.00000,   0.00000,   0.00000,-358900389.70491,   0.00000
85417205.19988,122225094.39934,26115337.50631,   0.00015,   0.00039,   0.00034,117647691.16055,   0.00000,274640135.82653,   0.00000,   0.00000,   0.00000,-356992444.66598,   0.00000
87154201.28378,124087714.67846,26545358.78995,   0.00015,   0.00039,   0.00035,119552575.43636,   0.00000,274640135.82653,   0.00000,   0.00000,   0.00000,-355087560.39016,   0.00000
88908108.31705,125957582.50731,26980211.77340,   0.00016,   0.00040,   0.00035,121470611.29632,   0.00000,274640135.82653,   0.00000,   0.00000,   0.00000,-353169524.53021,   0.00000
90678926.29967,127834697.88589,27415064.75686,   0.00016,   0.00040,   0.00036,123398629.80265,   0.00000,274640135.82653,   0.00000,   0.00000,   0.00000,-351241506.02388,   0.00000
92466655.23164,129719060.81419,27849917.74031,   0.00017,   0.00041,   0.00036,125336679.18607,   0.00000,274640135.82653,   0.00000,   0.00000,   0.00000,-349303456.64046,   0.00000
94271295.11298,131610671.29221,28284770.72376,   0.00017,   0.00041,   0.00037,127284807.46557,   0.00000,274640135.82653,   0.00000,   0.00000,   0.00000,-347355328.36096,   0.00000
96075934.99431,133502281.77024,28724455.40703,   0.00018,   0.00042,   0.00037,129237653.15586,   0.00000,274640135.82653,   0.00000,   0.00000,   0.00000,-345402482.67067,   0.00000
97897485.82500,135401139.79799,29164140.09030,   0.00018,   0.00043,   0.00038,131200596.13816,   0.00000,274640135.82653,   0.00000,   0.00000,   0.00000,-343439539.68837,   0.00000
99735947.60505,137307245.37546,29603824.77357,   0.00019,   0.00043,   0.00038,133173683.47533,   0.00000,274640135.82653,   0.00000,   0.00000,   0.00000,-341466452.35120,   0.00000
101591320.33445,139220598.50266,30043509.45684,   0.00019,   0.00044,   0.00039,135156961.99807,   0.00000,274640135.82653,   0.00000,   0.00000,   0.00000,-339483173.82846,   0.00000
103456356.46349,141124288.23022,30488025.83993,   0.00020,   0.00044,   0.00040,137140938.13021,   0.00000,274640135.82653,   0.00000,   0.00000,   0.00000,-337499197.69632,   0.00000
105328640.14225,143044888.90714,30932542.22302,   0.00020,   0.00045,   0.00040,139139158.95218,   0.00000,274640135.82653,   0.00000,   0.00000,   0.00000,-335500976.87435,   0.00000
107210587.22064,144955826.18443,31377058.60610,   0.00021,   0.00045,   0.00041,141134906.13959,   0.00000,274640135.82653,   0.00000,   0.00000,   0.00000,-333505229.68694,   0.00000
109109445.24839,146874011.01144,31826406.68901,   0.00021,   0.00046,   0.00041,143144209.72690,   0.00000,274640135.82653,   0.00000,   0.00000,   0.00000,-331495926.09963,   0.00000
111025214.22549,148799443.38818,32275754.77191,   0.00022,   0.00046,   0.00042,145163891.88063,   0.00000,274640135.82653,   0.00000,   0.00000,   0.00000,-329476243.94590,   0.00000
112965141.70168,150749034.26400,32725102.85481,   0.00022,   0.00047,   0.00043,147206676.56312,   0.00000,274640135.82653,   0.00000,   0.00000,   0.00000,-327433459.26341,   0.00000
114890574.07841,152664803.24110,33174450.93771,   0.00023,   0.00047,   0.00043,149225573.74602,   0.00000,274640135.82653,   0.00000,   0.00000,   0.00000,-325414562.08051,   0.00000
116840164.95423,154604730.71729,33623799.02061,   0.00023,   0.00048,   0.00044,151267591.53474,   0.00000,274640135.82653,   0.00000,   0.00000,   0.00000,-323372544.29179,   0.00000
118806666.77941,156551905.74320,34077978.80333,   0.00024,   0.00048,   0.00044,153323315.51890,   0.00000,274640135.82653,   0.00000,   0.00000,   0.00000,-321316820.30763,   0.00000
120773168.60458,158499080.76911,34532158.58605,   0.00024,   0.00049,   0.00045,155380470.40694,   0.00000,274640135.82653,   0.00000,   0.00000,   0.00000,-319259665.41959,   0.00000
122749333.82939,160436592.39539,34986338.36877,   0.00025,   0.00049,   0.00045,157435529.38893,   0.00000,274640135.82653,   0.00000,   0.00000,   0.00000,-317204606.43760,   0.00000
124749657.55328,162398262.52075,35440518.15149,   0.00025,   0.00050,   0.00046,159513748.85333,   0.00000,274640135.82653,   0.00000,   0.00000,   0.00000,-315126386.97320,   0.00000
126759644.67680,164350269.24647,35894697.93421,   0.00026,   0.00050,   0.00047,161589989.81101,   0.00000,274640135.82653,   0.00000,   0.00000,   0.00000,-313050146.01552,   0.00000
128769631.80032,166302275.97220,36353709.41674,   0.00026,   0.00051,   0.00047,163670885.58476,   0.00000,274640135.82653,   0.00000,   0.00000,   0.00000,-310969250.24177,   0.00000
130796529.87319,168261530.24765,36812720.89928,   0.00027,   0.00051,   0.00048,165762419.68742,   0.00000,274640135.82653,   0.00000,   0.00000,   0.00000,-308877716.13911,   0.00000
132840338.89543,170228032.07282,37271732.38181,   0.00027,   0.00052,   0.00048,167864633.48605,   0.00000,274640135.82653,   0.00000,   0.00000,   0.00000,-306775502.34048,   0.00000
134901058.86701,172201781.44772,37730743.86435,   0.00028,   0.00052,   0.00049,169977568.10473,   0.00000,274640135.82653,   0.00000,   0.00000,   0.00000,-304662567.72180,   0.00000
136961778.83860,174175530.82262,38189755.34688,   0.00028,   0.00053,   0.00050,172091911.80505,   0.00000,274640135.82653,   0.00000,   0.00000,   0.00000,-302548224.02148,   0.00000
139032162.20983,176139616.79789,38653598.52923,   0.00029,   0.00053,   0.00050,174207740.92446,   0.00000,274640135.82653,   0.00000,   0.00000,   0.00000,-300432394.90207,   0.00000
141109793.13077,178120613.72251,39112610.01177,   0.00029,   0.00054,   0.00051,176334207.06539,   0.00000,274640135.82653,   0.00000,   0.00000,   0.00000,-298305928.76114,   0.00000
143197087.45135,180091947.24750,39576453.19412,   0.00030,   0.00054,   0.00051,178462208.71921,   0.00000,274640135.82653,   0.00000,   0.00000,   0.00000,-296177927.10732,   0.00000
145308540.27101,182087439.27157,40040296.37647,   0.00031,   0.00055,   0.00052,180613464.10409,   0.00000,274640135.82653,   0.00000,   0.00000,   0.00000,-294026671.72244,   0.00000
147412745.54095,184066020.34629,40504139.55882,   0.00031,   0.00055,   0.00053,182753648.22131,   0.00000,274640135.82653,   0.00000,   0.00000,   0.00000,-291886487.60522,   0.00000
149533861.76024,186051848.97073,40972814.44098,   0.00032,   0.00055,   0.00053,184907894.43335,   0.00000,274640135.82653,   0.00000,   0.00000,   0.00000,-289732241.39317,   0.00000
151671888.92888,188044925.14489,41436657.62334,   0.00032,   0.00056,   0.00054,187069817.31099,   0.00000,274640135.82653,   0.00000,   0.00000,   0.00000,-287570318.51554,   0.00000
153802668.54781,190021090.36970,41905332.50550,   0.00033,   0.00056,   0.00054,189223929.60638,   0.00000,274640135.82653,   0.00000,   0.00000,   0.00000,-285416206.22014,   0.00000
155957606.66581,192021414.09359,42369175.68785,   0.00034,   0.00057,   0.00055,191398117.86486,   0.00000,274640135.82653,   0.00000,   0.00000,   0.00000,-283242017.96167,   0.00000
158122208.18345,194012074.41784,42837850.57002,   0.00034,   0.00057,   0.00056,193574131.64961,   0.00000,274640135.82653,   0.00000,   0.00000,   0.00000,-281066004.17692,   0.00000
160294057.25081,196019645.69145,43306525.45219,   0.00035,   0.00058,   0.00056,195763805.17961,   0.00000,274640135.82653,   0.00000,   0.00000,   0.00000,-278876330.64691,   0.00000
162458658.76845,198010306.01571,43775200.33435,   0.00035,   0.00058,   0.00057,197942448.33429,   0.00000,274640135.82653,   0.00000,   0.00000,   0.00000,-276697687.49224,   0.00000
164640171.23544,200008213.88969,44243875.21652,   0.00036,   0.00059,   0.00058,200132072.65956,   0.00000,274640135.82653,   0.00000,   0.00000,   0.00000,-274508063.16697,   0.00000
166838594.65179,202013369.31339,44712550.09869,   0.00037,   0.00059,   0.00058,202332715.64084,   0.00000,274640135.82653,   0.00000,   0.00000,   0.00000,-272307420.18569,   0.00000
169046681.46777,204008861.33746,45181224.98085,   0.00037,   0.00060,   0.00059,204532159.55607,   0.00000,274640135.82653,   0.00000,   0.00000,   0.00000,-270107976.27046,   0.00000
171245104.88412,206014016.76117,45654731.56284,   0.00038,   0.00060,   0.00059,206738561.19071,   0.00000,274640135.82653,   0.00000,   0.00000,   0.00000,-267901574.63582,   0.00000
173470102.64946,208016756.33496,46123406.44500,   0.00038,   0.00061,   0.00060,208950389.37837,   0.00000,274640135.82653,   0.00000,   0.00000,   0.00000,-265689746.44816,   0.00000
175702347.96453,210036406.85811,46596913.02699,   0.00039,   0.00061,   0.00061,211178915.50542,   0.00000,274640135.82653,   0.00000,   0.00000,   0.00000,-263461220.32111,   0.00000
177927345.72986,212039146.43191,47065587.90915,   0.00040,   0.00062,   0.00061,213393266.43148,   0.00000,274640135.82653,   0.00000,   0.00000,   0.00000,-261246869.39505,   0.00000
180169254.44456,214049133.55543,47539094.49114,   0.00040,   0.00062,   0.00062,215621927.29605,   0.00000,274640135.82653,   0.00000,   0.00000,   0.00000,-259018208.53047,   0.00000
182428074.10861,216066368.22867,48007769.37330,   0.00041,   0.00063,   0.00062,217858541.32328,   0.00000,274640135.82653,   0.00000,   0.00000,   0.00000,-256781594.50325,   0.00000
184686893.77266,218083602.90192,48481275.95529,   0.00042,   0.00063,   0.00063,220099581.41289,   0.00000,274640135.82653,   0.00000,   0.00000,   0.00000,-254540554.41364,   0.00000
186938465.88699,220083926.62581,48954782.53727,   0.00042,   0.00064,   0.00064,222329677.23005,   0.00000,274640135.82653,   0.00000,   0.00000,   0.00000,-252310458.59648,   0.00000
189206948.95068,222091497.89942,49428289.11925,   0.00043,   0.00064,   0.00064,224570958.85436,   0.00000,274640135.82653,   0.00000,   0.00000,   0.00000,-250069176.97217,   0.00000
191482679.56408,224115980.12239,49901795.70124,   0.00043,   0.00065,   0.00065,226825546.08094,   0.00000,274640135.82653,   0.00000,   0.00000,   0.00000,-247814589.74559,   0.00000
193768073.57712,226130798.94572,50375302.28322,   0.00044,   0.00065,   0.00065,229079218.87816,   0.00000,274640135.82653,   0.00000,   0.00000,   0.00000,-245560916.94837,   0.00000
196070378.53952,228152865.31878,50848808.86520,   0.00045,   0.00066,   0.00066,231344134.81846,   0.00000,274640135.82653,   0.00000,   0.00000,   0.00000,-243296001.00807,   0.00000
198355772.55256,230167684.14212,51322315.44719,   0.00045,   0.00066,   0.00067,233600142.79150,   0.00000,274640135.82653,   0.00000,   0.00000,   0.00000,-241039993.03503,   0.00000
200667740.91459,232180087.11555,51795822.02917,   0.00046,   0.00067,   0.00067,235865434.23942,   0.00000,274640135.82653,   0.00000,   0.00000,   0.00000,-238774701.58711,   0.00000
202970045.87699,234202153.48861,52269328.61115,   0.00047,   0.00067,   0.00068,238133816.42328,   0.00000,274640135.82653,   0.00000,   0.00000,   0.00000,-236506319.40325,   0.00000
205282014.23902,236214556.46204,52742835.19314,   0.00047,   0.00067,   0.00069,240401418.68157,   0.00000,274640135.82653,   0.00000,   0.00000,   0.00000,-234238717.14496,   0.00000
207610893.55041,238234206.98519,53216341.77512,   0.00048,   0.00068,   0.00069,242680326.78396,   0.00000,274640135.82653,   0.00000,   0.00000,   0.00000,-231959809.04257,   0.00000
209922861.91244,240246609.95862,53689848.35710,   0.00049,   0.00068,   0.00070,244950168.54999,   0.00000,274640135.82653,   0.00000,   0.00000,   0.00000,-229689967.27654,   0.00000
212268652.17318,242273508.03149,54163354.93908,   0.00049,   0.00069,   0.00070,247241520.45513,   0.00000,274640135.82653,   0.00000,   0.00000,   0.00000,-227398615.37140,   0.00000
214590283.93484,244276247.60529,54636861.52107,   0.00050,   0.00069,   0.00071,249511774.63562,   0.00000,274640135.82653,   0.00000,   0.00000,   0.00000,-225128361.19091,   0.00000
216936074.19558,246303145.67817,55110368.10305,   0.00051,   0.00070,   0.00072,251805322.40258,   0.00000,274640135.82653,   0.00000,   0.00000,   0.00000,-222834813.42395,   0.00000
219274616.90660,248313132.80169,55583874.68503,   0.00051,   0.00070,   0.00072,254087984.46279,   0.00000,274640135.82653,   0.00000,   0.00000,   0.00000,-220552151.36374,   0.00000
221630070.56698,250330367.47493,56057381.26702,   0.00052,   0.00071,   0.00073,256382008.01670,   0.00000,274640135.82653,   0.00000,   0.00000,   0.00000,-218258127.80983,   0.00000
223985524.22735,252347602.14817,56530887.84900,   0.00053,   0.00071,   0.00073,258677098.44833,   0.00000,274640135.82653,   0.00000,   0.00000,   0.00000,-215963037.37820,   0.00000
226340977.88773,254364836.82142,57004394.43098,   0.00053,   0.00072,   0.00074,260973227.61018,   0.00000,274640135.82653,   0.00000,   0.00000,   0.00000,-213666908.21635,   0.00000
228706094.94773,256372408.09503,57477901.01297,   0.00054,   0.00072,   0.00075,263268844.54013,   0.00000,274640135.82653,   0.00000,   0.00000,   0.00000,-211371291.28640,   0.00000
231078459.55746,258396890.31800,57951407.59495,   0.00055,   0.00073,   0.00075,265577387.88355,   0.00000,274640135.82653,   0.00000,   0.00000,   0.00000,-209062747.94298,   0.00000
233443576.61747,260404461.59161,58424914.17693,   0.00055,   0.00073,   0.00076,267875064.14265,   0.00000,274640135.82653,   0.00000,   0.00000,   0.00000,-206765071.68388,   0.00000
235808693.67748,262412032.86522,58893589.05910,   0.00056,   0.00073,   0.00077,270170577.28021,   0.00000,274640135.82653,   0.00000,   0.00000,   0.00000,-204469558.54632,   0.00000
238190721.68684,264426851.68856,59367095.64108,   0.00057,   0.00074,   0.00077,272480665.89965,   0.00000,274640135.82653,   0.00000,   0.00000,   0.00000,-202159469.92688,   0.00000
240572749.69621,266441670.51189,59840602.22307,   0.00058,   0.00074,   0.00078,274791738.22392,   0.00000,274640135.82653,   0.00000,   0.00000,   0.00000,-199848397.60261,   0.00000
242947530.15585,268439578.38587,60309277.10523,   0.00058,   0.00075,   0.00078,277088801.29438,   0.00000,274640135.82653,   0.00000,   0.00000,   0.00000,-197551334.53215,   0.00000
245339221.56484,270444733.80958,60782783.68722,   0.00059,   0.00075,   0.00079,279400478.86953,   0.00000,274640135.82653,   0.00000,   0.00000,   0.00000,-195239656.95700,   0.00000
247730912.97384,272449889.23328,61251458.56938,   0.00060,   0.00076,   0.00080,281709976.95738,   0.00000,274640135.82653,   0.00000,   0.00000,   0.00000,-192930158.86915,   0.00000
250122604.38283,274455044.65699,61724965.15137,   0.00060,   0.00076,   0.00080,284023576.79270,   0.00000,274640135.82653,   0.00000,   0.00000,   0.00000,-190616559.03383,   0.00000
252514295.79183,276460200.08069,62193640.03353,   0.00061,   0.00077,   0.00081,286334953.59791,   0.00000,274640135.82653,   0.00000,   0.00000,   0.00000,-188305182.22862,   0.00000
254905987.20083,278465355.50439,62662314.91570,   0.00062,   0.00077,   0.00081,288647236.80077,   0.00000,274640135.82653,   0.00000,   0.00000,   0.00000,-185992899.02575,   0.00000
257307342.00946,280460847.52846,63130989.79787,   0.00062,   0.00077,   0.00082,290959250.84393,   0.00000,274640135.82653,   0.00000,   0.00000,   0.00000,-183680884.98260,   0.00000
259708696.81808,282456339.55254,63599664.68003,   0.00063,   0.00078,   0.00083,293272186.10944,   0.00000,274640135.82653,   0.00000,   0.00000,   0.00000,-181367949.71709,   0.00000
262110051.62671,284451831.57661,64068339.56220,   0.00064,   0.00078,   0.00083,295586020.97183,   0.00000,274640135.82653,   0.00000,   0.00000,   0.00000,-179054114.85470,   0.00000
264511406.43534,286447323.60068,64537014.44437,   0.00064,   0.00079,   0.00084,297900734.46925,   0.00000,274640135.82653,   0.00000,   0.00000,   0.00000,-176739401.35728,   0.00000
266905513.69425,288425904.67539,65005689.32653,   0.00065,   0.00079,   0.00085,300204614.24260,   0.00000,274640135.82653,   0.00000,   0.00000,   0.00000,-174435521.58393,   0.00000
269323779.45223,290428644.24919,65469532.50888,   0.00066,   0.00080,   0.00085,302528568.08783,   0.00000,274640135.82653,   0.00000,   0.00000,   0.00000,-172111567.73870,   0.00000
271717886.71113,292407225.32391,65938207.39105,   0.00067,   0.00080,   0.00086,304834157.59745,   0.00000,274640135.82653,   0.00000,   0.00000,   0.00000,-169805978.22908,   0.00000
274128904.91939,294393053.94834,66402050.57340,   0.00067,   0.00080,   0.00086,307148137.21014,   0.00000,274640135.82653,   0.00000,   0.00000,   0.00000,-167491998.61639,   0.00000
276539923.12766,296378882.57278,66865893.75575,   0.00068,   0.00081,   0.00087,309462955.71275,   0.00000,274640135.82653,   0.00000,   0.00000,   0.00000,-165177180.11378,   0.00000
278943693.78619,298347800.24787,67329736.93810,   0.00069,   0.00081,   0.00088,311766959.77952,   0.00000,274640135.82653,   0.00000,   0.00000,   0.00000,-162873176.04701,   0.00000
281354711.99445,300333628.87231,67793580.12045,   0.00069,   0.00082,   0.00088,314083411.62201,   0.00000,274640135.82653,   0.00000,   0.00000,   0.00000,-160556724.20452,   0.00000
283758482.65299,302302546.54739,68257423.30281,   0.00070,   0.00082,   0.00089,316389035.40413,   0.00000,274640135.82653,   0.00000,   0.00000,   0.00000,-158251100.42240,   0.00000
286162253.31153,304271464.22247,68721266.48516,   0.00071,   0.00083,   0.00089,318695448.26070,   0.00000,274640135.82653,   0.00000,   0.00000,   0.00000,-155944687.56583,   0.00000
288566023.97006,306240381.89755,69180277.96769,   0.00072,   0.00083,   0.00090,320999509.17480,   0.00000,274640135.82653,   0.00000,   0.00000,   0.00000,-153640626.65173,   0.00000
290979458.02823,308199636.17300,69639289.45023,   0.00072,   0.00083,   0.00091,323303556.33499,   0.00000,274640135.82653,   0.00000,   0.00000,   0.00000,-151336579.49154,   0.00000
293383228.68677,310168553.84809,70103132.63258,   0.00073,   0.00084,   0.00091,325612264.08188,   0.00000,274640135.82653,   0.00000,   0.00000,   0.00000,-149027871.74465,   0.00000
295779751.79558,312120560.57381,70562144.11511,   0.00074,   0.00084,   0.00092,327907018.09310,   0.00000,274640135.82653,   0.00000,   0.00000,   0.00000,-146733117.73343,   0.00000
298193185.85375,314079814.84926,71016323.89783,   0.00074,   0.00085,   0.00092,330210236.61144,   0.00000,274640135.82653,   0.00000,   0.00000,   0.00000,-144429899.21509,   0.00000
300582461.41284,316014910.62563,71475335.38036,   0.00075,   0.00085,   0.00093,332494918.56406,   0.00000,274640135.82653,   0.00000,   0.00000,   0.00000,-142145217.26247,   0.00000
302995895.47101,317974164.90108,71929515.16308,   0.00076,   0.00086,   0.00094,334799612.96387,   0.00000,274640135.82653,   0.00000,   0.00000,   0.00000,-139840522.86266,   0.00000
305385171.03009,319909260.67745,72388526.64562,   0.00077,   0.00086,   0.00094,337085730.69169,   0.00000,274640135.82653,   0.00000,   0.00000,   0.00000,-137554405.13484,   0.00000
307774446.58918,321844356.45382,72842706.42834,   0.00077,   0.00086,   0.00095,339369431.00173,   0.00000,274640135.82653,   0.00000,   0.00000,   0.00000,-135270704.82480,   0.00000
310180633.09763,323786699.77992,73296886.21105,   0.00078,   0.00087,   0.00095,341664732.10093,   0.00000,274640135.82653,   0.00000,   0.00000,   0.00000,-132975403.72560,   0.00000
312569908.65671,325721795.55629,73746234.29396,   0.00079,   0.00087,   0.00096,343946689.51913,   0.00000,274640135.82653,   0.00000,   0.00000,   0.00000,-130693446.30740,   0.00000
314951936.66608,327639980.38330,74200414.07667,   0.00079,   0.00088,   0.00096,346220936.90558,   0.00000,274640135.82653,   0.00000,   0.00000,   0.00000,-128419198.92095,   0.00000
317341212.22517,329575076.15967,74649762.15958,   0.00080,   0.00088,   0.00097,348504207.41495,   0.00000,274640135.82653,   0.00000,   0.00000,   0.00000,-126135928.41158,   0.00000
319740151.18389,331500508.53641,75099110.24248,   0.00081,   0.00088,   0.00098,350787624.92377,   0.00000,274640135.82653,   0.00000,   0.00000,   0.00000,-123852510.90276,   0.00000
322114931.64353,333401782.41406,75548458.32538,   0.00082,   0.00089,   0.00098,353049279.87248,   0.00000,274640135.82653,   0.00000,   0.00000,   0.00000,-121590855.95405,   0.00000
324480048.70353,335312719.69135,75997806.40828,   0.00082,   0.00089,   0.00099,355312023.59856,   0.00000,274640135.82653,   0.00000,   0.00000,   0.00000,-119328112.22796,   0.00000
326854829.16317,337213993.56901,76442322.79137,   0.00083,   0.00090,   0.00099,357571839.89771,   0.00000,274640135.82653,   0.00000,   0.00000,   0.00000,-117068295.92882,   0.00000
329236857.17254,339132178.39602,76886839.17446,   0.00084,   0.00090,   0.00100,359843699.51135,   0.00000,274640135.82653,   0.00000,   0.00000,   0.00000,-114796436.31518,   0.00000
331594726.68282,341026204.72395,77331355.55754,   0.00084,   0.00091,   0.00101,362093716.57385,   0.00000,274640135.82653,   0.00000,   0.00000,   0.00000,-112546419.25268,   0.00000
333962259.59274,342910567.65225,77775871.94063,   0.00085,   0.00091,   0.00101,364343956.99240,   0.00000,274640135.82653,   0.00000,   0.00000,   0.00000,-110296178.83413,   0.00000
336320129.10302,344804593.98018,78215556.62390,   0.00086,   0.00091,   0.00102,366592050.65159,   0.00000,274640135.82653,   0.00000,   0.00000,   0.00000,-108048085.17494,   0.00000
338670751.06358,346681709.35876,78660073.00698,   0.00086,   0.00092,   0.00102,368832416.68505,   0.00000,274640135.82653,   0.00000,   0.00000,   0.00000,-105807719.14148,   0.00000
341021373.02414,348558824.73734,79099757.69025,   0.00087,   0.00092,   0.00103,371070259.07489,   0.00000,274640135.82653,   0.00000,   0.00000,   0.00000,-103569876.75164,   0.00000
343371994.98470,350435940.11591,79534610.67371,   0.00088,   0.00092,   0.00103,373305571.98870,   0.00000,274640135.82653,   0.00000,   0.00000,   0.00000,-101334563.83783,   0.00000
345715369.39553,352296144.54513,79974295.35698,   0.00089,   0.00093,   0.00104,375533170.44323,   0.00000,274640135.82653,   0.00000,   0.00000,   0.00000,-99106965.38330,   0.00000
348049080.40673,354166012.37398,80409148.34043,   0.00089,   0.00093,   0.00105,377758474.67036,   0.00000,274640135.82653,   0.00000,   0.00000,   0.00000,-96881661.15617,   0.00000
350375543.86821,356018969.25348,80844001.32389,   0.00090,   0.00094,   0.00105,379972954.14258,   0.00000,274640135.82653,   0.00000,   0.00000,   0.00000,-94667181.68395,   0.00000
352702007.32969,357871926.13297,81274022.60752,   0.00091,   0.00094,   0.00106,382184870.22238,   0.00000,274640135.82653,   0.00000,   0.00000,   0.00000,-92455265.60415,   0.00000
355021223.24144,359707972.06311,81708875.59098,   0.00091,   0.00094,   0.00106,384389061.91135,   0.00000,274640135.82653,   0.00000,   0.00000,   0.00000,-90251073.91518,   0.00000
357330775.75356,361553681.39288,82138896.87462,   0.00092,   0.00095,   0.00107,386590850.27979,   0.00000,274640135.82653,   0.00000,   0.00000,   0.00000,-88049285.54674,   0.00000
359633080.71596,363382479.77330,82568918.15825,   0.00093,   0.00095,   0.00107,388781812.08724,   0.00000,274640135.82653,   0.00000,   0.00000,   0.00000,-85858323.73929,   0.00000
361935385.67836,365211278.15371,82994107.74207,   0.00093,   0.00096,   0.00108,390970180.50469,   0.00000,274640135.82653,   0.00000,   0.00000,   0.00000,-83669955.32184,   0.00000
364237690.64076,367040076.53412,83419297.32590,   0.00094,   0.00096,   0.00108,393159027.25886,   0.00000,274640135.82653,   0.00000,   0.00000,   0.00000,-81481108.56767,   0.00000
366515837.10407,368844716.41546,83844486.90972,   0.00095,   0.00096,   0.00109,395325875.23805,   0.00000,274640135.82653,   0.00000,   0.00000,   0.00000,-79314260.58847,   0.00000
368793983.56739,370649356.29679,84269676.49354,   0.00096,   0.00097,   0.00110,397493182.52308,   0.00000,274640135.82653,   0.00000,   0.00000,   0.00000,-77146953.30345,   0.00000
371072130.03071,372453996.17813,84690034.37754,   0.00096,   0.00097,   0.00110,399657869.96245,   0.00000,274640135.82653,   0.00000,   0.00000,   0.00000,-74982265.86408,   0.00000
373350276.49402,374258636.05946,85110392.26155,   0.00097,   0.00097,   0.00111,401823004.54668,   0.00000,274640135.82653,   0.00000,   0.00000,   0.00000,-72817131.27985,   0.00000
375611512.00798,376056028.39107,85530750.14556,   0.00098,   0.00098,   0.00111,403977349.21637,   0.00000,274640135.82653,   0.00000,   0.00000,   0.00000,-70662786.61016,   0.00000
377865499.97222,377836509.77332,85946276.32974,   0.00098,   0.00098,   0.00112,406117802.80915,   0.00000,274640135.82653,   0.00000,   0.00000,   0.00000,-68522333.01738,   0.00000
380102576.98710,379609743.60585,86361802.51393,   0.00099,   0.00099,   0.00112,408247434.13658,   0.00000,274640135.82653,   0.00000,   0.00000,   0.00000,-66392701.68995,   0.00000
382339654.00198,381382977.43838,86777328.69812,   0.00100,   0.00099,   0.00113,410377466.72305,   0.00000,274640135.82653,   0.00000,   0.00000,   0.00000,-64262669.10348,   0.00000
384576731.01686,383156211.27091,87188023.18250,   0.00100,   0.00099,   0.00113,412504830.55975,   0.00000,274640135.82653,   0.00000,   0.00000,   0.00000,-62135305.26678,   0.00000
386789649.53265,384905286.60435,87598717.66687,   0.00101,   0.00100,   0.00114,414610103.28168,   0.00000,274640135.82653,   0.00000,   0.00000,   0.00000,-60030032.54485,   0.00000
389002568.04845,386654361.93780,88009412.15124,   0.00102,   0.00100,   0.00114,416715758.87468,   0.00000,274640135.82653,   0.00000,   0.00000,   0.00000,-57924376.95185,   0.00000
391215486.56425,388403437.27125,88415274.93580,   0.00102,   0.00100,   0.00115,418818731.48469,   0.00000,274640135.82653,   0.00000,   0.00000,   0.00000,-55821404.34184,   0.00000
393411494.13069,390145265.05497,88821137.72036,   0.00103,   0.00101,   0.00115,420910778.45962,   0.00000,274640135.82653,   0.00000,   0.00000,   0.00000,-53729357.36691,   0.00000
395583343.19805,391862934.33962,89227000.50491,   0.00104,   0.00101,   0.00116,422980689.79665,   0.00000,274640135.82653,   0.00000,   0.00000,   0.00000,-51659446.02988,   0.00000
397772103.21477,393587851.17398,89628031.58965,   0.00104,   0.00102,   0.00117,425059204.66013,   0.00000,274640135.82653,   0.00000,   0.00000,   0.00000,-49580931.16640,   0.00000
399927041.33278,395298272.90890,90029062.67439,   0.00105,   0.00102,   0.00117,427115430.06970,   0.00000,274640135.82653,   0.00000,   0.00000,   0.00000,-47524705.75683,   0.00000
402098890.40014,397015942.19354,90425262.05932,   0.00106,   0.00102,   0.00118,429180253.79221,   0.00000,274640135.82653,   0.00000,   0.00000,   0.00000,-45459882.03432,   0.00000
404246580.96842,398709452.97911,90821461.44424,   0.00106,   0.00103,   0.00118,431222919.76374,   0.00000,274640135.82653,   0.00000,   0.00000,   0.00000,-43417216.06279,   0.00000
406377360.58734,400395716.21494,91217660.82917,   0.00107,   0.00103,   0.00119,433254566.45804,   0.00000,274640135.82653,   0.00000,   0.00000,   0.00000,-41385569.36849,   0.00000
408508140.20627,402081979.45078,91613860.21409,   0.00107,   0.00103,   0.00119,435286520.95824,   0.00000,274640135.82653,   0.00000,   0.00000,   0.00000,-39353614.86829,   0.00000
410622008.87583,403760995.13689,92005227.89920,   0.00108,   0.00104,   0.00120,437304368.05581,   0.00000,274640135.82653,   0.00000,   0.00000,   0.00000,-37335767.77072,   0.00000
412728629.99568,405423099.87365,92391763.88449,   0.00109,   0.00104,   0.00120,439308326.17978,   0.00000,274640135.82653,   0.00000,   0.00000,   0.00000,-35331809.64675,   0.00000
414835251.11552,407085204.61041,92778299.86979,   0.00109,   0.00104,   0.00121,441312582.05606,   0.00000,274640135.82653,   0.00000,   0.00000,   0.00000,-33327553.77047,   0.00000
416924961.28601,408740061.79744,93164835.85508,   0.00110,   0.00105,   0.00121,443305748.82386,   0.00000,274640135.82653,   0.00000,   0.00000,   0.00000,-31334387.00267,   0.00000
418997760.50714,410387671.43475,93551371.84037,   0.00111,   0.00105,   0.00122,445287801.79158,   0.00000,274640135.82653,   0.00000,   0.00000,   0.00000,-29352334.03495,   0.00000
421063312.17854,412018370.12270,93933076.12585,   0.00111,   0.00105,   0.00122,447255965.80756,   0.00000,274640135.82653,   0.00000,   0.00000,   0.00000,-27384170.01897,   0.00000
423119200.45031,413658732.21029,94309948.71151,   0.00112,   0.00106,   0.00123,449221050.00693,   0.00000,274640135.82653,   0.00000,   0.00000,   0.00000,-25419085.81960,   0.00000
425160593.62264,415265272.39916,94686821.29717,   0.00112,   0.00106,   0.00123,451164193.49090,   0.00000,274640135.82653,   0.00000,   0.00000,   0.00000,-23475942.33563,   0.00000
427192323.39533,416881475.98766,95063693.88283,   0.00113,   0.00106,   0.00124,453107269.38094,   0.00000,274640135.82653,   0.00000,   0.00000,   0.00000,-21532866.44559,   0.00000
429207142.21867,418490432.02644,95440566.46849,   0.00114,   0.00107,   0.00124,455039158.13559,   0.00000,274640135.82653,   0.00000,   0.00000,   0.00000,-19600977.69094,   0.00000
431214713.49228,420082477.11586,95807775.65451,   0.00114,   0.00107,   0.00125,456954112.93365,   0.00000,274640135.82653,   0.00000,   0.00000,   0.00000,-17686022.89288,   0.00000
433222284.76589,421674522.20528,96179816.54036,   0.00115,   0.00107,   0.00125,458872337.46076,   0.00000,274640135.82653,   0.00000,   0.00000,   0.00000,-15767798.36576,   0.00000
435205697.54042,423242408.79563,96547025.72639,   0.00115,   0.00108,   0.00126,460765246.68861,   0.00000,274640135.82653,   0.00000,   0.00000,   0.00000,-13874889.13792,   0.00000
437179446.91532,424819958.78560,96914234.91241,   0.00116,   0.00108,   0.00126,462657992.85572,   0.00000,274640135.82653,   0.00000,   0.00000,   0.00000,-11982142.97081,   0.00000
439129037.79114,426373350.27649,97276612.39863,   0.00117,   0.00108,   0.00126,464525397.12047,   0.00000,274640135.82653,   0.00000,   0.00000,   0.00000,-10114738.70606,   0.00000
441078628.66696,427926741.76739,97634158.18502,   0.00117,   0.00109,   0.00127,466389964.61244,   0.00000,274640135.82653,   0.00000,   0.00000,   0.00000,-8250171.21409,   0.00000
443004061.04370,429455974.75920,97996535.67123,   0.00118,   0.00109,   0.00127,468235255.51849,   0.00000,274640135.82653,   0.00000,   0.00000,   0.00000,-6404880.30804,   0.00000
444936740.97016,431002118.70037,98349249.75781,   0.00118,   0.00109,   0.00128,470085711.89449,   0.00000,274640135.82653,   0.00000,   0.00000,   0.00000,-4554423.93204,   0.00000
446828351.44818,432516856.59273,98706795.54421,   0.00119,   0.00110,   0.00128,471905400.84819,   0.00000,274640135.82653,   0.00000,   0.00000,   0.00000,-2734734.97833,   0.00000
448729625.32584,434021931.08547,99059509.63079,   0.00120,   0.00110,   0.00129,473722676.39825,   0.00000,274640135.82653,   0.00000,   0.00000,   0.00000,-917459.42828,   0.00000
449683881.02617,434789270.72078,99236588.00817,   0.00120,   0.00110,   0.00129,474640155.59255,   0.00000,274640135.82653,   0.00000,   0.00000,   0.00000,  -7.73780,   0.00000
449788617.35764,434746351.99464,99192169.09564,   0.00120,   0.00110,   0.00129,474644592.87123,   0.00000,274644596.74550,   0.00000,   0.00000,   0.00000,  -3.87427,   1.00000
450003929.01888,434652243.91975,99104601.70972,   0.00121,   0.00111,   0.00130,474653618.96469,   0.00001,274653624.75390,   0.00001,   0.00001,   0.00001,  -5.78921,   1.00000
450214652.67188,434563975.28356,99016069.22541,   0.00121,   0.00111,   0.00130,474662573.61758,   0.00002,274662576.55998,   0.00001,   0.00001,   0.00001,  -2.94240,   1.00000
450418044.59879,434478854.20530,98930650.34938,   0.00122,   0.00111,   0.00131,474671459.49249,   0.00003,274671467.55809,   0.00002,   0.00001,   0.00002,  -8.06560,   1.00000
450620434.87489,434393982.83821,98845555.98060,   0.00122,   0.00112,   0.00131,474680350.35235,   0.00004,274680355.56949,   0.00002,   0.00002,   0.00003,  -5.21714,   1.00000
450821258.35337,434307760.87025,98762134.18318,   0.00123,   0.00112,   0.00131,474689102.79522,   0.00004,274689112.22349,   0.00002,   0.00002,   0.00003,  -9.42827,   1.00000
451017642.05084,434227352.86511,98677716.49409,   0.00123,   0.00112,   0.00132,474697783.65989,   0.00005,274697792.89939,   0.00003,   0.00003,   0.00004,  -9.23950,   1.00000
451206854.91908,434150090.45235,98596390.28380,   0.00124,   0.00112,   0.00132,474706408.86857,   0.00006,274706412.84454,   0.00003,   0.00003,   0.00004,  -3.97597,   1.00000
451398080.65798,434065875.19197,98518013.37901,   0.00124,   0.00113,   0.00133,474714972.55463,   0.00007,274714974.82906,   0.00004,   0.00003,   0.00005,  -2.27443,   1.00000
451584952.82915,433987458.17769,98438607.02473,   0.00125,   0.00113,   0.00133,474723451.81856,   0.00008,274723461.13423,   0.00004,   0.00004,   0.00005,  -9.31567,   1.00000
451767528.82486,433914835.37941,98358176.74468,   0.00125,   0.00113,   0.00134,474731865.75231,   0.00008,274731871.64785,   0.00005,   0.00004,   0.00006,  -5.89554,   1.00000
451943066.02590,433845338.08685,98280811.93303,   0.00126,   0.00114,   0.00134,474740217.39812,   0.00009,274740221.60676,   0.00005,   0.00004,   0.00006,  -4.20863,   1.00000
452120722.69921,433768845.50704,98206365.34572,   0.00126,   0.00114,   0.00134,474748508.04902,   0.00010,274748513.89818,   0.00005,   0.00005,   0.00007,  -5.84916,   1.00000
452288003.56801,433701072.23274,98133636.79999,   0.00127,   0.00114,   0.00135,474756672.55626,   0.00011,274756672.76548,   0.00006,   0.00005,   0.00007,  -0.20922,   1.00000
452457291.26149,433636108.82267,98057068.69699,   0.00127,   0.00115,   0.00135,474764807.31391,   0.00011,274764814.10592,   0.00006,   0.00005,   0.00008,  -6.79200,   1.00000
452619673.40050,433574261.89063,97983543.99784,   0.00128,   0.00115,   0.00136,474772885.90916,   0.00012,274772895.00361,   0.00007,   0.00006,   0.00008,  -9.09445,   1.00000
452780905.85822,433510951.06386,97911581.80963,   0.00128,   0.00115,   0.00136,474780839.79593,   0.00013,274780845.48819,   0.00007,   0.00006,   0.00009,  -5.69227,   1.00000
452941429.91525,433447808.54734,97839869.05877,   0.00129,   0.00115,   0.00136,474788786.09695,   0.00014,274788793.62862,   0.00007,   0.00007,   0.00009,  -7.53168,   1.00000
453089009.78127,433390731.27340,97773943.42162,   0.00129,   0.00116,   0.00137,474796621.19045,   0.00014,274796623.59625,   0.00008,   0.00007,   0.00010,  -2.40581,   1.00000
453241479.30345,433339041.12929,97700041.30542,   0.00130,   0.00116,   0.00137,474804411.62640,   0.00015,274804421.29068,   0.00008,   0.00007,   0.00010,  -9.66428,   1.00000
453384041.64312,433286174.50730,97634549.64180,   0.00130,   0.00116,   0.00138,474812043.97202,   0.00016,274812045.90719,   0.00009,   0.00008,   0.00011,  -1.93517,   1.00000
453526005.66411,433233442.64330,97569277.48231,   0.00131,   0.00117,   0.00138,474819663.24210,   0.00016,274819668.41098,   0.00009,   0.00008,   0.00011,  -5.16888,   1.00000
453664052.37573,433186421.06068,97502887.38098,   0.00131,   0.00117,   0.00138,474827210.40363,   0.00017,274827215.85076,   0.00009,   0.00008,   0.00012,  -5.44714,   1.00000
453798402.54851,433135250.05143,97442098.40456,   0.00132,   0.00117,   0.00139,474834642.85619,   0.00018,274834648.48190,   0.00010,   0.00009,   0.00012,  -5.62571,   1.00000
453934974.80381,433086828.14303,97377404.77628,   0.00132,   0.00117,   0.00139,474842058.50266,   0.00018,274842064.14270,   0.00010,   0.00009,   0.00013,  -5.64003,   1.00000
454061613.42546,433047059.17779,97314343.02392,   0.00133,   0.00118,   0.00140,474849346.57655,   0.00019,274849346.96002,   0.00010,   0.00009,   0.00013,  -0.38347,   1.00000
454181682.22204,433010345.67237,97254247.80912,   0.00133,   0.00118,   0.00140,474856566.61679,   0.00020,274856569.87801,   0.00011,   0.00010,   0.00014,  -3.26123,   1.00000
454307006.97984,432969090.13235,97192844.82497,   0.00133,   0.00118,   0.00140,474863712.45202,   0.00020,274863721.27164,   0.00011,   0.00010,   0.00014,  -8.81962,   1.00000
454419743.35059,432933871.52297,97137160.20815,   0.00134,   0.00119,   0.00141,474870745.73335,   0.00021,274870754.90763,   0.00012,   0.00010,   0.00014,  -9.17428,   1.00000
454534817.21200,432901346.52836,97077542.49981,   0.00134,   0.00119,   0.00141,474877762.42137,   0.00022,274877771.81903,   0.00012,   0.00010,   0.00015,  -9.39766,   1.00000
454649139.73997,432867220.46532,97019360.60615,   0.00135,   0.00119,   0.00141,474884649.58425,   0.00022,274884659.49447,   0.00012,   0.00011,   0.00015,  -9.91022,   1.00000
454748002.17555,432846372.17670,96964278.41521,   0.00135,   0.00119,   0.00142,474891480.50755,   0.00023,274891484.08515,   0.00013,   0.00011,   0.00016,  -3.57760,   1.00000
454855204.86432,432813664.69071,96910448.10203,   0.00135,   0.00120,   0.00142,474898181.15908,   0.00024,274898182.99643,   0.00013,   0.00011,   0.00016,  -1.83735,   1.00000
454953021.41509,432791260.58838,96856941.60295,   0.00136,   0.00120,   0.00142,474904871.21075,   0.00024,274904876.87671,   0.00013,   0.00012,   0.00017,  -5.66596,   1.00000
455041203.06958,432777454.09776,96804994.38429,   0.00136,   0.00120,   0.00143,474911432.48562,   0.00025,274911438.44496,   0.00014,   0.00012,   0.00017,  -5.95934,   1.00000
455132061.94189,432756423.62656,96755798.09591,   0.00137,   0.00120,   0.00143,474917936.05770,   0.00025,274917943.87560,   0.00014,   0.00012,   0.00017,  -7.81791,   1.00000
455222327.65082,432733754.39039,96707976.35300,   0.00137,   0.00121,   0.00143,474924310.73261,   0.00026,274924320.61349,   0.00014,   0.00012,   0.00018,  -9.88088,   1.00000
455306058.03886,432723970.60681,96656340.75213,   0.00137,   0.00121,   0.00144,474930669.22602,   0.00027,274930677.61265,   0.00015,   0.00013,   0.00018,  -8.38664,   1.00000
455389237.20561,432712512.67565,96606078.15398,   0.00138,   0.00121,   0.00144,474936898.88339,   0.00027,274936905.95581,   0.00015,   0.00013,   0.00018,  -7.07242,   1.00000
455460145.14226,432707046.10883,96561464.31818,   0.00138,   0.00121,   0.00144,474943014.17564,   0.00028,274943017.02964,   0.00015,   0.00013,   0.00019,  -2.85400,   1.00000
455530827.00843,432701584.72742,96516977.10358,   0.00138,   0.00122,   0.00145,474949119.01119,   0.00028,274949126.73292,   0.00015,   0.00014,   0.00019,  -7.72173,   1.00000
455601035.81967,432694448.40624,96473831.92239,   0.00139,   0.00122,   0.00145,474955104.58527,   0.00029,274955108.02290,   0.00016,   0.00014,   0.00020,  -3.43763,   1.00000
455658799.05322,432703141.57506,96429597.99739,   0.00139,   0.00122,   0.00145,474961006.98554,   0.00029,274961011.94118,   0.00016,   0.00014,   0.00020,  -4.95564,   1.00000
455725114.63657,432699860.72784,96386528.34230,   0.00139,   0.00122,   0.00146,474966782.51076,   0.00030,274966791.09484,   0.00016,   0.00014,   0.00020,  -8.58408,   1.00000
455782269.82343,432706850.03241,96343745.14304,   0.00140,   0.00123,   0.00146,474972564.42769,   0.00030,274972565.40111,   0.00017,   0.00015,   0.00021,  -0.97342,   1.00000
455833018.10226,432715108.27936,96305025.11269,   0.00140,   0.00123,   0.00146,474978152.26163,   0.00031,274978153.77441,   0.00017,   0.00015,   0.00021,  -1.51278,   1.00000
455877637.24685,432726331.96024,96269152.72700,   0.00140,   0.00123,   0.00147,474983673.43029,   0.00031,274983683.17883,   0.00017,   0.00015,   0.00021,  -9.74854,   1.00000
455924897.37793,432740120.57196,96229252.77866,   0.00141,   0.00123,   0.00147,474989195.88728,   0.00032,274989196.70793,   0.00018,   0.00015,   0.00022,  -0.82065,   1.00000
455962797.93549,432762426.08309,96190815.17849,   0.00141,   0.00124,   0.00147,474994571.19676,   0.00032,274994578.84750,   0.00018,   0.00016,   0.00022,  -7.65074,   1.00000
455997627.31496,432780417.32010,96157799.38099,   0.00141,   0.00124,   0.00147,474999841.50700,   0.00033,274999847.72242,   0.00018,   0.00016,   0.00022,  -6.21543,   1.00000
456035112.01752,432800941.22544,96120738.58692,   0.00141,   0.00124,   0.00148,475005096.35679,   0.00033,275005100.94774,   0.00018,   0.00016,   0.00023,  -4.59095,   1.00000
456066291.11531,432822726.02896,96087701.23227,   0.00142,   0.00124,   0.00148,475010165.86245,   0.00034,275010168.62382,   0.00019,   0.00016,   0.00023,  -2.76136,   1.00000
456085439.10556,432850456.24199,96060226.27531,   0.00142,   0.00124,   0.00148,475015111.38808,   0.00034,275015119.80943,   0.00019,   0.00016,   0.00023,  -8.42135,   1.00000
456107292.52733,432880704.10523,96028688.22872,   0.00142,   0.00125,   0.00148,475020049.29821,   0.00035,275020055.49936,   0.00019,   0.00017,   0.00024,  -6.20115,   1.00000
456125861.02214,432916457.94873,95995833.84270,   0.00142,   0.00125,   0.00149,475024913.94558,   0.00035,275024917.91402,   0.00019,   0.00017,   0.00024,  -3.96843,   1.00000
456138407.33703,432955127.69401,95965793.97615,   0.00143,   0.00125,   0.00149,475029712.42878,   0.00036,275029721.69900,   0.00020,   0.00017,   0.00024,  -9.27021,   1.00000
456147472.49965,432997620.21475,95935611.06301,   0.00143,   0.00125,   0.00149,475034325.21265,   0.00036,275034325.65838,   0.00020,   0.00017,   0.00025,  -0.44574,   1.00000
456147794.99066,433040442.66447,95912363.07865,   0.00143,   0.00126,   0.00149,475038879.42851,   0.00036,275038885.72525,   0.00020,   0.00018,   0.00025,  -6.29675,   1.00000
456156606.85743,433081067.45802,95883471.90289,   0.00143,   0.00126,   0.00150,475043357.28107,   0.00037,275043361.69492,   0.00020,   0.00018,   0.00025,  -4.41385,   1.00000
456153450.55777,433127623.56974,95860115.95883,   0.00144,   0.00126,   0.00150,475047717.84172,   0.00037,275047721.47812,   0.00021,   0.00018,   0.00025,  -3.63640,   1.00000
456147060.01155,433179661.22405,95835409.35925,   0.00144,   0.00126,   0.00150,475052004.93460,   0.00038,275052008.36174,   0.00021,   0.00018,   0.00026,  -3.42714,   1.00000
456128725.84960,433237610.97004,95816223.14892,   0.00144,   0.00126,   0.00150,475056174.02355,   0.00038,275056179.21916,   0.00021,   0.00018,   0.00026,  -5.19562,   1.00000
456118906.99818,433293336.40173,95791373.14334,   0.00144,   0.00127,   0.00151,475060260.58624,   0.00038,275060266.23321,   0.00021,   0.00018,   0.00026,  -5.64698,   1.00000
456094416.10787,433352409.81019,95776176.44388,   0.00144,   0.00127,   0.00151,475064249.43831,   0.00039,275064251.81563,   0.00021,   0.00019,   0.00026,  -2.37732,   1.00000
456069448.96892,433419516.66246,95755465.99115,   0.00145,   0.00127,   0.00151,475068150.23916,   0.00039,275068150.25741,   0.00022,   0.00019,   0.00027,  -0.01825,   1.00000
456044510.30092,433486476.01478,95734788.84151,   0.00145,   0.00127,   0.00151,475072038.71694,   0.00039,275072048.28636,   0.00022,   0.00019,   0.00027,  -9.56942,   1.00000
456010144.18650,433560273.98135,95716642.08185,   0.00145,   0.00127,   0.00151,475075684.95796,   0.00040,275075689.57685,   0.00022,   0.00019,   0.00027,  -4.61890,   1.00000
455973091.44007,433631351.65332,95702660.44020,   0.00145,   0.00128,   0.00152,475079339.62802,   0.00040,275079345.03375,   0.00022,   0.00019,   0.00027,  -5.40573,   1.00000
455938580.01367,433703225.99442,95685724.24794,   0.00145,   0.00128,   0.00152,475082853.24790,   0.00040,275082859.29136,   0.00022,   0.00019,   0.00028,  -6.04347,   1.00000
455889109.89544,433788229.98327,95671702.25101,   0.00145,   0.00128,   0.00152,475086310.87193,   0.00041,275086312.24341,   0.00023,   0.00020,   0.00028,  -1.37148,   1.00000
455839443.62781,433871435.62957,95658856.60938,   0.00146,   0.00128,   0.00152,475089631.27207,   0.00041,275089638.65467,   0.00023,   0.00020,   0.00028,  -7.38260,   1.00000
455789595.22413,433952874.94160,95647188.87740,   0.00146,   0.00128,   0.00152,475092834.91663,   0.00041,275092838.46587,   0.00023,   0.00020,   0.00028,  -3.54923,   1.00000
455730770.75564,434044392.87380,95635687.25820,   0.00146,   0.00129,   0.00153,475096031.05501,   0.00042,275096034.83653,   0.00023,   0.00020,   0.00028,  -3.78153,   1.00000
455665739.50637,434137155.03582,95628082.01967,   0.00146,   0.00129,   0.00153,475099040.15708,   0.00042,275099047.21516,   0.00023,   0.00020,   0.00029,  -7.05808,   1.00000
455603506.64269,434232328.96180,95616340.07226,   0.00146,   0.00129,   0.00153,475102044.27526,   0.00042,275102045.01254,   0.00023,   0.00020,   0.00029,  -0.73728,   1.00000
455535037.80902,434328753.16081,95608488.21538,   0.00146,   0.00129,   0.00153,475104852.17237,   0.00042,275104858.95599,   0.00023,   0.00020,   0.00029,  -6.78363,   1.00000
455451562.05003,434438260.03707,95603514.95657,   0.00146,   0.00129,   0.00153,475107608.04876,   0.00043,275107612.16168,   0.00024,   0.00021,   0.00029,  -4.11292,   1.00000
455376926.60775,434535774.68811,95599543.64594,   0.00146,   0.00130,   0.00153,475110237.13225,   0.00043,275110242.33419,   0.00024,   0.00021,   0.00029,  -5.20194,   1.00000
455289974.77124,434648935.78560,95594295.95386,   0.00146,   0.00130,   0.00154,475112790.56169,   0.00043,275112797.52064,   0.00024,   0.00021,   0.00029,  -6.95895,   1.00000
455202797.33040,434760341.06026,95590199.75624,   0.00146,   0.00130,   0.00154,475115224.24104,   0.00043,275115226.53326,   0.00024,   0.00021,   0.00030,  -2.29222,   1.00000
455109621.64330,434874587.65435,95588815.84064,   0.00146,   0.00130,   0.00154,475117596.80277,   0.00044,275117598.28023,   0.00024,   0.00021,   0.00030,  -1.47746,   1.00000
455013162.28090,434994249.09916,95585995.97233,   0.00146,   0.00130,   0.00154,475119893.94221,   0.00044,275119898.38282,   0.00024,   0.00021,   0.00030,  -4.44061,   1.00000
454910388.50669,435115202.72847,95587041.83815,   0.00146,   0.00130,   0.00154,475122008.54146,   0.00044,275122015.05265,   0.00024,   0.00021,   0.00030,  -6.51119,   1.00000
454807340.98190,435245693.01830,95581344.87141,   0.00147,   0.00131,   0.00154,475124167.82228,   0.00044,275124171.98000,   0.00024,   0.00021,   0.00030,  -4.15772,   1.00000
454692183.62317,435370787.94681,95588956.47718,   0.00147,   0.00131,   0.00154,475126042.63432,   0.00044,275126048.23395,   0.00025,   0.00021,   0.00030,  -5.59963,   1.00000
454579455.32771,435507989.58410,95585669.75368,   0.00147,   0.00131,   0.00155,475127947.28198,   0.00045,275127950.46883,   0.00025,   0.00021,   0.00030,  -3.18684,   1.00000
454457604.69010,435643913.64155,95590382.16868,   0.00147,   0.00131,   0.00155,475129674.88012,   0.00045,275129683.99948,   0.00025,   0.00022,   0.00030,  -9.11936,   1.00000
454329680.60320,435782674.68203,95597786.39833,   0.00147,   0.00131,   0.00155,475131355.65033,   0.00045,275131360.65318,   0.00025,   0.00022,   0.00030,  -5.00285,   1.00000
454204131.67818,435922318.46277,95602173.75751,   0.00147,   0.00131,   0.00155,475132896.89564,   0.00045,275132897.15063,   0.00025,   0.00022,   0.00031,  -0.25499,   1.00000
454069423.82090,436071894.28368,95606658.58328,   0.00147,   0.00132,   0.00155,475134427.65990,   0.00045,275134431.48584,   0.00025,   0.00022,   0.00031,  -3.82594,   1.00000
453928229.85429,436222817.14812,95614987.71161,   0.00147,   0.00132,   0.00155,475135781.09259,   0.00045,275135782.90430,   0.00025,   0.00022,   0.00031,  -1.81171,   1.00000
453786630.28619,436372053.77426,95624439.45205,   0.00147,   0.00132,   0.00155,475137002.94750,   0.00045,275137008.76357,   0.00025,   0.00022,   0.00031,  -5.81607,   1.00000
453641580.92029,436526718.35936,95632425.41690,   0.00146,   0.00132,   0.00155,475138160.45896,   0.00045,275138163.61787,   0.00025,   0.00022,   0.00031,  -3.15892,   1.00000
453484197.23623,436687245.45142,95645800.23030,   0.00146,   0.00132,   0.00155,475139200.48885,   0.00046,275139204.83813,   0.00025,   0.00022,   0.00031,  -4.34928,   1.00000
453326021.97862,436855778.72422,95653554.27718,   0.00146,   0.00132,   0.00155,475140156.79361,   0.00046,275140160.83603,   0.00025,   0.00022,   0.00031,  -4.04242,   1.00000
453164646.91381,437020067.93992,95666574.15520,   0.00146,   0.00133,   0.00155,475141002.69737,   0.00046,275141005.84109,   0.00025,   0.00022,   0.00031,  -3.14372,   1.00000
452996682.20227,437196824.44155,95675517.13825,   0.00146,   0.00133,   0.00156,475141831.65205,   0.00046,275141834.87633,   0.00025,   0.00022,   0.00031,  -3.22428,   1.00000
452822333.49302,437365346.75860,95695033.11266,   0.00146,   0.00133,   0.00156,475142434.89129,   0.00046,275142441.20301,   0.00025,   0.00022,   0.00031,  -6.31173,   1.00000
452644056.56029,437548932.11610,95706319.15310,   0.00146,   0.00133,   0.00156,475143015.24503,   0.00046,275143017.29286,   0.00025,   0.00022,   0.00031,  -2.04783,   1.00000
452456271.85452,437731340.63982,95725573.72915,   0.00146,   0.00133,   0.00156,475143420.93348,   0.00046,275143425.58424,   0.00025,   0.00022,   0.00031,  -4.65075,   1.00000
452271037.26080,437916128.88807,95740629.83813,   0.00146,   0.00133,   0.00156,475143820.16946,   0.00046,275143820.49870,   0.00025,   0.00022,   0.00031,  -0.32924,   1.00000
452078932.07877,438102372.26773,95759507.48145,   0.00146,   0.00133,   0.00156,475144027.25847,   0.00046,275144033.28127,   0.00025,   0.00022,   0.00031,  -6.02280,   1.00000
451883115.54652,438294052.60563,95776893.58076,   0.00146,   0.00133,   0.00156,475144172.52082,   0.00046,275144175.76309,   0.00025,   0.00022,   0.00031,  -3.24227,   1.00000
451674591.18718,438491586.35124,95799632.70528,   0.00145,   0.00134,   0.00156,475144197.58650,   0.00046,275144205.61978,   0.00025,   0.00022,   0.00031,  -8.03328,   1.00000
451447501.29582,438670359.24444,95818959.50454,   0.00145,   0.00134,   0.00156,475124943.49807,   0.00046,275144205.61978,   0.00025,   0.00022,   0.00031,-19262.12171,   0.00000
451210748.00483,438858795.53727,95828622.90417,   0.00145,   0.00134,   0.00156,475099727.46336,   0.00046,275144205.61978,   0.00025,   0.00022,   0.00031,-44478.15642,   0.00000
450932925.26540,439015825.78130,95838286.30380,   0.00145,   0.00134,   0.00156,475040671.08241,   0.00046,275144205.61978,   0.00025,   0.00022,   0.00031,-103534.53737,   0.00000
450647854.97625,439155945.07596,95847949.70344,   0.00145,   0.00134,   0.00156,474970774.92070,   0.00046,275144205.61978,   0.00025,   0.00022,   0.00031,-173430.69909,   0.00000
450312051.83903,439274321.72146,95847949.70344,   0.00145,   0.00134,   0.00156,474860864.89391,   0.00046,275144205.61978,   0.00025,   0.00022,   0.00031,-283340.72587,   0.00000
449976248.70181,439392698.36696,95847949.70344,   0.00145,   0.00134,   0.00156,474751280.19088,   0.00046,275144205.61978,   0.00025,   0.00022,   0.00031,-392925.42891,   0.00000
449606623.66587,439496579.91300,95838286.30380,   0.00144,   0.00134,   0.00156,474613229.64812,   0.00046,275144205.61978,   0.00025,   0.00022,   0.00031,-530975.97167,   0.00000
449212840.13085,439576302.95997,95828622.90417,   0.00144,   0.00135,   0.00156,474452903.09855,   0.00046,275144205.61978,   0.00025,   0.00022,   0.00031,-691302.52123,   0.00000
448802145.64648,439648778.45721,95814127.80472,   0.00144,   0.00135,   0.00156,474278547.36884,   0.00046,275144205.61978,   0.00025,   0.00022,   0.00031,-865658.25095,   0.00000
448350381.71367,439689847.90565,95794801.00546,   0.00144,   0.00135,   0.00156,474067556.03921,   0.00046,275144205.61978,   0.00025,   0.00022,   0.00031,-1076649.58057,   0.00000
447888954.38123,439740580.75372,95775474.20619,   0.00144,   0.00135,   0.00156,473856696.99163,   0.00046,275144205.61978,   0.00025,   0.00022,   0.00031,-1287508.62816,   0.00000
447403368.54970,439767155.10271,95746484.00730,   0.00143,   0.00135,   0.00156,473617763.52409,   0.00046,275144205.61978,   0.00025,   0.00022,   0.00031,-1526442.09570,   0.00000
446876713.26974,439762323.40289,95717493.80840,   0.00143,   0.00135,   0.00156,473345193.39295,   0.00046,275144205.61978,   0.00025,   0.00022,   0.00031,-1799012.22683,   0.00000
446340394.59015,439767155.10271,95683671.90969,   0.00143,   0.00135,   0.00156,473069918.95919,   0.00046,275144205.61978,   0.00025,   0.00022,   0.00031,-2074286.66060,   0.00000
445755758.91240,439723669.80436,95645018.31116,   0.00143,   0.00135,   0.00156,472746922.59984,   0.00046,275144205.61978,   0.00025,   0.00022,   0.00031,-2397283.01994,   0.00000
445178370.78437,439697095.45537,95601533.01281,   0.00142,   0.00135,   0.00156,472432683.36968,   0.00046,275144205.61978,   0.00025,   0.00022,   0.00031,-2711522.25011,   0.00000
444559913.20790,439639115.05758,95558047.71447,   0.00142,   0.00136,   0.00156,472084910.30347,   0.00046,275144205.61978,   0.00025,   0.00022,   0.00031,-3059295.31632,   0.00000
443907633.73272,439566639.56034,95504899.01649,   0.00142,   0.00136,   0.00155,471709008.04832,   0.00046,275144205.61978,   0.00025,   0.00022,   0.00031,-3435197.57147,   0.00000
443255354.25754,439494164.06310,95451750.31851,   0.00141,   0.00136,   0.00155,471333637.51613,   0.00046,275144205.61978,   0.00025,   0.00022,   0.00031,-3810568.10365,   0.00000
442562005.33392,439390282.51705,95388938.22090,   0.00141,   0.00136,   0.00155,470918945.23935,   0.00046,275144205.61978,   0.00025,   0.00022,   0.00031,-4225260.38043,   0.00000
441851745.46094,439279153.42128,95326126.12329,   0.00141,   0.00136,   0.00155,470493453.59805,   0.00046,275144205.61978,   0.00025,   0.00022,   0.00031,-4650752.02173,   0.00000
441107663.68926,439153529.22606,95263314.02568,   0.00141,   0.00136,   0.00155,470045851.93018,   0.00046,275144205.61978,   0.00025,   0.00022,   0.00031,-5098353.68961,   0.00000
440339423.41849,439003746.53176,95190838.52844,   0.00140,   0.00136,   0.00155,469570365.20455,   0.00046,275144205.61978,   0.00025,   0.00022,   0.00031,-5573840.41523,   0.00000
439554272.19836,438846716.28773,95113531.33138,   0.00140,   0.00136,   0.00155,469081230.86182,   0.00046,275144205.61978,   0.00025,   0.00022,   0.00031,-6062974.75797,   0.00000
438728051.52980,438658279.99490,95036224.13432,   0.00140,   0.00136,   0.00155,468558799.97154,   0.00046,275144205.61978,   0.00025,   0.00022,   0.00031,-6585405.64824,   0.00000
437892167.46161,438479507.10170,94949253.53763,   0.00139,   0.00136,   0.00155,468031162.38363,   0.00046,275144205.61978,   0.00025,   0.00022,   0.00031,-7113043.23615,   0.00000
437032124.89433,438276575.70942,94862282.94094,   0.00139,   0.00136,   0.00155,467481603.92237,   0.00046,275144205.61978,   0.00025,   0.00022,   0.00031,-7662601.69741,   0.00000
436131012.87862,438042238.26834,94770480.64443,   0.00139,   0.00136,   0.00154,466895909.00629,   0.00046,275144205.61978,   0.00025,   0.00022,   0.00031,-8248296.61349,   0.00000
435229900.86290,437807900.82726,94673846.64811,   0.00138,   0.00137,   0.00154,466307995.93757,   0.00046,275144205.61978,   0.00025,   0.00022,   0.00031,-8836209.68222,   0.00000
434278055.99912,437551820.73700,94572380.95197,   0.00138,   0.00137,   0.00154,465684096.10043,   0.00046,275144205.61978,   0.00025,   0.00022,   0.00031,-9460109.51935,   0.00000
433326211.13534,437295740.64675,94470915.25583,   0.00137,   0.00137,   0.00154,465060990.72320,   0.00046,275144205.61978,   0.00025,   0.00022,   0.00031,-10083214.89659,   0.00000
432333296.82312,437008254.50768,94359786.16006,   0.00137,   0.00137,   0.00154,464398947.42785,   0.00046,275144205.61978,   0.00025,   0.00022,   0.00031,-10745258.19194,   0.00000
431323471.56154,436713520.81890,94248657.06429,   0.00137,   0.00137,   0.00154,463726506.23372,   0.00046,275144205.61978,   0.00025,   0.00022,   0.00031,-11417699.38606,   0.00000
430272576.85153,436387381.08131,94132696.26870,   0.00136,   0.00137,   0.00154,463018150.09194,   0.00046,275144205.61978,   0.00025,   0.00022,   0.00031,-12126055.52785,   0.00000
429221682.14152,436061241.34372,94011903.77330,   0.00136,   0.00137,   0.00154,462307725.70831,   0.00046,275144205.61978,   0.00025,   0.00022,   0.00031,-12836479.91148,   0.00000
428136965.53279,435720606.50668,93886279.57808,   0.00135,   0.00137,   0.00153,461572865.73123,   0.00046,275144205.61978,   0.00025,   0.00022,   0.00031,-13571339.88856,   0.00000
427011179.47563,435348565.62084,93755823.68304,   0.00135,   0.00137,   0.00153,460802213.44951,   0.00046,275144205.61978,   0.00025,   0.00022,   0.00031,-14341992.17028,   0.00000
425875730.01883,434986188.13462,93620536.08819,   0.00134,   0.00137,   0.00153,460029863.37774,   0.00046,275144205.61978,   0.00025,   0.00022,   0.00031,-15114342.24205,   0.00000
424708874.51323,434582741.19997,93480416.79352,   0.00134,   0.00137,   0.00153,459221520.74237,   0.00046,275144205.61978,   0.00025,   0.00022,   0.00031,-15922684.87741,   0.00000
423532355.60800,434188957.66496,93340297.49885,   0.00134,   0.00137,   0.00153,458414516.12895,   0.00046,275144205.61978,   0.00025,   0.00022,   0.00031,-16729689.49083,   0.00000
422314767.25433,433763768.08114,93195346.50437,   0.00133,   0.00137,   0.00152,457571898.40580,   0.00046,275144205.61978,   0.00025,   0.00022,   0.00031,-17572307.21399,   0.00000
421073020.40157,433314419.99823,93040732.11025,   0.00133,   0.00137,   0.00152,456701868.80626,   0.00046,275144205.61978,   0.00025,   0.00022,   0.00031,-18442336.81352,   0.00000
419821610.14919,432874735.31496,92886117.71613,   0.00132,   0.00137,   0.00152,455833352.27093,   0.00046,275144205.61978,   0.00025,   0.00022,   0.00031,-19310853.34886,   0.00000
418538793.84800,432393981.18326,92726671.62220,   0.00132,   0.00137,   0.00152,454928926.82051,   0.00046,275144205.61978,   0.00025,   0.00022,   0.00031,-20215278.79927,   0.00000
417229403.19782,431915642.90146,92567225.52827,   0.00131,   0.00137,   0.00152,454015049.62084,   0.00046,275144205.61978,   0.00025,   0.00022,   0.00031,-21129155.99894,   0.00000
415895854.04856,431413146.12058,92398116.03470,   0.00131,   0.00137,   0.00151,453073902.08125,   0.00046,275144205.61978,   0.00025,   0.00022,   0.00031,-22070303.53853,   0.00000
414528483.00059,430896154.24025,92224174.84132,   0.00130,   0.00137,   0.00151,452108974.78959,   0.00046,275144205.61978,   0.00025,   0.00022,   0.00031,-23035230.83019,   0.00000
413161111.95262,430379162.35992,92050233.64794,   0.00130,   0.00137,   0.00151,451145354.72020,   0.00046,275144205.61978,   0.00025,   0.00022,   0.00031,-23998850.89959,   0.00000
411752671.45621,429830764.43079,91871460.75474,   0.00129,   0.00137,   0.00151,450146508.23667,   0.00046,275144205.61978,   0.00025,   0.00022,   0.00031,-24997697.38311,   0.00000
410303161.51137,429250960.45285,91683024.46191,   0.00128,   0.00137,   0.00150,449109536.93255,   0.00046,275144205.61978,   0.00025,   0.00022,   0.00031,-26034668.68723,   0.00000
408860899.11624,428688067.42427,91494588.16908,   0.00128,   0.00138,   0.00150,448085576.96415,   0.00046,275144205.61978,   0.00025,   0.00022,   0.00031,-27058628.65563,   0.00000
407377567.27269,428093768.34688,91306151.87625,   0.00127,   0.00138,   0.00150,447029528.12095,   0.00046,275144205.61978,   0.00025,   0.00022,   0.00031,-28114677.49883,   0.00000
405877324.47977,427492221.71977,91108052.18379,   0.00127,   0.00138,   0.00150,445958108.44563,   0.00046,275144205.61978,   0.00025,   0.00022,   0.00031,-29186097.17416,   0.00000
404336012.23842,426859269.04385,90905120.79151,   0.00126,   0.00138,   0.00149,444851767.09515,   0.00046,275144205.61978,   0.00025,   0.00022,   0.00031,-30292438.52463,   0.00000
402794699.99706,426226316.36794,90702189.39923,   0.00126,   0.00138,   0.00149,443747003.77971,   0.00046,275144205.61978,   0.00025,   0.00022,   0.00031,-31397201.84007,   0.00000
401212318.30727,425561957.64322,90489594.60732,   0.00125,   0.00138,   0.00149,442604456.30585,   0.00046,275144205.61978,   0.00025,   0.00022,   0.00031,-32539749.31393,   0.00000
399620273.21785,424907262.31813,90276999.81541,   0.00124,   0.00138,   0.00149,441464379.27039,   0.00046,275144205.61978,   0.00025,   0.00022,   0.00031,-33679826.34939,   0.00000
397979911.13027,424204249.99488,90059573.32368,   0.00124,   0.00138,   0.00148,440277941.65125,   0.00046,275144205.61978,   0.00025,   0.00022,   0.00031,-34866263.96854,   0.00000
396329885.64305,423510901.07126,89837315.13214,   0.00123,   0.00138,   0.00148,439091179.77969,   0.00046,275144205.61978,   0.00025,   0.00022,   0.00031,-36053025.84009,   0.00000
394655701.65675,422793393.64856,89610225.24078,   0.00123,   0.00138,   0.00148,437880726.38556,   0.00046,275144205.61978,   0.00025,   0.00022,   0.00031,-37263479.23422,   0.00000
392957359.17137,422051727.72678,89378303.64961,   0.00122,   0.00138,   0.00147,436646605.54356,   0.00046,275144205.61978,   0.00025,   0.00022,   0.00031,-38497600.07622,   0.00000
391249353.28636,421319725.20463,89141550.35862,   0.00121,   0.00138,   0.00147,435412385.31008,   0.00046,275144205.61978,   0.00025,   0.00022,   0.00031,-39731820.30970,   0.00000
389500277.95292,420556316.63368,88904797.06762,   0.00121,   0.00138,   0.00147,434146828.37390,   0.00046,275144205.61978,   0.00025,   0.00022,   0.00031,-40997377.24588,   0.00000
387727044.12039,419768749.56365,88658380.37700,   0.00120,   0.00138,   0.00147,432854817.00376,   0.00046,275144205.61978,   0.00025,   0.00022,   0.00031,-42289388.61603,   0.00000
385936899.33850,418973934.94389,88411963.68638,   0.00119,   0.00138,   0.00146,431554136.86597,   0.00046,275144205.61978,   0.00025,   0.00022,   0.00031,-43590068.75382,   0.00000
384129843.60726,418171872.77441,88160715.29594,   0.00119,   0.00138,   0.00146,430241898.24339,   0.00046,275144205.61978,   0.00025,   0.00022,   0.00031,-44902307.37639,   0.00000
382288965.97731,417355315.50548,87904635.20568,   0.00118,   0.00138,   0.00146,428907513.98278,   0.00046,275144205.61978,   0.00025,   0.00022,   0.00031,-46236691.63701,   0.00000
380423929.84827,416514599.73747,87643723.41561,   0.00117,   0.00138,   0.00145,427549908.29939,   0.00046,275144205.61978,   0.00025,   0.00022,   0.00031,-47594297.32040,   0.00000
378534735.22016,415649725.47038,87382811.62554,   0.00117,   0.00137,   0.00145,426172087.98710,   0.00046,275144205.61978,   0.00025,   0.00022,   0.00031,-48972117.63268,   0.00000
376628629.64268,414777603.65356,87112236.43583,   0.00116,   0.00137,   0.00145,424780048.84782,   0.00046,275144205.61978,   0.00025,   0.00022,   0.00031,-50364156.77197,   0.00000
374688702.16650,413890986.73730,86841661.24613,   0.00115,   0.00137,   0.00144,423369245.64562,   0.00046,275144205.61978,   0.00025,   0.00022,   0.00031,-51774959.97417,   0.00000
372748774.69031,413004369.82103,86561422.65679,   0.00115,   0.00137,   0.00144,421955004.00986,   0.00046,275144205.61978,   0.00025,   0.00022,   0.00031,-53189201.60992,   0.00000
370767777.76569,412086346.85596,86281184.06745,   0.00114,   0.00137,   0.00143,420510275.01748,   0.00046,275144205.61978,   0.00025,   0.00022,   0.00031,-54633930.60230,   0.00000
368762622.34198,411144165.39181,85996113.77830,   0.00113,   0.00137,   0.00143,419042707.29448,   0.00046,275144205.61978,   0.00025,   0.00022,   0.00031,-56101498.32531,   0.00000
366730892.56929,410204399.77757,85706211.78933,   0.00112,   0.00137,   0.00143,417565845.96097,   0.00046,275144205.61978,   0.00025,   0.00022,   0.00031,-57578359.65882,   0.00000
364691915.24687,409247723.21397,85411478.10054,   0.00112,   0.00137,   0.00142,416076817.17068,   0.00046,275144205.61978,   0.00025,   0.00022,   0.00031,-59067388.44910,   0.00000
362611868.47602,408259640.60157,85116744.41176,   0.00111,   0.00137,   0.00142,414557704.95756,   0.00046,275144205.61978,   0.00025,   0.00022,   0.00031,-60586500.66222,   0.00000
360514910.75581,407264310.43944,84812347.32334,   0.00110,   0.00137,   0.00142,413025139.28134,   0.00046,275144205.61978,   0.00025,   0.00022,   0.00031,-62119066.33845,   0.00000
358401042.08624,406261732.72759,84507950.23492,   0.00109,   0.00137,   0.00141,411485182.03785,   0.00046,275144205.61978,   0.00025,   0.00022,   0.00031,-63659023.58193,   0.00000
356263014.91759,405234996.51666,84198721.44669,   0.00109,   0.00137,   0.00141,409922883.80945,   0.00046,275144205.61978,   0.00025,   0.00022,   0.00031,-65221321.81033,   0.00000
354108076.79959,404201012.75600,83884660.95864,   0.00108,   0.00137,   0.00140,408350406.55379,   0.00046,275144205.61978,   0.00025,   0.00022,   0.00031,-66793799.06600,   0.00000
351919316.78287,403152533.89589,83565768.77077,   0.00107,   0.00137,   0.00140,406757569.01922,   0.00046,275144205.61978,   0.00025,   0.00022,   0.00031,-68386636.60056,   0.00000
349723309.21643,402087144.08643,83242044.88309,   0.00106,   0.00137,   0.00140,405152973.49833,   0.00046,275144205.61978,   0.00025,   0.00022,   0.00031,-69991232.12145,   0.00000
347486232.20155,400990348.22817,82918320.99541,   0.00105,   0.00137,   0.00139,403519094.41422,   0.00046,275144205.61978,   0.00025,   0.00022,   0.00031,-71625111.20556,   0.00000
345239491.78704,399903215.76953,82589765.40791,   0.00105,   0.00137,   0.00139,401887687.97552,   0.00046,275144205.61978,   0.00025,   0.00022,   0.00031,-73256517.64426,   0.00000
342968592.87345,398791924.81182,82251546.42078,   0.00104,   0.00137,   0.00138,400231558.42154,   0.00046,275144205.61978,   0.00025,   0.00022,   0.00031,-74912647.19825,   0.00000
340673535.46077,397656475.35502,81913327.43365,   0.00103,   0.00137,   0.00138,398556736.77760,   0.00046,275144205.61978,   0.00025,   0.00022,   0.00031,-76587468.84218,   0.00000
338344656.14939,396506530.79877,81570276.74670,   0.00102,   0.00137,   0.00137,396862444.22020,   0.00046,275144205.61978,   0.00025,   0.00022,   0.00031,-78281761.39959,   0.00000
336015776.83800,395356586.24253,81227226.05976,   0.00101,   0.00137,   0.00137,395172075.01945,   0.00046,275144205.61978,   0.00025,   0.00022,   0.00031,-79972130.60034,   0.00000
333645828.07818,394175235.63748,80874511.97318,   0.00100,   0.00136,   0.00136,393447318.12831,   0.00046,275144205.61978,   0.00025,   0.00022,   0.00031,-81696887.49148,   0.00000
331258968.36900,392986637.48271,80521797.88660,   0.00100,   0.00136,   0.00136,391716648.93671,   0.00046,275144205.61978,   0.00025,   0.00022,   0.00031,-83427556.68308,   0.00000
328864861.11009,391781128.37858,80159420.40039,   0.00099,   0.00136,   0.00135,389971923.46828,   0.00046,275144205.61978,   0.00025,   0.00022,   0.00031,-85172282.15150,   0.00000
326436931.95248,390561124.17500,79797042.91417,   0.00098,   0.00136,   0.00135,388211529.08862,   0.00046,275144205.61978,   0.00025,   0.00022,   0.00031,-86932676.53116,   0.00000
323992091.84550,389333872.42169,79434665.42796,   0.00097,   0.00136,   0.00135,386445652.39635,   0.00046,275144205.61978,   0.00025,   0.00022,   0.00031,-88698553.22344,   0.00000
321523093.23945,388082462.16931,79062624.54212,   0.00096,   0.00136,   0.00134,384656104.92941,   0.00046,275144205.61978,   0.00025,   0.00022,   0.00031,-90488100.69038,   0.00000
319037183.68404,386823804.36720,78685751.95646,   0.00095,   0.00136,   0.00134,382858388.64228,   0.00046,275144205.61978,   0.00025,   0.00022,   0.00031,-92285816.97751,   0.00000
316510204.68019,385533740.51629,78308879.37080,   0.00094,   0.00136,   0.00133,381033401.92978,   0.00046,275144205.61978,   0.00025,   0.00022,   0.00031,-94110803.69001,   0.00000
313983225.67634,384243676.66538,77927175.08532,   0.00093,   0.00136,   0.00133,379210408.43923,   0.00046,275144205.61978,   0.00025,   0.00022,   0.00031,-95933797.18055,   0.00000
311432088.17341,382929454.31538,77540639.10003,   0.00093,   0.00136,   0.00132,377367254.91477,   0.00046,275144205.61978,   0.00025,   0.00022,   0.00031,-97776950.70502,   0.00000
308847128.77177,381600736.86594,77149271.41492,   0.00092,   0.00136,   0.00132,375506870.30801,   0.00046,275144205.61978,   0.00025,   0.00022,   0.00031,-99637335.31177,   0.00000
306262169.37013,380272019.41650,76757903.72981,   0.00091,   0.00135,   0.00131,373651868.55699,   0.00046,275144205.61978,   0.00025,   0.00022,   0.00031,-101492337.06280,   0.00000
303653051.46940,378919143.46797,76356872.64507,   0.00090,   0.00135,   0.00131,371774198.64666,   0.00046,275144205.61978,   0.00025,   0.00022,   0.00031,-103370006.97312,   0.00000
301010111.66997,377551772.42000,75955841.56033,   0.00089,   0.00135,   0.00130,369882949.87621,   0.00046,275144205.61978,   0.00025,   0.00022,   0.00031,-105261255.74357,   0.00000
298343013.37145,376160242.87295,75549978.77577,   0.00088,   0.00135,   0.00130,367972416.70484,   0.00046,275144205.61978,   0.00025,   0.00022,   0.00031,-107171788.91494,   0.00000
295675915.07293,374768713.32590,75139284.29140,   0.00087,   0.00135,   0.00129,366064870.09859,   0.00046,275144205.61978,   0.00025,   0.00022,   0.00031,-109079335.52119,   0.00000
292967747.32598,373345777.73004,74728589.80703,   0.00086,   0.00135,   0.00128,364131824.55055,   0.00046,275144205.61978,   0.00025,   0.00022,   0.00031,-111012381.06923,   0.00000
290259579.57902,371922842.13418,74313063.62284,   0.00085,   0.00135,   0.00128,362202085.19540,   0.00046,275144205.61978,   0.00025,   0.00022,   0.00031,-112942120.42439,   0.00000
287517589.93336,370485411.43888,73887874.03902,   0.00084,   0.00135,   0.00127,360254057.29535,   0.00046,275144205.61978,   0.00025,   0.00022,   0.00031,-114890148.32443,   0.00000
284768352.73797,369031069.79422,73467516.15501,   0.00083,   0.00135,   0.00127,358302948.81579,   0.00046,275144205.61978,   0.00025,   0.00022,   0.00031,-116841256.80399,   0.00000
281985293.64386,367562233.05011,73037494.87137,   0.00082,   0.00134,   0.00126,356334090.07338,   0.00046,275144205.61978,   0.00025,   0.00022,   0.00031,-118810115.54640,   0.00000
279178076.05068,366069237.80691,72602641.88792,   0.00081,   0.00134,   0.00126,354347301.85362,   0.00046,275144205.61978,   0.00025,   0.00022,   0.00031,-120796903.76617,   0.00000
276370858.45749,364576242.56372,72167788.90447,   0.00080,   0.00134,   0.00125,352367717.28118,   0.00046,275144205.61978,   0.00025,   0.00022,   0.00031,-122776488.33860,   0.00000
273522571.41587,363051841.27173,71728104.22120,   0.00079,   0.00134,   0.00125,350361422.17478,   0.00046,275144205.61978,   0.00025,   0.00022,   0.00031,-124782783.44501,   0.00000
270674284.37425,361527439.97973,71283587.83811,   0.00078,   0.00134,   0.00124,348359766.14251,   0.00046,275144205.61978,   0.00025,   0.00022,   0.00031,-126784439.47728,   0.00000
267809086.38327,359995791.13801,70839071.45502,   0.00077,   0.00134,   0.00123,346356831.30820,   0.00046,275144205.61978,   0.00025,   0.00022,   0.00031,-128787374.31158,   0.00000
264902818.94385,358432736.24748,70389723.37212,   0.00076,   0.00134,   0.00123,344328080.66400,   0.00046,275144205.61978,   0.00025,   0.00022,   0.00031,-130816124.95579,   0.00000
261989303.95471,356852770.40760,69935543.58940,   0.00075,   0.00133,   0.00122,342291727.87593,   0.00046,275144205.61978,   0.00025,   0.00022,   0.00031,-132852477.74385,   0.00000
259058878.01621,355265557.01799,69476532.10687,   0.00074,   0.00133,   0.00122,340251946.68690,   0.00046,275144205.61978,   0.00025,   0.00022,   0.00031,-134892258.93288,   0.00000
256111541.12836,353671096.07866,69012688.92452,   0.00073,   0.00133,   0.00121,338209062.45862,   0.00046,275144205.61978,   0.00025,   0.00022,   0.00031,-136935143.16116,   0.00000
253140045.74142,352052476.64025,68548845.74217,   0.00072,   0.00133,   0.00120,336153360.51297,   0.00046,275144205.61978,   0.00025,   0.00022,   0.00031,-138990845.10682,   0.00000
250151639.40513,350426609.65212,68080170.86000,   0.00071,   0.00133,   0.00120,334095180.37031,   0.00046,275144205.61978,   0.00025,   0.00022,   0.00031,-141049025.24947,   0.00000
247139074.56976,348776584.16490,67606664.27802,   0.00070,   0.00133,   0.00119,332021819.70952,   0.00046,275144205.61978,   0.00025,   0.00022,   0.00031,-143122385.91027,   0.00000
244109598.78503,347119311.12796,67133157.69603,   0.00069,   0.00133,   0.00119,329949600.99033,   0.00046,275144205.61978,   0.00025,   0.00022,   0.00031,-145194604.62946,   0.00000
241063212.05095,345454790.54129,66654819.41424,   0.00068,   0.00132,   0.00118,327875949.01031,   0.00046,275144205.61978,   0.00025,   0.00022,   0.00031,-147268256.60948,   0.00000
238002330.21741,343756448.05592,66171649.43262,   0.00067,   0.00132,   0.00117,325783410.67382,   0.00046,275144205.61978,   0.00025,   0.00022,   0.00031,-149360794.94596,   0.00000
234914874.03489,342060521.42045,65683647.75119,   0.00066,   0.00132,   0.00117,323694792.66922,   0.00046,275144205.61978,   0.00025,   0.00022,   0.00031,-151449412.95056,   0.00000
231820170.30264,340347683.83562,65195646.06976,   0.00065,   0.00132,   0.00116,321603942.79594,   0.00046,275144205.61978,   0.00025,   0.00022,   0.00031,-153540262.82385,   0.00000
228701308.07132,338610687.75171,64702812.68851,   0.00064,   0.00132,   0.00115,319499829.21261,   0.00046,275144205.61978,   0.00025,   0.00022,   0.00031,-155644376.40717,   0.00000
225572782.44036,336883355.06744,64205147.60745,   0.00062,   0.00131,   0.00115,317409297.71646,   0.00046,275144205.61978,   0.00025,   0.00022,   0.00031,-157734907.90333,   0.00000
222412850.76059,335114952.93472,63707482.52638,   0.00061,   0.00131,   0.00114,315295997.18158,   0.00046,275144205.61978,   0.00025,   0.00022,   0.00031,-159848208.43820,   0.00000
219252919.08083,333346550.80201,63200154.04569,   0.00060,   0.00131,   0.00113,313188983.75005,   0.00046,275144205.61978,   0.00025,   0.00022,   0.00031,-161955221.86973,   0.00000
216059165.50235,331563653.56985,62697657.26481,   0.00059,   0.00131,   0.00113,311081406.94107,   0.00046,275144205.61978,   0.00025,   0.00022,   0.00031,-164062798.67872,   0.00000
212858164.37415,329763845.38833,62185497.08429,   0.00058,   0.00131,   0.00112,308967592.47949,   0.00046,275144205.61978,   0.00025,   0.00022,   0.00031,-166176613.14029,   0.00000
209640252.29659,327956789.65709,61673336.90378,   0.00057,   0.00131,   0.00111,306859167.36121,   0.00046,275144205.61978,   0.00025,   0.00022,   0.00031,-168285038.25858,   0.00000
206398181.71995,326125575.42677,61156345.02345,   0.00056,   0.00130,   0.00111,304740332.40477,   0.00046,275144205.61978,   0.00025,   0.00022,   0.00031,-170403873.21502,   0.00000
203139200.19396,324287113.64672,60634521.44331,   0.00055,   0.00130,   0.00110,302624978.15834,   0.00046,275144205.61978,   0.00025,   0.00022,   0.00031,-172519227.46144,   0.00000
199872971.11824,322431740.91732,60112697.86316,   0.00054,   0.00130,   0.00109,300510651.10541,   0.00046,275144205.61978,   0.00025,   0.00022,   0.00031,-174633554.51437,   0.00000
196589831.09316,320569120.63819,59586042.58320,   0.00052,   0.00130,   0.00109,298400708.65904,   0.00046,275144205.61978,   0.00025,   0.00022,   0.00031,-176743496.96074,   0.00000
193282532.56900,318682341.85998,59059387.30324,   0.00051,   0.00129,   0.00108,296285126.14682,   0.00046,275144205.61978,   0.00025,   0.00022,   0.00031,-178859079.47297,   0.00000
189958323.09549,316788315.53205,58527900.32346,   0.00050,   0.00129,   0.00107,294175066.11709,   0.00046,275144205.61978,   0.00025,   0.00022,   0.00031,-180969139.50270,   0.00000
186617202.67262,314887041.65440,57991581.64387,   0.00049,   0.00129,   0.00107,292071157.57720,   0.00046,275144205.61978,   0.00025,   0.00022,   0.00031,-183073048.04259,   0.00000
183261587.15030,312951945.87803,57450431.26446,   0.00048,   0.00129,   0.00106,289953988.77706,   0.00046,275144205.61978,   0.00025,   0.00022,   0.00031,-185190216.84273,   0.00000
179896308.22835,311026513.50129,56909280.88505,   0.00047,   0.00129,   0.00105,287860471.45710,   0.00046,275144205.61978,   0.00025,   0.00022,   0.00031,-187283734.16269,   0.00000
176523781.75667,309084170.17520,56363298.80583,   0.00046,   0.00128,   0.00105,285768135.96856,   0.00046,275144205.61978,   0.00025,   0.00022,   0.00031,-189376069.65123,   0.00000
173110185.83656,307110420.80030,55817316.72660,   0.00044,   0.00128,   0.00104,283666571.04265,   0.00046,275144205.61978,   0.00025,   0.00022,   0.00031,-191477634.57714,   0.00000
169696589.91645,305136671.42540,55266502.94756,   0.00043,   0.00128,   0.00103,281580942.75475,   0.00046,275144205.61978,   0.00025,   0.00022,   0.00031,-193563262.86503,   0.00000
166258835.49725,303138763.55142,54710857.46870,   0.00042,   0.00128,   0.00102,279491406.48888,   0.00046,275144205.61978,   0.00025,   0.00022,   0.00031,-195652799.13091,   0.00000
162821081.07806,301140855.67744,54155211.98985,   0.00041,   0.00127,   0.00102,277421701.89153,   0.00046,275144205.61978,   0.00025,   0.00022,   0.00031,-197722503.72826,   0.00000
159349504.76015,299128452.70401,53594734.81117,   0.00040,   0.00127,   0.00101,275356699.36427,   0.00046,275144205.61978,   0.00025,   0.00022,   0.00031,-199787506.25551,   0.00000
155887591.84188,297106386.33095,53034257.63250,   0.00038,   0.00127,   0.00100,273305405.08891,   0.00046,275144205.61978,   0.00025,   0.00022,   0.00031,-201838800.53088,   0.00000
152384609.47517,295052913.90908,52468948.75401,   0.00037,   0.00127,   0.00100,271246640.34905,   0.00046,275144205.61978,   0.00025,   0.00022,   0.00031,-203897565.27073,   0.00000
148881627.10846,292999441.48722,51898808.17570,   0.00036,   0.00126,   0.00099,269207423.52686,   0.00046,275144205.61978,   0.00025,   0.00022,   0.00031,-205936782.09292,   0.00000
145361733.79239,290938721.51563,51328667.59740,   0.00035,   0.00126,   0.00098,267185165.55639,   0.00046,275144205.61978,   0.00025,   0.00022,   0.00031,-207959040.06339,   0.00000
141834592.92660,288861090.59468,50753695.31927,   0.00034,   0.00126,   0.00097,265169943.58158,   0.00046,275144205.61978,   0.00025,   0.00022,   0.00031,-209974262.03820,   0.00000
138266382.61237,286752053.62493,50178723.04115,   0.00032,   0.00126,   0.00097,263153712.48675,   0.00046,275144205.61978,   0.00025,   0.00022,   0.00031,-211990493.13303,   0.00000
134715083.24749,284650264.20491,49598919.06321,   0.00031,   0.00125,   0.00096,261165466.40824,   0.00046,275144205.61978,   0.00025,   0.00022,   0.00031,-213978739.21154,   0.00000
131122714.43418,282517068.73607,49019115.08527,   0.00030,   0.00125,   0.00095,259178078.49504,   0.00046,275144205.61978,   0.00025,   0.00022,   0.00031,-215966127.12475,   0.00000
127530345.62087,280383873.26724,48434479.40752,   0.00029,   0.00125,   0.00094,257214598.27285,   0.00046,275144205.61978,   0.00025,   0.00022,   0.00031,-217929607.34694,   0.00000
123937976.80756,278250677.79841,47845012.02995,   0.00028,   0.00125,   0.00093,255275676.99880,   0.00046,275144205.61978,   0.00025,   0.00022,   0.00031,-219868528.62098,   0.00000
120321449.49517,276093323.83050,47255544.65238,   0.00026,   0.00124,   0.00093,253345781.99438,   0.00046,275144205.61978,   0.00025,   0.00022,   0.00031,-221798423.62540,   0.00000
116680763.68370,273911811.36350,46661245.57499,   0.00025,   0.00124,   0.00092,251423263.04898,   0.00046,275144205.61978,   0.00025,   0.00022,   0.00031,-223720942.57080,   0.00000
113040077.87223,271730298.89651,46066946.49760,   0.00024,   0.00124,   0.00091,249530541.36734,   0.00046,275144205.61978,   0.00025,   0.00022,   0.00031,-225613664.25244,   0.00000
109375233.56167,269524627.93044,45467815.72040,   0.00023,   0.00123,   0.00090,247647157.15378,   0.00046,275144205.61978,   0.00025,   0.00022,   0.00031,-227497048.46600,   0.00000
105710389.25112,267318956.96436,44868684.94320,   0.00021,   0.00123,   0.00090,245795274.19954,   0.00046,275144205.61978,   0.00025,   0.00022,   0.00031,-229348931.42024,   0.00000
102021386.44149,265089127.49921,44269554.16599,   0.00020,   0.00123,   0.00089,243957432.29069,   0.00046,275144205.61978,   0.00025,   0.00022,   0.00031,-231186773.32909,   0.00000
98315472.68250,262852050.48433,43660759.98916,   0.00019,   0.00123,   0.00088,242143541.95840,   0.00046,275144205.61978,   0.00025,   0.00022,   0.00031,-233000663.66138,   0.00000
94602311.37378,260598062.52009,43056797.51214,   0.00018,   0.00122,   0.00087,240352723.90502,   0.00046,275144205.61978,   0.00025,   0.00022,   0.00031,-234791481.71477,   0.00000
90889150.06507,258344074.55586,42443171.63549,   0.00016,   0.00122,   0.00086,238591897.49944,   0.00046,275144205.61978,   0.00025,   0.00022,   0.00031,-236552308.12035,   0.00000
87151830.25727,256065928.09254,41834377.45865,   0.00015,   0.00122,   0.00086,236852131.42244,   0.00046,275144205.61978,   0.00025,   0.00022,   0.00031,-238292074.19734,   0.00000
83397599.50012,253780534.07950,41220751.58200,   0.00014,   0.00121,   0.00085,235143536.63438,   0.00046,275144205.61978,   0.00025,   0.00022,   0.00031,-240000668.98540,   0.00000
79636121.19325,251478229.11710,40602294.00553,   0.00013,   0.00121,   0.00084,233456847.45297,   0.00046,275144205.61978,   0.00025,   0.00022,   0.00031,-241687358.16681,   0.00000
75874642.88637,249175924.15470,39983836.42907,   0.00011,   0.00121,   0.00083,231809382.63393,   0.00046,275144205.61978,   0.00025,   0.00022,   0.00031,-243334822.98585,   0.00000
72089006.08042,246849460.69323,39360547.15278,   0.00010,   0.00120,   0.00082,230182768.22090,   0.00046,275144205.61978,   0.00025,   0.00022,   0.00031,-244961437.39888,   0.00000
68279210.77538,244498838.73267,38737257.87650,   0.00009,   0.00120,   0.00082,228580993.22765,   0.00046,275144205.61978,   0.00025,   0.00022,   0.00031,-246563212.39213,   0.00000
64469415.47034,242148216.77211,38113968.60021,   0.00008,   0.00120,   0.00081,227021880.51351,   0.00046,275144205.61978,   0.00025,   0.00022,   0.00031,-248122325.10627,   0.00000
60659620.16530,239797594.81155,37485847.62411,   0.00006,   0.00119,   0.00080,225503905.27544,   0.00046,275144205.61978,   0.00025,   0.00022,   0.00031,-249640300.34434,   0.00000
56825666.36119,237422814.35191,36857726.64801,   0.00005,   0.00119,   0.00079,224014543.14008,   0.00046,275144205.61978,   0.00025,   0.00022,   0.00031,-251129662.47971,   0.00000
52984465.00734,235031122.94291,36224773.97210,   0.00004,   0.00119,   0.00078,222554907.20877,   0.00046,275144205.61978,   0.00025,   0.00022,   0.00031,-252589298.41101,   0.00000
49143263.65350,232639431.53392,35591821.29618,   0.00002,   0.00118,   0.00078,221142121.21712,   0.00046,275144205.61978,   0.00025,   0.00022,   0.00031,-254002084.40266,   0.00000
45285151.35030,230240492.57520,34954036.92045,   0.00001,   0.00118,   0.00077,219773310.23571,   0.00046,275144205.61978,   0.00025,   0.00022,   0.00031,-255370895.38407,   0.00000
41395632.99830,227800484.16804,34321084.24453,  -0.00000,   0.00118,   0.00076,218427388.96537,   0.00046,275144205.61978,   0.00025,   0.00022,   0.00031,-256716816.65441,   0.00000
37530273.14538,225384634.25996,33678468.16899,  -0.00001,   0.00117,   0.00075,217142178.14820,   0.00046,275144205.61978,   0.00025,   0.00022,   0.00031,-258002027.47158,   0.00000
33616596.29429,222920467.35372,33040683.79325,  -0.00003,   0.00117,   0.00074,215881549.26123,   0.00046,275144205.61978,   0.00025,   0.00022,   0.00031,-259262656.35855,   0.00000
29727077.94229,220480458.94657,32393236.01789,  -0.00004,   0.00117,   0.00073,214683621.57266,   0.00046,275144205.61978,   0.00025,   0.00022,   0.00031,-260460584.04713,   0.00000
25806153.54148,217999381.09097,31750619.94234,  -0.00005,   0.00116,   0.00073,213514092.78181,   0.00046,275144205.61978,   0.00025,   0.00022,   0.00031,-261630112.83797,   0.00000
21885229.14067,215518303.23538,31103172.16698,  -0.00007,   0.00116,   0.00072,212397402.97430,   0.00046,275144205.61978,   0.00025,   0.00022,   0.00031,-262746802.64549,   0.00000
17947393.79050,213029977.83006,30455724.39161,  -0.00008,   0.00116,   0.00071,211336700.41311,   0.00046,275144205.61978,   0.00025,   0.00022,   0.00031,-263807505.20667,   0.00000
14002310.89061,210524741.47538,29803444.91643,  -0.00009,   0.00115,   0.00070,210317936.91911,   0.00046,275144205.61978,   0.00025,   0.00022,   0.00031,-264826268.70068,   0.00000
10049980.44100,208002594.17135,29155997.14107,  -0.00011,   0.00115,   0.00069,209346305.89921,   0.00046,275144205.61978,   0.00025,   0.00022,   0.00031,-265797899.72057,   0.00000
6080739.04203,205473199.31759,28498885.96607,  -0.00012,   0.00114,   0.00068,208430663.82815,   0.00046,275144205.61978,   0.00025,   0.00022,   0.00031,-266713541.79163,   0.00000
2128408.59242,202951052.01356,27846606.49089,  -0.00013,   0.00114,   0.00067,207576485.54877,   0.00046,275144205.61978,   0.00025,   0.00022,   0.00031,-267567720.07102,   0.00000
-1872238.85536,200380587.71137,27189495.31589,  -0.00014,   0.00114,   0.00067,206757953.89454,   0.00046,275144205.61978,   0.00025,   0.00022,   0.00031,-268386251.72525,   0.00000
-5848727.80405,197834281.90825,26532384.14089,  -0.00016,   0.00113,   0.00066,206013571.89484,   0.00046,275144205.61978,   0.00025,   0.00022,   0.00031,-269130633.72494,   0.00000
-9856622.80155,195246906.65670,25870441.26608,  -0.00017,   0.00113,   0.00065,205306653.27274,   0.00046,275144205.61978,   0.00025,   0.00022,   0.00031,-269837552.34704,   0.00000
-13864517.79905,192659531.40515,25213330.09108,  -0.00018,   0.00113,   0.00064,204666038.80523,   0.00046,275144205.61978,   0.00025,   0.00022,   0.00031,-270478166.81456,   0.00000
-17872412.79655,190072156.15360,24551387.21627,  -0.00020,   0.00112,   0.00063,204088724.73189,   0.00046,275144205.61978,   0.00025,   0.00022,   0.00031,-271055480.88790,   0.00000
-21887555.34378,187467869.95270,23884612.64164,  -0.00021,   0.00112,   0.00062,203563024.35713,   0.00046,275144205.61978,   0.00025,   0.00022,   0.00031,-271581181.26266,   0.00000
-25926856.39008,184839425.25271,23222669.76683,  -0.00022,   0.00111,   0.00061,203096030.03770,   0.00046,275144205.61978,   0.00025,   0.00022,   0.00031,-272048175.58209,   0.00000
-29966157.43639,182210980.55272,22555895.19220,  -0.00024,   0.00111,   0.00061,202695042.31513,   0.00046,275144205.61978,   0.00025,   0.00022,   0.00031,-272449163.30466,   0.00000
-34012706.03241,179565624.90338,21889120.61757,  -0.00025,   0.00111,   0.00060,202350170.33891,   0.00046,275144205.61978,   0.00025,   0.00022,   0.00031,-272794035.28088,   0.00000
-38076165.57780,176913021.70431,21217514.34312,  -0.00026,   0.00110,   0.00059,202076049.75761,   0.00046,275144205.61978,   0.00025,   0.00022,   0.00031,-273068155.86217,   0.00000
-42129961.72355,174250755.10561,20550739.76850,  -0.00028,   0.00110,   0.00058,201857463.78992,   0.00046,275144205.61978,   0.00025,   0.00022,   0.00031,-273286741.82986,   0.00000
-46200668.81866,171581240.95718,19879133.49405,  -0.00029,   0.00109,   0.00057,201711011.05810,   0.00046,275144205.61978,   0.00025,   0.00022,   0.00031,-273433194.56169,   0.00000
-50278623.46350,168894815.85940,19207527.21960,  -0.00030,   0.00109,   0.00056,201623374.03876,   0.00046,275144205.61978,   0.00025,   0.00022,   0.00031,-273520831.58103,   0.00000
-54363825.65805,166191479.81226,18535920.94516,  -0.00032,   0.00108,   0.00055,201595087.32256,   0.00046,275144205.61978,   0.00025,   0.00022,   0.00031,-273549118.29722,   0.00000
-58465938.80197,163480896.21540,17859482.97090,  -0.00033,   0.00108,   0.00055,201641307.51602,   0.00046,275144205.61978,   0.00025,   0.00022,   0.00031,-273502898.10376,   0.00000
-62558388.54625,160760649.21891,17187876.69645,  -0.00034,   0.00108,   0.00054,201744231.11348,   0.00046,275144205.61978,   0.00025,   0.00022,   0.00031,-273399974.50630,   0.00000
-66667749.23989,158033154.67269,16511438.72219,  -0.00036,   0.00107,   0.00053,201922421.53325,   0.00046,275144205.61978,   0.00025,   0.00022,   0.00031,-273221784.08653,   0.00000
-70784357.48325,155288749.17711,15835000.74793,  -0.00037,   0.00107,   0.00052,202161512.07945,   0.00046,275144205.61978,   0.00025,   0.00022,   0.00031,-272982693.54033,   0.00000
-74900965.72662,152544343.68154,15158562.77367,  -0.00038,   0.00106,   0.00051,202472210.90802,   0.00046,275144205.61978,   0.00025,   0.00022,   0.00031,-272671994.71177,   0.00000
-79024821.51970,149783027.23660,14477293.09959,  -0.00040,   0.00106,   0.00050,202842871.95983,   0.00046,275144205.61978,   0.00025,   0.00022,   0.00031,-272301333.65996,   0.00000
-83155924.86252,147004799.84232,13800855.12533,  -0.00041,   0.00105,   0.00049,203275748.46279,   0.00046,275144205.61978,   0.00025,   0.00022,   0.00031,-271868457.15700,   0.00000
-87287028.20533,144226572.44803,13119585.45125,  -0.00042,   0.00105,   0.00048,203778823.62378,   0.00046,275144205.61978,   0.00025,   0.00022,   0.00031,-271365381.99601,   0.00000
-91425379.09786,141431434.10438,12438315.77717,  -0.00044,   0.00104,   0.00047,204342868.90781,   0.00046,275144205.61978,   0.00025,   0.00022,   0.00031,-270801336.71197,   0.00000
-95580640.93975,138629048.21101,11757046.10310,  -0.00045,   0.00104,   0.00047,204984413.09142,   0.00046,275144205.61978,   0.00025,   0.00022,   0.00031,-270159792.52837,   0.00000
-99726239.38201,135816998.91801,11075776.42902,  -0.00046,   0.00103,   0.00046,205679646.61856,   0.00046,275144205.61978,   0.00025,   0.00022,   0.00031,-269464559.00123,   0.00000
-103895996.32336,132980791.12593,10394506.75494,  -0.00048,   0.00103,   0.00045,206442674.75121,   0.00046,275144205.61978,   0.00025,   0.00022,   0.00031,-268701530.86858,   0.00000
-108065753.26470,130144583.33385,9713237.08086,  -0.00049,   0.00102,   0.00044,207275258.90676,   0.00046,275144205.61978,   0.00025,   0.00022,   0.00031,-267868946.71302,   0.00000
-112225846.80640,127298712.14213,9027135.70697,  -0.00050,   0.00102,   0.00043,208159256.60223,   0.00046,275144205.61978,   0.00025,   0.00022,   0.00031,-266984949.01756,   0.00000
-116402851.29747,124445593.40069,8345866.03289,  -0.00052,   0.00102,   0.00042,209119850.44418,   0.00046,275144205.61978,   0.00025,   0.00022,   0.00031,-266024355.17561,   0.00000
-120587103.33826,121575563.70990,7659764.65900,  -0.00053,   0.00101,   0.00041,210138830.85065,   0.00046,275144205.61978,   0.00025,   0.00022,   0.00031,-265005374.76914,   0.00000
-124771355.37905,118705534.01910,6973663.28510,  -0.00054,   0.00101,   0.00040,211224622.71072,   0.00046,275144205.61978,   0.00025,   0.00022,   0.00031,-263919582.90907,   0.00000
-128945944.02020,115825840.92867,6292393.61103,  -0.00056,   0.00100,   0.00039,212359923.14617,   0.00046,275144205.61978,   0.00025,   0.00022,   0.00031,-262784282.47362,   0.00000
-133144691.16044,112921989.33917,5606292.23713,  -0.00057,   0.00100,   0.00039,213560622.29319,   0.00046,275144205.61978,   0.00025,   0.00022,   0.00031,-261583583.32659,   0.00000
-137343438.30068,110018137.74966,4920190.86324,  -0.00058,   0.00099,   0.00038,214825754.56989,   0.00046,275144205.61978,   0.00025,   0.00022,   0.00031,-260318451.04989,   0.00000
-141549432.99064,107097375.21079,4234089.48934,  -0.00060,   0.00099,   0.00037,216146813.61126,   0.00046,275144205.61978,   0.00025,   0.00022,   0.00031,-258997392.00853,   0.00000
-145762675.23033,104159701.72257,3547988.11545,  -0.00061,   0.00098,   0.00036,217523245.62335,   0.00046,275144205.61978,   0.00025,   0.00022,   0.00031,-257620959.99644,   0.00000
-149959006.52066,101229275.78407,2866718.44137,  -0.00062,   0.00097,   0.00035,218951971.36286,   0.00046,275144205.61978,   0.00025,   0.00022,   0.00031,-256192234.25692,   0.00000
-154172248.76034,98291602.29585,2180617.06748,  -0.00064,   0.00097,   0.00034,220450502.38614,   0.00046,275144205.61978,   0.00025,   0.00022,   0.00031,-254693703.23364,   0.00000
-158392738.54975,95337017.85827,1494515.69358,  -0.00065,   0.00096,   0.00033,222001798.80941,   0.00046,275144205.61978,   0.00025,   0.00022,   0.00031,-253142406.81037,   0.00000
-162603564.93953,92372770.02106,808414.31969,  -0.00067,   0.00096,   0.00032,223595058.71622,   0.00046,275144205.61978,   0.00025,   0.00022,   0.00031,-251549146.90356,   0.00000
-166838549.82839,89384363.68477,122312.94580,  -0.00068,   0.00095,   0.00031,225249791.73363,   0.00046,275144205.61978,   0.00025,   0.00022,   0.00031,-249894413.88615,   0.00000
-171056623.76789,86403204.89821,-563788.42810,  -0.00069,   0.00095,   0.00031,226950823.82829,   0.00046,275144205.61978,   0.00025,   0.00022,   0.00031,-248193381.79149,   0.00000
-175298856.20648,83397887.61256,-1249889.80199,  -0.00071,   0.00094,   0.00030,228711909.67592,   0.00046,275144205.61978,   0.00025,   0.00022,   0.00031,-246432295.94387,   0.00000
-179524177.69570,80399817.87663,-1935991.17588,  -0.00072,   0.00094,   0.00029,230516846.38785,   0.00046,275144205.61978,   0.00025,   0.00022,   0.00031,-244627359.23193,   0.00000
-183756746.73465,77384837.19135,-2617260.84996,  -0.00073,   0.00093,   0.00028,232369298.93938,   0.00046,275144205.61978,   0.00025,   0.00022,   0.00031,-242774906.68040,   0.00000
-187989315.77360,74369856.50607,-3303362.22386,  -0.00075,   0.00093,   0.00027,234274056.28124,   0.00046,275144205.61978,   0.00025,   0.00022,   0.00031,-240870149.33854,   0.00000
-192229132.36228,71337964.87144,-3989463.59775,  -0.00076,   0.00092,   0.00026,236224738.56875,   0.00046,275144205.61978,   0.00025,   0.00022,   0.00031,-238919467.05103,   0.00000
-196476196.50068,68289162.28745,-4670733.27183,  -0.00077,   0.00092,   0.00025,238220376.10926,   0.00046,275144205.61978,   0.00025,   0.00022,   0.00031,-236923829.51052,   0.00000
-200723260.63908,65240359.70345,-5356834.64572,  -0.00079,   0.00091,   0.00024,240265429.58367,   0.00046,275144205.61978,   0.00025,   0.00022,   0.00031,-234878776.03611,   0.00000
-204977572.32720,62174646.17010,-6038104.31980,  -0.00080,   0.00090,   0.00023,242353617.52429,   0.00046,275144205.61978,   0.00025,   0.00022,   0.00031,-232790588.09549,   0.00000
-209222220.61569,59099269.23712,-6719373.99388,  -0.00081,   0.00090,   0.00023,244472885.06271,   0.00046,275144205.61978,   0.00025,   0.00022,   0.00031,-230671320.55707,   0.00000
-213466868.90418,56023892.30414,-7400643.66795,  -0.00083,   0.00089,   0.00022,246638062.92369,   0.00046,275144205.61978,   0.00025,   0.00022,   0.00031,-228506142.69609,   0.00000
-217718764.74240,52931604.42180,-8081913.34203,  -0.00084,   0.00089,   0.00021,248844069.18384,   0.00046,275144205.61978,   0.00025,   0.00022,   0.00031,-226300136.43594,   0.00000
-221970660.58061,49839316.53946,-8763183.01611,  -0.00085,   0.00088,   0.00020,251093962.04725,   0.00046,275144205.61978,   0.00025,   0.00022,   0.00031,-224050243.57253,   0.00000
-226229803.96855,46730117.70777,-9444452.69019,  -0.00087,   0.00088,   0.00019,253383043.10458,   0.00046,275144205.61978,   0.00025,   0.00022,   0.00031,-221761162.51520,   0.00000
-230488947.35649,43620918.87607,-10125722.36427,  -0.00088,   0.00087,   0.00018,255714039.21522,   0.00046,275144205.61978,   0.00025,   0.00022,   0.00031,-219430166.40457,   0.00000
-234745674.89453,40485145.69539,-10802160.33853,  -0.00089,   0.00086,   0.00017,258066564.58570,   0.00046,275144205.61978,   0.00025,   0.00022,   0.00031,-217077641.03408,   0.00000
-239002402.43256,37349372.51470,-11478598.31279,  -0.00091,   0.00086,   0.00016,260459187.61644,   0.00046,275144205.61978,   0.00025,   0.00022,   0.00031,-214685018.00334,   0.00000
-243259129.97059,34213599.33402,-12155036.28705,  -0.00092,   0.00085,   0.00015,262890813.49871,   0.00046,275144205.61978,   0.00025,   0.00022,   0.00031,-212253392.12108,   0.00000
-247523105.05834,31060915.20398,-12831474.26131,  -0.00093,   0.00085,   0.00015,265357687.59060,   0.00046,275144205.61978,   0.00025,   0.00022,   0.00031,-209786518.02918,   0.00000
-251777416.74647,27898567.67431,-13507912.23557,  -0.00095,   0.00084,   0.00014,267846631.56489,   0.00046,275144205.61978,   0.00025,   0.00022,   0.00031,-207297574.05489,   0.00000
-256031728.43459,24736220.14463,-14184350.20983,  -0.00096,   0.00083,   0.00013,270371912.60085,   0.00046,275144205.61978,   0.00025,   0.00022,   0.00031,-204772293.01893,   0.00000
-260293287.67244,21556961.66561,-14855956.48428,  -0.00097,   0.00083,   0.00012,272929531.11918,   0.00046,275144205.61978,   0.00025,   0.00022,   0.00031,-202214674.50060,   0.00000
-264554846.91029,18377703.18658,-15527562.75873,  -0.00098,   0.00082,   0.00011,275521746.99451,   0.00046,275144205.61978,   0.00025,   0.00022,   0.00031,-199622458.62528,   0.00000
-268813990.29823,15171870.35856,-16199169.03317,  -0.00100,   0.00082,   0.00010,278130899.53060,   0.00046,275144205.61978,   0.00025,   0.00022,   0.00031,-197013306.08919,   0.00000
-273082797.08580,11975700.93017,-16865943.60780,  -0.00101,   0.00081,   0.00009,280787053.73537,   0.00046,275144205.61978,   0.00025,   0.00022,   0.00031,-194357151.88441,   0.00000
-277349188.02346,8752957.15280,-17537549.88225,  -0.00102,   0.00080,   0.00008,283459889.37227,   0.00046,275144205.61978,   0.00025,   0.00022,   0.00031,-191684316.24751,   0.00000
-281598668.01177,5537460.92515,-18204324.45687,  -0.00104,   0.00080,   0.00008,286150322.74485,   0.00046,275144205.61978,   0.00025,   0.00022,   0.00031,-188993882.87493,   0.00000
-285848148.00008,2321964.69750,-18871099.03150,  -0.00105,   0.00079,   0.00007,288871320.27877,   0.00046,275144205.61978,   0.00025,   0.00022,   0.00031,-186272885.34101,   0.00000
-290112123.08783,-927353.42887,-19533041.90632,  -0.00106,   0.00078,   0.00006,291618735.08599,   0.00046,275144205.61978,   0.00025,   0.00022,   0.00031,-183525470.53380,   0.00000
-294376098.17559,-4176671.55523,-20194984.78113,  -0.00108,   0.00078,   0.00005,294395536.17116,   0.00046,275144205.61978,   0.00025,   0.00022,   0.00031,-180748669.44863,   0.00000
-298623162.31399,-7418742.13187,-20856927.65594,  -0.00109,   0.00077,   0.00004,297187578.58152,   0.00046,275144205.61978,   0.00025,   0.00022,   0.00031,-177956627.03826,   0.00000
-302877474.00211,-10677723.65786,-21518870.53076,  -0.00110,   0.00076,   0.00003,300006535.65812,   0.00046,275144205.61978,   0.00025,   0.00022,   0.00031,-175137669.96167,   0.00000
-307139033.23996,-13953616.13322,-22175981.70575,  -0.00112,   0.00076,   0.00002,302850972.37297,   0.00046,275144205.61978,   0.00025,   0.00022,   0.00031,-172293233.24681,   0.00000
-311390929.07817,-17239172.00820,-22833092.88075,  -0.00113,   0.00075,   0.00002,305708077.03923,   0.00046,275144205.61978,   0.00025,   0.00022,   0.00031,-169436128.58055,   0.00000
-315642824.91639,-20524727.88319,-23490204.05575,  -0.00114,   0.00074,   0.00001,308591223.70205,   0.00046,275144205.61978,   0.00025,   0.00022,   0.00031,-166552981.91773,   0.00000
-319894720.75460,-23810283.75817,-24142483.53093,  -0.00115,   0.00074,  -0.00000,311498565.70862,   0.00046,275144205.61978,   0.00025,   0.00022,   0.00031,-163645639.91117,   0.00000
-324136953.19319,-27105503.03279,-24794763.00611,  -0.00117,   0.00073,  -0.00001,314416790.85220,   0.00046,275144205.61978,   0.00025,   0.00022,   0.00031,-160727414.76759,   0.00000
-328386433.18149,-30417633.25676,-25447042.48129,  -0.00118,   0.00072,  -0.00002,317359102.17407,   0.00046,275144205.61978,   0.00025,   0.00022,   0.00031,-157785103.44572,   0.00000
-332643160.71953,-33746674.43009,-26094490.25665,  -0.00119,   0.00072,  -0.00003,320324019.12381,   0.00046,275144205.61978,   0.00025,   0.00022,   0.00031,-154820186.49597,   0.00000
-336882977.30820,-37068468.05370,-26741938.03202,  -0.00121,   0.00071,  -0.00003,323298421.88113,   0.00046,275144205.61978,   0.00025,   0.00022,   0.00031,-151845783.73866,   0.00000
-341113130.49724,-40399925.07693,-27389385.80738,  -0.00122,   0.00070,  -0.00004,326281951.98895,   0.00046,275144205.61978,   0.00025,   0.00022,   0.00031,-148862253.63083,   0.00000
-345360194.63564,-43738629.64990,-28032001.88293,  -0.00123,   0.00070,  -0.00005,329300059.97893,   0.00046,275144205.61978,   0.00025,   0.00022,   0.00031,-145844145.64085,   0.00000
-349580684.42505,-47079750.07277,-28674617.95848,  -0.00124,   0.00069,  -0.00006,332312635.45372,   0.00046,275144205.61978,   0.00025,   0.00022,   0.00031,-142831570.16606,   0.00000
-353825332.71354,-50445028.99472,-29312402.33421,  -0.00126,   0.00068,  -0.00007,335359491.65654,   0.00046,275144205.61978,   0.00025,   0.00022,   0.00031,-139784713.96324,   0.00000
-358053070.05268,-53803060.36695,-29950186.70994,  -0.00127,   0.00068,  -0.00008,338413150.43636,   0.00046,275144205.61978,   0.00025,   0.00022,   0.00031,-136731055.18342,   0.00000
-362288054.94154,-57178002.68853,-30583139.38586,  -0.00128,   0.00067,  -0.00008,341486510.14262,   0.00046,275144205.61978,   0.00025,   0.00022,   0.00031,-133657695.47716,   0.00000
-366513376.43076,-60562608.40974,-31216092.06178,  -0.00129,   0.00066,  -0.00009,344566701.46314,   0.00046,275144205.61978,   0.00025,   0.00022,   0.00031,-130577504.15664,   0.00000
-370721786.97063,-63939966.58124,-31849044.73769,  -0.00131,   0.00065,  -0.00010,347652281.65997,   0.00046,275144205.61978,   0.00025,   0.00022,   0.00031,-127491923.95982,   0.00000
-374954356.00958,-67341483.25181,-32477165.71379,  -0.00132,   0.00065,  -0.00011,350770524.48874,   0.00046,275144205.61978,   0.00025,   0.00022,   0.00031,-124373681.13104,   0.00000
-379160350.69955,-70745415.77229,-33100454.99008,  -0.00133,   0.00064,  -0.00012,353879286.06015,   0.00046,275144205.61978,   0.00025,   0.00022,   0.00031,-121264919.55963,   0.00000
-383383256.33887,-74156595.84249,-33728575.96618,  -0.00134,   0.00063,  -0.00013,357021533.33512,   0.00046,275144205.61978,   0.00025,   0.00022,   0.00031,-118122672.28467,   0.00000
-387579587.62919,-77570191.76261,-34347033.54264,  -0.00136,   0.00062,  -0.00013,360152196.44030,   0.00046,275144205.61978,   0.00025,   0.00022,   0.00031,-114992009.17948,   0.00000
-391792829.86888,-80991035.23244,-34965491.11911,  -0.00137,   0.00062,  -0.00014,363314215.44520,   0.00046,275144205.61978,   0.00025,   0.00022,   0.00031,-111829990.17458,   0.00000
-395996408.70893,-84421542.10191,-35583948.69558,  -0.00138,   0.00061,  -0.00015,366480800.59605,   0.00046,275144205.61978,   0.00025,   0.00022,   0.00031,-108663405.02374,   0.00000
-400190324.14936,-87861712.37101,-36197574.57223,  -0.00139,   0.00060,  -0.00016,369650324.09589,   0.00046,275144205.61978,   0.00025,   0.00022,   0.00031,-105493881.52389,   0.00000
-404384239.58978,-91301882.64012,-36811200.44888,  -0.00141,   0.00059,  -0.00017,372836154.43403,   0.00046,275144205.61978,   0.00025,   0.00022,   0.00031,-102308051.18575,   0.00000
-408568491.63057,-94751716.30885,-37419994.62572,  -0.00142,   0.00059,  -0.00017,376024337.34853,   0.00046,275144205.61978,   0.00025,   0.00022,   0.00031,-99119868.27125,   0.00000
-412752743.67136,-98201549.97758,-38023957.10274,  -0.00143,   0.00058,  -0.00018,379226682.31739,   0.00046,275144205.61978,   0.00025,   0.00022,   0.00031,-95917523.30239,   0.00000
-416934579.86224,-101677957.99531,-38627919.57976,  -0.00144,   0.00057,  -0.00019,382434494.83820,   0.00046,275144205.61978,   0.00025,   0.00022,   0.00031,-92709710.78158,   0.00000
-421109168.50339,-105137455.06367,-39231882.05678,  -0.00146,   0.00056,  -0.00020,385655146.06136,   0.00046,275144205.61978,   0.00025,   0.00022,   0.00031,-89489059.55842,   0.00000
-425281341.29464,-108623526.48103,-39831012.83398,  -0.00147,   0.00056,  -0.00020,388879492.22180,   0.00046,275144205.61978,   0.00025,   0.00022,   0.00031,-86264713.39799,   0.00000
-429436603.13654,-112102350.34866,-40425311.91137,  -0.00148,   0.00055,  -0.00021,392102662.65250,   0.00046,275144205.61978,   0.00025,   0.00022,   0.00031,-83041542.96728,   0.00000
-433616023.47751,-115605332.71537,-41019610.98875,  -0.00149,   0.00054,  -0.00022,395356737.08798,   0.00046,275144205.61978,   0.00025,   0.00022,   0.00031,-79787468.53181,   0.00000
-437761621.91977,-119093819.98263,-41609078.36632,  -0.00150,   0.00053,  -0.00023,398594804.27515,   0.00046,275144205.61978,   0.00025,   0.00022,   0.00031,-76549401.34463,   0.00000
-441914467.91175,-122599218.19925,-42193714.04408,  -0.00152,   0.00053,  -0.00024,401847639.64764,   0.00046,275144205.61978,   0.00025,   0.00022,   0.00031,-73296565.97215,   0.00000
-446057650.50410,-126114279.81550,-42778349.72183,  -0.00153,   0.00052,  -0.00024,405102408.54860,   0.00046,275144205.61978,   0.00025,   0.00022,   0.00031,-70041797.07119,   0.00000
-450200833.09646,-129629341.43176,-43362985.39959,  -0.00154,   0.00051,  -0.00025,408370376.35307,   0.00046,275144205.61978,   0.00025,   0.00022,   0.00031,-66773829.26672,   0.00000
-454334352.28918,-133154066.44764,-43937957.67771,  -0.00155,   0.00050,  -0.00026,411636824.05984,   0.00046,275144205.61978,   0.00025,   0.00022,   0.00031,-63507381.55994,   0.00000
-458467871.48190,-136678791.46352,-44512929.95583,  -0.00156,   0.00049,  -0.00027,414915954.64362,   0.00046,275144205.61978,   0.00025,   0.00022,   0.00031,-60228250.97616,   0.00000
-462598974.82471,-140230090.82840,-45087902.23395,  -0.00158,   0.00049,  -0.00027,418199414.64497,   0.00046,275144205.61978,   0.00025,   0.00022,   0.00031,-56944790.97482,   0.00000
-466705919.66844,-143757231.69419,-45653211.11244,  -0.00159,   0.00048,  -0.00028,421474617.43947,   0.00046,275144205.61978,   0.00025,   0.00022,   0.00031,-53669588.18032,   0.00000
-470827359.61162,-147318194.45869,-46218519.99093,  -0.00160,   0.00047,  -0.00029,424768255.90919,   0.00046,275144205.61978,   0.00025,   0.00022,   0.00031,-50375949.71059,   0.00000
-474931888.60544,-150871909.67348,-46783828.86942,  -0.00161,   0.00046,  -0.00030,428059494.55090,   0.00046,275144205.61978,   0.00025,   0.00022,   0.00031,-47084711.06889,   0.00000
-479043665.14899,-154442535.83761,-47344306.04810,  -0.00162,   0.00045,  -0.00030,431364186.64314,   0.00046,275144205.61978,   0.00025,   0.00022,   0.00031,-43780018.97664,   0.00000
-483121619.79382,-157998666.90230,-47899951.52696,  -0.00164,   0.00045,  -0.00031,434650114.97164,   0.00046,275144205.61978,   0.00025,   0.00022,   0.00031,-40494090.64815,   0.00000
-487223732.93773,-161578956.46607,-48450765.30600,  -0.00165,   0.00044,  -0.00032,437963529.02162,   0.00046,275144205.61978,   0.00025,   0.00022,   0.00031,-37180676.59816,   0.00000
-491299271.73266,-165161661.87975,-49001579.08504,  -0.00166,   0.00043,  -0.00032,441262970.36884,   0.00046,275144205.61978,   0.00025,   0.00022,   0.00031,-33881235.25095,   0.00000
-495374810.52759,-168744367.29343,-49542729.46445,  -0.00167,   0.00042,  -0.00033,444570131.19561,   0.00046,275144205.61978,   0.00025,   0.00022,   0.00031,-30574074.42417,   0.00000
-499457596.87224,-172343983.65646,-50088711.54367,  -0.00168,   0.00041,  -0.00034,447893363.35320,   0.00046,275144205.61978,   0.00025,   0.00022,   0.00031,-27250842.26659,   0.00000
-503506561.31817,-175929104.92005,-50625030.22327,  -0.00169,   0.00040,  -0.00035,451195223.43401,   0.00046,275144205.61978,   0.00025,   0.00022,   0.00031,-23948982.18578,   0.00000
-507562773.31383,-179531137.13299,-51161348.90286,  -0.00170,   0.00039,  -0.00035,454511305.75550,   0.00046,275144205.61978,   0.00025,   0.00022,   0.00031,-20632899.86429,   0.00000
-511609321.90986,-183142832.74557,-51692835.88264,  -0.00172,   0.00039,  -0.00036,457825581.22313,   0.00046,275144205.61978,   0.00025,   0.00022,   0.00031,-17318624.39665,   0.00000
-515663118.05562,-186771439.30750,-52219491.16260,  -0.00173,   0.00038,  -0.00037,461152366.22903,   0.00046,275144205.61978,   0.00025,   0.00022,   0.00031,-13991839.39075,   0.00000
-519700003.25201,-190392798.31971,-52741314.74274,  -0.00174,   0.00037,  -0.00037,464473155.27231,   0.00046,275144205.61978,   0.00025,   0.00022,   0.00031,-10671050.34747,   0.00000
-523719977.49905,-194006909.78219,-53263138.32289,  -0.00175,   0.00036,  -0.00038,467789361.95799,   0.00046,275144205.61978,   0.00025,   0.00022,   0.00031,-7354843.66179,   0.00000
-527754446.84554,-197654843.14339,-53780130.20321,  -0.00176,   0.00035,  -0.00039,471121935.37111,   0.00046,275144205.61978,   0.00025,   0.00022,   0.00031,-4022270.24867,   0.00000
-531747846.74359,-201271370.45578,-54292290.38373,  -0.00177,   0.00034,  -0.00039,474429423.21902,   0.00046,275144205.61978,   0.00025,   0.00022,   0.00031,-714782.40076,   0.00000
-532610608.93908,-202055417.25288,-54401041.92097,  -0.00177,   0.00034,  -0.00039,475144203.01574,   0.00046,275144205.61978,   0.00025,   0.00022,   0.00031,  -8.96597,   0.00000
-532894716.69929,-204059578.71135,-54466931.12840,  -0.00178,   0.00033,  -0.00040,475157615.03142,   0.00047,275157622.39573,   0.00024,   0.00022,   0.00031,  -7.36431,   1.00000
-533240117.25573,-206584416.82746,-54552191.84056,  -0.00179,   0.00033,  -0.00041,475174568.10986,   0.00049,275174572.76392,   0.00023,   0.00023,   0.00030,  -4.65406,   1.00000
-533574423.47514,-209103056.05275,-54629976.39818,  -0.00181,   0.00032,  -0.00041,475191554.87128,   0.00050,275191561.32618,   0.00021,   0.00023,   0.00030,  -6.45490,   1.00000
-533896182.13590,-211598471.62095,-54698151.47868,  -0.00182,   0.00031,  -0.00042,475208473.90693,   0.00052,275208483.05242,   0.00020,   0.00023,   0.00029,  -9.14550,   1.00000
-534204192.18500,-214084940.35735,-54765395.99289,  -0.00183,   0.00030,  -0.00043,475225371.59546,   0.00054,275225377.57389,   0.00019,   0.00023,   0.00029,  -5.97843,   1.00000
-534498497.48308,-216562468.21834,-54831710.71157,  -0.00184,   0.00029,  -0.00043,475242235.15722,   0.00055,275242245.12373,   0.00017,   0.00023,   0.00028,  -9.96651,   1.00000
-534781882.36527,-219019209.36943,-54886710.56854,  -0.00185,   0.00028,  -0.00044,475259112.17916,   0.00057,275259117.50897,   0.00016,   0.00023,   0.00028,  -5.32981,   1.00000
-535053642.52231,-221467750.52425,-54936302.83817,  -0.00186,   0.00027,  -0.00044,475275951.83012,   0.00058,275275953.80182,   0.00014,   0.00024,   0.00027,  -1.97170,   1.00000
-535311980.03422,-223907490.29676,-54985104.76034,  -0.00187,   0.00026,  -0.00045,475292755.51014,   0.00060,275292762.69084,   0.00013,   0.00024,   0.00026,  -7.18070,   1.00000
-535558048.83792,-226325926.16992,-55027333.07150,  -0.00188,   0.00025,  -0.00046,475309582.55188,   0.00061,275309583.33583,   0.00011,   0.00024,   0.00026,  -0.78395,   1.00000
-535791813.78611,-228734641.91918,-55066104.42814,  -0.00189,   0.00024,  -0.00046,475326291.12556,   0.00063,275326295.38588,   0.00010,   0.00024,   0.00025,  -4.26033,   1.00000
-536013686.34099,-231122236.34096,-55098404.21848,  -0.00190,   0.00024,  -0.00047,475343013.64581,   0.00064,275343018.16866,   0.00009,   0.00024,   0.00025,  -4.52285,   1.00000
-536225413.27916,-233503557.98833,-55123634.84937,  -0.00191,   0.00023,  -0.00047,475359767.87291,   0.00066,275359776.46496,   0.00007,   0.00024,   0.00024,  -8.59204,   1.00000
-536425158.09641,-235875566.84392,-55145554.24912,  -0.00192,   0.00022,  -0.00048,475376420.84741,   0.00067,275376426.18723,   0.00006,   0.00024,   0.00024,  -5.33981,   1.00000
-536613456.42216,-238226547.96603,-55161157.00541,  -0.00193,   0.00021,  -0.00049,475393077.54752,   0.00069,275393085.18555,   0.00004,   0.00024,   0.00023,  -7.63802,   1.00000
-536788173.02718,-240567911.82513,-55178114.54021,  -0.00194,   0.00020,  -0.00049,475409640.20182,   0.00070,275409644.25253,   0.00003,   0.00025,   0.00022,  -4.05070,   1.00000
-536954880.08626,-242903666.36555,-55183539.40709,  -0.00195,   0.00019,  -0.00050,475426223.93062,   0.00072,275426230.02448,   0.00001,   0.00025,   0.00022,  -6.09386,   1.00000
-537108738.41276,-245217793.08876,-55187379.74515,  -0.00197,   0.00018,  -0.00050,475442829.46934,   0.00073,275442832.08112,   0.00000,   0.00025,   0.00021,  -2.61179,   1.00000
-537252989.33175,-247524088.57269,-55183518.35332,  -0.00198,   0.00017,  -0.00051,475459309.03275,   0.00075,275459317.68507,  -0.00001,   0.00025,   0.00021,  -8.65232,   1.00000
-537384746.55826,-249808931.66920,-55178169.77738,  -0.00199,   0.00016,  -0.00051,475475814.31877,   0.00077,275475818.63832,  -0.00003,   0.00025,   0.00020,  -4.31956,   1.00000
-537505269.83040,-252085604.58039,-55169778.70061,  -0.00200,   0.00015,  -0.00052,475492207.78830,   0.00078,275492211.81830,  -0.00004,   0.00025,   0.00020,  -4.03000,   1.00000
-537616336.73684,-254355984.83265,-55154636.19944,  -0.00201,   0.00014,  -0.00053,475508634.45008,   0.00080,275508639.30738,  -0.00006,   0.00025,   0.00019,  -4.85730,   1.00000
-537719053.31426,-256606489.81769,-55128967.32333,  -0.00202,   0.00013,  -0.00053,475525058.48702,   0.00081,275525064.18967,  -0.00007,   0.00025,   0.00019,  -5.70265,   1.00000
-537808894.03163,-258848449.66459,-55104994.37408,  -0.00203,   0.00012,  -0.00054,475541385.34125,   0.00083,275541389.94302,  -0.00008,   0.00025,   0.00018,  -4.60177,   1.00000
-537888000.57606,-261069338.07603,-55077028.36652,  -0.00204,   0.00011,  -0.00054,475557644.60137,   0.00084,275557650.38446,  -0.00010,   0.00025,   0.00017,  -5.78310,   1.00000
-537958011.80572,-263284005.79357,-55042478.00804,  -0.00205,   0.00010,  -0.00055,475573940.65646,   0.00086,275573944.37300,  -0.00011,   0.00025,   0.00017,  -3.71654,   1.00000
-538018077.85125,-265491819.21612,-55003252.89064,  -0.00206,   0.00009,  -0.00055,475590194.80136,   0.00087,275590201.74151,  -0.00013,   0.00025,   0.00016,  -6.94014,   1.00000
-538067818.83882,-267678890.54590,-54960179.49126,  -0.00207,   0.00008,  -0.00056,475606384.85807,   0.00089,275606393.09816,  -0.00014,   0.00025,   0.00016,  -8.24010,   1.00000
-538107803.93040,-269859326.10524,-54912505.31564,  -0.00208,   0.00007,  -0.00056,475622544.58369,   0.00090,275622547.87962,  -0.00015,   0.00025,   0.00015,  -3.29593,   1.00000
-538139887.30871,-272033932.60360,-54855681.49452,  -0.00208,   0.00006,  -0.00057,475638651.01739,   0.00092,275638658.12878,  -0.00017,   0.00025,   0.00015,  -7.11139,   1.00000
-538161018.45749,-274187600.47723,-54797887.69115,  -0.00209,   0.00005,  -0.00057,475654779.44373,   0.00093,275654779.50054,  -0.00018,   0.00025,   0.00014,  -0.05682,   1.00000
-538171576.69868,-276320963.70396,-54738289.46533,  -0.00210,   0.00004,  -0.00058,475670761.38643,   0.00095,275670764.75329,  -0.00019,   0.00025,   0.00013,  -3.36686,   1.00000
-538173599.32317,-278461775.63327,-54671539.20250,  -0.00211,   0.00003,  -0.00058,475686807.70768,   0.00096,275686813.60997,  -0.00021,   0.00025,   0.00013,  -5.90229,   1.00000
-538167910.58936,-280583400.21641,-54596621.79587,  -0.00212,   0.00002,  -0.00059,475702780.69311,   0.00097,275702787.42778,  -0.00022,   0.00025,   0.00012,  -6.73467,   1.00000
-538151000.12246,-282684417.79456,-54522774.33203,  -0.00213,   0.00001,  -0.00059,475718693.77192,   0.00099,275718702.12850,  -0.00024,   0.00025,   0.00012,  -8.35658,   1.00000
-538124802.74794,-284779343.33680,-54444574.05428,  -0.00214,   0.00000,  -0.00060,475734573.78658,   0.00100,275734580.81868,  -0.00025,   0.00025,   0.00011,  -7.03210,   1.00000
-538091162.20242,-286869031.07504,-54357468.13870,  -0.00215,  -0.00001,  -0.00060,475750409.90690,   0.00102,275750415.70425,  -0.00026,   0.00025,   0.00011,  -5.79735,   1.00000
-538046648.79980,-288938470.73836,-54271545.41269,  -0.00216,  -0.00002,  -0.00060,475766184.37174,   0.00103,275766191.24391,  -0.00028,   0.00025,   0.00010,  -6.87217,   1.00000
-537995687.13667,-291002552.91545,-54174936.37301,  -0.00217,  -0.00003,  -0.00061,475781985.74531,   0.00105,275781991.42189,  -0.00029,   0.00025,   0.00010,  -5.67658,   1.00000
-537934681.44531,-293061054.59848,-54075982.28599,  -0.00218,  -0.00004,  -0.00061,475797681.53614,   0.00106,275797688.11887,  -0.00030,   0.00025,   0.00009,  -6.58273,   1.00000
-537864020.99912,-295099210.50751,-53976485.04458,  -0.00219,  -0.00005,  -0.00062,475813391.97585,   0.00108,275813393.07162,  -0.00032,   0.00025,   0.00008,  -1.09578,   1.00000
-537785806.00665,-297119950.00430,-53870968.87251,  -0.00220,  -0.00006,  -0.00062,475828950.25508,   0.00109,275828954.70031,  -0.00033,   0.00024,   0.00008,  -4.44523,   1.00000
-537698955.58444,-299147541.65587,-53758617.34481,  -0.00221,  -0.00007,  -0.00063,475844580.31778,   0.00111,275844581.70650,  -0.00034,   0.00024,   0.00007,  -1.38872,   1.00000
-537604366.79515,-301143515.63854,-53643998.68446,  -0.00221,  -0.00008,  -0.00063,475860104.39373,   0.00112,275860107.94400,  -0.00036,   0.00024,   0.00007,  -3.55027,   1.00000
-537500230.33509,-303146908.54271,-53524435.95301,  -0.00222,  -0.00009,  -0.00063,475875622.75711,   0.00113,275875632.65467,  -0.00037,   0.00024,   0.00006,  -9.89756,   1.00000
-537389759.89183,-305132813.61830,-53397186.14481,  -0.00223,  -0.00010,  -0.00064,475891076.82569,   0.00115,275891081.76782,  -0.00038,   0.00024,   0.00006,  -4.94213,   1.00000
-537268611.51233,-307112348.87077,-53270570.68063,  -0.00224,  -0.00011,  -0.00064,475906494.58811,   0.00116,275906504.40355,  -0.00040,   0.00024,   0.00005,  -9.81544,   1.00000
-537141344.94184,-309074704.92442,-53136331.28084,  -0.00225,  -0.00012,  -0.00065,475921846.61497,   0.00118,275921851.51417,  -0.00041,   0.00024,   0.00005,  -4.89920,   1.00000
-537003513.00454,-311030848.84147,-53002782.08707,  -0.00226,  -0.00013,  -0.00065,475937168.28644,   0.00119,275937172.45647,  -0.00042,   0.00024,   0.00004,  -4.17003,   1.00000
-536860711.65127,-312969094.73963,-52859870.08165,  -0.00227,  -0.00014,  -0.00065,475952481.49918,   0.00121,275952484.29101,  -0.00043,   0.00023,   0.00003,  -2.79182,   1.00000
-536708283.77863,-314903244.28265,-52714924.58295,  -0.00228,  -0.00015,  -0.00066,475967693.40202,   0.00122,275967696.33408,  -0.00045,   0.00023,   0.00003,  -2.93206,   1.00000
-536549294.23789,-316818726.49163,-52565310.90514,  -0.00228,  -0.00016,  -0.00066,475982901.19939,   0.00123,275982906.58263,  -0.00046,   0.00023,   0.00002,  -5.38324,   1.00000
-536382524.65586,-318731336.23463,-52409110.61751,  -0.00229,  -0.00017,  -0.00066,475998007.62692,   0.00125,275998010.25946,  -0.00047,   0.00023,   0.00002,  -2.63254,   1.00000
-536206343.31691,-320636738.98969,-52251985.14159,  -0.00230,  -0.00019,  -0.00067,476013148.46359,   0.00126,276013154.32738,  -0.00049,   0.00023,   0.00001,  -5.86379,   1.00000
-536023633.58496,-322527162.34150,-52089260.47392,  -0.00231,  -0.00020,  -0.00067,476028148.21364,   0.00128,276028157.82907,  -0.00050,   0.00023,   0.00001,  -9.61543,   1.00000
-535833401.10549,-324411365.45095,-51921076.93385,  -0.00232,  -0.00021,  -0.00067,476043188.33177,   0.00129,276043194.28291,  -0.00051,   0.00022,   0.00000,  -5.95114,   1.00000
-535633559.22966,-326292073.15376,-51750999.99693,  -0.00233,  -0.00022,  -0.00068,476058127.00372,   0.00130,276058133.59777,  -0.00052,   0.00022,  -0.00000,  -6.59406,   1.00000
-535427679.00992,-328154404.48157,-51576487.62808,  -0.00233,  -0.00023,  -0.00068,476073065.51652,   0.00132,276073070.59418,  -0.00054,   0.00022,  -0.00001,  -5.07766,   1.00000
-535214860.77936,-330000035.81193,-51399342.08700,  -0.00234,  -0.00024,  -0.00068,476087938.00264,   0.00133,276087940.14639,  -0.00055,   0.00022,  -0.00001,  -2.14375,   1.00000
-534995359.38367,-331842017.24963,-51214011.06607,  -0.00235,  -0.00025,  -0.00068,476102766.72765,   0.00135,276102771.00897,  -0.00056,   0.00022,  -0.00002,  -4.28132,   1.00000
-534766291.85109,-333680995.36091,-51026884.07364,  -0.00236,  -0.00026,  -0.00069,476117499.89858,   0.00136,276117506.42390,  -0.00057,   0.00021,  -0.00002,  -6.52532,   1.00000
-534531571.23755,-335501901.28606,-50835483.83341,  -0.00237,  -0.00027,  -0.00069,476132237.11312,   0.00137,276132239.13697,  -0.00059,   0.00021,  -0.00003,  -2.02385,   1.00000
-534288434.09708,-337318272.23814,-50640595.48009,  -0.00237,  -0.00028,  -0.00069,476146937.25879,   0.00139,276146941.33177,  -0.00060,   0.00021,  -0.00003,  -4.07298,   1.00000
-534038700.84747,-339118502.10839,-50443229.26573,  -0.00238,  -0.00030,  -0.00069,476161575.84590,   0.00140,276161576.69112,  -0.00061,   0.00021,  -0.00004,  -0.84522,   1.00000
-533782299.91776,-340915305.81220,-50237807.13634,  -0.00239,  -0.00031,  -0.00070,476176170.36820,   0.00141,276176175.05057,  -0.00062,   0.00020,  -0.00004,  -4.68237,   1.00000
-533519427.46961,-342696213.81161,-50029986.07310,  -0.00240,  -0.00032,  -0.00070,476190702.53309,   0.00143,276190706.79852,  -0.00064,   0.00020,  -0.00005,  -4.26543,   1.00000
-533248207.40087,-344472816.80268,-49818791.00236,  -0.00240,  -0.00033,  -0.00070,476205203.63040,   0.00144,276205209.14468,  -0.00065,   0.00020,  -0.00005,  -5.51428,   1.00000
-532968618.39729,-346245079.14268,-49604241.02314,  -0.00241,  -0.00034,  -0.00070,476219680.13906,   0.00145,276219682.47667,  -0.00066,   0.00020,  -0.00006,  -2.33761,   1.00000
-532684388.66307,-348002715.46230,-49382740.30266,  -0.00242,  -0.00035,  -0.00071,476234080.33735,   0.00147,276234082.91644,  -0.00067,   0.00019,  -0.00006,  -2.57910,   1.00000
-532388858.35998,-349757236.83809,-49164235.88215,  -0.00243,  -0.00036,  -0.00071,476248392.61956,   0.00148,276248399.11947,  -0.00069,   0.00019,  -0.00007,  -6.49991,   1.00000
-532091736.50218,-351496227.01384,-48932522.08351,  -0.00243,  -0.00037,  -0.00071,476262691.17523,   0.00149,276262698.80310,  -0.00070,   0.00019,  -0.00007,  -7.62788,   1.00000
-531786863.41174,-353219033.18993,-48703219.94221,  -0.00244,  -0.00039,  -0.00071,476276939.02366,   0.00151,276276939.53913,  -0.00071,   0.00018,  -0.00008,  -0.51547,   1.00000
-531471408.37622,-354948791.35496,-48469678.49110,  -0.00245,  -0.00040,  -0.00071,476291189.88491,   0.00152,276291190.81645,  -0.00072,   0.00018,  -0.00008,  -0.93154,   1.00000
-531153868.75262,-356653526.02712,-48230318.20927,  -0.00245,  -0.00041,  -0.00072,476305322.82202,   0.00153,276305332.27375,  -0.00073,   0.00018,  -0.00009,  -9.45174,   1.00000
-530825669.55030,-358365171.17004,-47986786.66789,  -0.00246,  -0.00042,  -0.00072,476319483.66149,   0.00155,276319485.08177,  -0.00075,   0.00018,  -0.00009,  -1.42029,   1.00000
-530493113.93876,-360062905.01747,-47736493.35424,  -0.00247,  -0.00043,  -0.00072,476333566.10970,   0.00156,276333566.67598,  -0.00076,   0.00017,  -0.00010,  -0.56628,   1.00000
-530153066.76501,-361744907.26613,-47488742.04294,  -0.00248,  -0.00044,  -0.00072,476347585.30093,   0.00157,276347590.24277,  -0.00077,   0.00017,  -0.00010,  -4.94185,   1.00000
-529804867.87598,-363426556.94804,-47234841.64170,  -0.00248,  -0.00046,  -0.00072,476361514.11345,   0.00159,276361520.38612,  -0.00078,   0.00017,  -0.00011,  -6.27267,   1.00000
-529453927.73099,-365092164.55183,-46972651.58338,  -0.00249,  -0.00047,  -0.00072,476375439.84914,   0.00160,276375441.23810,  -0.00079,   0.00016,  -0.00011,  -1.38896,   1.00000
-529093061.78689,-366752918.28975,-46712077.10163,  -0.00250,  -0.00048,  -0.00073,476389337.71582,   0.00161,276389343.46746,  -0.00080,   0.00016,  -0.00012,  -5.75164,   1.00000
-528725413.90244,-368410803.55095,-46443835.51112,  -0.00250,  -0.00049,  -0.00073,476403209.95634,   0.00163,276403214.79382,  -0.00082,   0.00016,  -0.00012,  -4.83748,   1.00000
-528350528.57625,-370057115.78946,-46175176.70223,  -0.00251,  -0.00050,  -0.00073,476416958.23396,   0.00164,276416962.29435,  -0.00083,   0.00015,  -0.00013,  -4.06039,   1.00000
-527973128.20978,-371687603.04655,-45898353.83321,  -0.00252,  -0.00051,  -0.00073,476430696.45713,   0.00165,276430700.94922,  -0.00084,   0.00015,  -0.00013,  -4.49209,   1.00000
-527583023.47965,-373323562.49676,-45622236.28149,  -0.00252,  -0.00053,  -0.00073,476444456.85823,   0.00166,276444461.71769,  -0.00085,   0.00014,  -0.00014,  -4.85945,   1.00000
-527190086.05172,-374939181.71286,-45342083.53357,  -0.00253,  -0.00054,  -0.00073,476458047.43005,   0.00168,276458054.36308,  -0.00086,   0.00014,  -0.00014,  -6.93303,   1.00000
-526791934.69922,-376549279.96732,-45052856.47017,  -0.00253,  -0.00055,  -0.00073,476471676.63235,   0.00169,276471678.12751,  -0.00087,   0.00014,  -0.00015,  -1.49517,   1.00000
-526382167.57197,-378157568.64706,-44766929.74156,  -0.00254,  -0.00056,  -0.00073,476485221.58625,   0.00170,276485226.10199,  -0.00088,   0.00013,  -0.00015,  -4.51575,   1.00000
-525970130.65889,-379750202.63863,-44472984.78636,  -0.00255,  -0.00057,  -0.00073,476498761.98921,   0.00171,276498765.97122,  -0.00089,   0.00013,  -0.00015,  -3.98201,   1.00000
-525549401.74210,-381343177.17398,-44173050.97648,  -0.00255,  -0.00058,  -0.00073,476512212.98527,   0.00173,276512219.23371,  -0.00091,   0.00013,  -0.00016,  -6.24845,   1.00000
-525121757.15536,-382921627.38270,-43875979.02480,  -0.00256,  -0.00060,  -0.00073,476525612.46748,   0.00174,276525617.41389,  -0.00092,   0.00012,  -0.00016,  -4.94640,   1.00000
-524692018.81644,-384484647.97545,-43570983.19671,  -0.00257,  -0.00061,  -0.00073,476539006.50261,   0.00175,276539007.87462,  -0.00093,   0.00012,  -0.00017,  -1.37201,   1.00000
-524253459.47693,-386048268.40496,-43260029.07340,  -0.00257,  -0.00062,  -0.00073,476552311.31735,   0.00177,276552313.59633,  -0.00094,   0.00011,  -0.00017,  -2.27898,   1.00000
-523804930.12067,-387607272.33411,-42951007.33317,  -0.00258,  -0.00063,  -0.00073,476565598.08549,   0.00178,276565605.47834,  -0.00095,   0.00011,  -0.00018,  -7.39285,   1.00000
-523352523.65336,-389154110.91374,-42635581.16592,  -0.00258,  -0.00065,  -0.00073,476578827.01887,   0.00179,276578831.95495,  -0.00096,   0.00010,  -0.00018,  -4.93608,   1.00000
-522892981.05244,-390698356.88553,-42312794.26351,  -0.00259,  -0.00066,  -0.00073,476592031.88676,   0.00180,276592034.08789,  -0.00097,   0.00010,  -0.00018,  -2.20113,   1.00000
-522426729.40424,-392228582.78158,-41993009.40267,  -0.00259,  -0.00067,  -0.00073,476605173.68309,   0.00181,276605182.74901,  -0.00098,   0.00010,  -0.00019,  -9.06591,   1.00000
-521956668.84504,-393746968.30619,-41666874.24827,  -0.00260,  -0.00068,  -0.00073,476618262.85410,   0.00183,276618267.03965,  -0.00099,   0.00009,  -0.00019,  -4.18555,   1.00000
-521479406.68118,-395262859.03200,-41333438.41291,  -0.00261,  -0.00069,  -0.00073,476631322.41250,   0.00184,276631328.41715,  -0.00100,   0.00009,  -0.00020,  -6.00465,   1.00000
-520992155.69024,-396774210.48313,-41002087.92973,  -0.00261,  -0.00071,  -0.00073,476644377.70435,   0.00185,276644378.22082,  -0.00101,   0.00008,  -0.00020,  -0.51647,   1.00000
-520502412.49616,-398274814.52895,-40659769.54992,  -0.00262,  -0.00072,  -0.00073,476657359.20383,   0.00186,276657359.63962,  -0.00102,   0.00008,  -0.00020,  -0.43579,   1.00000
-520004025.06638,-399765366.76693,-40321907.24930,  -0.00262,  -0.00073,  -0.00073,476670224.95983,   0.00188,276670231.95259,  -0.00103,   0.00007,  -0.00021,  -6.99276,   1.00000
-519500443.49982,-401249909.54296,-39975468.36678,  -0.00263,  -0.00074,  -0.00073,476683132.65349,   0.00189,276683140.41355,  -0.00105,   0.00007,  -0.00021,  -7.76006,   1.00000
-518985973.73564,-402734461.45031,-39627835.63057,  -0.00263,  -0.00076,  -0.00073,476695968.94835,   0.00190,276695977.15770,  -0.00106,   0.00006,  -0.00022,  -8.20935,   1.00000
-518468550.24204,-404202995.11259,-39277353.05735,  -0.00264,  -0.00077,  -0.00073,476708809.81804,   0.00191,276708814.32870,  -0.00107,   0.00006,  -0.00022,  -4.51066,   1.00000
-517945070.35728,-405663855.43585,-38921950.39106,  -0.00264,  -0.00078,  -0.00073,476721533.01072,   0.00192,276721534.22011,  -0.00108,   0.00006,  -0.00022,  -1.20939,   1.00000
-517414075.29280,-407122182.35609,-38559396.70639,  -0.00265,  -0.00079,  -0.00073,476734234.54332,   0.00194,276734235.60984,  -0.00109,   0.00005,  -0.00023,  -1.06652,   1.00000
-516876677.11390,-408567400.11330,-38200059.25206,  -0.00265,  -0.00081,  -0.00073,476746885.89712,   0.00195,276746887.03676,  -0.00110,   0.00005,  -0.00023,  -1.13964,   1.00000
-516334069.85445,-410006340.31708,-37832343.67689,  -0.00266,  -0.00082,  -0.00073,476759569.50529,   0.00196,276759576.79134,  -0.00111,   0.00004,  -0.00024,  -7.28604,   1.00000
-515782837.48872,-411441734.01311,-37460968.92973,  -0.00266,  -0.00083,  -0.00073,476772087.56861,   0.00197,276772096.22736,  -0.00112,   0.00004,  -0.00024,  -8.65875,   1.00000
-515225106.76322,-412869795.58746,-37085994.63917,  -0.00267,  -0.00084,  -0.00072,476784654.98784,   0.00198,276784659.73590,  -0.00113,   0.00003,  -0.00024,  -4.74806,   1.00000
-514662274.52979,-414285944.68390,-36709606.58775,  -0.00267,  -0.00086,  -0.00072,476797168.44540,   0.00199,276797169.93909,  -0.00114,   0.00003,  -0.00025,  -1.49369,   1.00000
-514090512.66804,-415698550.44198,-36330883.19460,  -0.00268,  -0.00087,  -0.00072,476809666.81043,   0.00201,276809669.68629,  -0.00115,   0.00002,  -0.00025,  -2.87585,   1.00000
-513512313.05840,-417104176.66496,-35947234.86657,  -0.00268,  -0.00088,  -0.00072,476822053.17294,   0.00202,276822057.53397,  -0.00116,   0.00002,  -0.00025,  -4.36103,   1.00000
-512932755.96558,-418495115.39931,-35556328.20515,  -0.00268,  -0.00089,  -0.00072,476834434.87433,   0.00203,276834443.58844,  -0.00117,   0.00001,  -0.00026,  -8.71411,   1.00000
-512340423.65480,-419885582.48410,-35169031.26763,  -0.00269,  -0.00091,  -0.00072,476846764.85560,   0.00204,276846770.68388,  -0.00118,   0.00000,  -0.00026,  -5.82827,   1.00000
-511746813.65170,-421261410.27183,-34774509.86372,  -0.00269,  -0.00092,  -0.00072,476859090.56517,   0.00205,276859096.62838,  -0.00119,  -0.00000,  -0.00026,  -6.06321,   1.00000
-511142581.62251,-422638590.91031,-34374181.12645,  -0.00270,  -0.00093,  -0.00071,476871355.61650,   0.00206,276871356.13224,  -0.00120,  -0.00001,  -0.00027,  -0.51574,   1.00000
-510533221.13793,-424004273.38283,-33972538.52094,  -0.00270,  -0.00095,  -0.00071,476883556.42301,   0.00208,276883565.61065,  -0.00121,  -0.00001,  -0.00027,  -9.18764,   1.00000
-509914731.86463,-425366355.88903,-33568706.59969,  -0.00271,  -0.00096,  -0.00071,476895767.83175,   0.00209,276895768.44463,  -0.00121,  -0.00002,  -0.00027,  -0.61288,   1.00000
-509292211.43241,-426717917.30926,-33158855.41419,  -0.00271,  -0.00097,  -0.00071,476907910.28388,   0.00210,276907917.95715,  -0.00122,  -0.00002,  -0.00028,  -7.67327,   1.00000
-508661739.19980,-428062333.73644,-32748791.65314,  -0.00271,  -0.00098,  -0.00071,476919957.00492,   0.00211,276919965.27640,  -0.00123,  -0.00003,  -0.00028,  -8.27148,   1.00000
-508024931.57526,-429398985.85896,-32335527.17247,  -0.00272,  -0.00100,  -0.00070,476932058.79017,   0.00212,276932061.05979,  -0.00124,  -0.00003,  -0.00028,  -2.26962,   1.00000
-507384075.36295,-430725315.91449,-31916275.68141,  -0.00272,  -0.00101,  -0.00070,476944103.13052,   0.00213,276944104.99843,  -0.00125,  -0.00004,  -0.00029,  -1.86790,   1.00000
-506731960.38354,-432052998.85143,-31491241.59062,  -0.00272,  -0.00102,  -0.00070,476956083.18151,   0.00214,276956088.25361,  -0.00126,  -0.00005,  -0.00029,  -5.07210,   1.00000
-506073681.86600,-433368717.28018,-31069709.98292,  -0.00273,  -0.00104,  -0.00070,476968022.90113,   0.00216,276968028.84736,  -0.00127,  -0.00005,  -0.00029,  -5.94622,   1.00000
-505410122.61420,-434677284.36688,-30640389.12204,  -0.00273,  -0.00105,  -0.00069,476980014.60506,   0.00217,276980015.64796,  -0.00128,  -0.00006,  -0.00029,  -1.04289,   1.00000
-504739291.14286,-435979897.98494,-30206119.02096,  -0.00274,  -0.00106,  -0.00069,476991894.78211,   0.00218,276991900.48418,  -0.00129,  -0.00006,  -0.00030,  -5.70207,   1.00000
-504063302.07032,-437271568.48490,-29770662.55000,  -0.00274,  -0.00107,  -0.00069,477003735.24042,   0.00219,277003740.14605,  -0.00130,  -0.00007,  -0.00030,  -4.90563,   1.00000
-503374651.19994,-438563761.09742,-29334159.24665,  -0.00274,  -0.00109,  -0.00068,477015524.32112,   0.00220,277015527.06413,  -0.00131,  -0.00007,  -0.00030,  -2.74301,   1.00000
-502684978.36909,-439841515.68780,-28890792.48478,  -0.00275,  -0.00110,  -0.00068,477027312.92067,   0.00221,277027318.34339,  -0.00132,  -0.00008,  -0.00031,  -5.42272,   1.00000
-501990144.13275,-441108504.29887,-28446272.47528,  -0.00275,  -0.00111,  -0.00068,477039062.31382,   0.00222,277039065.92433,  -0.00132,  -0.00009,  -0.00031,  -3.61051,   1.00000
-501283331.07377,-442376808.67640,-27995981.34959,  -0.00275,  -0.00113,  -0.00068,477050755.72650,   0.00223,277050759.51873,  -0.00133,  -0.00009,  -0.00031,  -3.79223,   1.00000
-500571278.48313,-443634361.44026,-27544548.61310,  -0.00276,  -0.00114,  -0.00067,477062405.22854,   0.00224,277062410.76323,  -0.00134,  -0.00010,  -0.00031,  -5.53468,   1.00000
-499853034.73942,-444883571.04784,-27090361.18494,  -0.00276,  -0.00115,  -0.00067,477074111.68487,   0.00226,277074115.69744,  -0.00135,  -0.00010,  -0.00032,  -4.01258,   1.00000
-499126960.18309,-446127298.40158,-26631161.48767,  -0.00276,  -0.00117,  -0.00067,477085718.44206,   0.00227,277085724.77424,  -0.00136,  -0.00011,  -0.00032,  -6.33218,   1.00000
-498395638.24406,-447360434.40393,-26170851.84031,  -0.00276,  -0.00118,  -0.00066,477097287.47818,   0.00228,277097293.03213,  -0.00137,  -0.00012,  -0.00032,  -5.55395,   1.00000
-497651839.67700,-448594755.89047,-25704774.95911,  -0.00277,  -0.00119,  -0.00066,477108802.44980,   0.00229,277108811.76916,  -0.00138,  -0.00012,  -0.00032,  -9.31937,   1.00000
-496906349.27836,-449814013.00114,-25236803.79407,  -0.00277,  -0.00121,  -0.00065,477120337.00935,   0.00230,277120341.56789,  -0.00139,  -0.00013,  -0.00033,  -4.55855,   1.00000
-496151082.58722,-451029176.01053,-24767056.35318,  -0.00277,  -0.00122,  -0.00065,477131870.29412,   0.00231,277131877.04219,  -0.00139,  -0.00014,  -0.00033,  -6.74807,   1.00000
-495387580.41066,-452239047.45043,-24292249.28885,  -0.00277,  -0.00123,  -0.00065,477143315.47958,   0.00232,277143320.73055,  -0.00140,  -0.00014,  -0.00033,  -5.25097,   1.00000
-494618730.98738,-453438464.46565,-23816374.08542,  -0.00278,  -0.00125,  -0.00064,477154724.64328,   0.00233,277154726.61124,  -0.00141,  -0.00015,  -0.00033,  -1.96796,   1.00000
-493845270.15501,-454628184.57062,-23334669.08866,  -0.00278,  -0.00126,  -0.00064,477166091.39327,   0.00234,277166092.29499,  -0.00142,  -0.00016,  -0.00034,  -0.90172,   1.00000
-493061875.21704,-455813705.78227,-22851265.58315,  -0.00278,  -0.00127,  -0.00063,477177459.30118,   0.00235,277177466.41042,  -0.00143,  -0.00016,  -0.00034,  -7.10924,   1.00000
-492269239.38737,-456995570.28252,-22361425.76723,  -0.00278,  -0.00129,  -0.00063,477188844.80415,   0.00236,277188846.88209,  -0.00144,  -0.00017,  -0.00034,  -2.07794,   1.00000
-491475763.17195,-458161058.51215,-21871213.42515,  -0.00279,  -0.00130,  -0.00063,477200141.83208,   0.00237,277200146.60090,  -0.00144,  -0.00017,  -0.00034,  -4.76882,   1.00000
-490668269.47413,-459326869.97091,-21380032.50957,  -0.00279,  -0.00131,  -0.00062,477211400.85370,   0.00238,277211407.42666,  -0.00145,  -0.00018,  -0.00034,  -6.57296,   1.00000
-489855440.56304,-460484247.62864,-20881804.50982,  -0.00279,  -0.00133,  -0.00062,477222726.03850,   0.00240,277222726.12831,  -0.00146,  -0.00019,  -0.00035,  -0.08981,   1.00000
-489037647.96119,-461630174.25093,-20383826.77001,  -0.00279,  -0.00134,  -0.00061,477233910.61422,   0.00241,277233916.62824,  -0.00147,  -0.00019,  -0.00035,  -6.01402,   1.00000
-488210366.65443,-462772272.73769,-19879491.83874,  -0.00279,  -0.00136,  -0.00061,477245115.38641,   0.00242,277245117.26410,  -0.00148,  -0.00020,  -0.00035,  -1.87769,   1.00000
-487372911.43017,-463909805.30720,-19373620.19342,  -0.00280,  -0.00137,  -0.00060,477256326.60103,   0.00243,277256331.38286,  -0.00148,  -0.00021,  -0.00035,  -4.78183,   1.00000
-486534585.26386,-465031532.35082,-18867335.35854,  -0.00280,  -0.00138,  -0.00060,477267465.93718,   0.00244,277267467.93251,  -0.00149,  -0.00022,  -0.00035,  -1.99532,   1.00000
-485686642.05959,-466149279.23319,-18354755.87729,  -0.00280,  -0.00140,  -0.00059,477278616.60190,   0.00245,277278616.89967,  -0.00150,  -0.00022,  -0.00035,  -0.29777,   1.00000
-484828744.97158,-467261586.63858,-17841778.54631,  -0.00280,  -0.00141,  -0.00059,477289682.33180,   0.00246,277289687.15594,  -0.00151,  -0.00023,  -0.00036,  -4.82413,   1.00000
-483965535.82274,-468365035.37354,-17322013.70425,  -0.00280,  -0.00142,  -0.00058,477300814.36738,   0.00247,277300819.70374,  -0.00151,  -0.00024,  -0.00036,  -5.33636,   1.00000
-483092229.47472,-469463063.86516,-16801851.90890,  -0.00281,  -0.00144,  -0.00058,477311867.66785,   0.00248,277311875.12986,  -0.00152,  -0.00024,  -0.00036,  -7.46201,   1.00000
-482213282.60086,-470551026.58291,-16280752.26335,  -0.00281,  -0.00145,  -0.00057,477322901.25025,   0.00249,277322902.06588,  -0.00153,  -0.00025,  -0.00036,  -0.81562,   1.00000
-481324453.96612,-471634633.33687,-15753461.15148,  -0.00281,  -0.00146,  -0.00057,477333939.29299,   0.00250,277333945.64153,  -0.00154,  -0.00026,  -0.00036,  -6.34854,   1.00000
-480434639.74078,-472703037.89257,-15225720.07308,  -0.00281,  -0.00148,  -0.00056,477344905.74076,   0.00251,277344915.56803,  -0.00155,  -0.00026,  -0.00036,  -9.82727,   1.00000
-479530166.32066,-473771778.40294,-14692278.02913,  -0.00281,  -0.00149,  -0.00056,477355850.31302,   0.00252,277355856.21464,  -0.00155,  -0.00027,  -0.00037,  -5.90162,   1.00000
-478619965.06382,-474830778.28550,-14157079.45195,  -0.00281,  -0.00151,  -0.00055,477366858.03112,   0.00253,277366865.06103,  -0.00156,  -0.00028,  -0.00037,  -7.02991,   1.00000
-477699210.87134,-475884480.93774,-13621417.26997,  -0.00281,  -0.00152,  -0.00054,477377799.31616,   0.00254,277377801.65621,  -0.00157,  -0.00029,  -0.00037,  -2.34006,   1.00000
-476773053.66174,-476928563.44721,-13080068.18580,  -0.00281,  -0.00153,  -0.00054,477388705.67679,   0.00255,277388712.30129,  -0.00157,  -0.00029,  -0.00037,  -6.62449,   1.00000
-475841447.20345,-477963057.20324,-12533056.87411,  -0.00281,  -0.00155,  -0.00053,477399587.99961,   0.00256,277399597.66195,  -0.00158,  -0.00030,  -0.00037,  -9.66234,   1.00000
-474903630.32151,-478987269.78545,-11989982.26408,  -0.00282,  -0.00156,  -0.00053,477410461.16968,   0.00257,277410461.31157,  -0.00159,  -0.00031,  -0.00037,  -0.14189,   1.00000
-473955583.83363,-480006673.98469,-11440883.13018,  -0.00282,  -0.00157,  -0.00052,477421344.85679,   0.00258,277421348.16208,  -0.00160,  -0.00032,  -0.00037,  -3.30529,   1.00000
-472996875.06015,-481021206.66842,-10886472.30140,  -0.00282,  -0.00159,  -0.00051,477432155.73220,   0.00259,277432165.58874,  -0.00160,  -0.00032,  -0.00037,  -9.85654,   1.00000
-472027492.56353,-482030367.32169,-10330905.98916,  -0.00282,  -0.00160,  -0.00051,477443008.10195,   0.00260,277443009.47702,  -0.00161,  -0.00033,  -0.00037,  -1.37508,   1.00000
-471062085.54671,-483020273.74337,-9774518.18258,  -0.00282,  -0.00162,  -0.00050,477453829.59292,   0.00261,277453831.89490,  -0.00162,  -0.00034,  -0.00037,  -2.30198,   1.00000
-470081012.00878,-484009860.75545,-9212494.59184,  -0.00282,  -0.00163,  -0.00050,477464625.03873,   0.00262,277464634.88543,  -0.00162,  -0.00034,  -0.00038,  -9.84671,   1.00000
-469088592.69811,-484994255.05203,-8649915.50730,  -0.00282,  -0.00164,  -0.00049,477475366.67224,   0.00263,277475373.19926,  -0.00163,  -0.00035,  -0.00038,  -6.52701,   1.00000
-468090787.71925,-485968328.83535,-8086013.80022,  -0.00282,  -0.00166,  -0.00048,477486183.23993,   0.00264,277486186.96855,  -0.00164,  -0.00036,  -0.00038,  -3.72862,   1.00000
-467091897.53008,-486928437.73768,-7516744.66912,  -0.00282,  -0.00167,  -0.00048,477496932.57959,   0.00266,277496934.47191,  -0.00164,  -0.00037,  -0.00038,  -1.89231,   1.00000
-466076703.46594,-487887684.56363,-6946667.00654,  -0.00282,  -0.00169,  -0.00047,477507666.04002,   0.00267,277507667.56906,  -0.00165,  -0.00038,  -0.00038,  -1.52904,   1.00000
-465055572.24975,-488837211.23609,-6370989.77491,  -0.00282,  -0.00170,  -0.00046,477518380.68642,   0.00268,277518383.97550,  -0.00166,  -0.00038,  -0.00038,  -3.28908,   1.00000
-464023576.55441,-489780938.47147,-5794354.99389,  -0.00282,  -0.00171,  -0.00045,477529128.05401,   0.00269,277529133.35924,  -0.00166,  -0.00039,  -0.00038,  -5.30523,   1.00000
-462990113.52371,-490710666.28513,-5217117.02365,  -0.00282,  -0.00173,  -0.00045,477539810.97513,   0.00270,277539820.01853,  -0.00167,  -0.00040,  -0.00038,  -9.04340,   1.00000
-461945922.43927,-491634738.65278,-4634148.33015,  -0.00282,  -0.00174,  -0.00044,477550536.22684,   0.00271,277550540.45254,  -0.00168,  -0.00041,  -0.00038,  -4.22570,   1.00000
-460889688.76406,-492553599.75626,-4050552.00185,  -0.00282,  -0.00176,  -0.00043,477561199.70655,   0.00272,277561203.01305,  -0.00168,  -0.00041,  -0.00038,  -3.30650,   1.00000
-459833069.51320,-493457871.73080,-3466087.75796,  -0.00282,  -0.00177,  -0.00043,477571896.62985,   0.00273,277571897.97538,  -0.00169,  -0.00042,  -0.00038,  -1.34553,   1.00000
-458759676.33094,-494360914.49593,-2876062.16603,  -0.00282,  -0.00178,  -0.00042,477582575.56621,   0.00274,277582584.92537,  -0.00170,  -0.00043,  -0.00038,  -9.35916,   1.00000
-457680051.50861,-495254080.06644,-2280510.88081,  -0.00282,  -0.00180,  -0.00041,477593260.72125,   0.00275,277593260.84025,  -0.00170,  -0.00044,  -0.00038,  -0.11900,   1.00000
-456594011.86084,-496137223.94147,-1689057.65767,  -0.00282,  -0.00181,  -0.00040,477603925.73962,   0.00276,277603927.04252,  -0.00171,  -0.00045,  -0.00038,  -1.30290,   1.00000
-455495529.56798,-497015162.33103,-1092098.74180,  -0.00282,  -0.00183,  -0.00040,477614533.39807,   0.00277,277614539.47049,  -0.00171,  -0.00045,  -0.00038,  -6.07243,   1.00000
-454396819.39714,-497878526.78132,-494398.12858,  -0.00282,  -0.00184,  -0.00039,477625178.54604,   0.00278,277625187.47430,  -0.00172,  -0.00046,  -0.00038,  -8.92825,   1.00000
-453280848.94873,-498740231.67678,108816.19613,  -0.00282,  -0.00186,  -0.00038,477635830.54483,   0.00279,277635832.70793,  -0.00173,  -0.00047,  -0.00038,  -2.16310,   1.00000
-452163002.85472,-499588424.71975,712738.29846,  -0.00282,  -0.00187,  -0.00037,477646414.13860,   0.00280,277646421.66891,  -0.00173,  -0.00048,  -0.00038,  -7.53031,   1.00000
-451034041.48059,-500430158.76307,1322126.09713,  -0.00282,  -0.00188,  -0.00036,477657050.02702,   0.00281,277657053.82507,  -0.00174,  -0.00049,  -0.00038,  -3.79805,   1.00000
-449894031.59710,-501265366.39627,1927315.22797,  -0.00281,  -0.00190,  -0.00036,477667723.69402,   0.00282,277667729.96094,  -0.00174,  -0.00049,  -0.00038,  -6.26692,   1.00000
-448745519.45917,-502091735.11909,2538133.71333,  -0.00281,  -0.00191,  -0.00035,477678303.44872,   0.00283,277678308.30849,  -0.00175,  -0.00050,  -0.00038,  -4.85978,   1.00000
-447596907.95268,-502903476.31340,3154348.44362,  -0.00281,  -0.00193,  -0.00034,477688923.08979,   0.00284,277688926.41438,  -0.00176,  -0.00051,  -0.00038,  -3.32460,   1.00000
-446430522.40175,-503713082.58371,3771187.47907,  -0.00281,  -0.00194,  -0.00033,477699541.41117,   0.00285,277699547.85850,  -0.00176,  -0.00052,  -0.00038,  -6.44732,   1.00000
-445257509.85347,-504512644.58449,4388667.38194,  -0.00281,  -0.00196,  -0.00032,477710159.00171,   0.00286,277710166.95316,  -0.00177,  -0.00053,  -0.00038,  -7.95146,   1.00000
-444077858.64041,-505302195.07619,5006791.70325,  -0.00281,  -0.00197,  -0.00031,477720776.20427,   0.00287,277720784.32051,  -0.00177,  -0.00054,  -0.00038,  -8.11624,   1.00000
-442891404.73301,-506081587.02819,5630360.44994,  -0.00281,  -0.00198,  -0.00031,477731396.29222,   0.00288,277731401.25579,  -0.00178,  -0.00054,  -0.00038,  -4.96357,   1.00000
-441686875.51949,-506858485.46848,6254516.14658,  -0.00281,  -0.00200,  -0.00030,477742018.70585,   0.00289,277742025.67221,  -0.00178,  -0.00055,  -0.00038,  -6.96635,   1.00000
-440486852.83014,-507617590.16698,6884118.17168,  -0.00280,  -0.00201,  -0.00029,477752638.79780,   0.00290,277752643.75084,  -0.00179,  -0.00056,  -0.00038,  -4.95304,   1.00000
-439268608.62878,-508374091.44467,7514271.51564,  -0.00280,  -0.00203,  -0.00028,477763268.15303,   0.00291,277763271.19374,  -0.00180,  -0.00057,  -0.00038,  -3.04071,   1.00000
-438043578.30110,-509120468.96435,8145012.83777,  -0.00280,  -0.00204,  -0.00027,477773900.60594,   0.00292,277773900.92022,  -0.00180,  -0.00058,  -0.00038,  -0.31428,   1.00000
-436811740.79579,-509856737.81453,8776344.31830,  -0.00280,  -0.00206,  -0.00026,477784526.17208,   0.00293,277784533.60110,  -0.00181,  -0.00059,  -0.00038,  -7.42903,   1.00000
-435565602.88830,-510587004.44547,9413313.75546,  -0.00280,  -0.00207,  -0.00025,477795121.92717,   0.00294,277795128.67865,  -0.00181,  -0.00060,  -0.00038,  -6.75148,   1.00000
-434319876.43198,-511302751.05798,10050588.91601,  -0.00280,  -0.00208,  -0.00024,477805769.80316,   0.00295,277805770.56346,  -0.00182,  -0.00060,  -0.00037,  -0.76030,   1.00000
-433059608.41519,-512012392.92049,10693502.14887,  -0.00279,  -0.00210,  -0.00023,477816367.99888,   0.00296,277816376.74194,  -0.00182,  -0.00061,  -0.00037,  -8.74307,   1.00000
-431788393.68045,-512714900.21361,11331800.02545,  -0.00279,  -0.00211,  -0.00023,477827031.16753,   0.00297,277827039.29583,  -0.00183,  -0.00062,  -0.00037,  -8.12829,   1.00000
-430509958.60387,-513406819.02942,11975445.82687,  -0.00279,  -0.00213,  -0.00022,477837704.43946,   0.00298,277837710.12284,  -0.00183,  -0.00063,  -0.00037,  -5.68338,   1.00000
-429228490.31625,-514085531.21567,12624818.48188,  -0.00279,  -0.00214,  -0.00021,477848335.74309,   0.00299,277848338.18229,  -0.00184,  -0.00064,  -0.00037,  -2.43920,   1.00000
-427928464.80605,-514761270.19424,13269831.30629,  -0.00279,  -0.00216,  -0.00020,477858976.53608,   0.00300,277858983.33571,  -0.00184,  -0.00065,  -0.00037,  -6.79963,   1.00000
-426628781.84918,-515422083.55446,13919805.49434,  -0.00278,  -0.00217,  -0.00019,477869677.87016,   0.00301,277869680.94084,  -0.00185,  -0.00066,  -0.00037,  -3.07068,   1.00000
-425313915.09994,-516076382.55379,14575437.01014,  -0.00278,  -0.00218,  -0.00018,477880343.12471,   0.00302,277880348.67531,  -0.00185,  -0.00067,  -0.00037,  -5.55060,   1.00000
-423988199.10860,-516723263.97467,15226257.92374,  -0.00278,  -0.00220,  -0.00017,477891070.40929,   0.00303,277891078.00355,  -0.00186,  -0.00067,  -0.00037,  -7.59426,   1.00000
-422651215.94911,-517361028.49706,15883279.63459,  -0.00278,  -0.00221,  -0.00016,477901718.02127,   0.00304,277901726.96988,  -0.00186,  -0.00068,  -0.00036,  -8.94861,   1.00000
-421315060.40500,-517984314.61628,16540358.62616,  -0.00277,  -0.00223,  -0.00015,477912427.02153,   0.00305,277912429.58009,  -0.00187,  -0.00069,  -0.00036,  -2.55856,   1.00000
-419959645.14953,-518603660.26192,17197781.41006,  -0.00277,  -0.00224,  -0.00014,477923154.81741,   0.00306,277923157.03022,  -0.00187,  -0.00070,  -0.00036,  -2.21281,   1.00000
-418604755.62143,-519207938.69624,17859985.19837,  -0.00277,  -0.00226,  -0.00013,477933938.90086,   0.00307,277933941.69344,  -0.00188,  -0.00071,  -0.00036,  -2.79258,   1.00000
-417238512.02867,-519803632.10976,18523687.70358,  -0.00277,  -0.00227,  -0.00012,477944639.97856,   0.00308,277944646.83177,  -0.00188,  -0.00072,  -0.00036,  -6.85321,   1.00000
-415861063.70772,-520391110.43915,19187198.11125,  -0.00276,  -0.00229,  -0.00011,477955413.31281,   0.00309,277955420.75254,  -0.00188,  -0.00073,  -0.00036,  -7.43973,   1.00000
-414467563.20330,-520971418.01783,19856401.15243,  -0.00276,  -0.00230,  -0.00010,477966165.34536,   0.00310,277966172.72966,  -0.00189,  -0.00074,  -0.00035,  -7.38430,   1.00000
-413075179.64165,-521537230.49905,20525484.11203,  -0.00276,  -0.00231,  -0.00009,477976974.49615,   0.00311,277976982.68494,  -0.00189,  -0.00075,  -0.00035,  -8.18879,   1.00000
-411667056.12171,-522096440.47953,21195479.90174,  -0.00275,  -0.00233,  -0.00008,477987759.98792,   0.00312,277987769.95589,  -0.00190,  -0.00076,  -0.00035,  -9.96796,   1.00000
-410251627.68139,-522645088.07156,21865866.00006,  -0.00275,  -0.00234,  -0.00006,477998573.54108,   0.00313,277998575.93283,  -0.00190,  -0.00077,  -0.00035,  -2.39174,   1.00000
-408828869.30318,-523183157.00410,22536638.34196,  -0.00275,  -0.00236,  -0.00005,478009395.13288,   0.00314,278009401.34519,  -0.00191,  -0.00077,  -0.00035,  -6.21231,   1.00000
-407394455.14618,-523711861.96177,23211780.69967,  -0.00274,  -0.00237,  -0.00004,478020300.90317,   0.00315,278020304.08753,  -0.00191,  -0.00078,  -0.00034,  -3.18436,   1.00000
-405947679.71306,-524231705.30183,23888631.41044,  -0.00274,  -0.00239,  -0.00003,478031123.71558,   0.00316,278031133.40976,  -0.00192,  -0.00079,  -0.00034,  -9.69419,   1.00000
-404502332.01477,-524737162.25869,24565231.90257,  -0.00274,  -0.00240,  -0.00002,478042019.16517,   0.00317,278042024.55095,  -0.00192,  -0.00080,  -0.00034,  -5.38578,   1.00000
-403036431.43781,-525236710.27471,25246691.97548,  -0.00273,  -0.00242,  -0.00001,478052950.92091,   0.00318,278052956.18018,  -0.00192,  -0.00081,  -0.00034,  -5.25927,   1.00000
-401566741.29210,-525723633.35189,25929305.35760,  -0.00273,  -0.00243,   0.00000,478063852.15815,   0.00320,278063856.43139,  -0.00193,  -0.00082,  -0.00034,  -4.27324,   1.00000
-400076957.52920,-526205205.26517,26611968.84650,  -0.00273,  -0.00244,   0.00001,478074788.17976,   0.00321,278074796.46682,  -0.00193,  -0.00083,  -0.00033,  -8.28706,   1.00000
-398592372.82497,-526670562.23783,27295175.84539,  -0.00272,  -0.00246,   0.00002,478085736.63727,   0.00322,278085745.98395,  -0.00194,  -0.00084,  -0.00033,  -9.34668,   1.00000
-397087628.62344,-527130444.76952,27978402.74819,  -0.00272,  -0.00247,   0.00003,478096732.24252,   0.00323,278096737.08339,  -0.00194,  -0.00085,  -0.00033,  -4.84087,   1.00000
-395587452.02609,-527573280.69376,28666921.10645,  -0.00271,  -0.00249,   0.00005,478107734.65084,   0.00324,278107742.08353,  -0.00194,  -0.00086,  -0.00033,  -7.43269,   1.00000
-394067020.87829,-528010465.34846,29355390.90196,  -0.00271,  -0.00250,   0.00006,478118786.82393,   0.00325,278118790.76105,  -0.00195,  -0.00087,  -0.00032,  -3.93712,   1.00000
-392529678.38558,-528440091.69928,30044790.15228,  -0.00271,  -0.00252,   0.00007,478129823.30508,   0.00326,278129828.59764,  -0.00195,  -0.00088,  -0.00032,  -5.29256,   1.00000
-390997600.28061,-528853690.23949,30734726.47777,  -0.00270,  -0.00253,   0.00008,478140874.17509,   0.00327,278140878.44978,  -0.00195,  -0.00089,  -0.00032,  -4.27468,   1.00000
-389445116.27386,-529261301.21980,31424565.28718,  -0.00270,  -0.00255,   0.00009,478151967.97263,   0.00328,278151975.20246,  -0.00196,  -0.00090,  -0.00032,  -7.22983,   1.00000
-387893962.59441,-529653522.52772,32118592.95961,  -0.00269,  -0.00256,   0.00010,478163140.07770,   0.00329,278163145.45447,  -0.00196,  -0.00091,  -0.00031,  -5.37678,   1.00000
-386325580.93882,-530037967.90844,32813535.65284,  -0.00269,  -0.00257,   0.00012,478174299.19067,   0.00330,278174308.13889,  -0.00196,  -0.00092,  -0.00031,  -8.94822,   1.00000
-384752788.24085,-530409781.98390,33509763.73229,  -0.00268,  -0.00259,   0.00013,478185440.12858,   0.00331,278185445.96743,  -0.00197,  -0.00093,  -0.00031,  -5.83885,   1.00000
-383159408.26513,-530775164.42533,34205783.39708,  -0.00268,  -0.00260,   0.00014,478196629.26793,   0.00332,278196635.10520,  -0.00197,  -0.00094,  -0.00030,  -5.83728,   1.00000
-381568319.51025,-531126242.14720,34901156.12026,  -0.00268,  -0.00262,   0.00015,478207896.19471,   0.00333,278207896.51248,  -0.00197,  -0.00095,  -0.00030,  -0.31777,   1.00000
-379961895.40128,-531466559.24564,35603367.40942,  -0.00267,  -0.00263,   0.00016,478219095.88873,   0.00334,278219100.84927,  -0.00198,  -0.00096,  -0.00030,  -4.96054,   1.00000
-378344801.15031,-531797087.47266,36304459.33994,  -0.00267,  -0.00265,   0.00018,478230393.00489,   0.00335,278230398.16013,  -0.00198,  -0.00097,  -0.00030,  -5.15524,   1.00000
-376720073.15694,-532116329.07302,37005629.77778,  -0.00266,  -0.00266,   0.00019,478241726.19595,   0.00337,278241731.60890,  -0.00198,  -0.00098,  -0.00029,  -5.41295,   1.00000
-375090599.60774,-532422875.78345,37708142.21759,  -0.00266,  -0.00268,   0.00020,478253042.66426,   0.00338,278253043.73324,  -0.00199,  -0.00099,  -0.00029,  -1.06898,   1.00000
-373440333.62376,-532722378.98747,38410277.25397,  -0.00265,  -0.00269,   0.00021,478264405.02022,   0.00339,278264413.56022,  -0.00199,  -0.00100,  -0.00029,  -8.53999,   1.00000
-371792745.87166,-533007669.36842,39111606.02093,  -0.00265,  -0.00271,   0.00023,478275851.05231,   0.00340,278275859.62457,  -0.00199,  -0.00101,  -0.00028,  -8.57226,   1.00000
-370129010.33638,-533281702.57556,39819867.91100,  -0.00264,  -0.00272,   0.00024,478287252.00556,   0.00341,278287253.32513,  -0.00200,  -0.00101,  -0.00028,  -1.31957,   1.00000
-368454849.10613,-533545611.27464,40526764.98840,  -0.00264,  -0.00273,   0.00025,478298738.74817,   0.00342,278298745.82659,  -0.00200,  -0.00103,  -0.00028,  -7.07842,   1.00000
-366765995.16594,-533800746.68611,41231246.35276,  -0.00263,  -0.00275,   0.00026,478310168.53237,   0.00343,278310177.27943,  -0.00200,  -0.00103,  -0.00027,  -8.74706,   1.00000
-365076554.16033,-534041640.60596,41938103.77040,  -0.00262,  -0.00276,   0.00028,478321749.46547,   0.00344,278321752.07887,  -0.00201,  -0.00105,  -0.00027,  -2.61341,   1.00000
-363371299.26899,-534272268.85681,42647263.01862,  -0.00262,  -0.00278,   0.00029,478333269.83693,   0.00345,278333272.43830,  -0.00201,  -0.00106,  -0.00026,  -2.60137,   1.00000
-361668153.93482,-534487337.93898,43360124.86967,  -0.00261,  -0.00279,   0.00030,478344876.06739,   0.00346,278344878.56217,  -0.00201,  -0.00107,  -0.00026,  -2.49478,   1.00000
-359944963.26627,-534696065.43680,44067671.74316,  -0.00261,  -0.00281,   0.00032,478356543.19835,   0.00348,278356545.15783,  -0.00201,  -0.00108,  -0.00026,  -1.95949,   1.00000
-358205577.84415,-534894251.77585,44777580.75388,  -0.00260,  -0.00282,   0.00033,478368150.33313,   0.00349,278368159.54268,  -0.00202,  -0.00109,  -0.00025,  -9.20955,   1.00000
-356468491.52382,-535076824.10743,45491110.63982,  -0.00260,  -0.00284,   0.00034,478379857.69571,   0.00350,278379862.04501,  -0.00202,  -0.00110,  -0.00025,  -4.34930,   1.00000
-354712639.46764,-535249970.97271,46205455.75258,  -0.00259,  -0.00285,   0.00036,478391566.05190,   0.00351,278391573.93374,  -0.00202,  -0.00111,  -0.00025,  -7.88184,   1.00000
-352961131.55232,-535410672.73538,46914051.34831,  -0.00259,  -0.00286,   0.00037,478403361.83342,   0.00352,278403363.00744,  -0.00202,  -0.00112,  -0.00024,  -1.17402,   1.00000
-351189795.99331,-535560248.87101,47628122.03362,  -0.00258,  -0.00288,   0.00038,478415167.46735,   0.00353,278415169.07279,  -0.00203,  -0.00113,  -0.00024,  -1.60544,   1.00000
-349410754.78767,-535697981.33015,48342010.79305,  -0.00257,  -0.00289,   0.00040,478427023.47404,   0.00354,278427023.49114,  -0.00203,  -0.00114,  -0.00023,  -0.01710,   1.00000
-347612689.41333,-535825894.46593,49056684.77787,  -0.00257,  -0.00291,   0.00041,478438884.03115,   0.00355,278438890.90298,  -0.00203,  -0.00115,  -0.00023,  -6.87183,   1.00000
-345818323.12653,-535939837.43738,49770151.59664,  -0.00256,  -0.00292,   0.00042,478450843.92548,   0.00357,278450844.35683,  -0.00203,  -0.00116,  -0.00022,  -0.43134,   1.00000
-344005749.22004,-536040929.44863,50490707.17211,  -0.00255,  -0.00294,   0.00044,478462753.54016,   0.00358,278462757.76143,  -0.00203,  -0.00117,  -0.00022,  -4.22127,   1.00000
-342184565.32413,-536132902.21327,51204649.40968,  -0.00255,  -0.00295,   0.00045,478474774.51312,   0.00359,278474777.45425,  -0.00204,  -0.00118,  -0.00022,  -2.94112,   1.00000
-340357531.78784,-536211664.08579,51920078.69740,  -0.00254,  -0.00297,   0.00046,478486784.93570,   0.00360,278486787.47809,  -0.00204,  -0.00119,  -0.00021,  -2.54238,   1.00000
-338520037.16070,-536277804.60133,52638057.46642,  -0.00254,  -0.00298,   0.00048,478498915.57528,   0.00361,278498919.26815,  -0.00204,  -0.00120,  -0.00021,  -3.69287,   1.00000
-336665876.38230,-536334172.60091,53353931.34444,  -0.00253,  -0.00299,   0.00049,478510991.23952,   0.00362,278511000.12446,  -0.00204,  -0.00121,  -0.00020,  -8.88494,   1.00000
-334814817.87284,-536374913.44435,54073048.28685,  -0.00252,  -0.00301,   0.00051,478523170.53234,   0.00364,278523177.90818,  -0.00204,  -0.00122,  -0.00020,  -7.37584,   1.00000
-332945262.08116,-536406980.00759,54788259.78421,  -0.00252,  -0.00302,   0.00052,478535362.78201,   0.00365,278535368.09697,  -0.00205,  -0.00123,  -0.00019,  -5.31496,   1.00000
-331067022.15010,-536424971.48716,55507697.57482,  -0.00251,  -0.00304,   0.00053,478547613.87275,   0.00366,278547621.68655,  -0.00205,  -0.00124,  -0.00019,  -7.81380,   1.00000
-329181157.17075,-536430721.57403,56226729.46558,  -0.00250,  -0.00305,   0.00055,478559926.16830,   0.00367,278559931.99112,  -0.00205,  -0.00125,  -0.00018,  -5.82281,   1.00000
-327276974.20226,-536424419.27446,56948309.44329,  -0.00249,  -0.00307,   0.00056,478572193.56533,   0.00368,278572202.07852,  -0.00205,  -0.00126,  -0.00018,  -8.51320,   1.00000
-325377021.87324,-536407517.82375,57661885.41644,  -0.00249,  -0.00308,   0.00058,478584611.08812,   0.00370,278584620.28994,  -0.00205,  -0.00127,  -0.00017,  -9.20183,   1.00000
-323457501.38333,-536376499.16450,58382621.21825,  -0.00248,  -0.00309,   0.00059,478597005.02361,   0.00371,278597007.22123,  -0.00205,  -0.00128,  -0.00017,  -2.19763,   1.00000
-321529176.60201,-536334243.22223,59100884.81471,  -0.00247,  -0.00311,   0.00061,478609515.16876,   0.00372,278609517.58051,  -0.00206,  -0.00130,  -0.00016,  -2.41175,   1.00000
-319594460.44817,-536278363.73796,59820646.39834,  -0.00247,  -0.00312,   0.00062,478622019.40603,   0.00373,278622024.68199,  -0.00206,  -0.00131,  -0.00016,  -5.27596,   1.00000
-317639766.48417,-536211120.01699,60540963.53452,  -0.00246,  -0.00314,   0.00063,478634554.05001,   0.00374,278634559.06332,  -0.00206,  -0.00132,  -0.00015,  -5.01331,   1.00000
-315690023.11151,-536130290.14065,61259642.08676,  -0.00245,  -0.00315,   0.00065,478647183.48587,   0.00376,278647189.36148,  -0.00206,  -0.00133,  -0.00015,  -5.87561,   1.00000
-313721315.89549,-536040022.24126,61974318.92987,  -0.00244,  -0.00317,   0.00066,478659834.28934,   0.00377,278659839.85446,  -0.00206,  -0.00134,  -0.00014,  -5.56512,   1.00000
-311744916.98876,-535933867.08082,62695055.68859,  -0.00244,  -0.00318,   0.00068,478672491.65932,   0.00378,278672497.91371,  -0.00206,  -0.00135,  -0.00014,  -6.25439,   1.00000
-309760213.29778,-535816332.56452,63413055.39591,  -0.00243,  -0.00319,   0.00069,478685280.01757,   0.00379,278685284.79986,  -0.00206,  -0.00136,  -0.00013,  -4.78230,   1.00000
-307768836.52143,-535684946.99487,64132560.95379,  -0.00242,  -0.00321,   0.00071,478698070.20237,   0.00380,278698071.69729,  -0.00207,  -0.00137,  -0.00013,  -1.49491,   1.00000
-305770019.70489,-535540929.94531,64851409.16063,  -0.00241,  -0.00322,   0.00072,478710922.90151,   0.00382,278710924.04668,  -0.00207,  -0.00138,  -0.00012,  -1.14517,   1.00000
-303750911.58900,-535384876.10949,65570679.23292,  -0.00241,  -0.00324,   0.00074,478723803.05757,   0.00383,278723809.89291,  -0.00207,  -0.00139,  -0.00011,  -6.83533,   1.00000
-301724432.84299,-535216052.92307,66289235.16482,  -0.00240,  -0.00325,   0.00075,478736759.35790,   0.00384,278736763.04616,  -0.00207,  -0.00141,  -0.00011,  -3.68825,   1.00000
-299692175.57416,-535035382.83553,67004809.80395,  -0.00239,  -0.00327,   0.00077,478749701.52032,   0.00385,278749709.09481,  -0.00207,  -0.00142,  -0.00010,  -7.57449,   1.00000
-297651067.31303,-534840989.95763,67721880.92580,  -0.00238,  -0.00328,   0.00078,478762791.34472,   0.00387,278762798.75756,  -0.00207,  -0.00143,  -0.00010,  -7.41284,   1.00000
-295603033.00252,-534632493.34230,68440447.48754,  -0.00237,  -0.00329,   0.00080,478775891.24860,   0.00388,278775891.77778,  -0.00207,  -0.00144,  -0.00009,  -0.52917,   1.00000
-293548818.65612,-534413463.47220,69153749.06305,  -0.00237,  -0.00331,   0.00081,478789036.03465,   0.00389,278789044.76424,  -0.00207,  -0.00145,  -0.00009,  -8.72959,   1.00000
-291472999.72758,-534179527.00650,69871826.81635,  -0.00236,  -0.00332,   0.00083,478802238.98955,   0.00391,278802246.39175,  -0.00207,  -0.00146,  -0.00008,  -7.40220,   1.00000
-289389982.74183,-533932629.56518,70589035.68372,  -0.00235,  -0.00334,   0.00084,478815513.99971,   0.00392,278815519.80253,  -0.00207,  -0.00147,  -0.00007,  -5.80282,   1.00000
-287300967.77645,-533673751.96039,71303280.61418,  -0.00234,  -0.00335,   0.00086,478828787.43940,   0.00393,278828788.74064,  -0.00207,  -0.00148,  -0.00007,  -1.30124,   1.00000
-285204808.90651,-533403311.12112,72014261.55133,  -0.00233,  -0.00337,   0.00088,478842194.79942,   0.00394,278842197.06556,  -0.00207,  -0.00149,  -0.00006,  -2.26614,   1.00000
-283100390.89886,-533116104.28926,72731169.90255,  -0.00232,  -0.00338,   0.00089,478855618.83208,   0.00396,278855622.47575,  -0.00207,  -0.00151,  -0.00005,  -3.64366,   1.00000
-280976429.25389,-532818177.80900,73443811.30346,  -0.00231,  -0.00339,   0.00091,478869079.82659,   0.00397,278869080.86314,  -0.00208,  -0.00152,  -0.00005,  -1.03655,   1.00000
-278845196.71146,-532505683.17333,74157932.91316,  -0.00231,  -0.00341,   0.00092,478882544.48076,   0.00398,278882547.35202,  -0.00208,  -0.00153,  -0.00004,  -2.87126,   1.00000
-276720938.43055,-532181850.12701,74867476.11615,  -0.00230,  -0.00342,   0.00094,478896184.29013,   0.00400,278896187.19035,  -0.00208,  -0.00154,  -0.00003,  -2.90022,   1.00000
-274575618.11736,-531843174.77266,75579620.14254,  -0.00229,  -0.00344,   0.00095,478909804.76992,   0.00401,278909805.41720,  -0.00208,  -0.00155,  -0.00003,  -0.64728,   1.00000
-272409539.48640,-531490923.92005,76291828.83538,  -0.00228,  -0.00345,   0.00097,478923470.95069,   0.00402,278923471.03618,  -0.00208,  -0.00156,  -0.00002,  -0.08549,   1.00000
-270250462.87930,-531125926.81622,77001833.39631,  -0.00227,  -0.00346,   0.00099,478937242.54099,   0.00404,278937244.68769,  -0.00208,  -0.00157,  -0.00002,  -2.14670,   1.00000
-268084568.53221,-530747810.31643,77710737.31573,  -0.00226,  -0.00348,   0.00100,478951096.03711,   0.00405,278951096.73130,  -0.00208,  -0.00159,  -0.00001,  -0.69418,   1.00000
-265897231.86890,-530354294.85802,78422190.89227,  -0.00225,  -0.00349,   0.00102,478964922.67220,   0.00406,278964930.67516,  -0.00208,  -0.00160,  -0.00000,  -8.00295,   1.00000
-263704228.30814,-529950096.01675,79128113.79155,  -0.00224,  -0.00351,   0.00103,478978828.71841,   0.00408,278978833.15995,  -0.00208,  -0.00161,   0.00001,  -4.44154,   1.00000
-261503415.76224,-529530034.18988,79837223.58286,  -0.00223,  -0.00352,   0.00105,478992826.33810,   0.00409,278992828.21759,  -0.00208,  -0.00162,   0.00001,  -1.87949,   1.00000
-259297047.62660,-529099314.06555,80540757.60851,  -0.00222,  -0.00353,   0.00107,479006882.95943,   0.00410,279006892.91425,  -0.00208,  -0.00163,   0.00002,  -9.95482,   1.00000
-257084104.60853,-528655367.88997,81243075.51475,  -0.00222,  -0.00355,   0.00108,479021038.05371,   0.00412,279021039.42918,  -0.00208,  -0.00164,   0.00003,  -1.37547,   1.00000
-254849308.36168,-528195396.96548,81947907.88958,  -0.00221,  -0.00356,   0.00110,479035170.49786,   0.00413,279035171.75488,  -0.00208,  -0.00166,   0.00003,  -1.25702,   1.00000
-252622333.42998,-527723134.88426,82650350.13988,  -0.00220,  -0.00358,   0.00112,479049414.81539,   0.00414,279049415.77040,  -0.00208,  -0.00167,   0.00004,  -0.95501,   1.00000
-250374502.70668,-527236424.88790,83352572.04624,  -0.00219,  -0.00359,   0.00113,479063707.08310,   0.00416,279063716.08560,  -0.00208,  -0.00168,   0.00005,  -9.00250,   1.00000
-248120104.38377,-526737229.72580,84051860.55926,  -0.00218,  -0.00360,   0.00115,479078015.30299,   0.00417,279078019.63734,  -0.00207,  -0.00169,   0.00006,  -4.33435,   1.00000
-245859590.45733,-526223768.98181,84751351.23391,  -0.00217,  -0.00362,   0.00117,479092483.28314,   0.00419,279092490.81346,  -0.00207,  -0.00170,   0.00006,  -7.53032,   1.00000
-243577933.98847,-525696402.91500,85448976.80664,  -0.00216,  -0.00363,   0.00118,479106937.06996,   0.00420,279106939.13079,  -0.00207,  -0.00171,   0.00007,  -2.06084,   1.00000
-241303157.40967,-525155071.82258,86146878.49083,  -0.00215,  -0.00365,   0.00120,479121425.42105,   0.00421,279121432.04190,  -0.00207,  -0.00173,   0.00008,  -6.62085,   1.00000
-239023718.87450,-524602331.72546,86840543.15809,  -0.00214,  -0.00366,   0.00121,479136081.07208,   0.00423,279136081.90419,  -0.00207,  -0.00174,   0.00009,  -0.83211,   1.00000
-236721821.69525,-524032602.56750,87536615.13974,  -0.00213,  -0.00367,   0.00123,479150721.67667,   0.00424,279150723.90797,  -0.00207,  -0.00175,   0.00009,  -2.23130,   1.00000
-234414901.94944,-523452199.64432,88226904.47006,  -0.00212,  -0.00369,   0.00125,479165436.49423,   0.00426,279165441.75359,  -0.00207,  -0.00176,   0.00010,  -5.25936,   1.00000
-232100939.20180,-522855487.24959,88919926.95333,  -0.00211,  -0.00370,   0.00127,479180255.32786,   0.00427,279180262.89882,  -0.00207,  -0.00177,   0.00011,  -7.57096,   1.00000
-229780223.91288,-522246053.28703,89609989.73937,  -0.00210,  -0.00371,   0.00128,479195082.60905,   0.00429,279195090.75843,  -0.00207,  -0.00179,   0.00012,  -8.14939,   1.00000
-227453597.54559,-521623145.41676,90298470.42446,  -0.00209,  -0.00373,   0.00130,479210001.11204,   0.00430,279210009.55207,  -0.00207,  -0.00180,   0.00013,  -8.44003,   1.00000
-225106177.63413,-520984775.70439,90986371.50064,  -0.00208,  -0.00374,   0.00132,479224994.81659,   0.00432,279224995.03465,  -0.00207,  -0.00181,   0.00013,  -0.21805,   1.00000
-222768041.09665,-520334909.32147,91671574.84904,  -0.00206,  -0.00376,   0.00133,479240088.50970,   0.00433,279240098.07234,  -0.00207,  -0.00182,   0.00014,  -9.56265,   1.00000
-220408010.90664,-519670121.62172,92354849.10631,  -0.00205,  -0.00377,   0.00135,479255175.45902,   0.00434,279255184.69380,  -0.00206,  -0.00184,   0.00015,  -9.23478,   1.00000
-218042349.72598,-518991780.57533,93036425.78279,  -0.00204,  -0.00378,   0.00137,479270358.79655,   0.00436,279270365.17887,  -0.00206,  -0.00185,   0.00016,  -6.38232,   1.00000
-215671144.20138,-518299909.74385,93716273.82421,  -0.00203,  -0.00380,   0.00138,479285639.51590,   0.00437,279285640.12043,  -0.00206,  -0.00186,   0.00017,  -0.60453,   1.00000
-213294477.83554,-517594521.83793,94394359.74072,  -0.00202,  -0.00381,   0.00140,479301007.19526,   0.00439,279301010.16571,  -0.00206,  -0.00187,   0.00017,  -2.97045,   1.00000
-210909952.71622,-516873203.22005,95073649.24176,  -0.00201,  -0.00382,   0.00142,479316398.47884,   0.00440,279316405.05850,  -0.00206,  -0.00188,   0.00018,  -6.57966,   1.00000
-208521056.25795,-516141391.87451,95746941.70235,  -0.00200,  -0.00384,   0.00144,479331878.38180,   0.00442,279331881.24277,  -0.00206,  -0.00190,   0.00019,  -2.86097,   1.00000
-206108909.73644,-515390949.48278,96422407.74153,  -0.00199,  -0.00385,   0.00145,479347357.28863,   0.00443,279347360.46313,  -0.00206,  -0.00191,   0.00020,  -3.17450,   1.00000
-203709657.37762,-514632176.83676,97091978.68553,  -0.00198,  -0.00387,   0.00147,479363029.96889,   0.00445,279363031.21072,  -0.00205,  -0.00192,   0.00021,  -1.24184,   1.00000
-201287098.20163,-513854588.67096,97763673.03025,  -0.00197,  -0.00388,   0.00149,479378704.61938,   0.00446,279378706.56181,  -0.00205,  -0.00193,   0.00022,  -1.94242,   1.00000
-198857586.55615,-513063837.16301,98432347.31274,  -0.00196,  -0.00389,   0.00151,479394394.33559,   0.00448,279394394.42586,  -0.00205,  -0.00195,   0.00023,  -0.09028,   1.00000
-196426020.28457,-512262232.53198,99095978.17829,  -0.00194,  -0.00391,   0.00152,479410245.32072,   0.00450,279410253.30808,  -0.00205,  -0.00196,   0.00024,  -7.98736,   1.00000
-193986594.51882,-511444394.48586,99760729.99197,  -0.00193,  -0.00392,   0.00154,479426137.04048,   0.00451,279426140.89794,  -0.00205,  -0.00197,   0.00025,  -3.85747,   1.00000
-191539258.94948,-510610236.61543,100426568.31665,  -0.00192,  -0.00393,   0.00156,479442052.80057,   0.00453,279442057.99479,  -0.00205,  -0.00198,   0.00025,  -5.19422,   1.00000
-189091232.16917,-509768548.95074,101083116.83798,  -0.00191,  -0.00395,   0.00158,479458125.45984,   0.00454,279458131.98929,  -0.00204,  -0.00200,   0.00026,  -6.52946,   1.00000
-186619656.07615,-508907291.21873,101741653.74070,  -0.00190,  -0.00396,   0.00160,479474207.59135,   0.00456,279474215.83723,  -0.00204,  -0.00201,   0.00027,  -8.24588,   1.00000
-184159258.45496,-508035799.46108,102397185.32916,  -0.00189,  -0.00397,   0.00161,479490417.63253,   0.00457,279490422.82982,  -0.00204,  -0.00202,   0.00028,  -5.19729,   1.00000
-181675217.12430,-507144499.37189,103054631.51956,  -0.00187,  -0.00399,   0.00163,479506633.90243,   0.00459,279506641.54594,  -0.00204,  -0.00203,   0.00029,  -7.64351,   1.00000
-179187640.47442,-506242837.41331,103705813.36659,  -0.00186,  -0.00400,   0.00165,479522938.51909,   0.00461,279522948.10400,  -0.00204,  -0.00205,   0.00030,  -9.58491,   1.00000
