# sigma_xx, sigma_yy, sigma_xy, epsilon_xx, epsilon_yy, epsilon_xy, vonMises, epsPlastic, hardening, epsilonP__xx, epsilonP__yy, epsilonP__xy, yieldValue, iteration
   0.00000,   0.00000,   0.00000,   0.00000,   0.00000,   0.00000,   0.00000,   0.00000,274640135.82653,   0.00000,   0.00000,   0.00000,-474640135.82653,   0.00000
   0.00000,   0.00000,   0.00000,   0.00000,   0.00000,   0.00000,   0.00000,   0.00000,274640135.82653,   0.00000,   0.00000,   0.00000,-474640135.82653,   0.00000
-1850439.07348,-222252.46632,334627.30883,  -0.00001,   0.00000,   0.00000,1843416.00922,   0.00000,274640135.82653,   0.00000,   0.00000,   0.00000,-472796719.81731,   0.00000
-3683397.61591,-437013.27646,674249.05511,  -0.00002,   0.00001,   0.00001,3675940.73742,   0.00000,274640135.82653,   0.00000,   0.00000,   0.00000,-470964195.08911,   0.00000
-5498875.62727,-644282.43044,1018865.23884,  -0.00002,   0.00001,   0.00001,5497650.69691,   0.00000,274640135.82653,   0.00000,   0.00000,   0.00000,-469142485.12962,   0.00000
-7296873.10758,-844059.92825,1363481.42257,  -0.00003,   0.00001,   0.00002,7305822.39641,   0.00000,274640135.82653,   0.00000,   0.00000,   0.00000,-467334313.43012,   0.00000
-9069898.40066,-1018865.23884,1713092.04374,  -0.00004,   0.00001,   0.00002,9102977.10773,   0.00000,274640135.82653,   0.00000,   0.00000,   0.00000,-465537158.71880,   0.00000
-10832934.81885,-1203659.42432,2067697.10235,  -0.00005,   0.00002,   0.00003,10889821.97433,   0.00000,274640135.82653,   0.00000,   0.00000,   0.00000,-463750313.85220,   0.00000
-12588479.58087,-1370973.07873,2427296.59841,  -0.00005,   0.00002,   0.00003,12679362.17098,   0.00000,274640135.82653,   0.00000,   0.00000,   0.00000,-461960773.65555,   0.00000
-14309063.28077,-1523303.42082,2786896.09447,  -0.00006,   0.00002,   0.00004,14442059.05558,   0.00000,274640135.82653,   0.00000,   0.00000,   0.00000,-460198076.77095,   0.00000
-16029646.98068,-1675633.76290,3151490.02798,  -0.00007,   0.00002,   0.00004,16207812.35496,   0.00000,274640135.82653,   0.00000,   0.00000,   0.00000,-458432323.47157,   0.00000
-17715269.61846,-1812980.79264,3521078.39893,  -0.00008,   0.00003,   0.00005,17949769.15531,   0.00000,274640135.82653,   0.00000,   0.00000,   0.00000,-456690366.67122,   0.00000
-19393400.60008,-1932847.29133,3890666.76989,  -0.00008,   0.00003,   0.00005,19691807.11388,   0.00000,274640135.82653,   0.00000,   0.00000,   0.00000,-454948328.71265,   0.00000
-21061542.70681,-2062702.66491,4265249.57828,  -0.00009,   0.00003,   0.00006,21423741.15558,   0.00000,274640135.82653,   0.00000,   0.00000,   0.00000,-453216394.67095,   0.00000
-22704712.62631,-2167585.85126,4644826.82412,  -0.00010,   0.00003,   0.00006,23145436.67116,   0.00000,274640135.82653,   0.00000,   0.00000,   0.00000,-451494699.15537,   0.00000
-24330402.01476,-2264977.38144,5029398.50741,  -0.00011,   0.00004,   0.00007,24857098.03119,   0.00000,274640135.82653,   0.00000,   0.00000,   0.00000,-449783037.79534,   0.00000
-25938610.87214,-2354877.25546,5413970.19070,  -0.00011,   0.00004,   0.00007,26555751.83950,   0.00000,274640135.82653,   0.00000,   0.00000,   0.00000,-448084383.98703,   0.00000
-27536830.85464,-2454766.00436,5803536.31143,  -0.00012,   0.00004,   0.00008,28244460.59951,   0.00000,274640135.82653,   0.00000,   0.00000,   0.00000,-446395675.22702,   0.00000
-29102586.99374,-2512202.03498,6198096.86961,  -0.00013,   0.00005,   0.00008,29923391.60154,   0.00000,274640135.82653,   0.00000,   0.00000,   0.00000,-444716744.22499,   0.00000
-30658354.25795,-2579626.94050,6597651.86524,  -0.00013,   0.00005,   0.00009,31592547.77265,   0.00000,274640135.82653,   0.00000,   0.00000,   0.00000,-443047588.05388,   0.00000
-32214121.52215,-2647051.84601,6997206.86086,  -0.00014,   0.00005,   0.00009,33262092.09653,   0.00000,274640135.82653,   0.00000,   0.00000,   0.00000,-441378043.73000,   0.00000
-33734927.72425,-2699493.43918,7401756.29393,  -0.00015,   0.00005,   0.00010,34908786.65937,   0.00000,274640135.82653,   0.00000,   0.00000,   0.00000,-439731349.16716,   0.00000
-35230761.73911,-2726962.84513,7811300.16444,  -0.00015,   0.00006,   0.00010,36546123.61914,   0.00000,274640135.82653,   0.00000,   0.00000,   0.00000,-438094012.20739,   0.00000
-36734087.41015,-2771912.78214,8220844.03496,  -0.00016,   0.00006,   0.00011,38183763.85110,   0.00000,274640135.82653,   0.00000,   0.00000,   0.00000,-436456371.97542,   0.00000
-38212440.89395,-2791890.53192,8640376.78036,  -0.00017,   0.00006,   0.00011,39815432.59344,   0.00000,274640135.82653,   0.00000,   0.00000,   0.00000,-434824703.23309,   0.00000
-39655833.31564,-2796884.96937,9054915.08832,  -0.00017,   0.00006,   0.00012,41418224.72188,   0.00000,274640135.82653,   0.00000,   0.00000,   0.00000,-433221911.10465,   0.00000
-41106717.39350,-2819359.93787,9479442.27117,  -0.00018,   0.00007,   0.00012,43027849.70748,   0.00000,274640135.82653,   0.00000,   0.00000,   0.00000,-431612286.11905,   0.00000
-42532629.28413,-2816862.71915,9903969.45402,  -0.00019,   0.00007,   0.00013,44625290.18909,   0.00000,274640135.82653,   0.00000,   0.00000,   0.00000,-430014845.63743,   0.00000
-43941060.64371,-2806873.84426,10333491.07432,  -0.00019,   0.00007,   0.00013,46213650.04856,   0.00000,274640135.82653,   0.00000,   0.00000,   0.00000,-428426485.77797,   0.00000
-45332011.47222,-2789393.31320,10768007.13206,  -0.00020,   0.00008,   0.00014,47793023.57340,   0.00000,274640135.82653,   0.00000,   0.00000,   0.00000,-426847112.25313,   0.00000
-46705481.76968,-2764421.12597,11207517.62724,  -0.00021,   0.00008,   0.00015,49363506.61259,   0.00000,274640135.82653,   0.00000,   0.00000,   0.00000,-425276629.21394,   0.00000
-48061471.53608,-2731957.28258,11647028.12243,  -0.00021,   0.00008,   0.00015,50921768.84090,   0.00000,274640135.82653,   0.00000,   0.00000,   0.00000,-423718366.98562,   0.00000
-49399980.77142,-2692001.78301,12091533.05506,  -0.00022,   0.00008,   0.00016,52471284.07389,   0.00000,274640135.82653,   0.00000,   0.00000,   0.00000,-422168851.75264,   0.00000
-50721009.47570,-2644554.62728,12536037.98769,  -0.00023,   0.00009,   0.00016,54008672.78861,   0.00000,274640135.82653,   0.00000,   0.00000,   0.00000,-420631463.03792,   0.00000
-52024557.64892,-2589615.81539,12990531.79521,  -0.00023,   0.00009,   0.00017,55540965.42488,   0.00000,274640135.82653,   0.00000,   0.00000,   0.00000,-419099170.40165,   0.00000
-53310625.29108,-2527185.34732,13445025.60273,  -0.00024,   0.00009,   0.00017,57061280.60242,   0.00000,274640135.82653,   0.00000,   0.00000,   0.00000,-417578855.22411,   0.00000
-54579212.40219,-2457263.22309,13899519.41026,  -0.00024,   0.00010,   0.00018,58569642.28265,   0.00000,274640135.82653,   0.00000,   0.00000,   0.00000,-416070493.54388,   0.00000
-55847799.51329,-2387341.09885,14364002.09267,  -0.00025,   0.00010,   0.00019,60085955.34145,   0.00000,274640135.82653,   0.00000,   0.00000,   0.00000,-414554180.48507,   0.00000
-57081425.56228,-2302435.66228,14828484.77508,  -0.00026,   0.00010,   0.00019,61577722.64794,   0.00000,274640135.82653,   0.00000,   0.00000,   0.00000,-413062413.17859,   0.00000
-58315051.61127,-2217530.22571,15297961.89494,  -0.00026,   0.00010,   0.00020,63074005.81525,   0.00000,274640135.82653,   0.00000,   0.00000,   0.00000,-411566130.01128,   0.00000
-59513716.59814,-2117641.47681,15767439.01480,  -0.00027,   0.00011,   0.00020,64545910.43046,   0.00000,274640135.82653,   0.00000,   0.00000,   0.00000,-410094225.39607,   0.00000
-60712381.58501,-2017752.72790,16246905.00955,  -0.00027,   0.00011,   0.00021,66026114.51087,   0.00000,274640135.82653,   0.00000,   0.00000,   0.00000,-408614021.31566,   0.00000
-61868593.85360,-1885400.13560,16721376.56685,  -0.00028,   0.00011,   0.00022,67479210.77430,   0.00000,274640135.82653,   0.00000,   0.00000,   0.00000,-407160925.05223,   0.00000
-63032297.77835,-1770528.07436,17205836.99904,  -0.00028,   0.00011,   0.00022,68940027.27433,   0.00000,274640135.82653,   0.00000,   0.00000,   0.00000,-405700108.55220,   0.00000
-64178521.17204,-1648164.35695,17690297.43124,  -0.00029,   0.00012,   0.00023,70389361.01512,   0.00000,274640135.82653,   0.00000,   0.00000,   0.00000,-404250774.81141,   0.00000
-65289783.50362,-1510817.32720,18179752.30087,  -0.00029,   0.00012,   0.00024,71818574.50481,   0.00000,274640135.82653,   0.00000,   0.00000,   0.00000,-402821561.32172,   0.00000
-66408537.49137,-1390950.82851,18674201.60796,  -0.00030,   0.00012,   0.00024,73251860.06369,   0.00000,274640135.82653,   0.00000,   0.00000,   0.00000,-401388275.76284,   0.00000
-67502319.29189,-1246112.14260,19173645.35249,  -0.00030,   0.00013,   0.00025,74678554.31007,   0.00000,274640135.82653,   0.00000,   0.00000,   0.00000,-399961581.51646,   0.00000
-68578620.56135,-1093781.80052,19673089.09702,  -0.00031,   0.00013,   0.00026,76094052.41875,   0.00000,274640135.82653,   0.00000,   0.00000,   0.00000,-398546083.40778,   0.00000
-69637441.29975,-933959.80227,20172532.84155,  -0.00032,   0.00013,   0.00026,77498388.27041,   0.00000,274640135.82653,   0.00000,   0.00000,   0.00000,-397141747.55612,   0.00000
-70678781.50710,-766646.14785,20681965.46097,  -0.00032,   0.00013,   0.00027,78899451.02504,   0.00000,274640135.82653,   0.00000,   0.00000,   0.00000,-395740684.80149,   0.00000
-71710132.83955,-609321.36833,21191398.08039,  -0.00033,   0.00014,   0.00028,80288517.02414,   0.00000,274640135.82653,   0.00000,   0.00000,   0.00000,-394351618.80239,   0.00000
-72716511.98478,-427024.40157,21705825.13725,  -0.00033,   0.00014,   0.00028,81671600.17242,   0.00000,274640135.82653,   0.00000,   0.00000,   0.00000,-392968535.65411,   0.00000
-73705410.59895,-237235.77865,22225246.63156,  -0.00033,   0.00014,   0.00029,83047835.82611,   0.00000,274640135.82653,   0.00000,   0.00000,   0.00000,-391592300.00042,   0.00000
-74684320.33822,-57436.03062,22744668.12587,  -0.00034,   0.00015,   0.00030,84412210.11701,   0.00000,274640135.82653,   0.00000,   0.00000,   0.00000,-390227925.70952,   0.00000
-75645749.54644,129855.37358,23269084.05763,  -0.00034,   0.00015,   0.00030,85769867.15958,   0.00000,274640135.82653,   0.00000,   0.00000,   0.00000,-388870268.66695,   0.00000
-76582206.56744,342118.96500,23793499.98939,  -0.00035,   0.00015,   0.00031,87117986.42420,   0.00000,274640135.82653,   0.00000,   0.00000,   0.00000,-387522149.40233,   0.00000
-77526155.24460,536902.02537,24322910.35859,  -0.00035,   0.00015,   0.00032,88470497.14735,   0.00000,274640135.82653,   0.00000,   0.00000,   0.00000,-386169638.67918,   0.00000
-78435142.85964,746668.39807,24857315.16523,  -0.00036,   0.00016,   0.00032,89804524.06896,   0.00000,274640135.82653,   0.00000,   0.00000,   0.00000,-384835611.75757,   0.00000
-79326649.94363,963926.42694,25396714.40933,  -0.00036,   0.00016,   0.00033,91132271.49612,   0.00000,274640135.82653,   0.00000,   0.00000,   0.00000,-383507864.33041,   0.00000
-80218157.02761,1181184.45581,25936113.65342,  -0.00037,   0.00016,   0.00034,92461593.80039,   0.00000,274640135.82653,   0.00000,   0.00000,   0.00000,-382178542.02614,   0.00000
-81074703.04948,1413425.79702,26480507.33496,  -0.00037,   0.00016,   0.00034,93772864.57164,   0.00000,274640135.82653,   0.00000,   0.00000,   0.00000,-380867271.25489,   0.00000
-81938740.72751,1628186.60717,27029895.45394,  -0.00038,   0.00017,   0.00035,95088724.50849,   0.00000,274640135.82653,   0.00000,   0.00000,   0.00000,-379551411.31804,   0.00000
-82760325.68727,1875411.26071,27579283.57292,  -0.00038,   0.00017,   0.00036,96383862.59732,   0.00000,274640135.82653,   0.00000,   0.00000,   0.00000,-378256273.22921,   0.00000
-83589402.30318,2105155.38319,28133666.12935,  -0.00038,   0.00017,   0.00037,97683663.15030,   0.00000,274640135.82653,   0.00000,   0.00000,   0.00000,-376956472.67623,   0.00000
-84393506.73188,2359871.69290,28693043.12322,  -0.00039,   0.00018,   0.00037,98979103.81250,   0.00000,274640135.82653,   0.00000,   0.00000,   0.00000,-375661032.01403,   0.00000
-85170141.75462,2612090.78389,29252420.11709,  -0.00039,   0.00018,   0.00038,100251486.04996,   0.00000,274640135.82653,   0.00000,   0.00000,   0.00000,-374388649.77656,   0.00000
-85946776.77736,2864309.87488,29816791.54841,  -0.00040,   0.00018,   0.00039,101530064.93467,   0.00000,274640135.82653,   0.00000,   0.00000,   0.00000,-373110070.89186,   0.00000
-86705931.26905,3124020.62203,30381162.97973,  -0.00040,   0.00018,   0.00039,102798805.10697,   0.00000,274640135.82653,   0.00000,   0.00000,   0.00000,-371841330.71956,   0.00000
-87447605.22968,3391223.02536,30950528.84849,  -0.00040,   0.00019,   0.00040,104062212.61526,   0.00000,274640135.82653,   0.00000,   0.00000,   0.00000,-370577923.21126,   0.00000
-88179290.31541,3648436.55379,31524889.15470,  -0.00041,   0.00019,   0.00041,105318900.41460,   0.00000,274640135.82653,   0.00000,   0.00000,   0.00000,-369321235.41193,   0.00000
-88886003.21392,3930622.26945,32104243.89836,  -0.00041,   0.00019,   0.00042,106572023.02340,   0.00000,274640135.82653,   0.00000,   0.00000,   0.00000,-368068112.80313,   0.00000
-89582727.23754,4202819.11022,32683598.64201,  -0.00042,   0.00019,   0.00042,107814106.52760,   0.00000,274640135.82653,   0.00000,   0.00000,   0.00000,-366826029.29893,   0.00000
-90261970.73010,4482507.60715,33267947.82311,  -0.00042,   0.00020,   0.00043,109051296.47119,   0.00000,274640135.82653,   0.00000,   0.00000,   0.00000,-365588839.35534,   0.00000
-90923733.69160,4769687.76026,33852297.00421,  -0.00042,   0.00020,   0.00044,110279132.78060,   0.00000,274640135.82653,   0.00000,   0.00000,   0.00000,-364361003.04593,   0.00000
-91568016.12204,5064359.56953,34441640.62276,  -0.00043,   0.00020,   0.00045,111502298.18012,   0.00000,274640135.82653,   0.00000,   0.00000,   0.00000,-363137837.64641,   0.00000
-92194818.02143,5366523.03497,35035978.67875,  -0.00043,   0.00020,   0.00046,112720934.43562,   0.00000,274640135.82653,   0.00000,   0.00000,   0.00000,-361919201.39091,   0.00000
-92804139.38975,5676178.15658,35635311.17218,  -0.00043,   0.00021,   0.00046,113935184.74202,   0.00000,274640135.82653,   0.00000,   0.00000,   0.00000,-360704951.08451,   0.00000
-93420952.41425,5968352.74713,36234643.66562,  -0.00044,   0.00021,   0.00047,115149958.69388,   0.00000,274640135.82653,   0.00000,   0.00000,   0.00000,-359490177.13265,   0.00000
-94002804.37663,6275510.65001,36833976.15905,  -0.00044,   0.00021,   0.00048,116344532.59024,   0.00000,274640135.82653,   0.00000,   0.00000,   0.00000,-358295603.23629,   0.00000
-94584656.33900,6582668.55290,37438303.08993,  -0.00044,   0.00021,   0.00049,117546109.24091,   0.00000,274640135.82653,   0.00000,   0.00000,   0.00000,-357094026.58562,   0.00000
-95131547.23926,6904809.76812,38047624.45826,  -0.00045,   0.00022,   0.00049,118732548.59327,   0.00000,274640135.82653,   0.00000,   0.00000,   0.00000,-355907587.23325,   0.00000
-95685929.79569,7209470.45228,38661940.26403,  -0.00045,   0.00022,   0.00050,119924373.60090,   0.00000,274640135.82653,   0.00000,   0.00000,   0.00000,-354715762.22563,   0.00000
-96197859.63383,7546594.97984,39276256.06980,  -0.00045,   0.00022,   0.00051,121098383.35455,   0.00000,274640135.82653,   0.00000,   0.00000,   0.00000,-353541752.47198,   0.00000
-96717281.12814,7866238.97634,39895566.31302,  -0.00046,   0.00022,   0.00052,122277880.52325,   0.00000,274640135.82653,   0.00000,   0.00000,   0.00000,-352362255.30328,   0.00000
-97219222.09140,8193374.62901,40514876.55624,  -0.00046,   0.00023,   0.00053,123448887.02092,   0.00000,274640135.82653,   0.00000,   0.00000,   0.00000,-351191248.80561,   0.00000
-97711174.17976,8510521.40678,41139181.23690,  -0.00046,   0.00023,   0.00053,124614494.63151,   0.00000,274640135.82653,   0.00000,   0.00000,   0.00000,-350025641.19501,   0.00000
-98160673.54983,8860132.02795,41768480.35500,  -0.00046,   0.00023,   0.00054,125767858.18489,   0.00000,274640135.82653,   0.00000,   0.00000,   0.00000,-348872277.64164,   0.00000
-98617664.57608,9192262.11807,42397779.47311,  -0.00047,   0.00023,   0.00055,126921928.69750,   0.00000,274640135.82653,   0.00000,   0.00000,   0.00000,-347718207.12903,   0.00000
-99057175.07126,9531883.86435,43032073.02866,  -0.00047,   0.00024,   0.00056,128072870.50443,   0.00000,274640135.82653,   0.00000,   0.00000,   0.00000,-346567265.32210,   0.00000
-99496685.56645,9871505.61063,43666366.58422,  -0.00047,   0.00024,   0.00057,129226444.13408,   0.00000,274640135.82653,   0.00000,   0.00000,   0.00000,-345413691.69245,   0.00000
-99901234.99952,10226110.66924,44305654.57721,  -0.00047,   0.00024,   0.00058,130366423.06014,   0.00000,274640135.82653,   0.00000,   0.00000,   0.00000,-344273712.76639,   0.00000
-100295795.55770,10570726.85297,44949937.00766,  -0.00048,   0.00024,   0.00058,131501622.96744,   0.00000,274640135.82653,   0.00000,   0.00000,   0.00000,-343138512.85909,   0.00000
-100672875.58482,10922834.69286,45594219.43810,  -0.00048,   0.00025,   0.00059,132629061.34336,   0.00000,274640135.82653,   0.00000,   0.00000,   0.00000,-342011074.48317,   0.00000
-101049955.61194,11274942.53275,46243496.30599,  -0.00048,   0.00025,   0.00060,133764468.94658,   0.00000,274640135.82653,   0.00000,   0.00000,   0.00000,-340875666.87995,   0.00000
-101392074.57694,11642033.68498,46897767.61132,  -0.00048,   0.00025,   0.00061,134886995.30989,   0.00000,274640135.82653,   0.00000,   0.00000,   0.00000,-339753140.51664,   0.00000
-101741685.19811,11991644.30615,47552038.91666,  -0.00049,   0.00025,   0.00062,136010328.12075,   0.00000,274640135.82653,   0.00000,   0.00000,   0.00000,-338629807.70578,   0.00000
-102073815.28822,12348746.58349,48206310.22199,  -0.00049,   0.00026,   0.00063,137126160.97280,   0.00000,274640135.82653,   0.00000,   0.00000,   0.00000,-337513974.85373,   0.00000
-102370984.31622,12720832.17317,48865575.96477,  -0.00049,   0.00026,   0.00064,138229575.90561,   0.00000,274640135.82653,   0.00000,   0.00000,   0.00000,-336410559.92092,   0.00000
-102668153.34421,13092917.76284,49529836.14499,  -0.00049,   0.00026,   0.00064,139341357.46756,   0.00000,274640135.82653,   0.00000,   0.00000,   0.00000,-335298778.35896,   0.00000
-102955333.49732,13455014.47763,50199090.76266,  -0.00049,   0.00026,   0.00065,140449100.22170,   0.00000,274640135.82653,   0.00000,   0.00000,   0.00000,-334191035.60482,   0.00000
-103225033.11936,13824602.84858,50863350.94289,  -0.00050,   0.00026,   0.00066,141544387.38692,   0.00000,274640135.82653,   0.00000,   0.00000,   0.00000,-333095748.43961,   0.00000
-103477252.21035,14201682.87570,51537599.99800,  -0.00050,   0.00027,   0.00067,142643448.08966,   0.00000,274640135.82653,   0.00000,   0.00000,   0.00000,-331996687.73687,   0.00000
-103719482.42645,14568774.02793,52211849.05312,  -0.00050,   0.00027,   0.00068,143733355.41164,   0.00000,274640135.82653,   0.00000,   0.00000,   0.00000,-330906780.41489,   0.00000
-103954220.98638,14953345.71121,52891092.54568,  -0.00050,   0.00027,   0.00069,144834212.20630,   0.00000,274640135.82653,   0.00000,   0.00000,   0.00000,-329805923.62023,   0.00000
-104161490.14036,15335420.17578,53570336.03824,  -0.00050,   0.00027,   0.00070,145916051.43854,   0.00000,274640135.82653,   0.00000,   0.00000,   0.00000,-328724084.38799,   0.00000
-104358770.41945,15707505.76545,54254573.96824,  -0.00051,   0.00027,   0.00071,146994459.34557,   0.00000,274640135.82653,   0.00000,   0.00000,   0.00000,-327645676.48096,   0.00000
-104548559.04237,16097071.88619,54938811.89825,  -0.00051,   0.00028,   0.00071,148078566.13980,   0.00000,274640135.82653,   0.00000,   0.00000,   0.00000,-326561569.68673,   0.00000
-104728358.79040,16476649.13203,55628044.26570,  -0.00051,   0.00028,   0.00072,149159376.00430,   0.00000,274640135.82653,   0.00000,   0.00000,   0.00000,-325480759.82223,   0.00000
-104873197.47631,16871209.69021,56317276.63315,  -0.00051,   0.00028,   0.00073,150224065.69171,   0.00000,274640135.82653,   0.00000,   0.00000,   0.00000,-324416070.13482,   0.00000
-105025527.81839,17248289.71733,57011503.43805,  -0.00051,   0.00028,   0.00074,151295440.43371,   0.00000,274640135.82653,   0.00000,   0.00000,   0.00000,-323344695.39282,   0.00000
-105160377.62942,17632861.40062,57710724.68039,  -0.00051,   0.00029,   0.00075,152366283.72877,   0.00000,274640135.82653,   0.00000,   0.00000,   0.00000,-322273852.09776,   0.00000
-105295227.44044,18017433.08390,58409945.92273,  -0.00051,   0.00029,   0.00076,153440633.07748,   0.00000,274640135.82653,   0.00000,   0.00000,   0.00000,-321199502.74905,   0.00000
-105395116.18934,18416988.07953,59109167.16507,  -0.00052,   0.00029,   0.00077,154499377.00143,   0.00000,274640135.82653,   0.00000,   0.00000,   0.00000,-320140758.82510,   0.00000
-105485016.06336,18806554.20026,59813382.84486,  -0.00052,   0.00029,   0.00078,155555479.07008,   0.00000,274640135.82653,   0.00000,   0.00000,   0.00000,-319084656.75645,   0.00000
-105574915.93737,19196120.32099,60522592.96209,  -0.00052,   0.00029,   0.00079,156620993.08949,   0.00000,274640135.82653,   0.00000,   0.00000,   0.00000,-318019142.73704,   0.00000
-105637346.40544,19583189.22300,61231803.07932,  -0.00052,   0.00030,   0.00080,157668854.00876,   0.00000,274640135.82653,   0.00000,   0.00000,   0.00000,-316971281.81777,   0.00000
-105692285.21734,19987738.65607,61946007.63400,  -0.00052,   0.00030,   0.00081,158728832.32516,   0.00000,274640135.82653,   0.00000,   0.00000,   0.00000,-315911303.50137,   0.00000
-105737235.15435,20382299.21425,62660212.18867,  -0.00052,   0.00030,   0.00081,159780710.84752,   0.00000,274640135.82653,   0.00000,   0.00000,   0.00000,-314859424.97901,   0.00000
-105772196.21646,20766870.89754,63379411.18080,  -0.00052,   0.00030,   0.00082,160830430.10444,   0.00000,274640135.82653,   0.00000,   0.00000,   0.00000,-313809705.72209,   0.00000
-105782185.09135,21176414.76805,64098610.17292,  -0.00052,   0.00030,   0.00083,161877404.63077,   0.00000,274640135.82653,   0.00000,   0.00000,   0.00000,-312762731.19576,   0.00000
-105782185.09135,21575969.76368,64822803.60249,  -0.00052,   0.00030,   0.00084,162922478.44196,   0.00000,274640135.82653,   0.00000,   0.00000,   0.00000,-311717657.38457,   0.00000
-105772196.21646,21965535.88441,65546997.03206,  -0.00052,   0.00031,   0.00085,163959786.80905,   0.00000,274640135.82653,   0.00000,   0.00000,   0.00000,-310680349.01748,   0.00000
-105754715.68541,22372582.53620,66276184.89907,  -0.00052,   0.00031,   0.00086,165009686.07518,   0.00000,274640135.82653,   0.00000,   0.00000,   0.00000,-309630449.75135,   0.00000
-105727246.27946,22769640.31310,67005372.76608,  -0.00053,   0.00031,   0.00087,166051914.87444,   0.00000,274640135.82653,   0.00000,   0.00000,   0.00000,-308588220.95209,   0.00000
-105672307.46756,23164200.87128,67739555.07054,  -0.00053,   0.00031,   0.00088,167083731.36753,   0.00000,274640135.82653,   0.00000,   0.00000,   0.00000,-307556404.45900,   0.00000
-105617368.65566,23558761.42946,68473737.37500,  -0.00053,   0.00031,   0.00089,168119648.83113,   0.00000,274640135.82653,   0.00000,   0.00000,   0.00000,-306520486.99540,   0.00000
-105544949.31270,23960813.64380,69212914.11690,  -0.00053,   0.00031,   0.00090,169156975.08256,   0.00000,274640135.82653,   0.00000,   0.00000,   0.00000,-305483160.74397,   0.00000
-105472529.96975,24362865.85815,69952090.85881,  -0.00053,   0.00032,   0.00091,170198419.37271,   0.00000,274640135.82653,   0.00000,   0.00000,   0.00000,-304441716.45382,   0.00000
-105372641.22084,24762420.85377,70696262.03815,  -0.00053,   0.00032,   0.00092,171230070.63972,   0.00000,274640135.82653,   0.00000,   0.00000,   0.00000,-303410065.18681,   0.00000
-105272752.47193,25161975.84940,71440433.21750,  -0.00053,   0.00032,   0.00093,172265940.89336,   0.00000,274640135.82653,   0.00000,   0.00000,   0.00000,-302374194.93317,   0.00000
-105145394.31708,25559033.62630,72189598.83430,  -0.00053,   0.00032,   0.00094,173292375.35038,   0.00000,274640135.82653,   0.00000,   0.00000,   0.00000,-301347760.47615,   0.00000
-105018036.16222,25956091.40320,72938764.45109,  -0.00053,   0.00032,   0.00095,174323132.21391,   0.00000,274640135.82653,   0.00000,   0.00000,   0.00000,-300317003.61262,   0.00000
-104873197.47631,26360640.83627,73687930.06789,  -0.00053,   0.00032,   0.00096,175349732.64678,   0.00000,274640135.82653,   0.00000,   0.00000,   0.00000,-299290403.17975,   0.00000
-104718369.91551,26755201.39445,74442090.12213,  -0.00053,   0.00033,   0.00097,176375772.77353,   0.00000,274640135.82653,   0.00000,   0.00000,   0.00000,-298264363.05300,   0.00000
-104563542.35470,27149761.95263,75201244.61381,  -0.00053,   0.00033,   0.00098,177412515.96801,   0.00000,274640135.82653,   0.00000,   0.00000,   0.00000,-297227619.85852,   0.00000
-104373753.73178,27559305.82314,75960399.10550,  -0.00053,   0.00033,   0.00099,178437133.75113,   0.00000,274640135.82653,   0.00000,   0.00000,   0.00000,-296203002.07540,   0.00000
-104191456.76503,27951369.16260,76719553.59718,  -0.00053,   0.00033,   0.00100,179463373.10148,   0.00000,274640135.82653,   0.00000,   0.00000,   0.00000,-295176762.72505,   0.00000
-103991679.26722,28350924.15822,77483702.52631,  -0.00053,   0.00033,   0.00101,180492318.23263,   0.00000,274640135.82653,   0.00000,   0.00000,   0.00000,-294147817.59390,   0.00000
-103781912.89451,28740490.27895,78247851.45544,  -0.00053,   0.00033,   0.00102,181514801.20468,   0.00000,274640135.82653,   0.00000,   0.00000,   0.00000,-293125334.62185,   0.00000
-103554665.99075,29137548.05585,79016994.82202,  -0.00053,   0.00033,   0.00103,182540272.33459,   0.00000,274640135.82653,   0.00000,   0.00000,   0.00000,-292099863.49194,   0.00000
-103327419.08699,29534605.83275,79786138.18859,  -0.00053,   0.00034,   0.00104,183570331.51485,   0.00000,274640135.82653,   0.00000,   0.00000,   0.00000,-291069804.31168,   0.00000
-103072702.77728,29929166.39093,80560275.99261,  -0.00053,   0.00034,   0.00105,184592771.62032,   0.00000,274640135.82653,   0.00000,   0.00000,   0.00000,-290047364.20621,   0.00000
-102817986.46757,30323726.94911,81334413.79663,  -0.00053,   0.00034,   0.00106,185619912.47535,   0.00000,274640135.82653,   0.00000,   0.00000,   0.00000,-289020223.35118,   0.00000
-102545789.62680,30725779.16346,82108551.60065,  -0.00053,   0.00034,   0.00107,186643924.35725,   0.00000,274640135.82653,   0.00000,   0.00000,   0.00000,-287996211.46928,   0.00000
-102263603.91114,31117842.50291,82887683.84212,  -0.00053,   0.00034,   0.00108,187668569.35926,   0.00000,274640135.82653,   0.00000,   0.00000,   0.00000,-286971566.46727,   0.00000
-101988909.85165,31492425.31131,83666816.08359,  -0.00053,   0.00034,   0.00109,188694984.17154,   0.00000,274640135.82653,   0.00000,   0.00000,   0.00000,-285945151.65499,   0.00000
-101689243.60494,31891980.30693,84450942.76250,  -0.00052,   0.00034,   0.00110,189728113.96243,   0.00000,274640135.82653,   0.00000,   0.00000,   0.00000,-284912021.86410,   0.00000
-101362107.95227,32289038.08383,85235069.44141,  -0.00052,   0.00034,   0.00111,190747988.35343,   0.00000,274640135.82653,   0.00000,   0.00000,   0.00000,-283892147.47310,   0.00000
-101042463.95577,32668615.32968,86019196.12032,  -0.00052,   0.00035,   0.00112,191769762.05936,   0.00000,274640135.82653,   0.00000,   0.00000,   0.00000,-282870373.76717,   0.00000
-100722819.95927,33048192.57552,86808317.23668,  -0.00052,   0.00035,   0.00113,192803082.10247,   0.00000,274640135.82653,   0.00000,   0.00000,   0.00000,-281837053.72406,   0.00000
-100368214.90065,33442753.13370,87597438.35303,  -0.00052,   0.00035,   0.00114,193826518.69891,   0.00000,274640135.82653,   0.00000,   0.00000,   0.00000,-280813617.12762,   0.00000
-100021101.49821,33819833.16082,88391553.90684,  -0.00052,   0.00035,   0.00115,194858664.75824,   0.00000,274640135.82653,   0.00000,   0.00000,   0.00000,-279781471.06828,   0.00000
-99663999.22087,34186924.31305,89185669.46064,  -0.00052,   0.00035,   0.00116,195885464.09626,   0.00000,274640135.82653,   0.00000,   0.00000,   0.00000,-278754671.73026,   0.00000
-99281924.75630,34578987.65250,89979785.01444,  -0.00052,   0.00035,   0.00117,196913078.67785,   0.00000,274640135.82653,   0.00000,   0.00000,   0.00000,-277727057.14868,   0.00000
-98907341.94791,34953570.46090,90778895.00569,  -0.00052,   0.00035,   0.00118,197949494.72126,   0.00000,274640135.82653,   0.00000,   0.00000,   0.00000,-276690641.10527,   0.00000
-98505289.73356,35325656.05057,91578004.99693,  -0.00052,   0.00035,   0.00119,198973744.65703,   0.00000,274640135.82653,   0.00000,   0.00000,   0.00000,-275666391.16950,   0.00000
-98103237.51921,35697741.64025,92377114.98818,  -0.00052,   0.00035,   0.00120,200003080.27032,   0.00000,274640135.82653,   0.00000,   0.00000,   0.00000,-274637055.55621,   0.00000
-97683704.77381,36077318.88609,93181219.41687,  -0.00051,   0.00035,   0.00121,201037469.74008,   0.00000,274640135.82653,   0.00000,   0.00000,   0.00000,-273602666.08645,   0.00000
-97271663.68457,36439415.60087,93985323.84557,  -0.00051,   0.00036,   0.00122,202073881.14142,   0.00000,274640135.82653,   0.00000,   0.00000,   0.00000,-272566254.68511,   0.00000
-96824661.53322,36816495.62799,94789428.27426,  -0.00051,   0.00036,   0.00123,203101751.09302,   0.00000,274640135.82653,   0.00000,   0.00000,   0.00000,-271538384.73351,   0.00000
-96385151.03803,37176095.12406,95598527.14040,  -0.00051,   0.00036,   0.00124,204138722.70364,   0.00000,274640135.82653,   0.00000,   0.00000,   0.00000,-270501413.12289,   0.00000
-95928160.01179,37543186.27628,96407626.00654,  -0.00051,   0.00036,   0.00125,205174176.14343,   0.00000,274640135.82653,   0.00000,   0.00000,   0.00000,-269465959.68310,   0.00000
-95471168.98554,37910277.42851,97221719.31012,  -0.00051,   0.00036,   0.00126,206221870.47373,   0.00000,274640135.82653,   0.00000,   0.00000,   0.00000,-268418265.35280,   0.00000
-94986708.55335,38274871.36202,98035812.61370,  -0.00051,   0.00036,   0.00127,207258549.38951,   0.00000,274640135.82653,   0.00000,   0.00000,   0.00000,-267381586.43702,   0.00000
-94509739.77732,38621984.76447,98849905.91728,  -0.00051,   0.00036,   0.00129,208297417.28900,   0.00000,274640135.82653,   0.00000,   0.00000,   0.00000,-266342718.53753,   0.00000
-94015290.47024,38976589.82308,99663999.22087,  -0.00050,   0.00036,   0.00130,209335097.46884,   0.00000,274640135.82653,   0.00000,   0.00000,   0.00000,-265305038.35769,   0.00000
-93520841.16315,39331194.88170,100483086.96190,  -0.00050,   0.00036,   0.00131,210385192.79681,   0.00000,274640135.82653,   0.00000,   0.00000,   0.00000,-264254943.02972,   0.00000
-93016402.98118,39675811.06543,101302174.70292,  -0.00050,   0.00036,   0.00132,211431109.90710,   0.00000,274640135.82653,   0.00000,   0.00000,   0.00000,-263209025.91943,   0.00000
-92494484.26815,40027918.90532,102121262.44395,  -0.00050,   0.00036,   0.00133,212476074.78687,   0.00000,274640135.82653,   0.00000,   0.00000,   0.00000,-262164061.03966,   0.00000
-91962576.68022,40370037.87032,102940350.18498,  -0.00050,   0.00036,   0.00134,213517060.81522,   0.00000,274640135.82653,   0.00000,   0.00000,   0.00000,-261123075.01131,   0.00000
-91430669.09230,40712156.83532,103764432.36346,  -0.00050,   0.00036,   0.00135,214570638.66155,   0.00000,274640135.82653,   0.00000,   0.00000,   0.00000,-260069497.16498,   0.00000
-90888772.62948,41044286.92544,104588514.54193,  -0.00049,   0.00036,   0.00136,215620359.57599,   0.00000,274640135.82653,   0.00000,   0.00000,   0.00000,-259019776.25054,   0.00000
-90329395.63561,41383908.67172,105417591.15785,  -0.00049,   0.00036,   0.00137,216676756.13404,   0.00000,274640135.82653,   0.00000,   0.00000,   0.00000,-257963379.69249,   0.00000
-89752538.11068,41731022.07416,106246667.77377,  -0.00049,   0.00036,   0.00138,217732690.90529,   0.00000,274640135.82653,   0.00000,   0.00000,   0.00000,-256907444.92124,   0.00000
-89183172.24192,42060654.94555,107070749.95224,  -0.00049,   0.00037,   0.00139,218783628.33220,   0.00000,274640135.82653,   0.00000,   0.00000,   0.00000,-255856507.49433,   0.00000
-88603817.49826,42380298.94205,107904821.00560,  -0.00049,   0.00037,   0.00140,219845704.24600,   0.00000,274640135.82653,   0.00000,   0.00000,   0.00000,-254794431.58053,   0.00000
-88024462.75461,42699942.93855,108733897.62152,  -0.00048,   0.00037,   0.00141,220905889.87828,   0.00000,274640135.82653,   0.00000,   0.00000,   0.00000,-253734245.94825,   0.00000
-87410146.94884,43034570.24739,109567968.67489,  -0.00048,   0.00037,   0.00142,221967532.34161,   0.00000,274640135.82653,   0.00000,   0.00000,   0.00000,-252672603.48492,   0.00000
-86803322.79923,43351717.02516,110402039.72825,  -0.00048,   0.00037,   0.00144,223031595.14591,   0.00000,274640135.82653,   0.00000,   0.00000,   0.00000,-251608540.68062,   0.00000
-86196498.64963,43668863.80294,111236110.78162,  -0.00048,   0.00037,   0.00145,224101151.78324,   0.00000,274640135.82653,   0.00000,   0.00000,   0.00000,-250538984.04329,   0.00000
-85562205.09408,43983513.36199,112070181.83498,  -0.00048,   0.00037,   0.00146,225162038.87165,   0.00000,274640135.82653,   0.00000,   0.00000,   0.00000,-249478096.95488,   0.00000
-84927911.53852,44298162.92105,112909247.32579,  -0.00047,   0.00037,   0.00147,226235987.97137,   0.00000,274640135.82653,   0.00000,   0.00000,   0.00000,-248404147.85516,   0.00000
-84301109.63914,44595331.94904,113748312.81660,  -0.00047,   0.00037,   0.00148,227312324.10922,   0.00000,274640135.82653,   0.00000,   0.00000,   0.00000,-247327811.71731,   0.00000
-83656827.20870,44899992.63320,114587378.30741,  -0.00047,   0.00037,   0.00149,228388850.00055,   0.00000,274640135.82653,   0.00000,   0.00000,   0.00000,-246251285.82598,   0.00000
-83002555.90336,45194664.44248,115426443.79822,  -0.00047,   0.00037,   0.00150,229462516.38599,   0.00000,274640135.82653,   0.00000,   0.00000,   0.00000,-245177619.44054,   0.00000
-82330804.06697,45496827.90792,116270503.72647,  -0.00046,   0.00037,   0.00151,230544145.84321,   0.00000,274640135.82653,   0.00000,   0.00000,   0.00000,-244095989.98332,   0.00000
-81666543.88675,45781510.84230,117109569.21728,  -0.00046,   0.00037,   0.00152,231620686.67670,   0.00000,274640135.82653,   0.00000,   0.00000,   0.00000,-243019449.14983,   0.00000
-80984803.17546,46073685.43285,117953629.14554,  -0.00046,   0.00037,   0.00153,232705322.38626,   0.00000,274640135.82653,   0.00000,   0.00000,   0.00000,-241934813.44027,   0.00000
-80285581.93312,46373351.67957,118797689.07379,  -0.00046,   0.00037,   0.00154,233790604.44325,   0.00000,274640135.82653,   0.00000,   0.00000,   0.00000,-240849531.38328,   0.00000
-79601344.00312,46638056.86417,119641749.00205,  -0.00045,   0.00037,   0.00156,234875240.57690,   0.00000,274640135.82653,   0.00000,   0.00000,   0.00000,-239764895.24963,   0.00000
-78892133.88588,46927734.23599,120490803.36775,  -0.00045,   0.00037,   0.00157,235971420.32568,   0.00000,274640135.82653,   0.00000,   0.00000,   0.00000,-238668715.50085,   0.00000
-78190415.42482,47199931.07676,121334863.29600,  -0.00045,   0.00037,   0.00158,237062447.32149,   0.00000,274640135.82653,   0.00000,   0.00000,   0.00000,-237577688.50504,   0.00000
-77478708.08887,47462139.04264,122183917.66170,  -0.00045,   0.00037,   0.00159,238158853.01888,   0.00000,274640135.82653,   0.00000,   0.00000,   0.00000,-236481282.80765,   0.00000
-76749520.22185,47731838.66469,123032972.02740,  -0.00044,   0.00037,   0.00160,239256242.57500,   0.00000,274640135.82653,   0.00000,   0.00000,   0.00000,-235383893.25153,   0.00000
-76002851.82378,48009029.94290,123882026.39310,  -0.00044,   0.00037,   0.00161,240354723.31566,   0.00000,274640135.82653,   0.00000,   0.00000,   0.00000,-234285412.51087,   0.00000
-75263675.08188,48268740.69006,124731080.75880,  -0.00044,   0.00037,   0.00162,241455798.13357,   0.00000,274640135.82653,   0.00000,   0.00000,   0.00000,-233184337.69296,   0.00000
-74531989.99614,48510970.90615,125580135.12451,  -0.00043,   0.00037,   0.00163,242559398.99948,   0.00000,274640135.82653,   0.00000,   0.00000,   0.00000,-232080736.82705,   0.00000
-73782824.37935,48760692.77842,126434183.92765,  -0.00043,   0.00037,   0.00164,243671952.75998,   0.00000,274640135.82653,   0.00000,   0.00000,   0.00000,-230968183.06655,   0.00000
-73016178.23149,49017906.30685,127283238.29335,  -0.00043,   0.00037,   0.00165,244778033.85313,   0.00000,274640135.82653,   0.00000,   0.00000,   0.00000,-229862101.97340,   0.00000
-72239543.20875,49265130.96039,128137287.09650,  -0.00042,   0.00037,   0.00167,245890195.65977,   0.00000,274640135.82653,   0.00000,   0.00000,   0.00000,-228749940.16676,   0.00000
-71470399.84218,49494875.08288,128986341.46220,  -0.00042,   0.00036,   0.00168,246997182.32561,   0.00000,274640135.82653,   0.00000,   0.00000,   0.00000,-227642953.50092,   0.00000
-70701256.47560,49724619.20536,129840390.26534,  -0.00042,   0.00036,   0.00169,248117672.30632,   0.00000,274640135.82653,   0.00000,   0.00000,   0.00000,-226522463.52021,   0.00000
-69914632.57797,49961854.98401,130694439.06849,  -0.00042,   0.00036,   0.00170,249239677.31153,   0.00000,274640135.82653,   0.00000,   0.00000,   0.00000,-225400458.51500,   0.00000
-69118019.80544,50189101.88777,131548487.87163,  -0.00041,   0.00036,   0.00171,250360204.37035,   0.00000,274640135.82653,   0.00000,   0.00000,   0.00000,-224279931.45618,   0.00000
-68328898.68909,50398868.26047,132402536.67478,  -0.00041,   0.00036,   0.00172,251483356.57686,   0.00000,274640135.82653,   0.00000,   0.00000,   0.00000,-223156779.24967,   0.00000
-67522297.04167,50616126.28935,133261579.91537,  -0.00041,   0.00036,   0.00173,252616143.58024,   0.00000,274640135.82653,   0.00000,   0.00000,   0.00000,-222023992.24629,   0.00000
-66698214.86320,50840875.97438,134115628.71851,  -0.00040,   0.00036,   0.00174,253742877.34839,   0.00000,274640135.82653,   0.00000,   0.00000,   0.00000,-220897258.47814,   0.00000
-65881624.34089,51048145.12836,134969677.52166,  -0.00040,   0.00036,   0.00175,254872277.46146,   0.00000,274640135.82653,   0.00000,   0.00000,   0.00000,-219767858.36507,   0.00000
-65047553.28753,51262905.93851,135828720.76225,  -0.00040,   0.00036,   0.00177,256011563.15954,   0.00000,274640135.82653,   0.00000,   0.00000,   0.00000,-218628572.66699,   0.00000
-64220973.89033,51460186.21760,136682769.56540,  -0.00039,   0.00036,   0.00178,257145573.58945,   0.00000,274640135.82653,   0.00000,   0.00000,   0.00000,-217494562.23708,   0.00000
-63384405.61824,51647477.62180,137536818.36854,  -0.00039,   0.00036,   0.00179,258278568.04589,   0.00000,274640135.82653,   0.00000,   0.00000,   0.00000,-216361567.78064,   0.00000
-62547837.34616,51834769.02600,138395861.60913,  -0.00039,   0.00036,   0.00180,259425271.45630,   0.00000,274640135.82653,   0.00000,   0.00000,   0.00000,-215214864.37023,   0.00000
-61693788.54301,52029552.08636,139254904.84972,  -0.00038,   0.00036,   0.00181,260574142.21986,   0.00000,274640135.82653,   0.00000,   0.00000,   0.00000,-214065993.60667,   0.00000
-60847231.39603,52206854.61567,140108953.65287,  -0.00038,   0.00036,   0.00182,261717673.23165,   0.00000,274640135.82653,   0.00000,   0.00000,   0.00000,-212922462.59488,   0.00000
-59990685.37416,52374168.27009,140967996.89346,  -0.00038,   0.00036,   0.00183,262868458.60341,   0.00000,274640135.82653,   0.00000,   0.00000,   0.00000,-211771677.22312,   0.00000
-59116658.82124,52548973.58067,141822045.69661,  -0.00037,   0.00035,   0.00184,264013582.32836,   0.00000,274640135.82653,   0.00000,   0.00000,   0.00000,-210626553.49817,   0.00000
-58242632.26831,52723778.89126,142681088.93720,  -0.00037,   0.00035,   0.00185,265172495.10609,   0.00000,274640135.82653,   0.00000,   0.00000,   0.00000,-209467640.72044,   0.00000
-57376097.37155,52881103.67079,143540132.17779,  -0.00036,   0.00035,   0.00187,266334090.31742,   0.00000,274640135.82653,   0.00000,   0.00000,   0.00000,-208306045.50910,   0.00000
-56492081.94374,53045920.10648,144394180.98093,  -0.00036,   0.00035,   0.00188,267490070.71512,   0.00000,274640135.82653,   0.00000,   0.00000,   0.00000,-207150065.11141,   0.00000
-55598077.64103,53200747.66729,145253224.22152,  -0.00036,   0.00035,   0.00189,268653722.34411,   0.00000,274640135.82653,   0.00000,   0.00000,   0.00000,-205986413.48242,   0.00000
-54711564.99449,53338094.69703,146107273.02467,  -0.00035,   0.00035,   0.00190,269812016.07206,   0.00000,274640135.82653,   0.00000,   0.00000,   0.00000,-204828119.75447,   0.00000
-53807571.81689,53482933.38294,146966316.26526,  -0.00035,   0.00035,   0.00191,270981106.49415,   0.00000,274640135.82653,   0.00000,   0.00000,   0.00000,-203659029.33238,   0.00000
-52903578.63929,53627772.06886,147825359.50585,  -0.00035,   0.00035,   0.00192,272155908.19585,   0.00000,274640135.82653,   0.00000,   0.00000,   0.00000,-202484227.63068,   0.00000
-51989596.58680,53762621.87988,148679408.30900,  -0.00034,   0.00035,   0.00193,273322399.47172,   0.00000,274640135.82653,   0.00000,   0.00000,   0.00000,-201317736.35481,   0.00000
-51083106.19048,53879991.15985,149533457.11214,  -0.00034,   0.00034,   0.00194,274491637.18252,   0.00000,274640135.82653,   0.00000,   0.00000,   0.00000,-200148498.64401,   0.00000
-50159135.26310,54004852.09598,150392500.35273,  -0.00033,   0.00034,   0.00196,275671928.32865,   0.00000,274640135.82653,   0.00000,   0.00000,   0.00000,-198968207.49788,   0.00000
-49235164.33572,54129713.03211,151246549.15588,  -0.00033,   0.00034,   0.00197,276849721.78308,   0.00000,274640135.82653,   0.00000,   0.00000,   0.00000,-197790414.04345,   0.00000
-48318685.06451,54237093.43718,152100597.95902,  -0.00033,   0.00034,   0.00198,278030211.24684,   0.00000,274640135.82653,   0.00000,   0.00000,   0.00000,-196609924.57969,   0.00000
-47374736.38735,54341976.62354,152954646.76217,  -0.00032,   0.00034,   0.00199,279208210.45745,   0.00000,274640135.82653,   0.00000,   0.00000,   0.00000,-195431925.36908,   0.00000
-46448268.24125,54439368.15372,153813690.00276,  -0.00032,   0.00034,   0.00200,280402664.92897,   0.00000,274640135.82653,   0.00000,   0.00000,   0.00000,-194237470.89756,   0.00000
-45504319.56409,54544251.34007,154667738.80590,  -0.00031,   0.00034,   0.00201,281591984.57804,   0.00000,274640135.82653,   0.00000,   0.00000,   0.00000,-193048151.24849,   0.00000
-44550382.01203,54639145.65153,155516793.17161,  -0.00031,   0.00034,   0.00202,282773383.58069,   0.00000,274640135.82653,   0.00000,   0.00000,   0.00000,-191866752.24584,   0.00000
-43603936.11615,54716559.43193,156370841.97475,  -0.00031,   0.00033,   0.00203,283965813.33416,   0.00000,274640135.82653,   0.00000,   0.00000,   0.00000,-190674322.49237,   0.00000
-42640009.68921,54801464.86850,157224890.77790,  -0.00030,   0.00033,   0.00204,285161541.60645,   0.00000,274640135.82653,   0.00000,   0.00000,   0.00000,-189478594.22008,   0.00000
-41676083.26227,54886370.30507,158073945.14360,  -0.00030,   0.00033,   0.00205,286354631.35757,   0.00000,274640135.82653,   0.00000,   0.00000,   0.00000,-188285504.46896,   0.00000
-40719648.49149,54953795.21058,158927993.94674,  -0.00029,   0.00033,   0.00207,287558742.49512,   0.00000,274640135.82653,   0.00000,   0.00000,   0.00000,-187081393.33141,   0.00000
-39753224.84583,55011231.24121,159777048.31244,  -0.00029,   0.00033,   0.00208,288755162.36979,   0.00000,274640135.82653,   0.00000,   0.00000,   0.00000,-185884973.45674,   0.00000
-38786801.20016,55068667.27183,160626102.67814,  -0.00028,   0.00033,   0.00209,289957145.27663,   0.00000,274640135.82653,   0.00000,   0.00000,   0.00000,-184682990.54990,   0.00000
-37810388.67961,55116114.42756,161475157.04384,  -0.00028,   0.00032,   0.00210,291159839.77484,   0.00000,274640135.82653,   0.00000,   0.00000,   0.00000,-183480296.05169,   0.00000
-36833976.15905,55163561.58329,162324211.40954,  -0.00028,   0.00032,   0.00211,292368094.13415,   0.00000,274640135.82653,   0.00000,   0.00000,   0.00000,-182272041.69238,   0.00000
-35840083.10744,55218500.39518,163173265.77524,  -0.00027,   0.00032,   0.00212,293579927.74975,   0.00000,274640135.82653,   0.00000,   0.00000,   0.00000,-181060208.07678,   0.00000
-34853681.71199,55255958.67602,164017325.70350,  -0.00027,   0.00032,   0.00213,294786232.86588,   0.00000,274640135.82653,   0.00000,   0.00000,   0.00000,-179853902.96065,   0.00000
-33857291.44166,55283428.08197,164866380.06920,  -0.00026,   0.00032,   0.00214,296001842.17685,   0.00000,274640135.82653,   0.00000,   0.00000,   0.00000,-178638293.64968,   0.00000
-32860901.17132,55310897.48792,165710439.99745,  -0.00026,   0.00032,   0.00215,297214652.92816,   0.00000,274640135.82653,   0.00000,   0.00000,   0.00000,-177425482.89837,   0.00000
-31864510.90098,55338366.89387,166554499.92571,  -0.00025,   0.00031,   0.00217,298432934.23662,   0.00000,274640135.82653,   0.00000,   0.00000,   0.00000,-176207201.58991,   0.00000
-30858131.75576,55355847.42493,167398559.85396,  -0.00025,   0.00031,   0.00218,299652308.01117,   0.00000,274640135.82653,   0.00000,   0.00000,   0.00000,-174987827.81536,   0.00000
-29841763.73564,55363339.08110,168237625.34477,  -0.00024,   0.00031,   0.00219,300864530.32300,   0.00000,274640135.82653,   0.00000,   0.00000,   0.00000,-173775605.50353,   0.00000
-28842876.24658,55363339.08110,169081685.27303,  -0.00024,   0.00031,   0.00220,302092200.57194,   0.00000,274640135.82653,   0.00000,   0.00000,   0.00000,-172547935.25459,   0.00000
-27833999.88263,55353350.20621,169920750.76384,  -0.00023,   0.00031,   0.00221,303312734.14101,   0.00000,274640135.82653,   0.00000,   0.00000,   0.00000,-171327401.68551,   0.00000
-26807642.98762,55350852.98749,170759816.25465,  -0.00023,   0.00030,   0.00222,304537250.75416,   0.00000,274640135.82653,   0.00000,   0.00000,   0.00000,-170102885.07237,   0.00000
-25781286.09261,55348355.76876,171593887.30801,  -0.00023,   0.00030,   0.00223,305758815.86333,   0.00000,274640135.82653,   0.00000,   0.00000,   0.00000,-168881319.96320,   0.00000
-24762420.85377,55328378.01898,172432952.79882,  -0.00022,   0.00030,   0.00224,306991597.79247,   0.00000,274640135.82653,   0.00000,   0.00000,   0.00000,-167648538.03406,   0.00000
-23733566.74004,55298411.39431,173267023.85218,  -0.00022,   0.00030,   0.00225,308217471.42913,   0.00000,274640135.82653,   0.00000,   0.00000,   0.00000,-166422664.39740,   0.00000
-22704712.62631,55268444.76964,174101094.90555,  -0.00021,   0.00030,   0.00226,309448756.43704,   0.00000,274640135.82653,   0.00000,   0.00000,   0.00000,-165191379.38949,   0.00000
-21675858.51258,55238478.14497,174935165.95891,  -0.00021,   0.00029,   0.00227,310685388.47839,   0.00000,274640135.82653,   0.00000,   0.00000,   0.00000,-163954747.34814,   0.00000
-20637015.52396,55198522.64540,175764242.57483,  -0.00020,   0.00029,   0.00228,311915217.62238,   0.00000,274640135.82653,   0.00000,   0.00000,   0.00000,-162724918.20415,   0.00000
-19588183.66045,55148578.27095,176593319.19075,  -0.00020,   0.00029,   0.00230,313146809.42431,   0.00000,274640135.82653,   0.00000,   0.00000,   0.00000,-161493326.40222,   0.00000
-18556832.32799,55091142.24033,177422395.80667,  -0.00019,   0.00029,   0.00231,314384838.48628,   0.00000,274640135.82653,   0.00000,   0.00000,   0.00000,-160255297.34025,   0.00000
-17508000.46448,55041197.86588,178251472.42259,  -0.00019,   0.00028,   0.00232,315627133.05899,   0.00000,274640135.82653,   0.00000,   0.00000,   0.00000,-159013002.76754,   0.00000
-16449179.72608,54981264.61653,179075554.60106,  -0.00018,   0.00028,   0.00233,316862863.77986,   0.00000,274640135.82653,   0.00000,   0.00000,   0.00000,-157777272.04667,   0.00000
-15415331.17490,54896359.17996,179899636.77954,  -0.00018,   0.00028,   0.00234,318102383.17833,   0.00000,274640135.82653,   0.00000,   0.00000,   0.00000,-156537752.64820,   0.00000
-14364002.09267,54818945.39956,180718724.52057,  -0.00017,   0.00028,   0.00235,319337803.82895,   0.00000,274640135.82653,   0.00000,   0.00000,   0.00000,-155302331.99758,   0.00000
-13295192.47938,54749023.27533,181542806.69904,  -0.00017,   0.00028,   0.00236,320586163.90553,   0.00000,274640135.82653,   0.00000,   0.00000,   0.00000,-154053971.92100,   0.00000
-12233874.52225,54661620.62003,182361894.44007,  -0.00016,   0.00027,   0.00237,321828938.24794,   0.00000,274640135.82653,   0.00000,   0.00000,   0.00000,-152811197.57859,   0.00000
-11180048.22129,54556737.43368,183175987.74365,  -0.00016,   0.00027,   0.00238,323066100.80683,   0.00000,274640135.82653,   0.00000,   0.00000,   0.00000,-151574035.01970,   0.00000
-10101249.73311,54476826.43456,183995075.48468,  -0.00015,   0.00027,   0.00239,324318681.70192,   0.00000,274640135.82653,   0.00000,   0.00000,   0.00000,-150321454.12461,   0.00000
-9054915.08832,54354462.71715,184809168.78826,  -0.00015,   0.00026,   0.00240,325563911.93393,   0.00000,274640135.82653,   0.00000,   0.00000,   0.00000,-149076223.89259,   0.00000
-7973619.38141,54247082.31207,185618267.65440,  -0.00014,   0.00026,   0.00241,326804672.53909,   0.00000,274640135.82653,   0.00000,   0.00000,   0.00000,-147835463.28744,   0.00000
-6909804.20557,54132210.25083,186432360.95798,  -0.00014,   0.00026,   0.00242,328059689.98332,   0.00000,274640135.82653,   0.00000,   0.00000,   0.00000,-146580445.84321,   0.00000
-5836000.15483,54007349.31470,187236465.38668,  -0.00013,   0.00026,   0.00243,329300047.81089,   0.00000,274640135.82653,   0.00000,   0.00000,   0.00000,-145340088.01564,   0.00000
-4762196.10409,53882488.37857,188045564.25281,  -0.00013,   0.00025,   0.00244,330554084.45111,   0.00000,274640135.82653,   0.00000,   0.00000,   0.00000,-144086051.37542,   0.00000
-3678403.17846,53747638.56755,188849668.68151,  -0.00012,   0.00025,   0.00246,331802104.98039,   0.00000,274640135.82653,   0.00000,   0.00000,   0.00000,-142838030.84614,   0.00000
-2594610.25283,53612788.75652,189653773.11020,  -0.00012,   0.00025,   0.00247,333055293.27247,   0.00000,274640135.82653,   0.00000,   0.00000,   0.00000,-141584842.55406,   0.00000
-1518308.98337,53460458.41444,190452883.10145,  -0.00011,   0.00025,   0.00248,334302852.83748,   0.00000,274640135.82653,   0.00000,   0.00000,   0.00000,-140337282.98905,   0.00000
-442007.71391,53308128.07236,191251993.09269,  -0.00011,   0.00024,   0.00249,335555493.29284,   0.00000,274640135.82653,   0.00000,   0.00000,   0.00000,-139084642.53369,   0.00000
644282.43044,53145808.85539,192046108.64649,  -0.00010,   0.00024,   0.00250,336802278.38693,   0.00000,274640135.82653,   0.00000,   0.00000,   0.00000,-137837857.43959,   0.00000
1730572.57479,52983489.63842,192845218.63774,  -0.00010,   0.00024,   0.00251,338062698.82365,   0.00000,274640135.82653,   0.00000,   0.00000,   0.00000,-136577437.00288,   0.00000
2834343.25021,52828662.07761,193634339.75410,  -0.00009,   0.00023,   0.00252,339310976.94123,   0.00000,274640135.82653,   0.00000,   0.00000,   0.00000,-135329158.88530,   0.00000
3930622.26945,52656353.98575,194423460.87046,  -0.00008,   0.00023,   0.00253,340562205.15411,   0.00000,274640135.82653,   0.00000,   0.00000,   0.00000,-134077930.67242,   0.00000
5019409.63252,52466565.36283,195212581.98681,  -0.00008,   0.00023,   0.00254,341816383.85007,   0.00000,274640135.82653,   0.00000,   0.00000,   0.00000,-132823751.97646,   0.00000
6108196.99560,52276776.73991,195996708.66572,  -0.00007,   0.00023,   0.00255,343067025.56442,   0.00000,274640135.82653,   0.00000,   0.00000,   0.00000,-131573110.26211,   0.00000
7214464.88973,52094479.77315,196780835.34463,  -0.00007,   0.00022,   0.00256,344322727.98641,   0.00000,274640135.82653,   0.00000,   0.00000,   0.00000,-130317407.84012,   0.00000
8313241.12769,51894702.27534,197564962.02355,  -0.00006,   0.00022,   0.00257,345581393.57773,   0.00000,274640135.82653,   0.00000,   0.00000,   0.00000,-129058742.24880,   0.00000
9404525.70949,51677444.24647,198339099.82757,  -0.00006,   0.00022,   0.00258,346825888.67597,   0.00000,274640135.82653,   0.00000,   0.00000,   0.00000,-127814247.15055,   0.00000
10503301.94746,51477666.74866,199118232.06903,  -0.00005,   0.00021,   0.00259,348085901.86212,   0.00000,274640135.82653,   0.00000,   0.00000,   0.00000,-126554233.96441,   0.00000
11604575.40414,51250419.84490,199892369.87305,  -0.00005,   0.00021,   0.00260,349338533.43627,   0.00000,274640135.82653,   0.00000,   0.00000,   0.00000,-125301602.39026,   0.00000
12713340.51700,51040653.47220,200661513.23963,  -0.00004,   0.00021,   0.00261,350589516.11967,   0.00000,274640135.82653,   0.00000,   0.00000,   0.00000,-124050619.70686,   0.00000
13832094.50475,50820898.22460,201430656.60620,  -0.00004,   0.00020,   0.00262,351843799.61867,   0.00000,274640135.82653,   0.00000,   0.00000,   0.00000,-122796336.20786,   0.00000
14925876.30526,50576170.78978,202194805.53533,  -0.00003,   0.00020,   0.00263,353092134.32538,   0.00000,274640135.82653,   0.00000,   0.00000,   0.00000,-121548001.50115,   0.00000
16037138.63684,50338935.01113,202958954.46447,  -0.00003,   0.00020,   0.00264,354345759.54290,   0.00000,274640135.82653,   0.00000,   0.00000,   0.00000,-120294376.28363,   0.00000
17140909.31225,50084218.70142,203723103.39360,  -0.00002,   0.00019,   0.00265,355602389.26813,   0.00000,274640135.82653,   0.00000,   0.00000,   0.00000,-119037746.55840,   0.00000
18269652.17489,49854474.57894,204477263.44783,  -0.00001,   0.00019,   0.00266,356849097.96378,   0.00000,274640135.82653,   0.00000,   0.00000,   0.00000,-117791037.86275,   0.00000
19365931.19413,49582277.73817,205236417.93952,  -0.00001,   0.00019,   0.00267,358105007.39801,   0.00000,274640135.82653,   0.00000,   0.00000,   0.00000,-116535128.42852,   0.00000
20479690.74443,49317572.55357,205985583.55631,  -0.00000,   0.00018,   0.00268,359349153.27646,   0.00000,274640135.82653,   0.00000,   0.00000,   0.00000,-115290982.55007,   0.00000
21610930.82579,49060359.02514,206739743.61055,   0.00000,   0.00018,   0.00269,360607370.83166,   0.00000,274640135.82653,   0.00000,   0.00000,   0.00000,-114032764.99487,   0.00000
22724690.37609,48795653.84054,207483914.78990,   0.00001,   0.00018,   0.00270,361852574.88488,   0.00000,274640135.82653,   0.00000,   0.00000,   0.00000,-112787560.94165,   0.00000
23840947.14512,48503479.24999,208228085.96925,   0.00001,   0.00017,   0.00271,363099733.86692,   0.00000,274640135.82653,   0.00000,   0.00000,   0.00000,-111540401.95961,   0.00000
24964695.57031,48228785.19049,208972257.14860,   0.00002,   0.00017,   0.00272,364353465.16701,   0.00000,274640135.82653,   0.00000,   0.00000,   0.00000,-110286670.65952,   0.00000
26080952.33933,47936610.59994,209711433.89050,   0.00003,   0.00017,   0.00273,365601639.44874,   0.00000,274640135.82653,   0.00000,   0.00000,   0.00000,-109038496.37779,   0.00000
27197209.10836,47644436.00939,210445616.19496,   0.00003,   0.00016,   0.00274,366845958.00414,   0.00000,274640135.82653,   0.00000,   0.00000,   0.00000,-107794177.82239,   0.00000
28323454.75227,47342272.54395,211179798.49942,   0.00004,   0.00016,   0.00275,368094191.78687,   0.00000,274640135.82653,   0.00000,   0.00000,   0.00000,-106545944.03966,   0.00000
29449700.39618,47040109.07851,211908986.36643,   0.00004,   0.00016,   0.00275,369338591.41055,   0.00000,274640135.82653,   0.00000,   0.00000,   0.00000,-105301544.41598,   0.00000
30568454.38393,46720465.08201,212633179.79600,   0.00005,   0.00015,   0.00276,370577478.14151,   0.00000,274640135.82653,   0.00000,   0.00000,   0.00000,-104062657.68502,   0.00000
31687208.37168,46400821.08552,213357373.22557,   0.00005,   0.00015,   0.00277,371821071.23533,   0.00000,274640135.82653,   0.00000,   0.00000,   0.00000,-102819064.59119,   0.00000
32815951.23431,46071188.21413,214076572.21769,   0.00006,   0.00015,   0.00278,373060192.85172,   0.00000,274640135.82653,   0.00000,   0.00000,   0.00000,-101579942.97481,   0.00000
33952185.75312,45759035.87380,214795771.20982,   0.00007,   0.00014,   0.00279,374305611.74594,   0.00000,274640135.82653,   0.00000,   0.00000,   0.00000,-100334524.08059,   0.00000
35073436.95959,45411922.47135,215509975.76449,   0.00007,   0.00014,   0.00280,375543986.03190,   0.00000,274640135.82653,   0.00000,   0.00000,   0.00000,-99096149.79463,   0.00000
36202179.82222,45082289.59996,216219185.88172,   0.00008,   0.00013,   0.00281,376779965.67576,   0.00000,274640135.82653,   0.00000,   0.00000,   0.00000,-97860170.15077,   0.00000
37315939.37252,44717695.66645,216928395.99896,   0.00008,   0.00013,   0.00282,378017533.70531,   0.00000,274640135.82653,   0.00000,   0.00000,   0.00000,-96622602.12122,   0.00000
38454671.11005,44378073.92017,217632611.67874,   0.00009,   0.00013,   0.00283,379253862.12441,   0.00000,274640135.82653,   0.00000,   0.00000,   0.00000,-95386273.70212,   0.00000
39585911.19141,44020971.64283,218331832.92108,   0.00009,   0.00012,   0.00284,380484753.74877,   0.00000,274640135.82653,   0.00000,   0.00000,   0.00000,-94155382.07776,   0.00000
40717151.27277,43663869.36549,219031054.16343,   0.00010,   0.00012,   0.00285,381720263.52481,   0.00000,274640135.82653,   0.00000,   0.00000,   0.00000,-92919872.30172,   0.00000
41840899.69796,43289286.55710,219725280.96832,   0.00011,   0.00012,   0.00286,382950333.34774,   0.00000,274640135.82653,   0.00000,   0.00000,   0.00000,-91689802.47878,   0.00000
42964648.12315,42914703.74870,220414513.33577,   0.00011,   0.00011,   0.00287,384176379.68445,   0.00000,274640135.82653,   0.00000,   0.00000,   0.00000,-90463756.14208,   0.00000
44105877.07940,42547612.59647,221103745.70322,   0.00012,   0.00011,   0.00287,385408389.95978,   0.00000,274640135.82653,   0.00000,   0.00000,   0.00000,-89231745.86675,   0.00000
45239614.37948,42163040.91318,221787983.63323,   0.00012,   0.00010,   0.00288,386635014.02298,   0.00000,274640135.82653,   0.00000,   0.00000,   0.00000,-88005121.80355,   0.00000
46373351.67957,41778469.22990,222467227.12579,   0.00013,   0.00010,   0.00289,387857605.34772,   0.00000,274640135.82653,   0.00000,   0.00000,   0.00000,-86782530.47881,   0.00000
47499597.32348,41376417.01555,223141476.18090,   0.00014,   0.00010,   0.00290,389074814.99140,   0.00000,274640135.82653,   0.00000,   0.00000,   0.00000,-85565320.83513,   0.00000
48643323.49845,40981856.45737,223815725.23602,   0.00014,   0.00009,   0.00291,390298127.54767,   0.00000,274640135.82653,   0.00000,   0.00000,   0.00000,-84342008.27886,   0.00000
49769569.14237,40579804.24302,224484979.85369,   0.00015,   0.00009,   0.00292,391515784.72865,   0.00000,274640135.82653,   0.00000,   0.00000,   0.00000,-83124351.09787,   0.00000
50905803.66117,40167763.15379,225149240.03391,   0.00015,   0.00008,   0.00293,392729701.75694,   0.00000,274640135.82653,   0.00000,   0.00000,   0.00000,-81910434.06959,   0.00000
52042038.17998,39755722.06455,225813500.21414,   0.00016,   0.00008,   0.00294,393948134.91896,   0.00000,274640135.82653,   0.00000,   0.00000,   0.00000,-80692000.90757,   0.00000
53178272.69878,39343680.97531,226467771.51947,   0.00017,   0.00008,   0.00294,395153868.17671,   0.00000,274640135.82653,   0.00000,   0.00000,   0.00000,-79486267.64982,   0.00000
54324496.09248,38921651.01119,227127037.26225,   0.00017,   0.00007,   0.00295,396373207.82496,   0.00000,274640135.82653,   0.00000,   0.00000,   0.00000,-78266928.00157,   0.00000
55453238.95511,38492129.39089,227776314.13014,   0.00018,   0.00007,   0.00296,397578093.36379,   0.00000,274640135.82653,   0.00000,   0.00000,   0.00000,-77062042.46274,   0.00000
56591970.69264,38052618.89570,228420596.56058,   0.00018,   0.00006,   0.00297,398779496.78694,   0.00000,274640135.82653,   0.00000,   0.00000,   0.00000,-75860639.03958,   0.00000
57730702.43017,37613108.40052,229064878.99102,   0.00019,   0.00006,   0.00298,399985381.13236,   0.00000,274640135.82653,   0.00000,   0.00000,   0.00000,-74654754.69416,   0.00000
58869434.16770,37173597.90533,229704166.98402,   0.00020,   0.00005,   0.00299,401187127.13054,   0.00000,274640135.82653,   0.00000,   0.00000,   0.00000,-73453008.69599,   0.00000
60000674.24906,36716606.87909,230338460.53957,   0.00020,   0.00005,   0.00299,402383633.08340,   0.00000,274640135.82653,   0.00000,   0.00000,   0.00000,-72256502.74313,   0.00000
61139405.98658,36277096.38390,230967759.65768,   0.00021,   0.00005,   0.00300,403577021.85144,   0.00000,274640135.82653,   0.00000,   0.00000,   0.00000,-71063113.97509,   0.00000
62280634.94283,35810116.48277,231597058.77579,   0.00021,   0.00004,   0.00301,404774700.34608,   0.00000,274640135.82653,   0.00000,   0.00000,   0.00000,-69865435.48045,   0.00000
63411875.02419,35353125.45652,232221363.45645,   0.00022,   0.00004,   0.00302,405967223.23013,   0.00000,274640135.82653,   0.00000,   0.00000,   0.00000,-68672912.59640,   0.00000
64553103.98044,34886145.55539,232840673.69967,   0.00023,   0.00003,   0.00303,407156573.55672,   0.00000,274640135.82653,   0.00000,   0.00000,   0.00000,-67483562.26981,   0.00000
65694332.93669,34419165.65425,233454989.50544,   0.00023,   0.00003,   0.00303,408341739.95734,   0.00000,274640135.82653,   0.00000,   0.00000,   0.00000,-66298395.86919,   0.00000
66828070.23677,33934705.22206,234064310.87376,   0.00024,   0.00002,   0.00304,409521756.68756,   0.00000,274640135.82653,   0.00000,   0.00000,   0.00000,-65118379.13897,   0.00000
67961807.53686,33450244.78987,234668637.80465,   0.00024,   0.00002,   0.00305,410697572.14886,   0.00000,274640135.82653,   0.00000,   0.00000,   0.00000,-63942563.67766,   0.00000
69113025.36800,32973276.01384,235272964.73553,   0.00025,   0.00002,   0.00306,411879919.57769,   0.00000,274640135.82653,   0.00000,   0.00000,   0.00000,-62760216.24884,   0.00000
70239271.01191,32471335.05059,235872297.22896,   0.00026,   0.00001,   0.00307,413054962.06887,   0.00000,274640135.82653,   0.00000,   0.00000,   0.00000,-61585173.75766,   0.00000
71390488.84305,31994366.27456,236466635.28495,   0.00026,   0.00001,   0.00307,414228869.98730,   0.00000,274640135.82653,   0.00000,   0.00000,   0.00000,-60411265.83923,   0.00000
72526723.36186,31482436.43642,237055978.90350,   0.00027,   0.00000,   0.00308,415396873.90384,   0.00000,274640135.82653,   0.00000,   0.00000,   0.00000,-59243261.92269,   0.00000
73670449.53683,30987987.12933,237640328.08460,   0.00027,  -0.00000,   0.00309,416561481.81954,   0.00000,274640135.82653,   0.00000,   0.00000,   0.00000,-58078654.00699,   0.00000
74806684.05563,30476057.29119,238219682.82825,   0.00028,  -0.00001,   0.00310,417721042.22645,   0.00000,274640135.82653,   0.00000,   0.00000,   0.00000,-56919093.60008,   0.00000
75942918.57444,29964127.45305,238799037.57190,   0.00029,  -0.00001,   0.00310,418884892.97193,   0.00000,274640135.82653,   0.00000,   0.00000,   0.00000,-55755242.85460,   0.00000
77079153.09324,29452197.61491,239368403.44067,   0.00029,  -0.00002,   0.00311,420035921.12369,   0.00000,274640135.82653,   0.00000,   0.00000,   0.00000,-54604214.70284,   0.00000
78225376.48694,28930278.90187,239937769.30943,   0.00030,  -0.00002,   0.00312,421192934.44745,   0.00000,274640135.82653,   0.00000,   0.00000,   0.00000,-53447201.37908,   0.00000
79371599.88063,28408360.18884,240502140.74075,   0.00031,  -0.00003,   0.00313,422345720.82680,   0.00000,274640135.82653,   0.00000,   0.00000,   0.00000,-52294414.99973,   0.00000
80500342.74327,27878949.81964,241061517.73462,   0.00031,  -0.00003,   0.00313,423491726.01904,   0.00000,274640135.82653,   0.00000,   0.00000,   0.00000,-51148409.80749,   0.00000
81646566.13696,27357031.10660,241615900.29105,   0.00032,  -0.00003,   0.00314,424635951.23792,   0.00000,274640135.82653,   0.00000,   0.00000,   0.00000,-50004184.58861,   0.00000
82785297.87449,26817631.86251,242165288.41003,   0.00032,  -0.00004,   0.00315,425775252.93633,   0.00000,274640135.82653,   0.00000,   0.00000,   0.00000,-48864882.89020,   0.00000
83924029.61202,26278232.61842,242709682.09157,   0.00033,  -0.00004,   0.00316,426910274.44467,   0.00000,274640135.82653,   0.00000,   0.00000,   0.00000,-47729861.38186,   0.00000
85072750.22444,25728844.49944,243249081.33566,   0.00034,  -0.00005,   0.00316,428043069.58563,   0.00000,274640135.82653,   0.00000,   0.00000,   0.00000,-46597066.24089,   0.00000
86211481.96196,25189445.25535,243788480.57975,   0.00034,  -0.00005,   0.00317,429178026.18406,   0.00000,274640135.82653,   0.00000,   0.00000,   0.00000,-45462109.64247,   0.00000
87360202.57438,24640057.13636,244317890.94896,   0.00035,  -0.00006,   0.00318,430302303.66555,   0.00000,274640135.82653,   0.00000,   0.00000,   0.00000,-44337832.16098,   0.00000
88491442.65574,24083177.36121,244847301.31816,   0.00036,  -0.00006,   0.00318,431428073.53605,   0.00000,274640135.82653,   0.00000,   0.00000,   0.00000,-43212062.29048,   0.00000
89640163.26816,23533789.24223,245366722.81247,   0.00036,  -0.00007,   0.00319,432543768.17617,   0.00000,274640135.82653,   0.00000,   0.00000,   0.00000,-42096367.65036,   0.00000
90781392.22441,22966920.59219,245886144.30678,   0.00037,  -0.00007,   0.00320,433663186.67300,   0.00000,274640135.82653,   0.00000,   0.00000,   0.00000,-40976949.15353,   0.00000
91922621.18066,22400051.94215,246395576.92620,   0.00037,  -0.00008,   0.00320,434769824.28523,   0.00000,274640135.82653,   0.00000,   0.00000,   0.00000,-39870311.54130,   0.00000
93063850.13691,21833183.29211,246905009.54562,   0.00038,  -0.00008,   0.00321,435880647.89943,   0.00000,274640135.82653,   0.00000,   0.00000,   0.00000,-38759487.92710,   0.00000
94205079.09316,21266314.64207,247409447.72759,   0.00039,  -0.00009,   0.00322,436987142.47349,   0.00000,274640135.82653,   0.00000,   0.00000,   0.00000,-37652993.35304,   0.00000
95338816.39324,20681965.46097,247903897.03468,   0.00039,  -0.00009,   0.00322,438080433.24691,   0.00000,274640135.82653,   0.00000,   0.00000,   0.00000,-36559702.57962,   0.00000
96490034.22438,20105107.93604,248398346.34176,   0.00040,  -0.00010,   0.00323,439180845.33922,   0.00000,274640135.82653,   0.00000,   0.00000,   0.00000,-35459290.48731,   0.00000
97623771.52446,19520758.75494,248887801.21140,   0.00041,  -0.00010,   0.00324,440273986.82172,   0.00000,274640135.82653,   0.00000,   0.00000,   0.00000,-34366149.00481,   0.00000
98774989.35561,18943901.23001,249372261.64359,   0.00041,  -0.00011,   0.00324,441365790.36598,   0.00000,274640135.82653,   0.00000,   0.00000,   0.00000,-33274345.46055,   0.00000
99908726.65569,18359552.04891,249846733.20090,   0.00042,  -0.00011,   0.00325,442441767.49003,   0.00000,274640135.82653,   0.00000,   0.00000,   0.00000,-32198368.33650,   0.00000
101052452.83066,17765213.99292,250321204.75820,   0.00043,  -0.00012,   0.00325,443524632.07476,   0.00000,274640135.82653,   0.00000,   0.00000,   0.00000,-31115503.75177,   0.00000
102196179.00563,17170875.93693,250790681.87806,   0.00043,  -0.00012,   0.00326,444603192.09768,   0.00000,274640135.82653,   0.00000,   0.00000,   0.00000,-30036943.72885,   0.00000
103339905.18061,16576537.88094,251255164.56047,   0.00044,  -0.00013,   0.00327,445677431.46018,   0.00000,274640135.82653,   0.00000,   0.00000,   0.00000,-28962704.36635,   0.00000
104483631.35558,15982199.82494,251714652.80544,   0.00044,  -0.00013,   0.00327,446747334.59599,   0.00000,274640135.82653,   0.00000,   0.00000,   0.00000,-27892801.23054,   0.00000
105619865.87438,15370381.23790,252164152.17551,   0.00045,  -0.00014,   0.00328,447804271.98624,   0.00000,274640135.82653,   0.00000,   0.00000,   0.00000,-26835863.84029,   0.00000
106763592.04935,14776043.18191,252613651.54559,   0.00046,  -0.00014,   0.00328,448865484.78872,   0.00000,274640135.82653,   0.00000,   0.00000,   0.00000,-25774651.03781,   0.00000
107917307.09922,14171716.25103,253058156.47822,   0.00046,  -0.00015,   0.00329,449925439.31048,   0.00000,274640135.82653,   0.00000,   0.00000,   0.00000,-24714696.51605,   0.00000
109053541.61802,13559897.66398,253497666.97341,   0.00047,  -0.00015,   0.00330,450977818.06064,   0.00000,274640135.82653,   0.00000,   0.00000,   0.00000,-23662317.76588,   0.00000
110199765.01172,12938090.20204,253927188.59370,   0.00048,  -0.00016,   0.00330,452020640.24562,   0.00000,274640135.82653,   0.00000,   0.00000,   0.00000,-22619495.58091,   0.00000
111335999.53052,12326271.61499,254356710.21400,   0.00048,  -0.00016,   0.00331,453064335.48152,   0.00000,274640135.82653,   0.00000,   0.00000,   0.00000,-21575800.34501,   0.00000
112482222.92422,11704464.15305,254781237.39685,   0.00049,  -0.00017,   0.00331,454106967.13156,   0.00000,274640135.82653,   0.00000,   0.00000,   0.00000,-20533168.69497,   0.00000
113635937.97408,11100137.22217,255195775.70481,   0.00050,  -0.00017,   0.00332,455136920.88585,   0.00000,274640135.82653,   0.00000,   0.00000,   0.00000,-19503214.94068,   0.00000
114782161.36778,10478329.76023,255610314.01277,   0.00050,  -0.00018,   0.00332,456170924.67028,   0.00000,274640135.82653,   0.00000,   0.00000,   0.00000,-18469211.15625,   0.00000
115928384.76147,9856522.29829,256014863.44584,   0.00051,  -0.00018,   0.00333,457192215.19115,   0.00000,274640135.82653,   0.00000,   0.00000,   0.00000,-17447920.63538,   0.00000
117067116.49900,9217234.30529,256419412.87891,   0.00051,  -0.00019,   0.00333,458217609.91357,   0.00000,274640135.82653,   0.00000,   0.00000,   0.00000,-16422525.91296,   0.00000
118213339.89269,8595426.84335,256813973.43708,   0.00052,  -0.00019,   0.00334,459230260.14613,   0.00000,274640135.82653,   0.00000,   0.00000,   0.00000,-15409875.68040,   0.00000
119359563.28639,7973619.38141,257203539.55782,   0.00053,  -0.00020,   0.00334,460238566.95195,   0.00000,274640135.82653,   0.00000,   0.00000,   0.00000,-14401568.87457,   0.00000
120498295.02392,7334331.38842,257588111.24111,   0.00053,  -0.00020,   0.00335,461242628.39792,   0.00000,274640135.82653,   0.00000,   0.00000,   0.00000,-13397507.42861,   0.00000
121654507.29250,6702535.05159,257972682.92439,   0.00054,  -0.00021,   0.00335,462254329.26801,   0.00000,274640135.82653,   0.00000,   0.00000,   0.00000,-12385806.55852,   0.00000
122793239.03003,6063247.05859,258347265.73279,   0.00055,  -0.00021,   0.00336,463249766.22319,   0.00000,274640135.82653,   0.00000,   0.00000,   0.00000,-11390369.60334,   0.00000
123949451.29862,5431450.72176,258716854.10374,   0.00055,  -0.00022,   0.00336,464244519.18086,   0.00000,274640135.82653,   0.00000,   0.00000,   0.00000,-10395616.64567,   0.00000
125088183.03614,4792162.72876,259076453.59980,   0.00056,  -0.00022,   0.00337,465222959.30006,   0.00000,274640135.82653,   0.00000,   0.00000,   0.00000,-9417176.52647,   0.00000
126244395.30473,4160366.39193,259436053.09586,   0.00057,  -0.00023,   0.00337,466209105.43752,   0.00000,274640135.82653,   0.00000,   0.00000,   0.00000,-8431030.38900,   0.00000
127393115.91715,3511089.52404,259790658.15448,   0.00057,  -0.00023,   0.00338,467191184.94574,   0.00000,274640135.82653,   0.00000,   0.00000,   0.00000,-7448950.88079,   0.00000
128549328.18573,2879293.18721,260140268.77565,   0.00058,  -0.00024,   0.00338,468168737.97532,   0.00000,274640135.82653,   0.00000,   0.00000,   0.00000,-6471397.85121,   0.00000
129698048.79815,2230016.31932,260479890.52193,   0.00059,  -0.00024,   0.00339,469133934.14715,   0.00000,274640135.82653,   0.00000,   0.00000,   0.00000,-5506201.67938,   0.00000
130846769.41057,1580739.45144,260819512.26821,   0.00059,  -0.00025,   0.00339,470103174.94288,   0.00000,274640135.82653,   0.00000,   0.00000,   0.00000,-4536960.88365,   0.00000
131995490.02299,931462.58355,261149145.13960,   0.00060,  -0.00025,   0.00339,471059822.28400,   0.00000,274640135.82653,   0.00000,   0.00000,   0.00000,-3580313.54253,   0.00000
133151702.29157,299666.24672,261473783.57354,   0.00061,  -0.00026,   0.00340,472011846.29300,   0.00000,274640135.82653,   0.00000,   0.00000,   0.00000,-2628289.53353,   0.00000
134300422.90399,-349610.62117,261793427.57004,   0.00061,  -0.00026,   0.00340,472959908.26990,   0.00000,274640135.82653,   0.00000,   0.00000,   0.00000,-1680227.55663,   0.00000
135449143.51641,-998887.48906,262108077.12910,   0.00062,  -0.00027,   0.00341,473903681.14137,   0.00000,274640135.82653,   0.00000,   0.00000,   0.00000,-736454.68516,   0.00000
136343771.69512,-1521569.59785,262350820.88000,   0.00062,  -0.00027,   0.00341,474640132.56485,   0.00000,274640135.82653,   0.00000,   0.00000,   0.00000,  -6.85142,   0.00000
136536920.43195,-1660139.89594,262305828.47149,   0.00062,  -0.00027,   0.00341,474641759.69328,   0.00000,274641764.30769,   0.00000,  -0.00000,   0.00000,  -4.61441,   1.00000
137454622.19385,-2275220.77752,262094283.61120,   0.00063,  -0.00028,   0.00342,474649270.41914,   0.00001,274649278.97547,   0.00000,  -0.00000,   0.00001,  -8.55633,   1.00000
138357511.65159,-2897015.09553,261882238.88177,   0.00064,  -0.00028,   0.00342,474656653.43688,   0.00002,274656657.75755,   0.00000,  -0.00000,   0.00001,  -4.32067,   1.00000
139274000.83468,-3509832.46052,261666201.00674,   0.00064,  -0.00029,   0.00342,474664088.47661,   0.00002,274664097.01573,   0.00000,  -0.00000,   0.00002,  -8.53912,   1.00000
140168152.89140,-4146859.52073,261449403.97552,   0.00065,  -0.00029,   0.00343,474671399.69210,   0.00003,274671404.15273,   0.00000,  -0.00000,   0.00003,  -4.46063,   1.00000
141083496.93174,-4757436.20927,261228853.71751,   0.00066,  -0.00030,   0.00343,474678758.83201,   0.00004,274678768.36581,   0.00001,  -0.00000,   0.00003,  -9.53380,   1.00000
141992902.99258,-5384655.26385,261005277.44596,   0.00066,  -0.00031,   0.00343,474686029.29624,   0.00004,274686033.50352,   0.00001,  -0.00000,   0.00004,  -4.20728,   1.00000
142909393.14105,-5993354.23447,260779702.26392,   0.00067,  -0.00031,   0.00344,474693249.26528,   0.00005,274693257.39598,   0.00001,  -0.00000,   0.00005,  -8.13070,   1.00000
143803700.90084,-6626389.70639,260553323.43799,   0.00068,  -0.00032,   0.00344,474700343.22765,   0.00005,274700349.74571,   0.00001,  -0.00001,   0.00005,  -6.51806,   1.00000
144719182.04192,-7232972.59997,260323194.39310,   0.00068,  -0.00032,   0.00344,474707493.13551,   0.00006,274707499.30749,   0.00001,  -0.00001,   0.00006,  -6.17198,   1.00000
145626510.34712,-7855963.77533,260090451.04938,   0.00069,  -0.00033,   0.00345,474714610.53347,   0.00007,274714616.66290,   0.00001,  -0.00001,   0.00007,  -6.12943,   1.00000
146535668.65922,-8478261.17439,259854876.52493,   0.00070,  -0.00033,   0.00345,474721625.09577,   0.00007,274721632.05720,   0.00001,  -0.00001,   0.00007,  -6.96143,   1.00000
147452028.14508,-9082119.60058,259617335.53745,   0.00070,  -0.00034,   0.00345,474728601.61380,   0.00008,274728605.78727,   0.00001,  -0.00001,   0.00008,  -4.17347,   1.00000
148376477.96083,-9694754.38269,259374777.84037,   0.00071,  -0.00034,   0.00346,474735576.00397,   0.00009,274735582.48533,   0.00002,  -0.00001,   0.00009,  -6.48137,   1.00000
149284239.68694,-10314082.12423,259132224.54862,   0.00072,  -0.00035,   0.00346,474742481.57870,   0.00009,274742488.74811,   0.00002,  -0.00001,   0.00009,  -7.16941,   1.00000
150199265.16297,-10915012.91955,258887723.43551,   0.00072,  -0.00035,   0.00346,474749348.30831,   0.00010,274749353.10713,   0.00002,  -0.00001,   0.00010,  -4.79882,   1.00000
151108568.85572,-11532821.65531,258639940.62442,   0.00073,  -0.00036,   0.00347,474756116.74919,   0.00011,274756122.02592,   0.00002,  -0.00001,   0.00010,  -5.27673,   1.00000
152031236.31911,-12141576.32596,258387980.54588,   0.00074,  -0.00036,   0.00347,474762950.34872,   0.00011,274762954.83281,   0.00002,  -0.00001,   0.00011,  -4.48409,   1.00000
152947451.90105,-12740103.99914,258135889.15205,   0.00074,  -0.00037,   0.00347,474769640.50107,   0.00012,274769646.03456,   0.00002,  -0.00001,   0.00012,  -5.53348,   1.00000
153871705.90772,-13347435.03126,257878602.82889,   0.00075,  -0.00037,   0.00347,474776336.69925,   0.00012,274776342.96881,   0.00002,  -0.00001,   0.00012,  -6.26957,   1.00000
154779457.16006,-13961583.36384,257621359.45886,   0.00076,  -0.00038,   0.00348,474782968.32472,   0.00013,274782968.87846,   0.00002,  -0.00001,   0.00013,  -0.55375,   1.00000
155710682.50859,-14549693.03297,257359733.79747,   0.00076,  -0.00038,   0.00348,474789585.59347,   0.00014,274789588.64731,   0.00003,  -0.00001,   0.00013,  -3.05384,   1.00000
156633792.48372,-15154352.80203,257095262.12850,   0.00077,  -0.00039,   0.00348,474796171.56783,   0.00014,274796179.78607,   0.00003,  -0.00001,   0.00014,  -8.21824,   1.00000
157550708.36918,-15748951.10726,256830694.66599,   0.00078,  -0.00039,   0.00348,474802622.92817,   0.00015,274802628.61149,   0.00003,  -0.00002,   0.00014,  -5.68331,   1.00000
158475608.47534,-16352369.91860,256560774.99811,   0.00078,  -0.00040,   0.00349,474809081.69426,   0.00015,274809085.60313,   0.00003,  -0.00002,   0.00015,  -3.90887,   1.00000
159407935.88492,-16937545.77255,256288905.27293,   0.00079,  -0.00040,   0.00349,474815499.52422,   0.00016,274815500.81221,   0.00003,  -0.00002,   0.00016,  -1.28799,   1.00000
160339939.59791,-17521917.64240,256014604.32008,   0.00080,  -0.00041,   0.00349,474821871.77935,   0.00017,274821881.31336,   0.00003,  -0.00002,   0.00016,  -9.53401,   1.00000
161263858.51356,-18122892.23873,255737368.33355,   0.00080,  -0.00042,   0.00349,474828225.25849,   0.00017,274828234.53865,   0.00003,  -0.00002,   0.00017,  -9.28016,   1.00000
162197798.41939,-18706180.68274,255457517.34842,   0.00081,  -0.00042,   0.00349,474834474.14953,   0.00018,274834482.31475,   0.00003,  -0.00002,   0.00017,  -8.16522,   1.00000
163128912.07256,-19288178.25513,255175894.10142,   0.00082,  -0.00043,   0.00350,474840758.67640,   0.00018,274840759.19083,   0.00004,  -0.00002,   0.00018,  -0.51443,   1.00000
164062307.54020,-19869950.88319,254891117.41784,   0.00082,  -0.00043,   0.00350,474846934.19213,   0.00019,274846938.48960,   0.00004,  -0.00002,   0.00018,  -4.29748,   1.00000
165011354.91147,-20443168.94105,254601294.27987,   0.00083,  -0.00044,   0.00350,474853116.82527,   0.00019,274853121.65456,   0.00004,  -0.00002,   0.00019,  -4.82930,   1.00000
165944213.97797,-21023472.67219,254311552.43471,   0.00084,  -0.00044,   0.00350,474859231.04527,   0.00020,274859233.12001,   0.00004,  -0.00002,   0.00019,  -2.07474,   1.00000
166879430.59906,-21603618.31320,254018593.01827,   0.00084,  -0.00045,   0.00350,474865240.88547,   0.00021,274865247.85984,   0.00004,  -0.00002,   0.00020,  -6.97437,   1.00000
167819653.25392,-22165104.69506,253724432.06274,   0.00085,  -0.00045,   0.00350,474871277.65885,   0.00021,274871283.43591,   0.00004,  -0.00002,   0.00021,  -5.77706,   1.00000
168770278.03069,-22736031.27219,253423833.60035,   0.00086,  -0.00046,   0.00350,474877266.76877,   0.00022,274877269.78918,   0.00004,  -0.00002,   0.00021,  -3.02041,   1.00000
169712684.14448,-23296748.95933,253123907.68836,   0.00086,  -0.00046,   0.00351,474883170.26359,   0.00022,274883175.61890,   0.00004,  -0.00002,   0.00022,  -5.35532,   1.00000
170662841.25779,-23866326.12597,252818213.67257,   0.00087,  -0.00047,   0.00351,474889091.71484,   0.00023,274889096.10966,   0.00005,  -0.00003,   0.00022,  -4.39482,   1.00000
171607512.57678,-24426347.55660,252512444.71362,   0.00088,  -0.00047,   0.00351,474894866.02722,   0.00023,274894873.24450,   0.00005,  -0.00003,   0.00023,  -7.21728,   1.00000
172565111.34082,-24977245.12106,252202238.57426,   0.00088,  -0.00048,   0.00351,474900714.82029,   0.00024,274900719.25859,   0.00005,  -0.00003,   0.00023,  -4.43830,   1.00000
173525182.88136,-25528148.62108,251888666.94583,   0.00089,  -0.00048,   0.00351,474906468.40337,   0.00024,274906470.53464,   0.00005,  -0.00003,   0.00024,  -2.13126,   1.00000
174485057.70436,-26078442.91510,251572499.11418,   0.00090,  -0.00049,   0.00351,474912187.77319,   0.00025,274912189.59419,   0.00005,  -0.00003,   0.00024,  -1.82100,   1.00000
175429044.49906,-26636040.69588,251256433.62565,   0.00090,  -0.00049,   0.00351,474917834.78952,   0.00025,274917836.42149,   0.00005,  -0.00003,   0.00025,  -1.63197,   1.00000
176396496.13786,-27167781.77219,250935713.87775,   0.00091,  -0.00050,   0.00351,474923479.33809,   0.00026,274923481.52238,   0.00005,  -0.00003,   0.00025,  -2.18429,   1.00000
177355859.76637,-27716316.14988,250611717.88094,   0.00092,  -0.00050,   0.00351,474929095.41574,   0.00026,274929104.50280,   0.00005,  -0.00003,   0.00026,  -9.08706,   1.00000
178325736.67475,-28247601.84237,250284919.17360,   0.00092,  -0.00051,   0.00351,474934618.73766,   0.00027,274934624.18455,   0.00006,  -0.00003,   0.00026,  -5.44689,   1.00000
179295468.19102,-28778352.50500,249955475.23471,   0.00093,  -0.00051,   0.00352,474940107.24756,   0.00027,274940112.34812,   0.00006,  -0.00003,   0.00027,  -5.10055,   1.00000
180265061.90112,-29308575.67067,249623375.31284,   0.00094,  -0.00052,   0.00352,474945560.94914,   0.00028,274945569.15541,   0.00006,  -0.00003,   0.00027,  -8.20627,   1.00000
181234528.94655,-29838279.71078,249288614.09278,   0.00094,  -0.00052,   0.00352,474950990.45631,   0.00028,274950994.68737,   0.00006,  -0.00003,   0.00028,  -4.23106,   1.00000
182230185.04588,-30342876.71433,248948199.80347,   0.00095,  -0.00053,   0.00352,474956352.84076,   0.00029,274956359.15473,   0.00006,  -0.00003,   0.00028,  -6.31397,   1.00000
183199374.04702,-30871590.20978,248608066.36878,   0.00096,  -0.00053,   0.00352,474961718.16942,   0.00029,274961722.89959,   0.00006,  -0.00004,   0.00028,  -4.73017,   1.00000
184179251.36065,-31383199.75088,248265044.44013,   0.00096,  -0.00054,   0.00352,474966980.92223,   0.00030,274966984.31571,   0.00006,  -0.00004,   0.00029,  -3.39348,   1.00000
185174530.01661,-31886356.51910,247916484.72101,   0.00097,  -0.00054,   0.00352,474972249.26365,   0.00030,274972257.33642,   0.00006,  -0.00004,   0.00029,  -8.07277,   1.00000
186162204.92306,-32379736.55551,247568761.36175,   0.00098,  -0.00055,   0.00352,474977443.50631,   0.00031,274977446.84737,   0.00007,  -0.00004,   0.00030,  -3.34106,   1.00000
187144643.90345,-32890764.61765,247216623.07119,   0.00098,  -0.00055,   0.00352,474982554.14188,   0.00031,274982556.64351,   0.00007,  -0.00004,   0.00030,  -2.50163,   1.00000
188147601.36636,-33375264.15389,246860574.20240,   0.00099,  -0.00056,   0.00352,474987719.14586,   0.00032,274987728.39636,   0.00007,  -0.00004,   0.00031,  -9.25050,   1.00000
189153321.04050,-33860115.87493,246500792.83016,   0.00100,  -0.00056,   0.00352,474992802.33911,   0.00032,274992810.19476,   0.00007,  -0.00004,   0.00031,  -7.85565,   1.00000
190143555.25812,-34352606.29220,246141102.52318,   0.00100,  -0.00057,   0.00352,474997817.79712,   0.00033,274997819.45545,   0.00007,  -0.00004,   0.00032,  -1.65833,   1.00000
191149104.19799,-34836657.03351,245775731.16257,   0.00101,  -0.00057,   0.00352,475002840.60167,   0.00033,275002842.58655,   0.00007,  -0.00004,   0.00032,  -1.98488,   1.00000
192162615.89643,-35303012.92001,245408322.63855,   0.00102,  -0.00058,   0.00351,475007818.29557,   0.00034,275007825.02000,   0.00007,  -0.00004,   0.00032,  -6.72443,   1.00000
193155581.16555,-35795171.15431,245039203.75485,   0.00102,  -0.00058,   0.00351,475012677.75822,   0.00034,275012686.93575,   0.00007,  -0.00004,   0.00033,  -9.17752,   1.00000
194171890.18285,-36261585.31873,244665119.43291,   0.00103,  -0.00059,   0.00351,475017545.01358,   0.00034,275017552.02594,   0.00008,  -0.00004,   0.00033,  -7.01235,   1.00000
195193278.35037,-36709553.91600,244290024.72375,   0.00104,  -0.00059,   0.00351,475022435.23449,   0.00035,275022435.91842,   0.00008,  -0.00004,   0.00034,  -0.68392,   1.00000
196209458.84525,-37175308.21750,243910214.00681,   0.00104,  -0.00060,   0.00351,475027241.19751,   0.00035,275027244.26231,   0.00008,  -0.00005,   0.00034,  -3.06480,   1.00000
197236643.80029,-37624258.92711,243527268.29691,   0.00105,  -0.00060,   0.00351,475031948.70045,   0.00036,275031953.19765,   0.00008,  -0.00005,   0.00035,  -4.49720,   1.00000
198260811.14667,-38072081.61087,243142498.64914,   0.00106,  -0.00061,   0.00351,475036691.59864,   0.00036,275036693.24684,   0.00008,  -0.00005,   0.00035,  -1.64820,   1.00000
199296034.00098,-38503152.33990,242754562.62819,   0.00106,  -0.00061,   0.00351,475041325.04123,   0.00037,275041334.21955,   0.00008,  -0.00005,   0.00035,  -9.17833,   1.00000
200335254.70175,-38942262.64594,242360983.34902,   0.00107,  -0.00062,   0.00351,475046061.92658,   0.00037,275046063.99954,   0.00008,  -0.00005,   0.00036,  -2.07295,   1.00000
201370396.19850,-39372784.83819,241967178.99881,   0.00108,  -0.00062,   0.00351,475050642.63854,   0.00037,275050650.23190,   0.00008,  -0.00005,   0.00036,  -7.59336,   1.00000
202408528.13610,-39803897.98785,241569297.82474,   0.00108,  -0.00063,   0.00351,475055141.97582,   0.00038,275055150.91667,   0.00008,  -0.00005,   0.00037,  -8.94085,   1.00000
203451772.24618,-40216628.25219,241170438.11034,   0.00109,  -0.00063,   0.00350,475059665.47872,   0.00038,275059670.08398,   0.00009,  -0.00005,   0.00037,  -4.60526,   1.00000
204510050.62274,-40620955.93143,240765569.30876,   0.00110,  -0.00064,   0.00350,475064200.62355,   0.00039,275064208.37407,   0.00009,  -0.00005,   0.00037,  -7.75052,   1.00000
205556286.49207,-41034100.92837,240359582.65225,   0.00110,  -0.00064,   0.00350,475068614.70748,   0.00039,275068616.16967,   0.00009,  -0.00005,   0.00038,  -1.46219,   1.00000
206617511.60119,-41438833.31498,239947517.40812,   0.00111,  -0.00064,   0.00350,475073041.71141,   0.00040,275073044.17816,   0.00009,  -0.00005,   0.00038,  -2.46675,   1.00000
207686871.04278,-41826083.03244,239533279.94349,   0.00112,  -0.00065,   0.00350,475077427.94183,   0.00040,275077433.20994,   0.00009,  -0.00005,   0.00038,  -5.26811,   1.00000
208741227.42214,-42221341.94176,239119070.71711,   0.00112,  -0.00065,   0.00350,475081747.09543,   0.00040,275081749.81275,   0.00009,  -0.00005,   0.00039,  -2.71732,   1.00000
209818722.71052,-42590939.27329,238699607.59402,   0.00113,  -0.00066,   0.00350,475086064.81568,   0.00041,275086074.16485,   0.00009,  -0.00006,   0.00039,  -9.34918,   1.00000
210896175.00262,-42960364.71298,238277071.45112,   0.00114,  -0.00066,   0.00349,475090364.56200,   0.00041,275090373.15582,   0.00009,  -0.00006,   0.00040,  -8.59382,   1.00000
211961824.09819,-43338759.32939,237853311.20600,   0.00114,  -0.00067,   0.00349,475094536.24708,   0.00042,275094542.60979,   0.00010,  -0.00006,   0.00040,  -6.36271,   1.00000
213042329.43095,-43708746.76345,237423323.10618,   0.00115,  -0.00067,   0.00349,475098731.80670,   0.00042,275098734.68086,   0.00010,  -0.00006,   0.00040,  -2.87416,   1.00000
214131043.09218,-44061329.66730,236991102.29339,   0.00116,  -0.00068,   0.00349,475102884.19267,   0.00042,275102888.51284,   0.00010,  -0.00006,   0.00041,  -4.32018,   1.00000
215219717.52436,-44413770.17971,236555731.17626,   0.00117,  -0.00068,   0.00349,475107009.75897,   0.00043,275107018.08271,   0.00010,  -0.00006,   0.00041,  -8.32374,   1.00000
216316628.21640,-44748837.66280,236118118.09151,   0.00117,  -0.00069,   0.00348,475111099.50003,   0.00043,275111109.49336,   0.00010,  -0.00006,   0.00041,  -9.99332,   1.00000
217413508.28878,-45083787.50431,235677335.42587,   0.00118,  -0.00069,   0.00348,475115170.44896,   0.00043,275115176.90035,   0.00010,  -0.00006,   0.00042,  -6.45139,   1.00000
218528235.44166,-45411256.83952,235228857.20267,   0.00119,  -0.00069,   0.00348,475119205.61259,   0.00044,275119213.16596,   0.00010,  -0.00006,   0.00042,  -7.55336,   1.00000
219633308.78087,-45728748.40470,234782596.38618,   0.00119,  -0.00070,   0.00348,475123213.25393,   0.00044,275123219.38232,   0.00010,  -0.00006,   0.00042,  -6.12839,   1.00000
220741546.76648,-46047084.21910,234331765.37896,   0.00120,  -0.00070,   0.00347,475127138.59073,   0.00044,275127146.44840,   0.00011,  -0.00006,   0.00043,  -7.85767,   1.00000
221864374.49974,-46357003.93395,233874477.98126,   0.00121,  -0.00071,   0.00347,475131091.93190,   0.00045,275131099.90902,   0.00011,  -0.00006,   0.00043,  -7.97712,   1.00000
222980848.21869,-46657940.01106,233418066.48384,   0.00121,  -0.00071,   0.00347,475134960.15487,   0.00045,275134967.13609,   0.00011,  -0.00006,   0.00043,  -6.98123,   1.00000
224097292.13363,-46958803.03993,232958380.91313,   0.00122,  -0.00072,   0.00347,475138809.02391,   0.00046,275138811.84112,   0.00011,  -0.00006,   0.00044,  -2.81721,   1.00000
225236584.02886,-47234032.25437,232493117.80684,   0.00123,  -0.00072,   0.00346,475142667.14905,   0.00046,275142669.49944,   0.00011,  -0.00007,   0.00044,  -2.35039,   1.00000
226375784.76575,-47509199.96266,232024526.83102,   0.00123,  -0.00072,   0.00346,475146499.08003,   0.00046,275146505.49995,   0.00011,  -0.00007,   0.00044,  -6.41992,   1.00000
227512044.10450,-47776433.52371,231555372.39423,   0.00124,  -0.00073,   0.00346,475150190.27434,   0.00047,275150200.08096,   0.00011,  -0.00007,   0.00045,  -9.80662,   1.00000
228654341.46996,-48052455.10281,231078638.84340,   0.00125,  -0.00073,   0.00345,475153933.77428,   0.00047,275153938.56422,   0.00011,  -0.00007,   0.00045,  -4.78994,   1.00000
229810030.45798,-48293047.37536,230601908.94037,   0.00125,  -0.00074,   0.00345,475157675.33838,   0.00047,275157681.00996,   0.00011,  -0.00007,   0.00045,  -5.67158,   1.00000
230968914.45390,-48534585.90584,230120315.06144,   0.00126,  -0.00074,   0.00345,475161345.55025,   0.00048,275161348.19654,   0.00012,  -0.00007,   0.00046,  -2.64629,   1.00000
232113343.83936,-48784502.00639,229638593.89426,   0.00127,  -0.00074,   0.00344,475164936.97424,   0.00048,275164943.97593,   0.00012,  -0.00007,   0.00046,  -7.00169,   1.00000
233280463.71049,-49008790.58357,229151127.69824,   0.00127,  -0.00075,   0.00344,475168546.59457,   0.00048,275168555.40719,   0.00012,  -0.00007,   0.00046,  -8.81262,   1.00000
234447482.61565,-49233068.25492,228660214.57778,   0.00128,  -0.00075,   0.00344,475172144.82826,   0.00049,275172146.86954,   0.00012,  -0.00007,   0.00046,  -2.04128,   1.00000
235614386.99262,-49457330.83698,228165829.00045,   0.00129,  -0.00076,   0.00343,475175717.17130,   0.00049,275175718.75843,   0.00012,  -0.00007,   0.00047,  -1.58713,   1.00000
236807174.29468,-49656935.46241,227664047.12343,   0.00130,  -0.00076,   0.00343,475179253.19378,   0.00049,275179254.42528,   0.00012,  -0.00007,   0.00047,  -1.23150,   1.00000
237990694.16662,-49846815.65846,227164622.64207,   0.00130,  -0.00076,   0.00343,475182755.51843,   0.00050,275182757.44295,   0.00012,  -0.00007,   0.00047,  -1.92452,   1.00000
239177445.64237,-50037698.82179,226660095.16584,   0.00131,  -0.00077,   0.00342,475186181.42699,   0.00050,275186188.33458,   0.00012,  -0.00007,   0.00048,  -6.90759,   1.00000
240360706.63143,-50227603.97245,226153617.82486,   0.00132,  -0.00077,   0.00342,475189646.81715,   0.00050,275189653.76479,   0.00012,  -0.00008,   0.00048,  -6.94764,   1.00000
241569775.66851,-50392858.91811,225639592.20644,   0.00132,  -0.00078,   0.00342,475193081.89818,   0.00051,275193085.19922,   0.00013,  -0.00008,   0.00048,  -3.30105,   1.00000
242773064.21099,-50549442.62145,225126326.98965,   0.00133,  -0.00078,   0.00341,475196421.75278,   0.00051,275196430.65320,   0.00013,  -0.00008,   0.00049,  -8.90041,   1.00000
243986849.17478,-50696575.23404,224607721.23201,   0.00134,  -0.00078,   0.00341,475199861.40267,   0.00051,275199863.96207,   0.00013,  -0.00008,   0.00049,  -2.55941,   1.00000
245189821.68464,-50853233.65503,224087224.22717,   0.00134,  -0.00079,   0.00340,475203164.45537,   0.00051,275203174.38576,   0.00013,  -0.00008,   0.00049,  -9.93039,   1.00000
246415103.77245,-50984244.10339,223560677.96109,   0.00135,  -0.00079,   0.00340,475206496.70090,   0.00052,275206505.55332,   0.00013,  -0.00008,   0.00049,  -8.85243,   1.00000
247648675.26371,-51098125.91571,223031450.61278,   0.00136,  -0.00079,   0.00340,475209797.78491,   0.00052,275209804.52800,   0.00013,  -0.00008,   0.00050,  -6.74309,   1.00000
248868121.87203,-51220585.11000,222501954.43872,   0.00136,  -0.00080,   0.00339,475213026.36585,   0.00052,275213033.23187,   0.00013,  -0.00008,   0.00050,  -6.86602,   1.00000
250109773.31943,-51317397.19515,221966329.60757,   0.00137,  -0.00080,   0.00339,475216278.11237,   0.00053,275216284.01071,   0.00013,  -0.00008,   0.00050,  -5.89834,   1.00000
251351169.00844,-51414265.20746,221426973.03272,   0.00138,  -0.00081,   0.00338,475219513.12172,   0.00053,275219519.09103,   0.00013,  -0.00008,   0.00050,  -5.96931,   1.00000
252592299.95517,-51511185.49720,220883868.44364,   0.00139,  -0.00081,   0.00338,475222738.36802,   0.00053,275222738.73451,   0.00014,  -0.00008,   0.00051,  -0.36649,   1.00000
253845169.89811,-51591995.53326,220336218.21988,   0.00139,  -0.00081,   0.00337,475225872.96311,   0.00054,275225876.45179,   0.00014,  -0.00008,   0.00051,  -3.48868,   1.00000
255102850.57174,-51654706.38135,219787547.34871,   0.00140,  -0.00082,   0.00337,475229033.00744,   0.00054,275229034.58900,   0.00014,  -0.00008,   0.00051,  -1.58156,   1.00000
256360229.84729,-51717484.96431,219235066.99614,   0.00141,  -0.00082,   0.00336,475232170.45290,   0.00054,275232178.20649,   0.00014,  -0.00008,   0.00051,  -7.75359,   1.00000
257625888.39469,-51763177.00641,218679765.15166,   0.00141,  -0.00082,   0.00336,475235287.39742,   0.00054,275235291.57701,   0.00014,  -0.00009,   0.00052,  -4.17958,   1.00000
258916907.63425,-51784197.49344,218116286.77687,   0.00142,  -0.00083,   0.00336,475238378.20638,   0.00055,275238380.43043,   0.00014,  -0.00009,   0.00052,  -2.22405,   1.00000
260190461.66465,-51812892.58183,217554253.43686,   0.00143,  -0.00083,   0.00335,475241446.19910,   0.00055,275241450.56613,   0.00014,  -0.00009,   0.00052,  -4.36703,   1.00000
261463667.21857,-51841665.37148,216988336.37568,   0.00143,  -0.00083,   0.00335,475244499.02747,   0.00055,275244507.31887,   0.00014,  -0.00009,   0.00052,  -8.29141,   1.00000
262758608.97169,-51844748.12840,216415997.04871,   0.00144,  -0.00084,   0.00334,475247587.82523,   0.00056,275247591.31791,   0.00014,  -0.00009,   0.00053,  -3.49268,   1.00000
264051813.18299,-51840377.13564,215842334.34429,   0.00145,  -0.00084,   0.00334,475250534.15132,   0.00056,275250540.94962,   0.00015,  -0.00009,   0.00053,  -6.79829,   1.00000
265354492.72090,-51826466.63372,215263088.93590,   0.00145,  -0.00084,   0.00333,475253582.40490,   0.00056,275253584.49904,   0.00015,  -0.00009,   0.00053,  -2.09414,   1.00000
266651967.90061,-51804124.73816,214684391.86706,   0.00146,  -0.00085,   0.00333,475256536.47892,   0.00056,275256543.46996,   0.00015,  -0.00009,   0.00053,  -6.99104,   1.00000
267962347.43716,-51773230.56662,214098163.56607,   0.00147,  -0.00085,   0.00332,475259544.21923,   0.00057,275259547.71066,   0.00015,  -0.00009,   0.00054,  -3.49143,   1.00000
269284422.85496,-51726260.26240,213506931.67966,   0.00148,  -0.00085,   0.00331,475262466.60141,   0.00057,275262476.16544,   0.00015,  -0.00009,   0.00054,  -9.56403,   1.00000
270611062.28026,-51661240.13422,212914602.82634,   0.00148,  -0.00085,   0.00331,475265418.60543,   0.00057,275265426.80382,   0.00015,  -0.00009,   0.00054,  -8.19839,   1.00000
271923958.67826,-51604977.79120,212321780.18019,   0.00149,  -0.00086,   0.00330,475268300.96402,   0.00057,275268309.21979,   0.00015,  -0.00009,   0.00054,  -8.25577,   1.00000
273258193.89254,-51522994.89185,211722295.52217,   0.00150,  -0.00086,   0.00330,475271218.69901,   0.00058,275271223.13804,   0.00015,  -0.00009,   0.00055,  -4.43903,   1.00000
274600522.30656,-51423962.33774,211119681.46009,   0.00150,  -0.00086,   0.00329,475274107.61580,   0.00058,275274111.39719,   0.00015,  -0.00009,   0.00055,  -3.78139,   1.00000
275942247.89645,-51325028.39617,210512934.77947,   0.00151,  -0.00087,   0.00329,475276986.13693,   0.00058,275276990.26193,   0.00016,  -0.00009,   0.00055,  -4.12499,   1.00000
277305069.00684,-51200354.48479,209899408.60912,   0.00152,  -0.00087,   0.00328,475279897.14821,   0.00059,275279902.82442,   0.00016,  -0.00010,   0.00055,  -5.67621,   1.00000
278654185.14316,-51084468.16633,209285298.16056,   0.00153,  -0.00087,   0.00328,475282743.96875,   0.00059,275282748.25867,   0.00016,  -0.00010,   0.00056,  -4.28992,   1.00000
280011335.43957,-50951530.48047,208667964.85022,   0.00153,  -0.00087,   0.00327,475285568.04271,   0.00059,275285569.45173,   0.00016,  -0.00010,   0.00056,  -1.40902,   1.00000
281376495.46691,-50801544.42767,208047376.60951,   0.00154,  -0.00088,   0.00326,475288357.10034,   0.00059,275288366.88268,   0.00016,  -0.00010,   0.00056,  -9.78233,   1.00000
282758886.07279,-50624840.91992,207422017.05332,   0.00155,  -0.00088,   0.00326,475291242.57956,   0.00060,275291247.14725,   0.00016,  -0.00010,   0.00056,  -4.56769,   1.00000
284131289.18291,-50457921.43438,206793880.76071,   0.00155,  -0.00088,   0.00325,475294006.85794,   0.00060,275294013.97154,   0.00016,  -0.00010,   0.00056,  -7.11359,   1.00000
285502930.91589,-50291099.80376,206161461.67509,   0.00156,  -0.00089,   0.00325,475296769.93855,   0.00060,275296773.85103,   0.00016,  -0.00010,   0.00057,  -3.91248,   1.00000
286900305.71109,-50080397.15459,205525174.22161,   0.00157,  -0.00089,   0.00324,475299594.53646,   0.00060,275299602.18457,   0.00016,  -0.00010,   0.00057,  -7.64811,   1.00000
288296796.08364,-49869802.94592,204884558.31169,   0.00157,  -0.00089,   0.00323,475302420.56223,   0.00061,275302424.48536,   0.00017,  -0.00010,   0.00057,  -3.92314,   1.00000
289692137.49752,-49651845.98012,204241983.28126,   0.00158,  -0.00089,   0.00323,475305115.61920,   0.00061,275305119.11276,   0.00017,  -0.00010,   0.00057,  -3.49355,   1.00000
291095519.43483,-49424305.67729,203593592.81229,   0.00159,  -0.00089,   0.00322,475307911.21462,   0.00061,275307914.80877,   0.00017,  -0.00010,   0.00058,  -3.59415,   1.00000
292506673.32923,-49179714.41449,202941745.25950,   0.00160,  -0.00090,   0.00322,475310686.62255,   0.00061,275310690.06528,   0.00017,  -0.00010,   0.00058,  -3.44274,   1.00000
293913076.46740,-48926822.77152,202290089.13209,   0.00160,  -0.00090,   0.00321,475313374.51287,   0.00062,275313384.22156,   0.00017,  -0.00010,   0.00058,  -9.70869,   1.00000
295327287.13615,-48664357.34215,201632611.16546,   0.00161,  -0.00090,   0.00320,475316177.39459,   0.00062,275316180.21404,   0.00017,  -0.00010,   0.00058,  -2.81946,   1.00000
296761638.58012,-48368617.17948,200970233.94918,   0.00162,  -0.00090,   0.00320,475318891.01046,   0.00062,275318896.55117,   0.00017,  -0.00011,   0.00058,  -5.54072,   1.00000
298191187.98142,-48072066.04170,200305679.86945,   0.00162,  -0.00091,   0.00319,475321649.80029,   0.00062,275321654.34247,   0.00017,  -0.00011,   0.00059,  -4.54217,   1.00000
299623313.98395,-47776538.10898,199634297.35430,   0.00163,  -0.00091,   0.00318,475324363.56211,   0.00063,275324364.50432,   0.00017,  -0.00011,   0.00059,  -0.94220,   1.00000
301068087.38184,-47445882.52192,198962547.10575,   0.00164,  -0.00091,   0.00318,475327078.51067,   0.00063,275327086.01432,   0.00018,  -0.00011,   0.00059,  -7.50365,   1.00000
302523862.40029,-47106572.85291,198282540.17855,   0.00165,  -0.00091,   0.00317,475329860.31851,   0.00063,275329867.62363,   0.00018,  -0.00011,   0.00059,  -7.30512,   1.00000
303966168.91868,-46776137.53024,197601669.76814,   0.00165,  -0.00091,   0.00316,475332580.30214,   0.00063,275332585.15766,   0.00018,  -0.00011,   0.00059,  -4.85552,   1.00000
305421029.13830,-46410588.62432,196920408.89652,   0.00166,  -0.00092,   0.00316,475335313.05471,   0.00064,275335314.62443,   0.00018,  -0.00011,   0.00060,  -1.56971,   1.00000
306878309.34298,-46046045.19253,196232128.77091,   0.00167,  -0.00092,   0.00315,475337998.28079,   0.00064,275337999.37032,   0.00018,  -0.00011,   0.00060,  -1.08953,   1.00000
308351281.00680,-45654782.57048,195538802.41604,   0.00167,  -0.00092,   0.00314,475340774.71924,   0.00064,275340774.99631,   0.00018,  -0.00011,   0.00060,  -0.27707,   1.00000
309819609.85627,-45255243.89354,194845428.03198,   0.00168,  -0.00092,   0.00314,475343467.64556,   0.00064,275343472.33738,   0.00018,  -0.00011,   0.00060,  -4.69182,   1.00000
311307188.84524,-44829873.75299,194144515.75984,   0.00169,  -0.00092,   0.00313,475346215.27960,   0.00065,275346218.49081,   0.00018,  -0.00011,   0.00060,  -3.21121,   1.00000
312781362.97537,-44413400.22757,193442637.58450,   0.00169,  -0.00093,   0.00312,475348900.39738,   0.00065,275348901.72189,   0.00018,  -0.00011,   0.00061,  -1.32451,   1.00000
314274591.19774,-43971080.84047,192733148.94643,   0.00170,  -0.00093,   0.00311,475351625.83804,   0.00065,275351635.28794,   0.00019,  -0.00011,   0.00061,  -9.44990,   1.00000
315759468.35286,-43519632.14573,192026041.30157,   0.00171,  -0.00093,   0.00311,475354328.64305,   0.00065,275354333.89887,   0.00019,  -0.00011,   0.00061,  -5.25582,   1.00000
317254429.38835,-43059523.96941,191310430.92801,   0.00172,  -0.00093,   0.00310,475357090.22085,   0.00066,275357098.47975,   0.00019,  -0.00012,   0.00061,  -8.25890,   1.00000
318756448.13324,-42582352.06231,190590879.04123,   0.00172,  -0.00093,   0.00309,475359841.33217,   0.00066,275359850.98278,   0.00019,  -0.00012,   0.00062,  -9.65060,   1.00000
320270490.52288,-42070105.55160,189870763.12748,   0.00173,  -0.00093,   0.00309,475362613.47953,   0.00066,275362619.20939,   0.00019,  -0.00012,   0.00062,  -5.72986,   1.00000
321766166.16878,-41584785.62848,189146172.92703,   0.00174,  -0.00093,   0.00308,475365292.51532,   0.00066,275365298.39522,   0.00019,  -0.00012,   0.00062,  -5.87990,   1.00000
323285318.69262,-41055608.45822,188417227.17358,   0.00174,  -0.00094,   0.00307,475368057.63528,   0.00067,275368058.91903,   0.00019,  -0.00012,   0.00062,  -1.28375,   1.00000
324811315.05448,-40509373.33218,187684218.40083,   0.00175,  -0.00094,   0.00306,475370802.68926,   0.00067,275370809.53275,   0.00019,  -0.00012,   0.00062,  -6.84349,   1.00000
326331553.19500,-39962479.47588,186948975.96509,   0.00176,  -0.00094,   0.00306,475373599.62096,   0.00067,275373605.23703,   0.00020,  -0.00012,   0.00063,  -5.61606,   1.00000
327862332.93640,-39399320.53112,186206968.00734,   0.00177,  -0.00094,   0.00305,475376349.60704,   0.00067,275376351.27057,   0.00020,  -0.00012,   0.00063,  -1.66353,   1.00000
329396007.59650,-38818311.14791,185463494.19614,   0.00177,  -0.00094,   0.00304,475379123.28264,   0.00068,275379129.29575,   0.00020,  -0.00012,   0.00063,  -6.01311,   1.00000
330927551.86891,-38237451.19105,184715085.00687,   0.00178,  -0.00094,   0.00303,475381910.95075,   0.00068,275381912.85097,   0.00020,  -0.00012,   0.00063,  -1.90022,   1.00000
332481783.47786,-37612783.01248,183962188.69526,   0.00179,  -0.00094,   0.00303,475384774.23742,   0.00068,275384781.74599,   0.00020,  -0.00012,   0.00063,  -7.50857,   1.00000
334022605.90949,-36997049.23862,183208097.34392,   0.00179,  -0.00094,   0.00302,475387583.45767,   0.00068,275387590.73235,   0.00020,  -0.00012,   0.00064,  -7.27468,   1.00000
335569897.16481,-36364261.32382,182449771.38934,   0.00180,  -0.00094,   0.00301,475390391.21316,   0.00069,275390393.15442,   0.00020,  -0.00012,   0.00064,  -1.94125,   1.00000
337123578.47174,-35714417.02874,181687169.25014,   0.00181,  -0.00094,   0.00300,475393185.92871,   0.00069,275393189.77362,   0.00021,  -0.00013,   0.00064,  -3.84492,   1.00000
338690679.89246,-35038032.44658,180919260.31778,   0.00182,  -0.00095,   0.00299,475396078.71434,   0.00069,275396087.34498,   0.00021,  -0.00013,   0.00064,  -8.63064,   1.00000
340253118.82810,-34353358.63003,180150812.29426,   0.00182,  -0.00095,   0.00299,475398907.28560,   0.00069,275398913.05057,   0.00021,  -0.00013,   0.00064,  -5.76498,   1.00000
341809204.19788,-33668158.50720,179380125.73428,   0.00183,  -0.00095,   0.00298,475401779.51196,   0.00070,275401785.74889,   0.00021,  -0.00013,   0.00065,  -6.23692,   1.00000
343385951.68113,-32957885.58556,178598430.24699,   0.00184,  -0.00095,   0.00297,475404676.88221,   0.00070,275404684.05671,   0.00021,  -0.00013,   0.00065,  -7.17449,   1.00000
344954202.16442,-32238606.41460,177818973.89937,   0.00184,  -0.00095,   0.00296,475407545.71732,   0.00070,275407549.78730,   0.00021,  -0.00013,   0.00065,  -4.06998,   1.00000
346535232.32990,-31492877.21820,177034174.70122,   0.00185,  -0.00095,   0.00295,475410514.31515,   0.00071,275410518.86745,   0.00021,  -0.00013,   0.00065,  -4.55230,   1.00000
348122088.94888,-30730132.38247,176244918.83758,   0.00186,  -0.00095,   0.00295,475413485.27070,   0.00071,275413486.12361,   0.00022,  -0.00013,   0.00065,  -0.85292,   1.00000
349704207.72613,-29959084.93542,175454964.62919,   0.00187,  -0.00095,   0.00294,475416377.05505,   0.00071,275416383.79568,   0.00022,  -0.00013,   0.00066,  -6.74063,   1.00000
351293786.71460,-29179567.26136,174656038.97643,   0.00187,  -0.00095,   0.00293,475419360.41834,   0.00071,275419361.25599,   0.00022,  -0.00013,   0.00066,  -0.83764,   1.00000
352883498.51876,-28373822.08296,173859966.36231,   0.00188,  -0.00095,   0.00292,475422290.83198,   0.00072,275422295.05961,   0.00022,  -0.00013,   0.00066,  -4.22763,   1.00000
354480389.82592,-27559646.74944,173054887.12915,   0.00189,  -0.00095,   0.00291,475425301.28417,   0.00072,275425309.93662,   0.00022,  -0.00013,   0.00066,  -8.65245,   1.00000
356078904.23689,-26727845.91518,172248205.37797,   0.00190,  -0.00095,   0.00290,475428352.79745,   0.00072,275428362.43479,   0.00022,  -0.00013,   0.00067,  -9.63734,   1.00000
357682764.74698,-25879063.06628,171436909.43718,   0.00190,  -0.00095,   0.00290,475431406.91477,   0.00072,275431416.58335,   0.00022,  -0.00014,   0.00067,  -9.66858,   1.00000
359277989.82616,-25021360.11826,170627796.20015,   0.00191,  -0.00095,   0.00289,475434433.87081,   0.00073,275434439.34317,   0.00023,  -0.00014,   0.00067,  -5.47236,   1.00000
360888513.71549,-24138031.38004,169810233.57338,   0.00192,  -0.00095,   0.00288,475437533.68680,   0.00073,275437534.33268,   0.00023,  -0.00014,   0.00067,  -0.64588,   1.00000
362495457.99109,-23255033.49276,168987383.06815,   0.00192,  -0.00095,   0.00287,475440642.53294,   0.00073,275440643.76044,   0.00023,  -0.00014,   0.00067,  -1.22751,   1.00000
364112234.07555,-22337210.93461,168163475.56918,   0.00193,  -0.00095,   0.00286,475443777.24265,   0.00074,275443781.85714,   0.00023,  -0.00014,   0.00068,  -4.61449,   1.00000
365725269.95065,-21419754.74967,167334255.13536,   0.00194,  -0.00095,   0.00285,475446930.14808,   0.00074,275446935.19849,   0.00023,  -0.00014,   0.00068,  -5.05041,   1.00000
367347932.90083,-20467513.08793,166503946.10677,   0.00195,  -0.00095,   0.00285,475450116.97376,   0.00074,275450118.22931,   0.00023,  -0.00014,   0.00068,  -1.25555,   1.00000
368966678.51118,-19515674.38982,165668294.52472,   0.00195,  -0.00095,   0.00284,475453316.72959,   0.00074,275453317.41943,   0.00024,  -0.00014,   0.00068,  -0.68984,   1.00000
370590023.80140,-18546931.93739,164827824.20502,   0.00196,  -0.00095,   0.00283,475456514.59415,   0.00075,275456523.15097,   0.00024,  -0.00014,   0.00069,  -8.55683,   1.00000
372214084.24349,-17560775.38179,163985684.38483,   0.00197,  -0.00095,   0.00282,475459764.14209,   0.00075,275459770.16936,   0.00024,  -0.00014,   0.00069,  -6.02727,   1.00000
373838758.80172,-16557237.66982,163141875.30449,   0.00197,  -0.00095,   0.00281,475463049.36864,   0.00075,275463058.77737,   0.00024,  -0.00014,   0.00069,  -9.40873,   1.00000
375467745.27576,-15536853.94038,162293193.68009,   0.00198,  -0.00095,   0.00280,475466351.31747,   0.00076,275466355.48147,   0.00024,  -0.00015,   0.00069,  -4.16399,   1.00000
377092378.72797,-14516962.07369,161439111.78936,   0.00199,  -0.00095,   0.00279,475469663.05838,   0.00076,275469670.46358,   0.00024,  -0.00015,   0.00069,  -7.40520,   1.00000
378725862.17624,-13462426.85637,160583831.66117,   0.00200,  -0.00095,   0.00278,475473012.70325,   0.00076,275473018.94338,   0.00025,  -0.00015,   0.00070,  -6.24013,   1.00000
380359539.95844,-12390629.21017,159726862.43137,   0.00200,  -0.00095,   0.00278,475476406.46231,   0.00077,275476410.56103,   0.00025,  -0.00015,   0.00070,  -4.09872,   1.00000
381988593.23294,-11319404.15902,158864472.39664,   0.00201,  -0.00095,   0.00277,475479820.08821,   0.00077,275479821.55505,   0.00025,  -0.00015,   0.00070,  -1.46684,   1.00000
383638957.76166,-10205594.34267,157993778.78522,   0.00202,  -0.00095,   0.00276,475483301.54674,   0.00077,275483307.56114,   0.00025,  -0.00015,   0.00070,  -6.01440,   1.00000
385271596.61715,-9100439.76816,157124690.64975,   0.00202,  -0.00094,   0.00275,475486768.85760,   0.00078,275486774.39529,   0.00025,  -0.00015,   0.00071,  -5.53769,   1.00000
386904019.78727,-7978145.88362,156253915.56691,   0.00203,  -0.00094,   0.00274,475490280.07108,   0.00078,275490285.66888,   0.00026,  -0.00015,   0.00071,  -5.59780,   1.00000
388539869.32877,-6839161.75121,155378103.43936,   0.00204,  -0.00094,   0.00273,475493802.57776,   0.00078,275493809.88998,   0.00026,  -0.00015,   0.00071,  -7.31222,   1.00000
390187407.97396,-5666139.08140,154497616.66218,   0.00205,  -0.00094,   0.00272,475497334.64847,   0.00079,275497340.18233,   0.00026,  -0.00015,   0.00071,  -5.53386,   1.00000
391822190.14386,-4493079.19180,153618406.79216,   0.00205,  -0.00094,   0.00271,475500945.63025,   0.00079,275500955.53313,   0.00026,  -0.00016,   0.00072,  -9.90287,   1.00000
393472419.28847,-3295425.44163,152726970.37743,   0.00206,  -0.00094,   0.00270,475504622.51451,   0.00079,275504627.75149,   0.00026,  -0.00016,   0.00072,  -5.23697,   1.00000
395109393.81063,-2088821.82341,151840964.95344,   0.00207,  -0.00094,   0.00269,475508302.02259,   0.00080,275508304.56665,   0.00027,  -0.00016,   0.00072,  -2.54406,   1.00000
396749163.15993,-865671.17206,150949827.16582,   0.00208,  -0.00094,   0.00269,475511990.52384,   0.00080,275511997.49316,   0.00027,  -0.00016,   0.00072,  -6.96932,   1.00000
398383289.33288,356614.18939,150053196.27620,   0.00208,  -0.00094,   0.00268,475515707.83485,   0.00080,275515713.96675,   0.00027,  -0.00016,   0.00073,  -6.13189,   1.00000
400032890.45524,1621402.86319,149151492.58073,   0.00209,  -0.00093,   0.00267,475519538.12272,   0.00081,275519545.30172,   0.00027,  -0.00016,   0.00073,  -7.17900,   1.00000
401672767.73208,2894677.14579,148251783.32744,   0.00210,  -0.00093,   0.00266,475523345.68535,   0.00081,275523351.19171,   0.00028,  -0.00016,   0.00073,  -5.50636,   1.00000
403314889.42676,4184367.98011,147346865.28068,   0.00210,  -0.00093,   0.00265,475527167.66093,   0.00081,275527175.88578,   0.00028,  -0.00016,   0.00073,  -8.22485,   1.00000
404955418.70958,5490731.98244,146440245.07659,   0.00211,  -0.00093,   0.00264,475531043.93432,   0.00082,275531049.56125,   0.00028,  -0.00016,   0.00074,  -5.62694,   1.00000
406589722.90416,6796031.01849,145528107.97463,   0.00212,  -0.00093,   0.00263,475534944.11269,   0.00082,275534948.93934,   0.00028,  -0.00017,   0.00074,  -4.82665,   1.00000
408234683.03436,8143750.27615,144614448.25285,   0.00213,  -0.00093,   0.00262,475538990.74466,   0.00082,275538995.89148,   0.00028,  -0.00017,   0.00074,  -5.14682,   1.00000
409876971.67995,9499304.65274,143695608.06913,   0.00213,  -0.00092,   0.00261,475542958.95677,   0.00083,275542961.05500,   0.00029,  -0.00017,   0.00074,  -2.09823,   1.00000
411505338.66001,10854143.34775,142778430.58668,   0.00214,  -0.00092,   0.00260,475547010.25420,   0.00083,275547010.31418,   0.00029,  -0.00017,   0.00075,  -0.05998,   1.00000
413143229.25542,12242586.21160,141856208.07142,   0.00215,  -0.00092,   0.00259,475551068.23563,   0.00083,275551077.10216,   0.00029,  -0.00017,   0.00075,  -8.86653,   1.00000
414770656.82821,13629942.81296,140932099.01923,   0.00215,  -0.00092,   0.00258,475555193.82678,   0.00084,275555199.54974,   0.00029,  -0.00017,   0.00075,  -5.72297,   1.00000
416407250.45430,15050819.64662,140002893.76496,   0.00216,  -0.00092,   0.00257,475559339.89829,   0.00084,275559341.30405,   0.00030,  -0.00017,   0.00075,  -1.40575,   1.00000
418040651.12318,16478484.45403,139068209.75118,   0.00217,  -0.00091,   0.00256,475563614.00017,   0.00085,275563614.53670,   0.00030,  -0.00017,   0.00076,  -0.53653,   1.00000
419671652.62191,17931748.04729,138135670.93686,   0.00218,  -0.00091,   0.00255,475567858.48138,   0.00085,275567861.15735,   0.00030,  -0.00018,   0.00076,  -2.67597,   1.00000
421295321.48759,19383493.43887,137197620.16612,   0.00218,  -0.00091,   0.00254,475572132.87060,   0.00085,275572137.01028,   0.00030,  -0.00018,   0.00076,  -4.13968,   1.00000
422923801.40602,20868720.79420,136258091.47934,   0.00219,  -0.00091,   0.00254,475576459.73630,   0.00086,275576462.65312,   0.00031,  -0.00018,   0.00076,  -2.91683,   1.00000
424541094.16693,22352455.70150,135316787.30026,   0.00220,  -0.00090,   0.00253,475580840.32822,   0.00086,275580844.96669,   0.00031,  -0.00018,   0.00077,  -4.63847,   1.00000
426155009.91217,23852084.54120,134373884.47853,   0.00221,  -0.00090,   0.00252,475585272.66482,   0.00087,275585280.80964,   0.00031,  -0.00018,   0.00077,  -8.14482,   1.00000
427776782.89966,25384862.96036,133425743.56593,   0.00221,  -0.00090,   0.00251,475589738.51664,   0.00087,275589741.90964,   0.00032,  -0.00018,   0.00077,  -3.39299,   1.00000
429386995.89754,26915924.71896,132475891.07002,   0.00222,  -0.00090,   0.00250,475594255.99654,   0.00087,275594260.13635,   0.00032,  -0.00018,   0.00077,  -4.13981,   1.00000
431001111.70632,28480107.37842,131524558.12109,   0.00223,  -0.00089,   0.00249,475598827.83035,   0.00088,275598831.12064,   0.00032,  -0.00018,   0.00078,  -3.29029,   1.00000
432606969.75782,30042329.79417,130567754.40531,   0.00223,  -0.00089,   0.00248,475603433.62629,   0.00088,275603433.88515,   0.00032,  -0.00019,   0.00078,  -0.25885,   1.00000
434216316.72837,31637522.61537,129609459.00674,   0.00224,  -0.00089,   0.00247,475608084.03769,   0.00089,275608090.90431,   0.00033,  -0.00019,   0.00078,  -6.86662,   1.00000
435813620.62450,33230671.32696,128649556.35769,   0.00225,  -0.00089,   0.00246,475612799.76992,   0.00089,275612805.39504,   0.00033,  -0.00019,   0.00079,  -5.62513,   1.00000
437406447.54908,34839164.55591,127688138.81614,   0.00226,  -0.00088,   0.00245,475617572.13487,   0.00090,275617576.02129,   0.00033,  -0.00019,   0.00079,  -3.88641,   1.00000
439002213.73397,36480365.96297,126725252.63880,   0.00226,  -0.00088,   0.00244,475622400.98386,   0.00090,275622402.40960,   0.00034,  -0.00019,   0.00079,  -1.42575,   1.00000
440582597.18289,38111702.15559,125760406.93929,   0.00227,  -0.00088,   0.00243,475627179.54660,   0.00090,275627185.45826,   0.00034,  -0.00019,   0.00079,  -5.91166,   1.00000
442171982.66628,39783117.45143,124790640.80210,   0.00228,  -0.00087,   0.00242,475632096.12519,   0.00091,275632102.22682,   0.00034,  -0.00019,   0.00080,  -6.10163,   1.00000
443748695.15057,41452038.21605,123819408.66330,   0.00228,  -0.00087,   0.00241,475637073.76064,   0.00091,275637076.88048,   0.00035,  -0.00019,   0.00080,  -3.11984,   1.00000
445330940.16072,43153319.50030,122842776.07411,   0.00229,  -0.00087,   0.00240,475642081.61704,   0.00092,275642086.38301,   0.00035,  -0.00020,   0.00080,  -4.76598,   1.00000
446890709.11657,44844513.13861,121872096.33821,   0.00230,  -0.00086,   0.00239,475647099.82765,   0.00092,275647100.20657,   0.00035,  -0.00020,   0.00081,  -0.37891,   1.00000
448454420.57224,46557824.19451,120892653.49008,   0.00231,  -0.00086,   0.00238,475652223.01160,   0.00093,275652226.33214,   0.00036,  -0.00020,   0.00081,  -3.32054,   1.00000
450013644.99424,48295885.17698,119915150.54212,   0.00231,  -0.00086,   0.00237,475657330.29979,   0.00093,275657335.40585,   0.00036,  -0.00020,   0.00081,  -5.10605,   1.00000
451572810.24219,50055707.66141,118932902.86075,   0.00232,  -0.00085,   0.00236,475662576.19330,   0.00094,275662581.24447,   0.00036,  -0.00020,   0.00081,  -5.05118,   1.00000
453112732.22015,51805225.33840,117952725.54185,   0.00233,  -0.00085,   0.00235,475667802.84592,   0.00094,275667807.87244,   0.00037,  -0.00020,   0.00082,  -5.02652,   1.00000
454662693.18312,53593764.12299,116963776.45514,   0.00233,  -0.00085,   0.00234,475673150.38728,   0.00095,275673151.42451,   0.00037,  -0.00020,   0.00082,  -1.03722,   1.00000
456189960.09958,55371776.10954,115980979.78861,   0.00234,  -0.00084,   0.00233,475678492.22906,   0.00095,275678497.79632,   0.00037,  -0.00021,   0.00082,  -5.56726,   1.00000
457721094.10726,57181436.74716,114992738.76700,   0.00235,  -0.00084,   0.00232,475683883.28393,   0.00096,275683885.12332,   0.00038,  -0.00021,   0.00083,  -1.83939,   1.00000
459238375.56573,58987623.27301,114003348.76819,   0.00236,  -0.00084,   0.00231,475689326.75892,   0.00096,275689330.65123,   0.00038,  -0.00021,   0.00083,  -3.89232,   1.00000
460761152.36788,60832095.54475,113009339.53214,   0.00236,  -0.00083,   0.00230,475694912.10234,   0.00097,275694917.86432,   0.00039,  -0.00021,   0.00083,  -5.76198,   1.00000
462271316.54466,62683289.62160,112017373.45370,   0.00237,  -0.00083,   0.00229,475700487.64468,   0.00097,275700489.10367,   0.00039,  -0.00021,   0.00084,  -1.45899,   1.00000
463767256.24916,64530656.97475,111024376.52999,   0.00238,  -0.00082,   0.00228,475706111.46058,   0.00098,275706118.43942,   0.00039,  -0.00021,   0.00084,  -6.97884,   1.00000
465262637.22826,66408945.22087,110030078.36841,   0.00238,  -0.00082,   0.00227,475711806.72148,   0.00098,275711813.28558,   0.00040,  -0.00022,   0.00084,  -6.56410,   1.00000
466753537.15080,68300750.46483,109030495.93154,   0.00239,  -0.00082,   0.00226,475717549.83031,   0.00099,275717550.19311,   0.00040,  -0.00022,   0.00084,  -0.36280,   1.00000
468226613.25942,70188179.42254,108034166.61871,   0.00240,  -0.00081,   0.00225,475723356.39968,   0.00099,275723365.37132,   0.00041,  -0.00022,   0.00085,  -8.97164,   1.00000
469696691.97038,72099634.22236,107035566.68445,   0.00241,  -0.00081,   0.00224,475729143.12956,   0.00100,275729149.88922,   0.00041,  -0.00022,   0.00085,  -6.75966,   1.00000
471163500.86589,74030739.08993,106032772.22842,   0.00241,  -0.00080,   0.00223,475735072.32118,   0.00100,275735075.48590,   0.00041,  -0.00022,   0.00085,  -3.16471,   1.00000
472621877.45280,75974652.34649,105028968.25862,   0.00242,  -0.00080,   0.00222,475741060.38450,   0.00101,275741064.63117,   0.00042,  -0.00022,   0.00086,  -4.24668,   1.00000
474063857.77784,77924472.31542,104031519.75520,   0.00243,  -0.00079,   0.00221,475747054.62402,   0.00102,275747058.46506,   0.00042,  -0.00022,   0.00086,  -3.84104,   1.00000
475504930.79168,79893596.01968,103025802.11595,   0.00243,  -0.00079,   0.00220,475753165.78139,   0.00102,275753174.99610,   0.00043,  -0.00023,   0.00086,  -9.21470,   1.00000
476932513.79350,81868676.76685,102022243.09343,   0.00244,  -0.00079,   0.00219,475759270.42468,   0.00103,275759277.51981,   0.00043,  -0.00023,   0.00087,  -7.09513,   1.00000
478344721.22823,83838711.41866,101018060.35427,   0.00245,  -0.00078,   0.00218,475765427.88519,   0.00103,275765437.57146,   0.00044,  -0.00023,   0.00087,  -9.68627,   1.00000
479758562.37152,85844603.42498,100009763.40731,   0.00246,  -0.00078,   0.00217,475771740.34385,   0.00104,275771746.47969,   0.00044,  -0.00023,   0.00087,  -6.13585,   1.00000
481161606.10495,87856447.31214,98999377.15933,   0.00246,  -0.00077,   0.00216,475778023.09715,   0.00104,275778024.05603,   0.00045,  -0.00023,   0.00088,  -0.95889,   1.00000
482558263.83413,89897175.35899,97992231.53115,   0.00247,  -0.00077,   0.00215,475784391.91368,   0.00105,275784391.95647,   0.00045,  -0.00023,   0.00088,  -0.04279,   1.00000
483938932.40923,91932231.86276,96984630.40218,   0.00248,  -0.00076,   0.00214,475790810.14426,   0.00106,275790817.55869,   0.00045,  -0.00024,   0.00088,  -7.41443,   1.00000
485309708.08209,93978820.85498,95976339.36138,   0.00248,  -0.00076,   0.00213,475797299.87109,   0.00106,275797308.23544,   0.00046,  -0.00024,   0.00089,  -8.36434,   1.00000
486670411.86290,96036780.92455,94967399.02129,   0.00249,  -0.00075,   0.00212,475803860.82631,   0.00107,275803864.16772,   0.00046,  -0.00024,   0.00089,  -3.34140,   1.00000
488016925.30744,98099982.02818,93960739.97655,   0.00250,  -0.00075,   0.00211,475810399.45463,   0.00107,275810407.44053,   0.00047,  -0.00024,   0.00089,  -7.98590,   1.00000
489356986.32047,100180207.24056,92950624.63201,   0.00251,  -0.00074,   0.00210,475817092.52365,   0.00108,275817094.30265,   0.00047,  -0.00024,   0.00089,  -1.77900,   1.00000
490685496.50226,102265800.04089,91938443.22799,   0.00251,  -0.00074,   0.00209,475823746.25166,   0.00109,275823752.51201,   0.00048,  -0.00024,   0.00090,  -6.26035,   1.00000
492009929.23324,104384840.08278,90926978.12226,   0.00252,  -0.00073,   0.00208,475830572.33893,   0.00109,275830580.74060,   0.00048,  -0.00025,   0.00090,  -8.40168,   1.00000
493313929.57593,106491410.67131,89918220.28374,   0.00253,  -0.00073,   0.00207,475837384.42145,   0.00110,275837387.55415,   0.00049,  -0.00025,   0.00090,  -3.13270,   1.00000
494606896.87560,108608412.50870,88909048.21876,   0.00253,  -0.00072,   0.00206,475844256.43750,   0.00111,275844260.52451,   0.00049,  -0.00025,   0.00091,  -4.08701,   1.00000
495897720.88647,110758443.85912,87896379.08869,   0.00254,  -0.00071,   0.00205,475851282.39665,   0.00111,275851288.35684,   0.00050,  -0.00025,   0.00091,  -5.96019,   1.00000
497167988.82449,112895705.36941,86886509.05180,   0.00255,  -0.00071,   0.00204,475858292.96424,   0.00112,275858294.37823,   0.00051,  -0.00025,   0.00091,  -1.41399,   1.00000
498423356.91470,115037393.28899,85879072.57426,   0.00255,  -0.00070,   0.00203,475865281.52165,   0.00113,275865288.96425,   0.00051,  -0.00025,   0.00092,  -7.44260,   1.00000
499675763.56634,117211402.75711,84868307.43712,   0.00256,  -0.00070,   0.00202,475872433.83314,   0.00113,275872439.47269,   0.00052,  -0.00026,   0.00092,  -5.63955,   1.00000
500910789.63259,119377747.21749,83857748.63002,   0.00257,  -0.00069,   0.00201,475879638.24236,   0.00114,275879645.67577,   0.00052,  -0.00026,   0.00092,  -7.43341,   1.00000
502133247.06679,121564843.88440,82853786.97486,   0.00258,  -0.00069,   0.00200,475886866.11196,   0.00115,275886867.20646,   0.00053,  -0.00026,   0.00093,  -1.09450,   1.00000
503343932.98248,123749625.82269,81843004.27070,   0.00258,  -0.00068,   0.00199,475894204.04013,   0.00115,275894207.37805,   0.00053,  -0.00026,   0.00093,  -3.33793,   1.00000
504544336.03764,125955274.13143,80834361.80380,   0.00259,  -0.00067,   0.00198,475901544.54129,   0.00116,275901549.41089,   0.00054,  -0.00026,   0.00093,  -4.86960,   1.00000
505724485.19923,128152222.51943,79830656.48821,   0.00260,  -0.00067,   0.00197,475908952.90165,   0.00117,275908960.07204,   0.00055,  -0.00026,   0.00094,  -7.17039,   1.00000
506899557.76625,130375249.51674,78822034.57388,   0.00260,  -0.00066,   0.00196,475916432.19116,   0.00117,275916437.25137,   0.00055,  -0.00027,   0.00094,  -5.06021,   1.00000
508059135.00256,132606194.92512,77818049.81354,   0.00261,  -0.00065,   0.00195,475923991.33977,   0.00118,275923995.71457,   0.00056,  -0.00027,   0.00094,  -4.37480,   1.00000
509200775.89789,134828327.87649,76814652.36641,   0.00262,  -0.00065,   0.00194,475931603.76232,   0.00119,275931608.10438,   0.00056,  -0.00027,   0.00095,  -4.34206,   1.00000
510334079.44805,137075430.81157,75811019.49941,   0.00262,  -0.00064,   0.00193,475939297.19315,   0.00119,275939301.77007,   0.00057,  -0.00027,   0.00095,  -4.57691,   1.00000
511451398.12587,139325561.20442,74810074.19712,   0.00263,  -0.00064,   0.00192,475946985.68359,   0.00120,275946985.73231,   0.00058,  -0.00027,   0.00095,  -0.04872,   1.00000
512553084.85039,141571056.84395,73807458.70138,   0.00264,  -0.00063,   0.00191,475954798.16317,   0.00121,275954800.41441,   0.00058,  -0.00027,   0.00096,  -2.25124,   1.00000
513643289.93077,143836252.99748,72807140.47214,   0.00264,  -0.00062,   0.00191,475962613.94936,   0.00122,275962620.09515,   0.00059,  -0.00028,   0.00096,  -6.14579,   1.00000
514717323.72445,146108176.05031,71811825.54579,   0.00265,  -0.00062,   0.00190,475970511.65444,   0.00122,275970519.91829,   0.00059,  -0.00028,   0.00096,  -8.26385,   1.00000
515779770.75027,148387548.09880,70812341.20678,   0.00266,  -0.00061,   0.00189,475978469.89852,   0.00123,275978475.53198,   0.00060,  -0.00028,   0.00096,  -5.63346,   1.00000
516821433.08456,150656420.83937,69818469.07541,   0.00267,  -0.00060,   0.00188,475986490.76021,   0.00124,275986495.20260,   0.00061,  -0.00028,   0.00097,  -4.44239,   1.00000
517853274.37438,152948683.40758,68824696.81623,   0.00267,  -0.00060,   0.00187,475994594.18994,   0.00125,275994598.31479,   0.00061,  -0.00028,   0.00097,  -4.12484,   1.00000
518870716.17195,155247264.21966,67831548.75652,   0.00268,  -0.00059,   0.00186,476002763.64661,   0.00125,276002769.34556,   0.00062,  -0.00028,   0.00097,  -5.69895,   1.00000
519871560.53003,157547818.38733,66841304.36618,   0.00269,  -0.00058,   0.00185,476010928.68918,   0.00126,276010931.38673,   0.00063,  -0.00029,   0.00098,  -2.69756,   1.00000
520855599.46517,159853849.40187,65856438.52103,   0.00269,  -0.00058,   0.00184,476019167.25045,   0.00127,276019172.39492,   0.00063,  -0.00029,   0.00098,  -5.14446,   1.00000
521827103.87685,162166111.16446,64867668.69470,   0.00270,  -0.00057,   0.00183,476027462.59059,   0.00128,276027470.34056,   0.00064,  -0.00029,   0.00098,  -7.74997,   1.00000
522777675.13711,164466790.32665,63884909.92803,   0.00271,  -0.00056,   0.00182,476035819.66846,   0.00128,276035829.33699,   0.00065,  -0.00029,   0.00099,  -9.66853,   1.00000
523717223.07525,166789425.43643,62902560.54059,   0.00271,  -0.00055,   0.00181,476044266.66316,   0.00129,276044273.38393,   0.00066,  -0.00029,   0.00099,  -6.72077,   1.00000
524641629.20290,169117112.15879,61921165.90132,   0.00272,  -0.00055,   0.00180,476052782.60741,   0.00130,276052785.19828,   0.00066,  -0.00029,   0.00099,  -2.59086,   1.00000
525549049.95098,171445953.54237,60942839.18298,   0.00273,  -0.00054,   0.00179,476061287.89406,   0.00131,276061288.47971,   0.00067,  -0.00029,   0.00100,  -0.58565,   1.00000
526440738.42414,173782557.35322,59968252.50829,   0.00273,  -0.00053,   0.00178,476069936.48120,   0.00132,276069945.67878,   0.00068,  -0.00030,   0.00100,  -9.19758,   1.00000
527315352.65472,176120011.01910,58996799.22440,   0.00274,  -0.00052,   0.00177,476078586.64597,   0.00132,276078594.21887,   0.00068,  -0.00030,   0.00100,  -7.57290,   1.00000
528174415.38911,178461676.62829,58026514.34340,   0.00275,  -0.00052,   0.00176,476087303.41676,   0.00133,276087310.29928,   0.00069,  -0.00030,   0.00100,  -6.88252,   1.00000
529014459.08070,180790964.75202,57057964.51412,   0.00275,  -0.00051,   0.00175,476096072.62708,   0.00134,276096074.34277,   0.00070,  -0.00030,   0.00101,  -1.71569,   1.00000
529842097.50809,183140412.73414,56090215.73026,   0.00276,  -0.00050,   0.00174,476104920.73560,   0.00135,276104925.26260,   0.00071,  -0.00030,   0.00101,  -4.52700,   1.00000
530650543.68696,185489663.31371,55130463.00891,   0.00277,  -0.00049,   0.00173,476113776.19273,   0.00136,276113776.92975,   0.00071,  -0.00030,   0.00101,  -0.73702,   1.00000
531444375.56959,187845375.05775,54170244.24773,   0.00277,  -0.00049,   0.00172,476122764.93517,   0.00136,276122771.43200,   0.00072,  -0.00030,   0.00102,  -6.49684,   1.00000
532220806.28978,190201072.07309,53213330.72411,   0.00278,  -0.00048,   0.00171,476131748.81522,   0.00137,276131757.71299,   0.00073,  -0.00031,   0.00102,  -8.89778,   1.00000
532981072.71804,192559637.73045,52257934.18231,   0.00279,  -0.00047,   0.00170,476140809.77562,   0.00138,276140811.16804,   0.00074,  -0.00031,   0.00102,  -1.39242,   1.00000
533720419.39562,194904212.06822,51309401.65343,   0.00279,  -0.00046,   0.00169,476149917.82930,   0.00139,276149918.86275,   0.00075,  -0.00031,   0.00102,  -1.03346,   1.00000
534445226.04607,197264574.22766,50363745.16390,   0.00280,  -0.00045,   0.00168,476159030.58272,   0.00140,276159039.48869,   0.00075,  -0.00031,   0.00103,  -8.90597,   1.00000
535154741.61483,199629878.06664,49418055.55432,   0.00281,  -0.00045,   0.00167,476168292.22313,   0.00141,276168301.88491,   0.00076,  -0.00031,   0.00103,  -9.66178,   1.00000
535846662.27013,201994448.45489,48475811.72140,   0.00281,  -0.00044,   0.00166,476177555.78894,   0.00142,276177556.33197,   0.00077,  -0.00031,   0.00103,  -0.54303,   1.00000
536517791.05946,204344324.22374,47540672.14911,   0.00282,  -0.00043,   0.00165,476186858.32652,   0.00142,276186862.95525,   0.00078,  -0.00031,   0.00104,  -4.62872,   1.00000
537174901.73758,206711719.63014,46606902.45964,   0.00283,  -0.00042,   0.00164,476196254.16371,   0.00143,276196258.20118,   0.00079,  -0.00031,   0.00104,  -4.03747,   1.00000
537815270.41229,209080362.44012,45675057.45740,   0.00283,  -0.00041,   0.00163,476205716.05590,   0.00144,276205719.97207,   0.00079,  -0.00032,   0.00104,  -3.91617,   1.00000
538434088.36059,211431426.44404,44752073.71049,   0.00284,  -0.00040,   0.00162,476215153.63631,   0.00145,276215158.02076,   0.00080,  -0.00032,   0.00104,  -4.38445,   1.00000
539039306.66152,213801443.31560,43829092.77442,   0.00285,  -0.00040,   0.00162,476224755.38571,   0.00146,276224759.21685,   0.00081,  -0.00032,   0.00105,  -3.83115,   1.00000
539624655.72114,216154140.39621,42910203.01270,   0.00285,  -0.00039,   0.00161,476234327.24485,   0.00147,276234329.06950,   0.00082,  -0.00032,   0.00105,  -1.82465,   1.00000
540195215.12385,218522971.17375,41992980.89503,   0.00286,  -0.00038,   0.00160,476243978.73774,   0.00148,276243988.54948,   0.00083,  -0.00032,   0.00105,  -9.81174,   1.00000
540744604.33719,220873868.95049,41084731.72965,   0.00287,  -0.00037,   0.00159,476253614.97292,   0.00149,276253622.82223,   0.00084,  -0.00032,   0.00105,  -7.84931,   1.00000
541279691.30113,223242297.02418,40176835.06367,   0.00287,  -0.00036,   0.00158,476263414.51373,   0.00150,276263420.33383,   0.00085,  -0.00032,   0.00106,  -5.82010,   1.00000
541793798.74814,225592574.40762,39277972.66565,   0.00288,  -0.00035,   0.00157,476273187.93135,   0.00150,276273191.81804,   0.00085,  -0.00032,   0.00106,  -3.88669,   1.00000
542294629.03046,227960085.17533,38374785.27490,   0.00289,  -0.00034,   0.00156,476283117.18893,   0.00151,276283120.46490,   0.00086,  -0.00032,   0.00106,  -3.27597,   1.00000
542774035.63726,230307579.60254,37482025.89992,   0.00289,  -0.00034,   0.00155,476292942.80128,   0.00152,276292949.59401,   0.00087,  -0.00032,   0.00106,  -6.79274,   1.00000
543235672.34575,232655385.77314,36595295.86181,   0.00290,  -0.00033,   0.00154,476302914.49927,   0.00153,276302922.20077,   0.00088,  -0.00033,   0.00106,  -7.70150,   1.00000
543681483.19778,235002517.18803,35706220.18561,   0.00291,  -0.00032,   0.00153,476312947.16465,   0.00154,276312954.05352,   0.00089,  -0.00033,   0.00107,  -6.88887,   1.00000
544107132.46199,237345985.48781,34830749.58940,   0.00291,  -0.00031,   0.00152,476322987.27747,   0.00155,276322989.02245,   0.00090,  -0.00033,   0.00107,  -1.74498,   1.00000
544516880.72333,239688375.60424,33953003.40063,   0.00292,  -0.00030,   0.00151,476333080.39918,   0.00156,276333083.36667,   0.00091,  -0.00033,   0.00107,  -2.96749,   1.00000
544908242.78682,242028553.99861,33082838.71951,   0.00293,  -0.00029,   0.00150,476343240.31866,   0.00157,276343247.42941,   0.00092,  -0.00033,   0.00107,  -7.11075,   1.00000
545282415.69670,244366723.72865,32215414.67130,   0.00293,  -0.00028,   0.00149,476353471.62646,   0.00158,276353475.85057,   0.00093,  -0.00033,   0.00108,  -4.22411,   1.00000
545638949.63764,246701568.48898,31351908.15384,   0.00294,  -0.00027,   0.00149,476363694.02691,   0.00159,276363696.91292,   0.00094,  -0.00033,   0.00108,  -2.88601,   1.00000
545976179.63877,249018651.20791,30496550.53663,   0.00294,  -0.00026,   0.00148,476373954.28482,   0.00160,276373959.90751,   0.00095,  -0.00033,   0.00108,  -5.62269,   1.00000
546297242.58865,251348120.14975,29643664.20287,   0.00295,  -0.00025,   0.00147,476384309.43645,   0.00161,276384313.96191,   0.00096,  -0.00033,   0.00108,  -4.52546,   1.00000
546599218.92566,253659487.14587,28799029.85232,   0.00296,  -0.00024,   0.00146,476394706.48144,   0.00162,276394708.83251,   0.00096,  -0.00033,   0.00108,  -2.35107,   1.00000
546884852.73856,255982643.73151,27956986.86091,   0.00296,  -0.00023,   0.00145,476405189.90555,   0.00163,276405194.94473,   0.00097,  -0.00033,   0.00109,  -5.03919,   1.00000
547152304.49956,258287093.41273,27119348.61589,   0.00297,  -0.00022,   0.00144,476415643.91564,   0.00164,276415645.93088,   0.00098,  -0.00033,   0.00109,  -2.01524,   1.00000
547401729.80749,260587808.70708,26289703.36992,   0.00298,  -0.00021,   0.00143,476426162.27472,   0.00165,276426164.30751,   0.00099,  -0.00033,   0.00109,  -2.03279,   1.00000
547634588.47627,262899504.49319,25462804.77085,   0.00298,  -0.00020,   0.00142,476436767.35217,   0.00166,276436774.41516,   0.00100,  -0.00033,   0.00109,  -7.06299,   1.00000
547848958.01857,265192358.75228,24644376.44209,   0.00299,  -0.00019,   0.00141,476447422.48895,   0.00167,276447422.91449,   0.00101,  -0.00033,   0.00109,  -0.42554,   1.00000
548046594.80321,267466753.08069,23825447.44449,   0.00299,  -0.00018,   0.00140,476458021.93663,   0.00168,276458031.83581,   0.00102,  -0.00033,   0.00109,  -9.89917,   1.00000
548225940.75918,269750788.92236,23019291.11869,   0.00300,  -0.00017,   0.00140,476468732.98135,   0.00169,276468739.51539,   0.00103,  -0.00033,   0.00110,  -6.53405,   1.00000
548389138.59916,272030754.28717,22211488.18122,   0.00301,  -0.00016,   0.00139,476479504.50909,   0.00170,276479506.69489,   0.00104,  -0.00033,   0.00110,  -2.18580,   1.00000
548533785.98753,274305391.97918,21416916.42425,   0.00301,  -0.00015,   0.00138,476490335.87986,   0.00171,276490343.12526,   0.00105,  -0.00033,   0.00110,  -7.24541,   1.00000
548662291.04396,276561327.13593,20621109.39898,   0.00302,  -0.00014,   0.00137,476501202.91430,   0.00172,276501209.13880,   0.00106,  -0.00033,   0.00110,  -6.22450,   1.00000
548773121.61502,278812076.24883,19834405.28714,   0.00303,  -0.00013,   0.00136,476512067.36191,   0.00173,276512071.20360,   0.00107,  -0.00033,   0.00110,  -3.84169,   1.00000
548867249.74481,281057761.21445,19051156.84473,   0.00303,  -0.00012,   0.00135,476522992.41009,   0.00174,276522995.50714,   0.00108,  -0.00033,   0.00110,  -3.09705,   1.00000
548943860.63607,283298075.51793,18277019.06594,   0.00304,  -0.00011,   0.00134,476533913.49874,   0.00175,276533915.93804,   0.00109,  -0.00033,   0.00111,  -2.43930,   1.00000
549004027.06236,285532675.07266,17505765.16059,   0.00304,  -0.00010,   0.00133,476544958.25014,   0.00176,276544967.10412,   0.00110,  -0.00033,   0.00111,  -8.85398,   1.00000
549046842.75024,287761651.43906,16743658.61024,   0.00305,  -0.00009,   0.00133,476556006.88345,   0.00177,276556014.25914,   0.00111,  -0.00033,   0.00111,  -7.37569,   1.00000
549073159.27838,289984783.49302,15985151.46730,   0.00306,  -0.00008,   0.00132,476567123.16794,   0.00178,276567123.31407,   0.00112,  -0.00033,   0.00111,  -0.14613,   1.00000
549082966.62582,292187897.95295,15235499.78764,   0.00306,  -0.00007,   0.00131,476578257.46664,   0.00179,276578265.18715,   0.00113,  -0.00033,   0.00111,  -7.72051,   1.00000
549076376.26743,294385530.56858,14490042.18454,   0.00307,  -0.00006,   0.00130,476589394.76292,   0.00180,276589400.61782,   0.00114,  -0.00033,   0.00111,  -5.85490,   1.00000
549053740.67480,296576264.37867,13747784.84842,   0.00307,  -0.00005,   0.00129,476600658.99456,   0.00181,276600665.16797,   0.00115,  -0.00033,   0.00111,  -6.17341,   1.00000
549014300.53141,298761008.47279,13014725.47951,   0.00308,  -0.00004,   0.00128,476611923.38930,   0.00182,276611925.52516,   0.00117,  -0.00033,   0.00111,  -2.13587,   1.00000
548958594.78398,300939931.98976,12285880.45929,   0.00309,  -0.00003,   0.00127,476623171.75070,   0.00183,276623180.10521,   0.00118,  -0.00033,   0.00111,  -8.35452,   1.00000
548886624.08352,303110990.55703,11565367.35183,   0.00309,  -0.00002,   0.00127,476634559.73183,   0.00184,276634564.81510,   0.00119,  -0.00033,   0.00112,  -5.08326,   1.00000
548799512.33649,305262730.12960,10849281.71759,   0.00310,  -0.00001,   0.00126,476645908.88697,   0.00185,276645911.34795,   0.00120,  -0.00033,   0.00112,  -2.46099,   1.00000
548696280.50140,307407305.02353,10142007.47687,   0.00310,   0.00000,   0.00125,476657314.53479,   0.00186,276657320.40086,   0.00121,  -0.00033,   0.00112,  -5.86607,   1.00000
548577406.58786,309544719.58937,9438608.18968,   0.00311,   0.00001,   0.00124,476668781.14966,   0.00187,276668790.34118,   0.00122,  -0.00033,   0.00112,  -9.19153,   1.00000
548442430.14091,311675798.65531,8744404.27323,   0.00312,   0.00002,   0.00123,476680253.45503,   0.00188,276680256.18411,   0.00123,  -0.00032,   0.00112,  -2.72909,   1.00000
548291953.38294,313799396.12501,8054112.61629,   0.00312,   0.00004,   0.00122,476691776.17328,   0.00190,276691783.02948,   0.00124,  -0.00032,   0.00112,  -6.85620,   1.00000
548127393.04399,315902441.69626,7367916.00425,   0.00313,   0.00005,   0.00122,476703333.75213,   0.00191,276703337.28239,   0.00125,  -0.00032,   0.00112,  -3.53026,   1.00000
547947366.57370,317997687.14601,6690671.68294,   0.00313,   0.00006,   0.00121,476714952.12526,   0.00192,276714953.17673,   0.00126,  -0.00032,   0.00112,  -1.05147,   1.00000
547751750.21832,320086433.12950,6022610.49827,   0.00314,   0.00007,   0.00120,476726563.22531,   0.00193,276726565.08063,   0.00127,  -0.00032,   0.00112,  -1.85533,   1.00000
547541405.34708,322165702.04610,5358349.34934,   0.00315,   0.00008,   0.00119,476738297.82661,   0.00194,276738302.84132,   0.00128,  -0.00032,   0.00112,  -5.01471,   1.00000
547317168.53676,324227384.97994,4698577.49187,   0.00315,   0.00009,   0.00118,476749929.97175,   0.00195,276749936.73931,   0.00129,  -0.00032,   0.00112,  -6.76756,   1.00000
547076676.84393,326291759.52450,4047583.84763,   0.00316,   0.00010,   0.00117,476761722.45995,   0.00196,276761731.14072,   0.00130,  -0.00032,   0.00112,  -8.68077,   1.00000
546822747.19171,328336888.78801,3405826.18775,   0.00316,   0.00011,   0.00117,476773477.46063,   0.00197,276773487.32913,   0.00132,  -0.00031,   0.00112,  -9.86850,   1.00000
546554328.38394,330373633.56755,2768126.72660,   0.00317,   0.00013,   0.00116,476785297.38058,   0.00198,276785303.91124,   0.00133,  -0.00031,   0.00112,  -6.53066,   1.00000
546273368.11262,332389541.29213,2134566.64092,   0.00318,   0.00014,   0.00115,476797142.13350,   0.00199,276797145.94720,   0.00134,  -0.00031,   0.00112,  -3.81370,   1.00000
545977751.69305,334398791.84583,1510145.15285,   0.00318,   0.00015,   0.00114,476808974.75408,   0.00201,276808984.44278,   0.00135,  -0.00031,   0.00112,  -9.68870,   1.00000
545666432.93830,336409522.27283,894739.11621,   0.00319,   0.00016,   0.00113,476820973.07124,   0.00202,276820982.63586,   0.00136,  -0.00031,   0.00112,  -9.56461,   1.00000
545344749.67635,338389194.28978,283496.73878,   0.00319,   0.00017,   0.00113,476832898.89615,   0.00203,276832906.39427,   0.00137,  -0.00030,   0.00112,  -7.49812,   1.00000
545006732.38230,340374180.58462,-323620.00155,   0.00320,   0.00018,   0.00112,476844854.63584,   0.00204,276844862.51999,   0.00138,  -0.00030,   0.00112,  -7.88415,   1.00000
544657616.90383,342336061.80326,-921606.06448,   0.00320,   0.00019,   0.00111,476856900.26835,   0.00205,276856906.53521,   0.00139,  -0.00030,   0.00112,  -6.26687,   1.00000
544294529.89234,344291152.14805,-1510521.99954,   0.00321,   0.00021,   0.00110,476868941.05589,   0.00206,276868947.36476,   0.00140,  -0.00030,   0.00112,  -6.30887,   1.00000
543917499.11406,346239387.77546,-2095371.46233,   0.00321,   0.00022,   0.00110,476880980.26730,   0.00207,276880985.54371,   0.00142,  -0.00030,   0.00112,  -5.27640,   1.00000
543530059.49278,348164364.36095,-2676027.74030,   0.00322,   0.00023,   0.00109,476893107.39632,   0.00208,276893110.54869,   0.00143,  -0.00029,   0.00112,  -3.15238,   1.00000
543129048.94042,350082561.01959,-3247649.72860,   0.00323,   0.00024,   0.00108,476905228.11355,   0.00210,276905232.79197,   0.00144,  -0.00029,   0.00112,  -4.67842,   1.00000
542715200.78206,351991498.63151,-3810146.32049,   0.00323,   0.00025,   0.00107,476917413.24924,   0.00211,276917414.83278,   0.00145,  -0.00029,   0.00112,  -1.58355,   1.00000
542291047.24332,353879554.18639,-4368575.58813,   0.00324,   0.00027,   0.00106,476929615.46929,   0.00212,276929620.25497,   0.00146,  -0.00029,   0.00112,  -4.78568,   1.00000
541853593.51285,355760778.61319,-4923004.71689,   0.00324,   0.00028,   0.00106,476941820.35768,   0.00213,276941823.85456,   0.00147,  -0.00028,   0.00112,  -3.49688,   1.00000
541403977.64890,357632714.76994,-5463334.93267,   0.00325,   0.00029,   0.00105,476954081.08088,   0.00214,276954086.46595,   0.00148,  -0.00028,   0.00112,  -5.38507,   1.00000
540941788.78513,359494908.30494,-6004481.64152,   0.00325,   0.00030,   0.00104,476966404.05060,   0.00215,276966410.15944,   0.00149,  -0.00028,   0.00112,  -6.10883,   1.00000
540469746.68469,361339258.31212,-6531892.59829,   0.00326,   0.00031,   0.00103,476978685.19938,   0.00217,276978693.68791,   0.00150,  -0.00028,   0.00112,  -8.48853,   1.00000
539986244.61855,363171029.93582,-7059883.14291,   0.00326,   0.00033,   0.00103,476991096.98460,   0.00218,276991099.67477,   0.00152,  -0.00027,   0.00112,  -2.69017,   1.00000
539492498.13532,364988068.67964,-7574473.14215,   0.00327,   0.00034,   0.00102,477003394.94742,   0.00219,277003404.14815,   0.00153,  -0.00027,   0.00112,  -9.20073,   1.00000
538987934.32168,366792565.67571,-8084670.54476,   0.00328,   0.00035,   0.00101,477015825.70673,   0.00220,277015829.83802,   0.00154,  -0.00027,   0.00112,  -4.13129,   1.00000
538470879.27980,368590209.56975,-8591030.57956,   0.00328,   0.00036,   0.00100,477028252.41419,   0.00221,277028255.24036,   0.00155,  -0.00026,   0.00112,  -2.82617,   1.00000
537945665.07634,370367450.98850,-9088496.01776,   0.00329,   0.00038,   0.00100,477040695.18344,   0.00222,277040701.77647,   0.00156,  -0.00026,   0.00112,  -6.59303,   1.00000
537409557.03572,372135112.55837,-9576891.58633,   0.00329,   0.00039,   0.00099,477053203.06240,   0.00224,277053207.47099,   0.00157,  -0.00026,   0.00111,  -4.40859,   1.00000
536862366.01103,373892879.80222,-10061186.29133,   0.00330,   0.00040,   0.00098,477065773.16888,   0.00225,277065773.61294,   0.00158,  -0.00025,   0.00111,  -0.44406,   1.00000
536306274.89275,375633307.43300,-10541977.72676,   0.00330,   0.00041,   0.00098,477078297.75681,   0.00226,277078301.60909,   0.00159,  -0.00025,   0.00111,  -3.85228,   1.00000
535739774.50755,377364079.56469,-11013709.49961,   0.00331,   0.00043,   0.00097,477090885.50579,   0.00227,277090888.87530,   0.00161,  -0.00025,   0.00111,  -3.36951,   1.00000
535161863.11067,379088350.25894,-11476809.19030,   0.00331,   0.00044,   0.00096,477103469.56355,   0.00228,277103475.80444,   0.00162,  -0.00024,   0.00111,  -6.24089,   1.00000
534576709.29029,380792319.62222,-11936133.20002,   0.00332,   0.00045,   0.00095,477116083.86172,   0.00229,277116084.36822,   0.00163,  -0.00024,   0.00111,  -0.50650,   1.00000
533984974.78500,382476429.95481,-12386744.32364,   0.00332,   0.00046,   0.00095,477128704.09006,   0.00231,277128712.80193,   0.00164,  -0.00024,   0.00111,  -8.71187,   1.00000
533383601.22874,384150978.67920,-12828387.98819,   0.00333,   0.00048,   0.00094,477141394.84182,   0.00232,277141400.19012,   0.00165,  -0.00023,   0.00111,  -5.34830,   1.00000
532770941.50598,385818983.20177,-13266499.62409,   0.00333,   0.00049,   0.00093,477154085.19425,   0.00233,277154089.41970,   0.00166,  -0.00023,   0.00111,  -4.22545,   1.00000
532148403.81270,387476939.68772,-13700610.09485,   0.00334,   0.00050,   0.00093,477166834.19118,   0.00234,277166839.76739,   0.00167,  -0.00022,   0.00110,  -5.57622,   1.00000
531520119.63300,389115253.52698,-14126106.77076,   0.00334,   0.00051,   0.00092,477179602.11419,   0.00235,277179609.47770,   0.00168,  -0.00022,   0.00110,  -7.36351,   1.00000
530884907.46490,390737670.81832,-14543551.66473,   0.00335,   0.00053,   0.00091,477192335.26973,   0.00237,277192339.76020,   0.00170,  -0.00022,   0.00110,  -4.49047,   1.00000
530240345.72926,392350187.57084,-14957071.45194,   0.00335,   0.00054,   0.00091,477205130.71499,   0.00238,277205131.14538,   0.00171,  -0.00021,   0.00110,  -0.43039,   1.00000
529587093.80255,393953087.03077,-15361717.95272,   0.00336,   0.00055,   0.00090,477217980.99350,   0.00239,277217981.81535,   0.00172,  -0.00021,   0.00110,  -0.82185,   1.00000
528928985.06128,395536785.05763,-15757910.83860,   0.00337,   0.00057,   0.00089,477230850.38453,   0.00240,277230851.08950,   0.00173,  -0.00020,   0.00110,  -0.70497,   1.00000
528264065.41744,397104778.26394,-16151203.14032,   0.00337,   0.00058,   0.00088,477243677.02218,   0.00242,277243683.03216,   0.00174,  -0.00020,   0.00109,  -6.00998,   1.00000
527586703.41649,398672327.87680,-16540231.83109,   0.00338,   0.00059,   0.00088,477256611.51604,   0.00243,277256617.19555,   0.00175,  -0.00019,   0.00109,  -5.67952,   1.00000
526907079.36194,400215354.48272,-16921890.30091,   0.00338,   0.00060,   0.00087,477269470.85817,   0.00244,277269471.34183,   0.00176,  -0.00019,   0.00109,  -0.48366,   1.00000
526221411.84818,401745224.20154,-17294206.33789,   0.00339,   0.00062,   0.00086,477282441.63411,   0.00245,277282442.01110,   0.00177,  -0.00018,   0.00109,  -0.37700,   1.00000
525525675.49335,403269085.61519,-17663352.77078,   0.00339,   0.00063,   0.00086,477295416.36753,   0.00246,277295416.99892,   0.00179,  -0.00018,   0.00109,  -0.63139,   1.00000
524824383.40922,404778259.69875,-18024868.43512,   0.00340,   0.00064,   0.00085,477308349.00311,   0.00248,277308353.05190,   0.00180,  -0.00017,   0.00109,  -4.04879,   1.00000
524117658.87284,406274198.54156,-18377090.00833,   0.00340,   0.00066,   0.00085,477321396.18334,   0.00249,277321405.27443,   0.00181,  -0.00017,   0.00108,  -9.09108,   1.00000
523405087.71606,407755299.32821,-18726738.22163,   0.00341,   0.00067,   0.00084,477334415.20488,   0.00250,277334420.77920,   0.00182,  -0.00016,   0.00108,  -5.57432,   1.00000
522684833.42802,409226654.00284,-19072698.07994,   0.00341,   0.00068,   0.00083,477347491.24343,   0.00251,277347498.16108,   0.00183,  -0.00016,   0.00108,  -6.91764,   1.00000
521960272.34837,410684409.63609,-19406284.44191,   0.00341,   0.00070,   0.00083,477360529.94856,   0.00253,277360534.23610,   0.00184,  -0.00015,   0.00108,  -4.28755,   1.00000
521232338.30302,412123776.83311,-19736783.59293,   0.00342,   0.00071,   0.00082,477373585.29228,   0.00254,277373590.11415,   0.00185,  -0.00015,   0.00108,  -4.82186,   1.00000
520497181.47816,413553584.77109,-20063691.06638,   0.00342,   0.00072,   0.00081,477386701.99096,   0.00255,277386707.94564,   0.00186,  -0.00014,   0.00107,  -5.95468,   1.00000
519757468.32479,414969820.31276,-20383313.90038,   0.00343,   0.00074,   0.00081,477399783.06397,   0.00256,277399787.03422,   0.00187,  -0.00014,   0.00107,  -3.97024,   1.00000
519013788.11040,416372985.37318,-20693766.79920,   0.00343,   0.00075,   0.00080,477412977.14341,   0.00258,277412981.30200,   0.00188,  -0.00013,   0.00107,  -4.15859,   1.00000
518258643.97329,417774886.38152,-21002150.27670,   0.00344,   0.00076,   0.00079,477426122.65216,   0.00259,277426126.61845,   0.00190,  -0.00013,   0.00107,  -3.96628,   1.00000
517508196.04714,419146871.00549,-21302517.66631,   0.00344,   0.00078,   0.00079,477439297.85217,   0.00260,277439301.52529,   0.00191,  -0.00012,   0.00107,  -3.67312,   1.00000
516748808.38100,420513741.69045,-21600177.16284,   0.00345,   0.00079,   0.00078,477452475.06711,   0.00261,277452483.36051,   0.00192,  -0.00012,   0.00106,  -8.29341,   1.00000
515983753.55832,421871827.34588,-21889480.31806,   0.00345,   0.00080,   0.00078,477465717.82238,   0.00263,277465724.86125,   0.00193,  -0.00011,   0.00106,  -7.03888,   1.00000
515217409.35408,423212963.93392,-22171064.72753,   0.00346,   0.00082,   0.00077,477478976.70329,   0.00264,277478982.83925,   0.00194,  -0.00010,   0.00106,  -6.13595,   1.00000
514446610.53135,424541022.54019,-22450666.68748,   0.00346,   0.00083,   0.00076,477492201.12321,   0.00265,277492205.12467,   0.00195,  -0.00010,   0.00106,  -4.00146,   1.00000
513670565.96081,425860510.98471,-22722019.22680,   0.00347,   0.00084,   0.00076,477505482.61356,   0.00266,277505487.12652,   0.00196,  -0.00009,   0.00105,  -4.51296,   1.00000
512892953.80453,427162865.46369,-22990703.12863,   0.00347,   0.00086,   0.00075,477518784.09258,   0.00268,277518788.20201,   0.00197,  -0.00009,   0.00105,  -4.10943,   1.00000
512112734.66302,428453857.29187,-23247697.46645,   0.00348,   0.00087,   0.00075,477532041.44867,   0.00269,277532047.92968,   0.00198,  -0.00008,   0.00105,  -6.48101,   1.00000
511326120.66726,429735238.36801,-23506414.69987,   0.00348,   0.00089,   0.00074,477545368.54547,   0.00270,277545373.28119,   0.00199,  -0.00007,   0.00105,  -4.73572,   1.00000
510539966.71616,431001173.69710,-23752737.54667,   0.00349,   0.00090,   0.00073,477558710.62285,   0.00271,277558711.47992,   0.00200,  -0.00007,   0.00104,  -0.85708,   1.00000
509749126.37485,432254299.70819,-24002300.24542,   0.00349,   0.00091,   0.00073,477572016.62088,   0.00273,277572017.44199,   0.00201,  -0.00006,   0.00104,  -0.82111,   1.00000
508957621.66941,433495548.94197,-24238072.80103,   0.00350,   0.00093,   0.00072,477585427.47180,   0.00274,277585433.98360,   0.00202,  -0.00005,   0.00104,  -6.51179,   1.00000
508159398.94746,434729339.89670,-24473082.26513,   0.00350,   0.00094,   0.00072,477598753.04025,   0.00275,277598761.63346,   0.00204,  -0.00005,   0.00104,  -8.59321,   1.00000
507364497.67443,435943200.88171,-24699982.89735,   0.00350,   0.00095,   0.00071,477612156.70340,   0.00276,277612158.23604,   0.00205,  -0.00004,   0.00103,  -1.53264,   1.00000
506561596.93932,437152943.53052,-24924699.98480,   0.00351,   0.00097,   0.00071,477625560.82936,   0.00278,277625564.32350,   0.00206,  -0.00003,   0.00103,  -3.49414,   1.00000
505759221.03116,438347432.35053,-25142207.80784,   0.00351,   0.00098,   0.00070,477638981.88914,   0.00279,277638985.66583,   0.00207,  -0.00003,   0.00103,  -3.77669,   1.00000
504957528.04121,439526874.46539,-25352568.95161,   0.00352,   0.00099,   0.00069,477652418.31526,   0.00280,277652421.97762,   0.00208,  -0.00002,   0.00102,  -3.66236,   1.00000
504148019.74816,440702446.36404,-25560873.79133,   0.00352,   0.00101,   0.00069,477665867.75859,   0.00282,277665868.25644,   0.00209,  -0.00001,   0.00102,  -0.49785,   1.00000
503339419.82792,441863165.36006,-25762105.87858,   0.00353,   0.00102,   0.00068,477679324.92097,   0.00283,277679329.51722,   0.00210,  -0.00001,   0.00102,  -4.59624,   1.00000
502527616.22852,443013038.93921,-25962083.10457,   0.00353,   0.00104,   0.00068,477692747.07031,   0.00284,277692756.10055,   0.00211,   0.00000,   0.00102,  -9.03023,   1.00000
501720446.66164,444143885.09616,-26154207.04195,   0.00354,   0.00105,   0.00067,477706244.97924,   0.00285,277706249.94655,   0.00212,   0.00001,   0.00101,  -4.96731,   1.00000
500906536.34513,445271968.73819,-26339516.79426,   0.00354,   0.00106,   0.00067,477719745.39462,   0.00287,277719751.07190,   0.00213,   0.00001,   0.00101,  -5.67728,   1.00000
500094180.42522,446382754.63070,-26524476.65607,   0.00354,   0.00108,   0.00066,477733166.81963,   0.00288,277733172.13727,   0.00214,   0.00002,   0.00101,  -5.31765,   1.00000
499277804.40170,447488619.49311,-26700177.68135,   0.00355,   0.00109,   0.00066,477746746.27192,   0.00289,277746750.94981,   0.00215,   0.00003,   0.00100,  -4.67788,   1.00000
498464019.63327,448578329.70944,-26870731.86941,   0.00355,   0.00111,   0.00065,477760241.22997,   0.00291,277760246.10867,   0.00216,   0.00004,   0.00100,  -4.87870,   1.00000
497651126.26389,449653555.56057,-27039445.21975,   0.00356,   0.00112,   0.00065,477773753.92552,   0.00292,277773758.63048,   0.00217,   0.00004,   0.00100,  -4.70496,   1.00000
496831714.20344,450726495.15753,-27201538.35036,   0.00356,   0.00113,   0.00064,477787274.33365,   0.00293,277787279.15315,   0.00218,   0.00005,   0.00100,  -4.81950,   1.00000
496013378.20789,451785117.72674,-27361860.70468,   0.00357,   0.00115,   0.00064,477800811.79980,   0.00294,277800817.07953,   0.00219,   0.00006,   0.00099,  -5.27973,   1.00000
495197120.20232,452830400.03984,-27515536.65372,   0.00357,   0.00116,   0.00063,477814360.69790,   0.00296,277814368.79202,   0.00220,   0.00007,   0.00099,  -8.09412,   1.00000
494383069.04481,453862543.95297,-27662628.00086,   0.00357,   0.00118,   0.00063,477827932.75552,   0.00297,277827933.96982,   0.00221,   0.00007,   0.00099,  -1.21430,   1.00000
493561758.88332,454891936.76728,-27808169.14667,   0.00358,   0.00119,   0.00062,477841503.39736,   0.00298,277841511.14221,   0.00222,   0.00008,   0.00098,  -7.74485,   1.00000
492747491.95926,455902041.81581,-27948014.69946,   0.00358,   0.00120,   0.00062,477855050.67650,   0.00300,277855055.23748,   0.00223,   0.00009,   0.00098,  -4.56097,   1.00000
491926919.34169,456910427.41084,-28081482.87513,   0.00359,   0.00122,   0.00061,477868604.03238,   0.00301,277868608.02888,   0.00224,   0.00010,   0.00098,  -3.99650,   1.00000
491112152.46353,457900651.07985,-28212535.17853,   0.00359,   0.00123,   0.00061,477882223.58028,   0.00302,277882228.53744,   0.00225,   0.00011,   0.00097,  -4.95716,   1.00000
490295848.95484,458883127.55897,-28338115.59623,   0.00359,   0.00125,   0.00060,477895802.50271,   0.00303,277895811.10628,   0.00226,   0.00011,   0.00097,  -8.60357,   1.00000
489477112.95088,459857152.89991,-28463167.73063,   0.00360,   0.00126,   0.00060,477909352.65641,   0.00305,277909359.41329,   0.00227,   0.00012,   0.00097,  -6.75688,   1.00000
488665500.82191,460814306.13812,-28580993.06826,   0.00360,   0.00127,   0.00059,477922966.84142,   0.00306,277922971.19197,   0.00228,   0.00013,   0.00096,  -4.35056,   1.00000
487847738.68952,461770186.01350,-28692626.27840,   0.00361,   0.00129,   0.00059,477936585.96382,   0.00307,277936592.15137,   0.00229,   0.00014,   0.00096,  -6.18755,   1.00000
487032325.47039,462712021.63786,-28804720.00410,   0.00361,   0.00130,   0.00058,477950127.92492,   0.00309,277950131.70761,   0.00230,   0.00015,   0.00096,  -3.78270,   1.00000
486219710.05957,463643296.98101,-28908842.07670,   0.00361,   0.00132,   0.00058,477963771.96113,   0.00310,277963781.39711,   0.00231,   0.00015,   0.00095,  -9.43599,   1.00000
485410442.80768,464561857.05663,-29008625.27030,   0.00362,   0.00133,   0.00057,477977343.91229,   0.00311,277977345.62136,   0.00232,   0.00016,   0.00095,  -1.70907,   1.00000
484598732.58843,465473921.66003,-29106343.16618,   0.00362,   0.00134,   0.00057,477990971.16994,   0.00313,277990973.15967,   0.00233,   0.00017,   0.00095,  -1.98973,   1.00000
483785661.28467,466379352.79332,-29198917.93990,   0.00363,   0.00136,   0.00056,478004553.95583,   0.00314,278004562.88661,   0.00233,   0.00018,   0.00094,  -8.93078,   1.00000
482980614.47249,467268835.10330,-29284561.43807,   0.00363,   0.00137,   0.00056,478018206.48260,   0.00315,278018214.34399,   0.00234,   0.00019,   0.00094,  -7.86139,   1.00000
482178066.12281,468145537.77885,-29370950.85859,   0.00363,   0.00139,   0.00056,478031777.37988,   0.00316,278031783.51516,   0.00235,   0.00020,   0.00094,  -6.13528,   1.00000
481369461.89990,469021731.30086,-29451425.25423,   0.00364,   0.00140,   0.00055,478045357.90563,   0.00318,278045362.62007,   0.00236,   0.00020,   0.00093,  -4.71444,   1.00000
480568288.30245,469881487.57279,-29529967.09781,   0.00364,   0.00141,   0.00055,478058999.25438,   0.00319,278059006.53471,   0.00237,   0.00021,   0.00093,  -7.28033,   1.00000
479765838.15157,470735384.06234,-29603558.75579,   0.00365,   0.00143,   0.00054,478072606.67847,   0.00320,278072612.38644,   0.00238,   0.00022,   0.00093,  -5.70797,   1.00000
478962089.75949,471583513.82010,-29672246.61751,   0.00365,   0.00144,   0.00054,478086179.80055,   0.00322,278086180.27105,   0.00239,   0.00023,   0.00092,  -0.47050,   1.00000
478167001.41966,472416498.16161,-29734231.41025,   0.00365,   0.00146,   0.00053,478099803.58447,   0.00323,278099808.52879,   0.00240,   0.00024,   0.00092,  -4.94432,   1.00000
477369712.41832,473243112.14877,-29796304.96799,   0.00366,   0.00147,   0.00053,478113392.98270,   0.00324,278113402.34183,   0.00241,   0.00025,   0.00092,  -9.35913,   1.00000
476575306.65155,474058717.23437,-29857547.74705,   0.00366,   0.00148,   0.00053,478127003.24444,   0.00326,278127010.80334,   0.00242,   0.00026,   0.00091,  -7.55890,   1.00000
475780535.46623,474870022.49371,-29909128.63476,   0.00366,   0.00150,   0.00052,478140576.12784,   0.00327,278140577.44030,   0.00243,   0.00027,   0.00091,  -1.31246,   1.00000
474988711.40304,475670528.55459,-29959975.34578,   0.00367,   0.00151,   0.00052,478154155.74199,   0.00328,278154158.54379,   0.00243,   0.00027,   0.00091,  -2.80180,   1.00000
474204623.11775,476455277.47081,-30011025.22918,   0.00367,   0.00153,   0.00051,478167696.14482,   0.00329,278167705.14949,   0.00244,   0.00028,   0.00090,  -9.00468,   1.00000
473419786.15191,477235633.67865,-30055550.02015,   0.00368,   0.00154,   0.00051,478181305.14859,   0.00331,278181310.90999,   0.00245,   0.00029,   0.00090,  -5.76140,   1.00000
472633633.68054,478011274.10280,-30095453.74587,   0.00368,   0.00156,   0.00051,478194869.73878,   0.00332,278194878.50798,   0.00246,   0.00030,   0.00090,  -8.76919,   1.00000
471856262.89921,478772595.60443,-30130794.92668,   0.00368,   0.00157,   0.00050,478208404.15795,   0.00333,278208407.12711,   0.00247,   0.00031,   0.00089,  -2.96916,   1.00000
471077321.69581,479528782.30030,-30164628.98370,   0.00369,   0.00158,   0.00050,478221994.63596,   0.00335,278221998.59284,   0.00248,   0.00032,   0.00089,  -3.95687,   1.00000
470301748.81286,480275725.78067,-30194883.76948,   0.00369,   0.00160,   0.00049,478235493.22601,   0.00336,278235502.56109,   0.00249,   0.00033,   0.00089,  -9.33508,   1.00000
469524692.28540,481017662.43704,-30223677.64007,   0.00369,   0.00161,   0.00049,478249067.29942,   0.00337,278249069.38228,   0.00250,   0.00034,   0.00088,  -2.08286,   1.00000
468757456.08193,481746871.98161,-30243149.01895,   0.00370,   0.00163,   0.00049,478262592.40996,   0.00339,278262592.65314,   0.00250,   0.00035,   0.00088,  -0.24319,   1.00000
467992595.87816,482465537.27759,-30267083.19093,   0.00370,   0.00164,   0.00048,478276127.58709,   0.00340,278276132.86129,   0.00251,   0.00036,   0.00088,  -5.27421,   1.00000
467227228.97884,483181353.98427,-30281717.66792,   0.00370,   0.00165,   0.00048,478289626.16365,   0.00341,278289630.80419,   0.00252,   0.00037,   0.00087,  -4.64054,   1.00000
466469914.68185,483883113.36929,-30296933.92353,   0.00371,   0.00167,   0.00048,478303090.84658,   0.00342,278303092.00022,   0.00253,   0.00038,   0.00087,  -1.15364,   1.00000
465711254.80711,484580298.83649,-30310828.57713,   0.00371,   0.00168,   0.00047,478316609.40806,   0.00344,278316615.77631,   0.00254,   0.00038,   0.00087,  -6.36825,   1.00000
464956717.02587,485270372.83562,-30316470.91691,   0.00371,   0.00170,   0.00047,478330042.19105,   0.00345,278330047.37476,   0.00255,   0.00039,   0.00086,  -5.18371,   1.00000
464200884.52937,485955962.54948,-30320875.49413,   0.00372,   0.00171,   0.00047,478343535.07667,   0.00346,278343541.49609,   0.00255,   0.00040,   0.00086,  -6.41942,   1.00000
463454102.54304,486629040.58697,-30321089.73500,   0.00372,   0.00172,   0.00046,478356988.53274,   0.00348,278356994.30440,   0.00256,   0.00041,   0.00086,  -5.77166,   1.00000
462710778.75647,487293346.93830,-30321078.36996,   0.00373,   0.00174,   0.00046,478370452.77027,   0.00349,278370459.34941,   0.00257,   0.00042,   0.00085,  -6.57915,   1.00000
461970530.33517,487950242.66155,-30317829.35402,   0.00373,   0.00175,   0.00046,478383831.41815,   0.00350,278383835.47787,   0.00258,   0.00043,   0.00085,  -4.05972,   1.00000
461229076.92891,488602985.79083,-30313428.80130,   0.00373,   0.00177,   0.00045,478397268.91410,   0.00351,278397273.92915,   0.00259,   0.00044,   0.00085,  -5.01505,   1.00000
460491525.20008,489249511.55894,-30300949.84437,   0.00374,   0.00178,   0.00045,478410616.77705,   0.00353,278410619.58661,   0.00259,   0.00045,   0.00084,  -2.80956,   1.00000
459763592.44448,489883002.14553,-30287470.13804,   0.00374,   0.00179,   0.00045,478424017.29715,   0.00354,278424023.81209,   0.00260,   0.00046,   0.00084,  -6.51494,   1.00000
459033031.74850,490512977.54395,-30274793.57109,   0.00374,   0.00181,   0.00044,478437389.38191,   0.00355,278437392.90636,   0.00261,   0.00047,   0.00084,  -3.52445,   1.00000
458311552.59303,491131564.58945,-30258105.78177,   0.00375,   0.00182,   0.00044,478450710.08243,   0.00357,278450719.25466,   0.00262,   0.00048,   0.00083,  -9.17224,   1.00000
457583597.73459,491751993.31961,-30236400.81563,   0.00375,   0.00183,   0.00044,478464048.13324,   0.00358,278464057.30538,   0.00263,   0.00049,   0.00083,  -9.17214,   1.00000
456871035.10277,492356612.06938,-30209881.15555,   0.00375,   0.00185,   0.00043,478477389.14894,   0.00359,278477398.60890,   0.00263,   0.00050,   0.00083,  -9.45997,   1.00000
456160332.72429,492954038.39778,-30185247.25261,   0.00375,   0.00186,   0.00043,478490650.28024,   0.00360,278490653.72248,   0.00264,   0.00051,   0.00082,  -3.44224,   1.00000
455443034.18079,493553488.87804,-30155661.80446,   0.00376,   0.00188,   0.00043,478503915.42698,   0.00362,278503920.70457,   0.00265,   0.00052,   0.00082,  -5.27759,   1.00000
454740360.49299,494136615.10256,-30126227.62142,   0.00376,   0.00189,   0.00043,478517184.78429,   0.00363,278517193.90274,   0.00266,   0.00053,   0.00082,  -9.11846,   1.00000
454036543.46989,494718876.76439,-30087971.15204,   0.00376,   0.00190,   0.00042,478530416.02581,   0.00364,278530424.11473,   0.00266,   0.00054,   0.00081,  -8.08892,   1.00000
453340033.18767,495288821.46419,-30055707.74220,   0.00377,   0.00192,   0.00042,478543611.70282,   0.00366,278543617.59563,   0.00267,   0.00055,   0.00081,  -5.89280,   1.00000
452642268.45578,495858090.62930,-30014643.07327,   0.00377,   0.00193,   0.00042,478556762.21027,   0.00367,278556768.13665,   0.00268,   0.00056,   0.00081,  -5.92638,   1.00000
451954653.84238,496415563.15123,-29972880.64097,   0.00377,   0.00194,   0.00041,478569971.04322,   0.00368,278569974.81387,   0.00269,   0.00057,   0.00080,  -3.77065,   1.00000
451269429.79013,496967714.91552,-29928248.62279,   0.00378,   0.00196,   0.00041,478583086.61539,   0.00369,278583090.83912,   0.00269,   0.00058,   0.00080,  -4.22372,   1.00000
450581083.13150,497517519.50444,-29884682.93475,   0.00378,   0.00197,   0.00041,478596170.79217,   0.00371,278596171.29953,   0.00270,   0.00059,   0.00080,  -0.50736,   1.00000
449903855.72366,498056796.93864,-29835571.44214,   0.00378,   0.00199,   0.00041,478609301.02700,   0.00372,278609303.65505,   0.00271,   0.00060,   0.00079,  -2.62804,   1.00000
449228859.56044,498591115.30230,-29783647.11610,   0.00379,   0.00200,   0.00040,478622343.09814,   0.00373,278622345.06443,   0.00271,   0.00061,   0.00079,  -1.96629,   1.00000
448558235.57254,499119723.47053,-29727109.21743,   0.00379,   0.00201,   0.00040,478635382.75511,   0.00374,278635392.42851,   0.00272,   0.00062,   0.00079,  -9.67340,   1.00000
447891154.49401,499641756.20999,-29670885.24994,   0.00379,   0.00203,   0.00040,478648443.11333,   0.00376,278648449.25599,   0.00273,   0.00063,   0.00078,  -6.14266,   1.00000
447226129.57345,500159157.39574,-29611899.20977,   0.00380,   0.00204,   0.00040,478661407.77347,   0.00377,278661414.91630,   0.00274,   0.00064,   0.00078,  -7.14283,   1.00000
446569154.32871,500666544.44213,-29554213.37730,   0.00380,   0.00205,   0.00039,478674333.50279,   0.00378,278674338.14604,   0.00274,   0.00065,   0.00078,  -4.64326,   1.00000
445911975.31391,501172215.17720,-29491005.31712,   0.00380,   0.00207,   0.00039,478687314.15790,   0.00379,278687318.66802,   0.00275,   0.00066,   0.00077,  -4.51013,   1.00000
445268187.74952,501665507.93787,-29425211.74783,   0.00380,   0.00208,   0.00039,478700196.94959,   0.00381,278700200.77176,   0.00276,   0.00067,   0.00077,  -3.82217,   1.00000
444616320.31002,502160795.78873,-29359687.14642,   0.00381,   0.00209,   0.00039,478713093.17133,   0.00382,278713098.73663,   0.00276,   0.00068,   0.00077,  -5.56530,   1.00000
443973277.48986,502647470.65823,-29290631.36206,   0.00381,   0.00211,   0.00038,478725943.69936,   0.00383,278725949.95553,   0.00277,   0.00069,   0.00077,  -6.25616,   1.00000
443339011.50707,503125704.08756,-29218073.58032,   0.00381,   0.00212,   0.00038,478738747.53870,   0.00384,278738754.09764,   0.00278,   0.00070,   0.00076,  -6.55894,   1.00000
442708170.56270,503598132.13253,-29145973.64702,   0.00382,   0.00213,   0.00038,478751562.43573,   0.00386,278751566.66149,   0.00278,   0.00071,   0.00076,  -4.22576,   1.00000
442078886.37123,504066875.32896,-29071214.61576,   0.00382,   0.00215,   0.00038,478764284.62740,   0.00387,278764287.18564,   0.00279,   0.00072,   0.00076,  -2.55824,   1.00000
441453808.35334,504530909.32915,-28992041.57976,   0.00382,   0.00216,   0.00038,478777012.23819,   0.00388,278777012.36379,   0.00280,   0.00073,   0.00075,  -0.12560,   1.00000
440832914.87558,504990281.30868,-28908491.00047,   0.00382,   0.00217,   0.00037,478789732.46776,   0.00389,278789742.10493,   0.00280,   0.00074,   0.00075,  -9.63717,   1.00000
440217049.64947,505441980.26252,-28828199.08261,   0.00383,   0.00219,   0.00037,478802322.55146,   0.00391,278802330.76251,   0.00281,   0.00075,   0.00075,  -8.21105,   1.00000
439607374.83392,505887112.99434,-28746677.11499,   0.00383,   0.00220,   0.00037,478815020.36990,   0.00392,278815024.01827,   0.00282,   0.00076,   0.00074,  -3.64837,   1.00000
438999742.44464,506330001.76775,-28657656.84934,   0.00383,   0.00221,   0.00037,478827618.33131,   0.00393,278827621.18159,   0.00282,   0.00076,   0.00074,  -2.85028,   1.00000
438392474.05218,506768828.19610,-28570970.15935,   0.00384,   0.00223,   0.00037,478840126.95154,   0.00394,278840129.38897,   0.00283,   0.00077,   0.00074,  -2.43743,   1.00000
437801110.29234,507195766.71466,-28480115.69892,   0.00384,   0.00224,   0.00037,478852627.76130,   0.00395,278852633.12290,   0.00284,   0.00078,   0.00074,  -5.36161,   1.00000
437205544.38945,507622101.67102,-28390658.91524,   0.00384,   0.00225,   0.00036,478865093.09565,   0.00397,278865100.16513,   0.00284,   0.00079,   0.00073,  -7.06948,   1.00000
436614013.29415,508044356.40618,-28296906.65335,   0.00384,   0.00226,   0.00036,478877566.89731,   0.00398,278877571.02209,   0.00285,   0.00080,   0.00073,  -4.12478,   1.00000
436030890.56839,508459460.60264,-28199829.63922,   0.00385,   0.00228,   0.00036,478889987.73908,   0.00399,278889992.84084,   0.00285,   0.00081,   0.00073,  -5.10176,   1.00000
435447814.03126,508871023.05400,-28105121.02120,   0.00385,   0.00229,   0.00036,478902323.77674,   0.00400,278902325.14131,   0.00286,   0.00082,   0.00072,  -1.36457,   1.00000
434868674.61805,509278713.55982,-28006153.68490,   0.00385,   0.00230,   0.00036,478914655.24133,   0.00401,278914661.02663,   0.00287,   0.00083,   0.00072,  -5.78530,   1.00000
434297834.97401,509679554.83323,-27903891.35188,   0.00385,   0.00232,   0.00036,478926938.41677,   0.00403,278926947.42686,   0.00287,   0.00084,   0.00072,  -9.01009,   1.00000
433734485.21041,510072762.52175,-27803253.05312,   0.00386,   0.00233,   0.00035,478939184.33982,   0.00404,278939187.55052,   0.00288,   0.00085,   0.00072,  -3.21070,   1.00000
433175731.72570,510463290.25401,-27693505.90283,   0.00386,   0.00234,   0.00035,478951424.24439,   0.00405,278951427.27573,   0.00288,   0.00086,   0.00071,  -3.03134,   1.00000
432615933.97610,510849806.26811,-27591086.97127,   0.00386,   0.00235,   0.00035,478963578.02526,   0.00406,278963580.42623,   0.00289,   0.00087,   0.00071,  -2.40098,   1.00000
432065021.53022,511230799.26258,-27480485.11967,   0.00387,   0.00237,   0.00035,478975675.62613,   0.00407,278975680.05388,   0.00290,   0.00088,   0.00071,  -4.42775,   1.00000
431517112.16943,511607466.78793,-27370640.35466,   0.00387,   0.00238,   0.00035,478987784.18226,   0.00408,278987785.88962,   0.00290,   0.00089,   0.00070,  -1.70735,   1.00000
430969462.06874,511982200.78483,-27258302.31597,   0.00387,   0.00239,   0.00035,478999793.97776,   0.00410,278999798.11160,   0.00291,   0.00090,   0.00070,  -4.13384,   1.00000
430429089.72243,512349835.36336,-27147638.99728,   0.00387,   0.00240,   0.00035,479011758.44715,   0.00411,279011763.25572,   0.00291,   0.00091,   0.00070,  -4.80857,   1.00000
429892383.68265,512714245.02652,-27032828.33635,   0.00388,   0.00242,   0.00034,479023727.05593,   0.00412,279023731.01960,   0.00292,   0.00092,   0.00070,  -3.96367,   1.00000
429363615.34332,513072644.96713,-26914804.30880,   0.00388,   0.00243,   0.00034,479035643.23582,   0.00413,279035647.97907,   0.00292,   0.00093,   0.00069,  -4.74325,   1.00000
428842725.47852,513425145.73532,-26793585.60270,   0.00388,   0.00244,   0.00034,479047506.34064,   0.00414,279047513.90405,   0.00293,   0.00094,   0.00069,  -7.56341,   1.00000
428321007.39659,513775255.40286,-26674813.50101,   0.00388,   0.00245,   0.00034,479059287.03852,   0.00415,279059289.04274,   0.00294,   0.00095,   0.00069,  -2.00422,   1.00000
427802809.20049,514122381.98644,-26551944.37340,   0.00389,   0.00247,   0.00034,479071064.85638,   0.00417,279071066.45296,   0.00294,   0.00096,   0.00069,  -1.59658,   1.00000
427291660.97480,514462942.01151,-26430801.36803,   0.00389,   0.00248,   0.00034,479082789.31990,   0.00418,279082795.86527,   0.00295,   0.00097,   0.00068,  -6.54537,   1.00000
426780912.35068,514803086.11173,-26302265.30911,   0.00389,   0.00249,   0.00034,479094417.96634,   0.00419,279094427.79018,   0.00295,   0.00098,   0.00068,  -9.82384,   1.00000
426284482.70407,515131703.22743,-26179684.35162,   0.00389,   0.00250,   0.00034,479106050.73172,   0.00420,279106057.31178,   0.00296,   0.00099,   0.00068,  -6.58006,   1.00000
425784048.14591,515462753.41690,-26048821.28572,   0.00390,   0.00251,   0.00034,479117638.23563,   0.00421,279117642.78224,   0.00296,   0.00100,   0.00068,  -4.54660,   1.00000
425282406.37223,515791796.59249,-25920412.18641,   0.00390,   0.00253,   0.00034,479129136.52134,   0.00422,279129137.19855,   0.00297,   0.00101,   0.00067,  -0.67721,   1.00000
424800670.04299,516108678.33667,-25789009.22268,   0.00390,   0.00254,   0.00034,479140567.83061,   0.00423,279140568.54381,   0.00297,   0.00102,   0.00067,  -0.71319,   1.00000
424309810.86531,516429859.07646,-25653399.97706,   0.00390,   0.00255,   0.00034,479152011.26939,   0.00424,279152012.77883,   0.00298,   0.00103,   0.00067,  -1.50944,   1.00000
423838130.44934,516738214.83993,-25519747.73953,   0.00390,   0.00256,   0.00033,479163392.97084,   0.00426,279163396.64554,   0.00298,   0.00104,   0.00067,  -3.67470,   1.00000
423357405.48389,517049996.93772,-25384292.74794,   0.00391,   0.00257,   0.00033,479174638.16158,   0.00427,279174643.51082,   0.00299,   0.00105,   0.00066,  -5.34924,   1.00000
422888093.31237,517355140.64190,-25244155.62150,   0.00391,   0.00259,   0.00033,479185928.63491,   0.00428,279185934.12449,   0.00299,   0.00106,   0.00066,  -5.48958,   1.00000
422429601.30273,517652017.17750,-25106655.03457,   0.00391,   0.00260,   0.00033,479197116.11815,   0.00429,279197121.38660,   0.00300,   0.00107,   0.00066,  -5.26845,   1.00000
421966545.90851,517951656.56391,-24960905.20182,   0.00391,   0.00261,   0.00033,479208256.71192,   0.00430,279208264.57925,   0.00300,   0.00108,   0.00066,  -7.86733,   1.00000
421509400.18609,518244839.98936,-24821874.02883,   0.00392,   0.00262,   0.00033,479219358.18401,   0.00431,279219361.23621,   0.00301,   0.00108,   0.00065,  -3.05220,   1.00000
421051741.72139,518538333.34171,-24675421.52176,   0.00392,   0.00263,   0.00033,479230355.08032,   0.00432,279230360.02293,   0.00301,   0.00109,   0.00065,  -4.94261,   1.00000
420608933.16589,518822190.60548,-24530113.37783,   0.00392,   0.00264,   0.00033,479241349.86168,   0.00433,279241350.92245,   0.00302,   0.00110,   0.00065,  -1.06077,   1.00000
420160664.99509,519108093.42579,-24381486.30562,   0.00392,   0.00266,   0.00033,479252298.85163,   0.00434,279252300.90865,   0.00302,   0.00111,   0.00065,  -2.05702,   1.00000
419722942.71861,519386226.14387,-24235476.81594,   0.00393,   0.00267,   0.00033,479263143.08239,   0.00435,279263146.77025,   0.00303,   0.00112,   0.00065,  -3.68787,   1.00000
419292201.16516,519659952.24348,-24086316.74333,   0.00393,   0.00268,   0.00033,479273932.79090,   0.00436,279273939.37873,   0.00303,   0.00113,   0.00064,  -6.58784,   1.00000
418864275.49647,519931722.62111,-23933204.87368,   0.00393,   0.00269,   0.00033,479284725.45888,   0.00437,279284732.75136,   0.00304,   0.00114,   0.00064,  -7.29248,   1.00000
418438873.06651,520200943.06269,-23778408.23186,   0.00393,   0.00270,   0.00033,479295371.73576,   0.00438,279295376.78528,   0.00304,   0.00115,   0.00064,  -5.04952,   1.00000
418015592.75755,520467458.53510,-23624600.98119,   0.00393,   0.00271,   0.00033,479306022.60605,   0.00439,279306024.51644,   0.00305,   0.00116,   0.00064,  -1.91039,   1.00000
417603211.75062,520727442.01861,-23468456.91916,   0.00394,   0.00272,   0.00033,479316559.81462,   0.00440,279316564.44642,   0.00305,   0.00117,   0.00064,  -4.63180,   1.00000
417193484.53176,520985639.09698,-23308384.28176,   0.00394,   0.00273,   0.00033,479327099.01345,   0.00441,279327104.91622,   0.00306,   0.00118,   0.00063,  -5.90278,   1.00000
416785366.02086,521240767.17962,-23151510.59658,   0.00394,   0.00274,   0.00033,479337492.89399,   0.00442,279337498.69966,   0.00306,   0.00118,   0.00063,  -5.80566,   1.00000
416380433.16677,521494947.68516,-22985776.98863,   0.00394,   0.00275,   0.00033,479347881.19400,   0.00443,279347890.16607,   0.00306,   0.00119,   0.00063,  -8.97207,   1.00000
415984990.44318,521741323.42175,-22827563.12771,   0.00394,   0.00277,   0.00033,479358169.13612,   0.00444,279358179.06053,   0.00307,   0.00120,   0.00063,  -9.92441,   1.00000
415592648.06272,521986857.56862,-22660487.84080,   0.00395,   0.00278,   0.00033,479368460.93043,   0.00445,279368465.46966,   0.00307,   0.00121,   0.00063,  -4.53922,   1.00000
415210280.59891,522225535.57375,-22495989.30888,   0.00395,   0.00279,   0.00033,479378644.25085,   0.00446,279378646.14440,   0.00308,   0.00122,   0.00062,  -1.89356,   1.00000
414825680.92180,522464496.04490,-22328922.28207,   0.00395,   0.00280,   0.00033,479388722.39679,   0.00447,279388731.39319,   0.00308,   0.00123,   0.00062,  -8.99639,   1.00000
414442911.14846,522701174.05331,-22162877.03906,   0.00395,   0.00281,   0.00033,479398818.39497,   0.00448,279398819.65326,   0.00309,   0.00124,   0.00062,  -1.25829,   1.00000
414071121.06302,522932702.12681,-21989499.54122,   0.00395,   0.00282,   0.00033,479408790.39927,   0.00449,279408796.43953,   0.00309,   0.00125,   0.00062,  -6.04026,   1.00000
413705086.51192,523159864.23274,-21817919.94456,   0.00396,   0.00283,   0.00033,479418721.10923,   0.00450,279418721.48746,   0.00309,   0.00125,   0.00062,  -0.37823,   1.00000
413336007.78998,523386729.69058,-21648674.67566,   0.00396,   0.00284,   0.00033,479428553.71477,   0.00451,279428553.75344,   0.00310,   0.00126,   0.00061,  -0.03867,   1.00000
412982500.36982,523606776.22998,-21470766.34875,   0.00396,   0.00285,   0.00033,479438366.72761,   0.00452,279438369.86920,   0.00310,   0.00127,   0.00061,  -3.14159,   1.00000
412625822.32916,523826632.89926,-21295199.74666,   0.00396,   0.00286,   0.00033,479448091.06531,   0.00453,279448093.01622,   0.00311,   0.00128,   0.00061,  -1.95091,   1.00000
412266482.22434,524047035.59641,-21117009.48140,   0.00396,   0.00287,   0.00034,479457718.95539,   0.00454,279457720.68744,   0.00311,   0.00129,   0.00061,  -1.73206,   1.00000
411925524.68000,524257188.10629,-20940762.18067,   0.00397,   0.00288,   0.00034,479467273.59454,   0.00455,279467282.60708,   0.00311,   0.00130,   0.00061,  -9.01254,   1.00000
411578315.96277,524470817.45373,-20756213.06956,   0.00397,   0.00289,   0.00034,479476791.77941,   0.00456,279476800.97992,   0.00312,   0.00131,   0.00061,  -9.20051,   1.00000
411240567.09511,524678325.64493,-20574148.20451,   0.00397,   0.00290,   0.00034,479486208.31945,   0.00457,279486212.47003,   0.00312,   0.00131,   0.00060,  -4.15058,   1.00000
410904285.51315,524883925.20891,-20393129.41097,   0.00397,   0.00291,   0.00034,479495622.20316,   0.00458,279495626.43138,   0.00313,   0.00132,   0.00060,  -4.22822,   1.00000
410578413.52029,525084944.12211,-20204672.77686,   0.00397,   0.00292,   0.00034,479504927.27142,   0.00459,279504928.22889,   0.00313,   0.00133,   0.00060,  -0.95746,   1.00000
410252905.44660,525284009.58607,-20019175.08021,   0.00398,   0.00293,   0.00034,479514075.02757,   0.00460,279514082.17127,   0.00313,   0.00134,   0.00060,  -7.14370,   1.00000
409937704.81338,525477341.46233,-19834210.27306,   0.00398,   0.00294,   0.00034,479523274.32455,   0.00461,279523278.97277,   0.00314,   0.00135,   0.00060,  -4.64821,   1.00000
409619824.75224,525672211.95364,-19641591.07073,   0.00398,   0.00295,   0.00034,479532368.26317,   0.00461,279532377.69744,   0.00314,   0.00135,   0.00060,  -9.43427,   1.00000
409302158.79524,525865275.89915,-19451879.27558,   0.00398,   0.00296,   0.00034,479541322.25702,   0.00462,279541328.45013,   0.00314,   0.00136,   0.00060,  -6.19311,   1.00000
408999177.68632,526051363.78551,-19258442.22605,   0.00398,   0.00297,   0.00034,479550260.42175,   0.00463,279550264.65803,   0.00315,   0.00137,   0.00059,  -4.23628,   1.00000
408692826.60524,526238399.78956,-19062267.46108,   0.00398,   0.00297,   0.00035,479559100.60775,   0.00464,279559105.25782,   0.00315,   0.00138,   0.00059,  -4.65007,   1.00000
408404527.98952,526415934.26175,-18867976.86061,   0.00399,   0.00298,   0.00035,479567873.00768,   0.00465,279567878.56247,   0.00315,   0.00138,   0.00059,  -5.55479,   1.00000
408099787.58782,526600372.23725,-18670740.08395,   0.00399,   0.00299,   0.00035,479576561.37659,   0.00466,279576570.76936,   0.00316,   0.00139,   0.00059,  -9.39277,   1.00000
407813549.05814,526776048.05847,-18470419.64337,   0.00399,   0.00300,   0.00035,479585190.65058,   0.00467,279585193.21886,   0.00316,   0.00140,   0.00059,  -2.56828,   1.00000
407532295.04428,526948245.80071,-18271790.03645,   0.00399,   0.00301,   0.00035,479593757.47521,   0.00467,279593762.66629,   0.00316,   0.00141,   0.00059,  -5.19108,   1.00000
407251733.86572,527120258.42857,-18066025.27102,   0.00399,   0.00302,   0.00035,479602174.92098,   0.00468,279602179.28225,   0.00317,   0.00142,   0.00059,  -4.36127,   1.00000
406972199.83973,527290760.10983,-17861324.78072,   0.00400,   0.00303,   0.00035,479610589.24017,   0.00469,279610597.83909,   0.00317,   0.00142,   0.00059,  -8.59892,   1.00000
406701459.66520,527456000.79859,-17658903.54117,   0.00400,   0.00304,   0.00035,479618906.27990,   0.00470,279618908.24517,   0.00317,   0.00143,   0.00058,  -1.96527,   1.00000
406427332.14665,527623006.38833,-17448669.79019,   0.00400,   0.00305,   0.00036,479627116.15675,   0.00471,279627121.00889,   0.00318,   0.00144,   0.00058,  -4.85215,   1.00000
406171033.05342,527780941.52676,-17240254.47135,   0.00400,   0.00305,   0.00036,479635256.42662,   0.00472,279635265.69087,   0.00318,   0.00144,   0.00058,  -9.26425,   1.00000
