# sigma_xx, sigma_yy, sigma_xy, epsilon_xx, epsilon_yy, epsilon_xy, vonMises, epsPlastic, hardening, epsilonP__xx, epsilonP__yy, epsilonP__xy, yieldValue, iteration
   0.00000,   0.00000,   0.00000,   0.00000,   0.00000,   0.00000,   0.00000,   0.00000,274640135.82653,   0.00000,   0.00000,   0.00000,-474640135.82653,   0.00000
   0.00000,   0.00000,   0.00000,   0.00000,   0.00000,   0.00000,   0.00000,   0.00000,274640135.82653,   0.00000,   0.00000,   0.00000,-474640135.82653,   0.00000
2842016.20491,2444405.03475,-36146.47001,   0.00001,   0.00001,  -0.00000,2666280.75503,   0.00000,274640135.82653,   0.00000,   0.00000,   0.00000,-471973855.07150,   0.00000
5677254.94670,4872995.98887,-67774.63128,   0.00002,   0.00001,  -0.00000,5322203.79695,   0.00000,274640135.82653,   0.00000,   0.00000,   0.00000,-469317932.02958,   0.00000
8505716.22536,7285772.86236,-99402.79254,   0.00002,   0.00002,  -0.00000,7967974.71156,   0.00000,274640135.82653,   0.00000,   0.00000,   0.00000,-466672161.11497,   0.00000
11340954.96715,9714363.81648,-126512.64505,   0.00003,   0.00002,  -0.00000,10623745.93525,   0.00000,274640135.82653,   0.00000,   0.00000,   0.00000,-464016389.89128,   0.00000
14153602.16517,12120363.22684,-149104.18881,   0.00004,   0.00003,  -0.00000,13256981.40482,   0.00000,274640135.82653,   0.00000,   0.00000,   0.00000,-461383154.42171,   0.00000
16966249.36320,14526362.63720,-171695.73257,   0.00005,   0.00003,  -0.00000,15890228.95847,   0.00000,274640135.82653,   0.00000,   0.00000,   0.00000,-458749906.86806,   0.00000
19772119.09810,16916547.96693,-189768.96758,   0.00006,   0.00004,  -0.00000,18513193.25236,   0.00000,274640135.82653,   0.00000,   0.00000,   0.00000,-456126942.57417,   0.00000
22577988.83300,19306733.29666,-203323.89383,   0.00007,   0.00004,  -0.00000,21136043.70205,   0.00000,274640135.82653,   0.00000,   0.00000,   0.00000,-453504092.12448,   0.00000
25368044.48727,21690141.16326,-216878.82009,   0.00007,   0.00005,  -0.00000,23746674.46388,   0.00000,274640135.82653,   0.00000,   0.00000,   0.00000,-450893461.36265,   0.00000
28158100.14154,24073549.02986,-221397.12884,   0.00008,   0.00005,  -0.00000,26357086.56500,   0.00000,274640135.82653,   0.00000,   0.00000,   0.00000,-448283049.26153,   0.00000
30925564.25204,26434365.35270,-225915.43759,   0.00009,   0.00006,  -0.00000,28945148.90418,   0.00000,274640135.82653,   0.00000,   0.00000,   0.00000,-445694986.92235,   0.00000
33708842.44319,28801959.13867,-230433.74634,   0.00010,   0.00007,  -0.00000,31545483.12452,   0.00000,274640135.82653,   0.00000,   0.00000,   0.00000,-443094652.70201,   0.00000
36469529.09057,31146961.38089,-230433.74634,   0.00011,   0.00007,  -0.00000,34123365.02049,   0.00000,274640135.82653,   0.00000,   0.00000,   0.00000,-440516770.80604,   0.00000
39214401.65732,33485186.15997,-225915.43759,   0.00011,   0.00008,  -0.00000,36688943.33743,   0.00000,274640135.82653,   0.00000,   0.00000,   0.00000,-437951192.48910,   0.00000
41975088.30470,35830188.40218,-216878.82009,   0.00012,   0.00008,  -0.00000,39266731.79977,   0.00000,274640135.82653,   0.00000,   0.00000,   0.00000,-435373404.02676,   0.00000
44713183.40832,38152599.10063,-207842.20259,   0.00013,   0.00009,  -0.00000,41822183.38026,   0.00000,274640135.82653,   0.00000,   0.00000,   0.00000,-432817952.44627,   0.00000
47451278.51194,40475009.79908,-194287.27633,   0.00014,   0.00009,  -0.00000,44377612.94325,   0.00000,274640135.82653,   0.00000,   0.00000,   0.00000,-430262522.88328,   0.00000
50173559.53493,42790643.03441,-176214.04132,   0.00014,   0.00010,  -0.00000,46920778.83032,   0.00000,274640135.82653,   0.00000,   0.00000,   0.00000,-427719356.99621,   0.00000
52889063.09479,45090462.18910,-153622.49756,   0.00015,   0.00010,  -0.00000,49453829.73435,   0.00000,274640135.82653,   0.00000,   0.00000,   0.00000,-425186306.09218,   0.00000
55604566.65466,47390281.34379,-131030.95380,   0.00016,   0.00011,  -0.00000,51986941.13202,   0.00000,274640135.82653,   0.00000,   0.00000,   0.00000,-422653194.69451,   0.00000
58320070.21452,49690100.49848,-103921.10129,   0.00017,   0.00011,  -0.00000,54520078.19257,   0.00000,274640135.82653,   0.00000,   0.00000,   0.00000,-420120057.63396,   0.00000
61019759.69375,51983142.19005,-76811.24878,   0.00018,   0.00012,  -0.00000,57041011.56514,   0.00000,274640135.82653,   0.00000,   0.00000,   0.00000,-417599124.26139,   0.00000
63712671.70985,54260369.80098,-40664.77877,   0.00018,   0.00012,  -0.00000,59551860.59423,   0.00000,274640135.82653,   0.00000,   0.00000,   0.00000,-415088275.23230,   0.00000
66382992.18220,56515005.86815,-4518.30875,   0.00019,   0.00013,  -0.00000,62040409.47529,   0.00000,274640135.82653,   0.00000,   0.00000,   0.00000,-412599726.35124,   0.00000
69060090.11767,58785456.01596,36146.47001,   0.00020,   0.00013,   0.00000,64539142.50822,   0.00000,274640135.82653,   0.00000,   0.00000,   0.00000,-410100993.31831,   0.00000
71730410.59001,61040092.08313,76811.24878,   0.00021,   0.00014,   0.00000,67027841.06069,   0.00000,274640135.82653,   0.00000,   0.00000,   0.00000,-407612294.76584,   0.00000
74384916.98172,63287950.68718,121994.33630,   0.00022,   0.00014,   0.00000,69504361.49340,   0.00000,274640135.82653,   0.00000,   0.00000,   0.00000,-405135774.33313,   0.00000
77032645.91031,65519995.21059,171695.73257,   0.00022,   0.00015,   0.00000,71970884.08176,   0.00000,274640135.82653,   0.00000,   0.00000,   0.00000,-402669251.74477,   0.00000
79680374.83889,67752039.73401,225915.43759,   0.00023,   0.00015,   0.00000,74437532.29275,   0.00000,274640135.82653,   0.00000,   0.00000,   0.00000,-400202603.53378,   0.00000
82312289.68685,69977306.79429,280135.14261,   0.00024,   0.00016,   0.00000,76891999.44345,   0.00000,274640135.82653,   0.00000,   0.00000,   0.00000,-397748136.38308,   0.00000
84937427.07167,72186759.77395,338873.15639,   0.00025,   0.00016,   0.00000,79336509.03226,   0.00000,274640135.82653,   0.00000,   0.00000,   0.00000,-395303626.79427,   0.00000
87562564.45650,74396212.75360,402129.47891,   0.00025,   0.00017,   0.00001,81781178.25071,   0.00000,274640135.82653,   0.00000,   0.00000,   0.00000,-392858957.57582,   0.00000
90171887.76069,76598888.27013,465385.80144,   0.00026,   0.00017,   0.00001,84213671.23390,   0.00000,274640135.82653,   0.00000,   0.00000,   0.00000,-390426464.59263,   0.00000
92758619.52113,78778972.24290,533160.43272,   0.00027,   0.00018,   0.00001,86623969.14659,   0.00000,274640135.82653,   0.00000,   0.00000,   0.00000,-388016166.67994,   0.00000
95367942.82532,80981647.75943,605453.37275,   0.00028,   0.00018,   0.00001,89056826.58002,   0.00000,274640135.82653,   0.00000,   0.00000,   0.00000,-385583309.24651,   0.00000
97947897.12263,83145917.65156,682264.62153,   0.00028,   0.00019,   0.00001,91457437.31160,   0.00000,274640135.82653,   0.00000,   0.00000,   0.00000,-383182698.51493,   0.00000
100518814.80243,85319224.16120,759075.87031,   0.00029,   0.00019,   0.00001,93855971.76919,   0.00000,274640135.82653,   0.00000,   0.00000,   0.00000,-380784164.05734,   0.00000
103082955.01911,87476716.59021,840405.42784,   0.00030,   0.00020,   0.00001,96244646.41338,   0.00000,274640135.82653,   0.00000,   0.00000,   0.00000,-378395489.41315,   0.00000
105647095.23578,89634209.01922,926253.29413,   0.00031,   0.00020,   0.00001,98633565.16479,   0.00000,274640135.82653,   0.00000,   0.00000,   0.00000,-376006570.66174,   0.00000
108188643.90870,91769109.90447,1012101.16041,   0.00031,   0.00021,   0.00001,101000246.02181,   0.00000,274640135.82653,   0.00000,   0.00000,   0.00000,-373639889.80472,   0.00000
110736970.04474,93919824.87035,1106985.64420,   0.00032,   0.00021,   0.00001,103377412.70095,   0.00000,274640135.82653,   0.00000,   0.00000,   0.00000,-371262723.12558,   0.00000
113255927.17390,96032134.21184,1201870.12799,   0.00033,   0.00022,   0.00002,105722282.03205,   0.00000,274640135.82653,   0.00000,   0.00000,   0.00000,-368917853.79448,   0.00000
115781661.76618,98160257.63397,1296754.61178,   0.00034,   0.00022,   0.00002,108077362.79822,   0.00000,274640135.82653,   0.00000,   0.00000,   0.00000,-366562773.02831,   0.00000
118300618.89534,100272566.97546,1400675.71307,   0.00034,   0.00023,   0.00002,110422837.60530,   0.00000,274640135.82653,   0.00000,   0.00000,   0.00000,-364217298.22123,   0.00000
120803761.94387,102378098.85382,1504596.81437,   0.00035,   0.00023,   0.00002,112756179.33059,   0.00000,274640135.82653,   0.00000,   0.00000,   0.00000,-361883956.49594,   0.00000
123306904.99239,104483630.73218,1613036.22441,   0.00036,   0.00023,   0.00002,115089853.76397,   0.00000,274640135.82653,   0.00000,   0.00000,   0.00000,-359550282.06256,   0.00000
125787456.49716,106566571.06678,1721475.63446,   0.00036,   0.00024,   0.00002,117401323.64638,   0.00000,274640135.82653,   0.00000,   0.00000,   0.00000,-357238812.18015,   0.00000
128268008.00192,108649511.40139,1834433.35325,   0.00037,   0.00024,   0.00002,119713145.66031,   0.00000,274640135.82653,   0.00000,   0.00000,   0.00000,-354926990.16622,   0.00000
130732745.42606,110725674.27286,1951909.38080,   0.00038,   0.00025,   0.00003,122013049.03028,   0.00000,274640135.82653,   0.00000,   0.00000,   0.00000,-352627086.79625,   0.00000
133190705.38707,112786023.06371,2073903.71710,   0.00039,   0.00025,   0.00003,124303275.34002,   0.00000,274640135.82653,   0.00000,   0.00000,   0.00000,-350336860.48651,   0.00000
135648665.34807,114846371.85455,2195898.05340,   0.00039,   0.00026,   0.00003,126593674.33451,   0.00000,274640135.82653,   0.00000,   0.00000,   0.00000,-348046461.49202,   0.00000
138090811.22845,116899943.18227,2322410.69845,   0.00040,   0.00026,   0.00003,128872191.14109,   0.00000,274640135.82653,   0.00000,   0.00000,   0.00000,-345767944.68544,   0.00000
140510365.56507,118930922.96622,2453441.65226,   0.00041,   0.00027,   0.00003,131128783.77257,   0.00000,274640135.82653,   0.00000,   0.00000,   0.00000,-343511352.05396,   0.00000
142936697.36481,120977716.83081,2588990.91481,   0.00041,   0.00027,   0.00003,133395879.79580,   0.00000,274640135.82653,   0.00000,   0.00000,   0.00000,-341244256.03073,   0.00000
145349474.23830,122992882.53414,2724540.17737,   0.00042,   0.00028,   0.00004,135643051.28369,   0.00000,274640135.82653,   0.00000,   0.00000,   0.00000,-338997084.54284,   0.00000
147753214.49428,125017084.85497,2864607.74867,   0.00043,   0.00028,   0.00004,137888453.75035,   0.00000,274640135.82653,   0.00000,   0.00000,   0.00000,-336751682.07618,   0.00000
150134363.20651,127018695.63204,3009193.62873,   0.00044,   0.00029,   0.00004,140111993.81329,   0.00000,274640135.82653,   0.00000,   0.00000,   0.00000,-334528142.01324,   0.00000
152515511.91873,129020306.40911,3153779.50879,   0.00044,   0.00029,   0.00004,142335735.98154,   0.00000,274640135.82653,   0.00000,   0.00000,   0.00000,-332304399.84499,   0.00000
154896660.63096,131021917.18618,3307402.00635,   0.00045,   0.00029,   0.00004,144560290.32986,   0.00000,274640135.82653,   0.00000,   0.00000,   0.00000,-330079845.49667,   0.00000
157255217.79943,133000936.41949,3461024.50392,   0.00046,   0.00030,   0.00004,146762725.04039,   0.00000,274640135.82653,   0.00000,   0.00000,   0.00000,-327877410.78614,   0.00000
159613774.96789,134979955.65280,3614647.00148,   0.00046,   0.00030,   0.00005,148965372.95501,   0.00000,274640135.82653,   0.00000,   0.00000,   0.00000,-325674762.87152,   0.00000
161956518.05573,136952197.42298,3777306.11655,   0.00047,   0.00031,   0.00005,151156611.53091,   0.00000,274640135.82653,   0.00000,   0.00000,   0.00000,-323483524.29562,   0.00000
164292483.68043,138908625.11253,3939965.23161,   0.00048,   0.00031,   0.00005,153338035.98014,   0.00000,274640135.82653,   0.00000,   0.00000,   0.00000,-321302099.84639,   0.00000
166619412.68764,140874089.41959,4102624.34668,   0.00048,   0.00032,   0.00005,155517440.47458,   0.00000,274640135.82653,   0.00000,   0.00000,   0.00000,-319122695.35195,   0.00000
168916972.68795,142801148.10225,4274320.07925,   0.00049,   0.00032,   0.00006,157665415.87808,   0.00000,274640135.82653,   0.00000,   0.00000,   0.00000,-316974719.94845,   0.00000
171237124.23203,144750798.32868,4446015.81182,   0.00050,   0.00032,   0.00006,159835969.24894,   0.00000,274640135.82653,   0.00000,   0.00000,   0.00000,-314804166.57759,   0.00000
173518870.15171,146671079.54821,4622229.85314,   0.00050,   0.00033,   0.00006,161972525.12038,   0.00000,274640135.82653,   0.00000,   0.00000,   0.00000,-312667610.70615,   0.00000
175800616.07140,148591360.76775,4802962.20322,   0.00051,   0.00033,   0.00006,164109724.50715,   0.00000,274640135.82653,   0.00000,   0.00000,   0.00000,-310530411.31938,   0.00000
178082361.99108,150511641.98729,4983694.55329,   0.00052,   0.00034,   0.00006,166247180.27077,   0.00000,274640135.82653,   0.00000,   0.00000,   0.00000,-308392955.55576,   0.00000
180348293.83014,152425145.74370,5168945.21212,   0.00052,   0.00034,   0.00007,168373011.95429,   0.00000,274640135.82653,   0.00000,   0.00000,   0.00000,-306267123.87224,   0.00000
182591634.12543,154316057.95635,5358714.17970,   0.00053,   0.00035,   0.00007,170477203.32853,   0.00000,274640135.82653,   0.00000,   0.00000,   0.00000,-304162932.49800,   0.00000
184834974.42072,156206970.16900,5553001.45602,   0.00054,   0.00035,   0.00007,172582100.57383,   0.00000,274640135.82653,   0.00000,   0.00000,   0.00000,-302058035.25270,   0.00000
187071537.25289,158082068.30101,5747288.73235,   0.00054,   0.00035,   0.00007,174677241.85657,   0.00000,274640135.82653,   0.00000,   0.00000,   0.00000,-299962893.96996,   0.00000
189292286.00443,159950388.96990,5946094.31744,   0.00055,   0.00036,   0.00008,176760826.57051,   0.00000,274640135.82653,   0.00000,   0.00000,   0.00000,-297879309.25602,   0.00000
191503998.13846,161827746.25630,6144899.90252,   0.00056,   0.00036,   0.00008,178842443.86618,   0.00000,274640135.82653,   0.00000,   0.00000,   0.00000,-295797691.96035,   0.00000
193702155.34623,163673475.38143,6352742.10510,   0.00056,   0.00037,   0.00008,180905219.85720,   0.00000,274640135.82653,   0.00000,   0.00000,   0.00000,-293734915.96933,   0.00000
195891275.93650,165528241.12406,6560584.30769,   0.00057,   0.00037,   0.00009,182966051.60443,   0.00000,274640135.82653,   0.00000,   0.00000,   0.00000,-291674084.22210,   0.00000
198073619.06365,167367192.78607,6772944.81902,   0.00057,   0.00038,   0.00009,185017643.88016,   0.00000,274640135.82653,   0.00000,   0.00000,   0.00000,-289622491.94637,   0.00000
200240148.11016,169199366.98494,6985305.33036,   0.00058,   0.00038,   0.00009,187057263.61131,   0.00000,274640135.82653,   0.00000,   0.00000,   0.00000,-287582872.21522,   0.00000
202406677.15667,171031541.18382,7202184.15045,   0.00059,   0.00038,   0.00009,189097698.20632,   0.00000,274640135.82653,   0.00000,   0.00000,   0.00000,-285542437.62021,   0.00000
204550614.65943,172841123.83894,7423581.27929,   0.00059,   0.00039,   0.00010,191116662.28983,   0.00000,274640135.82653,   0.00000,   0.00000,   0.00000,-283523473.53670,   0.00000
206694552.16218,174650706.49405,7649496.71688,   0.00060,   0.00039,   0.00010,193136485.44194,   0.00000,274640135.82653,   0.00000,   0.00000,   0.00000,-281503650.38459,   0.00000
208822675.58430,176453511.68604,7875412.15448,   0.00061,   0.00040,   0.00010,195144365.91356,   0.00000,274640135.82653,   0.00000,   0.00000,   0.00000,-279495769.91297,   0.00000
210934984.92579,178249539.41490,8105845.90082,   0.00061,   0.00040,   0.00011,197140854.39366,   0.00000,274640135.82653,   0.00000,   0.00000,   0.00000,-277499281.43287,   0.00000
213040516.80416,180029753.06313,8340797.95592,   0.00062,   0.00040,   0.00011,199128222.22649,   0.00000,274640135.82653,   0.00000,   0.00000,   0.00000,-275511913.60004,   0.00000
215130234.60189,181803189.24823,8575750.01101,   0.00062,   0.00041,   0.00011,201103667.72166,   0.00000,274640135.82653,   0.00000,   0.00000,   0.00000,-273536468.10487,   0.00000
217219952.39962,183576625.43333,8819738.68361,   0.00063,   0.00041,   0.00011,203080630.93021,   0.00000,274640135.82653,   0.00000,   0.00000,   0.00000,-271559504.89632,   0.00000
219287078.65359,185327470.07468,9063727.35621,   0.00064,   0.00042,   0.00012,205035674.90203,   0.00000,274640135.82653,   0.00000,   0.00000,   0.00000,-269604460.92450,   0.00000
221360982.37069,187094128.79665,9307716.02881,   0.00064,   0.00042,   0.00012,207001106.59873,   0.00000,274640135.82653,   0.00000,   0.00000,   0.00000,-267639029.22780,   0.00000
223412294.54403,188838195.97486,9556223.01017,   0.00065,   0.00042,   0.00012,208945225.23099,   0.00000,274640135.82653,   0.00000,   0.00000,   0.00000,-265694910.59554,   0.00000
225447792.63674,190575485.68995,9809248.30027,   0.00065,   0.00043,   0.00013,210878079.53392,   0.00000,274640135.82653,   0.00000,   0.00000,   0.00000,-263762056.29261,   0.00000
227476513.26632,192296961.32441,10066791.89912,   0.00066,   0.00043,   0.00013,212801936.18959,   0.00000,274640135.82653,   0.00000,   0.00000,   0.00000,-261838199.63694,   0.00000
229489419.81527,194011659.49573,10324335.49798,   0.00067,   0.00044,   0.00013,214713926.80213,   0.00000,274640135.82653,   0.00000,   0.00000,   0.00000,-259926209.02440,   0.00000
231502326.36422,195726357.66706,10586397.40559,   0.00067,   0.00044,   0.00014,216626966.22772,   0.00000,274640135.82653,   0.00000,   0.00000,   0.00000,-258013169.59881,   0.00000
233499418.83254,197434278.37526,10852977.62195,   0.00068,   0.00044,   0.00014,218528819.57361,   0.00000,274640135.82653,   0.00000,   0.00000,   0.00000,-256111316.25292,   0.00000
235480697.22022,199135421.62033,11119557.83831,   0.00068,   0.00045,   0.00014,220418830.14477,   0.00000,274640135.82653,   0.00000,   0.00000,   0.00000,-254221305.68176,   0.00000
237455198.14478,200820750.78477,11395174.67217,   0.00069,   0.00045,   0.00015,222300616.10347,   0.00000,274640135.82653,   0.00000,   0.00000,   0.00000,-252339519.72306,   0.00000
239413884.98871,202499302.48609,11666273.19728,   0.00069,   0.00045,   0.00015,224169884.03437,   0.00000,274640135.82653,   0.00000,   0.00000,   0.00000,-250470251.79216,   0.00000
241372571.83264,204177854.18740,11946408.33989,   0.00070,   0.00046,   0.00016,226040993.65792,   0.00000,274640135.82653,   0.00000,   0.00000,   0.00000,-248599142.16861,   0.00000
243308667.13281,205833814.34495,12226543.48251,   0.00071,   0.00046,   0.00016,227890282.16928,   0.00000,274640135.82653,   0.00000,   0.00000,   0.00000,-246749853.65725,   0.00000
245235725.81547,207498811.12001,12511196.93388,   0.00071,   0.00047,   0.00016,229738517.51012,   0.00000,274640135.82653,   0.00000,   0.00000,   0.00000,-244901618.31640,   0.00000
247156007.03501,209147993.81444,12795850.38524,   0.00072,   0.00047,   0.00017,231577186.83147,   0.00000,274640135.82653,   0.00000,   0.00000,   0.00000,-243062948.99506,   0.00000
249060474.17391,210790399.04573,13089540.45411,   0.00072,   0.00047,   0.00017,233405577.47375,   0.00000,274640135.82653,   0.00000,   0.00000,   0.00000,-241234558.35278,   0.00000
250958163.84969,212416990.19640,13383230.52298,   0.00073,   0.00048,   0.00017,235224430.01192,   0.00000,274640135.82653,   0.00000,   0.00000,   0.00000,-239415705.81461,   0.00000
252846816.90796,214052617.96457,13676920.59185,   0.00073,   0.00048,   0.00018,237041531.05615,   0.00000,274640135.82653,   0.00000,   0.00000,   0.00000,-237598604.77038,   0.00000
254712878.42248,215665654.18898,13975128.96948,   0.00074,   0.00048,   0.00018,238837639.33858,   0.00000,274640135.82653,   0.00000,   0.00000,   0.00000,-235802496.48795,   0.00000
256578939.93699,217278690.41339,14277855.65585,   0.00074,   0.00049,   0.00019,240635028.94668,   0.00000,274640135.82653,   0.00000,   0.00000,   0.00000,-234005106.87985,   0.00000
258422409.90775,218869135.09404,14585100.65098,   0.00075,   0.00049,   0.00019,242411481.52864,   0.00000,274640135.82653,   0.00000,   0.00000,   0.00000,-232228654.29788,   0.00000
260256843.26100,220468616.39220,14892345.64610,   0.00075,   0.00050,   0.00019,244186230.18968,   0.00000,274640135.82653,   0.00000,   0.00000,   0.00000,-230453905.63685,   0.00000
262084499.15112,222052283.60972,15204108.94998,   0.00076,   0.00050,   0.00020,245952301.47990,   0.00000,274640135.82653,   0.00000,   0.00000,   0.00000,-228687834.34663,   0.00000
263896340.96061,223629173.36412,15520390.56261,   0.00076,   0.00050,   0.00020,247707514.90161,   0.00000,274640135.82653,   0.00000,   0.00000,   0.00000,-226932620.92492,   0.00000
265708182.77011,225206063.11851,15836672.17524,   0.00077,   0.00051,   0.00021,249463255.87761,   0.00000,274640135.82653,   0.00000,   0.00000,   0.00000,-225176879.94891,   0.00000
267497433.03584,226760361.32915,16157472.09662,   0.00077,   0.00051,   0.00021,251198159.41747,   0.00000,274640135.82653,   0.00000,   0.00000,   0.00000,-223441976.40906,   0.00000
269277646.68407,228323696.15729,16482790.32675,   0.00078,   0.00051,   0.00021,252932284.96588,   0.00000,274640135.82653,   0.00000,   0.00000,   0.00000,-221707850.86065,   0.00000
271051082.86917,229871216.90480,16808108.55689,   0.00079,   0.00052,   0.00022,254656947.99696,   0.00000,274640135.82653,   0.00000,   0.00000,   0.00000,-219983187.82957,   0.00000
272808704.97364,231411960.18918,17137945.09577,   0.00079,   0.00052,   0.00022,256370854.70016,   0.00000,274640135.82653,   0.00000,   0.00000,   0.00000,-218269281.12637,   0.00000
274543735.53435,232930111.92980,17472299.94341,   0.00079,   0.00052,   0.00023,258064024.05814,   0.00000,274640135.82653,   0.00000,   0.00000,   0.00000,-216576111.76839,   0.00000
276285543.55819,234464077.75106,17806654.79105,   0.00080,   0.00053,   0.00023,259767782.90065,   0.00000,274640135.82653,   0.00000,   0.00000,   0.00000,-214872352.92588,   0.00000
278004760.03827,235975452.02855,18145527.94743,   0.00080,   0.00053,   0.00024,261450840.88862,   0.00000,274640135.82653,   0.00000,   0.00000,   0.00000,-213189294.93790,   0.00000
279708162.43772,237480048.84292,18484401.10382,   0.00081,   0.00054,   0.00024,263122292.68488,   0.00000,274640135.82653,   0.00000,   0.00000,   0.00000,-211517843.14165,   0.00000
281411564.83717,238984645.65728,18832310.87772,   0.00081,   0.00054,   0.00024,264796250.68447,   0.00000,274640135.82653,   0.00000,   0.00000,   0.00000,-209843885.14206,   0.00000
283092375.69285,240466650.92789,19175702.34286,   0.00082,   0.00054,   0.00025,266447650.72870,   0.00000,274640135.82653,   0.00000,   0.00000,   0.00000,-208192485.09783,   0.00000
284779964.01167,241964470.27913,19528130.42550,   0.00082,   0.00055,   0.00025,268111624.65567,   0.00000,274640135.82653,   0.00000,   0.00000,   0.00000,-206528511.17086,   0.00000
286429146.70610,243432920.62348,19880558.50814,   0.00083,   0.00055,   0.00026,269741856.24684,   0.00000,274640135.82653,   0.00000,   0.00000,   0.00000,-204898279.57969,   0.00000
288094143.48115,244908148.43096,20237504.89954,   0.00083,   0.00055,   0.00026,271385893.58315,   0.00000,274640135.82653,   0.00000,   0.00000,   0.00000,-203254242.24338,   0.00000
289727512.09495,246369821.31218,20594451.29094,   0.00084,   0.00056,   0.00027,273006225.21473,   0.00000,274640135.82653,   0.00000,   0.00000,   0.00000,-201633910.61180,   0.00000
291354103.24561,247815680.11278,20955915.99109,   0.00084,   0.00056,   0.00027,274618209.12574,   0.00000,274640135.82653,   0.00000,   0.00000,   0.00000,-200021926.70079,   0.00000
292971657.77878,249270575.53087,21321898.99999,   0.00085,   0.00056,   0.00028,276229738.56789,   0.00000,274640135.82653,   0.00000,   0.00000,   0.00000,-198410397.25864,   0.00000
294582434.84881,250709656.86834,21692400.31764,   0.00085,   0.00057,   0.00028,277832975.90950,   0.00000,274640135.82653,   0.00000,   0.00000,   0.00000,-196807159.91703,   0.00000
296177397.83822,252141960.74267,22058383.32654,   0.00086,   0.00057,   0.00029,279423668.22395,   0.00000,274640135.82653,   0.00000,   0.00000,   0.00000,-195216467.60258,   0.00000
297749769.28386,253551673.07325,22433402.95294,   0.00086,   0.00057,   0.00029,280995011.64947,   0.00000,274640135.82653,   0.00000,   0.00000,   0.00000,-193645124.17706,   0.00000
299313104.11200,254970422.02133,22808422.57934,   0.00086,   0.00058,   0.00030,282564920.59104,   0.00000,274640135.82653,   0.00000,   0.00000,   0.00000,-192075215.23549,   0.00000
300869661.47701,256373356.88878,23187960.51450,   0.00087,   0.00058,   0.00030,284126610.43860,   0.00000,274640135.82653,   0.00000,   0.00000,   0.00000,-190513525.38793,   0.00000
302417182.22452,257785328.37374,23572016.75841,   0.00087,   0.00058,   0.00031,285688002.76865,   0.00000,274640135.82653,   0.00000,   0.00000,   0.00000,-188952133.05788,   0.00000
303957925.50890,259181485.77806,23956073.00231,   0.00088,   0.00059,   0.00031,287240102.70758,   0.00000,274640135.82653,   0.00000,   0.00000,   0.00000,-187400033.11895,   0.00000
305476077.24952,260555051.63862,24344647.55497,   0.00088,   0.00059,   0.00032,288771915.56274,   0.00000,274640135.82653,   0.00000,   0.00000,   0.00000,-185868220.26379,   0.00000
306985192.37264,261937654.11669,24733222.10763,   0.00089,   0.00059,   0.00032,290302357.32603,   0.00000,274640135.82653,   0.00000,   0.00000,   0.00000,-184337778.50050,   0.00000
308471715.95200,263297665.05099,25126314.96904,   0.00089,   0.00060,   0.00033,291812564.03900,   0.00000,274640135.82653,   0.00000,   0.00000,   0.00000,-182827571.78753,   0.00000
309958239.53136,264657675.98530,25519407.83045,   0.00089,   0.00060,   0.00033,293323522.60347,   0.00000,274640135.82653,   0.00000,   0.00000,   0.00000,-181316613.22306,   0.00000
311435726.49322,266026723.53711,25921537.30937,   0.00090,   0.00060,   0.00034,294835516.43298,   0.00000,274640135.82653,   0.00000,   0.00000,   0.00000,-179804619.39355,   0.00000
312899658.52882,267364142.92766,26319148.47953,   0.00090,   0.00061,   0.00034,296327057.38093,   0.00000,274640135.82653,   0.00000,   0.00000,   0.00000,-178313078.44560,   0.00000
314338739.86628,268703821.47258,26725796.26720,   0.00091,   0.00061,   0.00035,297807607.31401,   0.00000,274640135.82653,   0.00000,   0.00000,   0.00000,-176832528.51252,   0.00000
315771043.74062,270027685.93688,27132444.05487,   0.00091,   0.00061,   0.00035,299278946.08790,   0.00000,274640135.82653,   0.00000,   0.00000,   0.00000,-175361189.73863,   0.00000
317210125.07808,271367364.48180,27539091.84253,   0.00091,   0.00062,   0.00036,300761099.65719,   0.00000,274640135.82653,   0.00000,   0.00000,   0.00000,-173879036.16934,   0.00000
318610800.79116,272677674.01984,27950257.93895,   0.00092,   0.00062,   0.00036,302211109.93622,   0.00000,274640135.82653,   0.00000,   0.00000,   0.00000,-172429025.89031,   0.00000
320011476.50423,273987983.55787,28365942.34412,   0.00092,   0.00062,   0.00037,303663203.43592,   0.00000,274640135.82653,   0.00000,   0.00000,   0.00000,-170976932.39061,   0.00000
321405374.75418,275282479.01528,28786145.05804,   0.00093,   0.00063,   0.00037,305107384.84084,   0.00000,274640135.82653,   0.00000,   0.00000,   0.00000,-169532750.98569,   0.00000
322774422.30599,276579233.62706,29206347.77197,   0.00093,   0.00063,   0.00038,306538301.13612,   0.00000,274640135.82653,   0.00000,   0.00000,   0.00000,-168101834.69041,   0.00000
324136692.39467,277860174.15821,29626550.48589,   0.00093,   0.00063,   0.00039,307960048.41703,   0.00000,274640135.82653,   0.00000,   0.00000,   0.00000,-166680087.40950,   0.00000
325505739.94648,279156928.76999,30051271.50856,   0.00094,   0.00064,   0.00039,309393974.91836,   0.00000,274640135.82653,   0.00000,   0.00000,   0.00000,-165246160.90817,   0.00000
326836381.87390,280424314.37489,30480510.83999,   0.00094,   0.00064,   0.00040,310795966.72494,   0.00000,274640135.82653,   0.00000,   0.00000,   0.00000,-163844169.10159,   0.00000
328160246.33819,281675885.89915,30909750.17141,   0.00094,   0.00064,   0.00040,312188824.00976,   0.00000,274640135.82653,   0.00000,   0.00000,   0.00000,-162451311.81677,   0.00000
329475074.18498,282936494.04092,31343507.81159,   0.00095,   0.00064,   0.00041,313581900.38872,   0.00000,274640135.82653,   0.00000,   0.00000,   0.00000,-161058235.43781,   0.00000
330789902.03177,284197102.18268,31777265.45177,   0.00095,   0.00065,   0.00041,314975879.05310,   0.00000,274640135.82653,   0.00000,   0.00000,   0.00000,-159664256.77342,   0.00000
332066324.25417,285428341.31756,32215541.40070,   0.00095,   0.00065,   0.00042,316338054.80040,   0.00000,274640135.82653,   0.00000,   0.00000,   0.00000,-158302081.02613,   0.00000
333342746.47657,286659580.45244,32658335.65838,   0.00096,   0.00065,   0.00042,317702550.36087,   0.00000,274640135.82653,   0.00000,   0.00000,   0.00000,-156937585.46566,   0.00000
334619168.69896,287890819.58732,33101129.91606,   0.00096,   0.00066,   0.00043,319067986.08170,   0.00000,274640135.82653,   0.00000,   0.00000,   0.00000,-155572149.74483,   0.00000
335863962.76010,289108503.79594,33548442.48249,   0.00096,   0.00066,   0.00044,320411758.01537,   0.00000,274640135.82653,   0.00000,   0.00000,   0.00000,-154228377.81116,   0.00000
337108756.82123,290326188.00457,33995755.04893,   0.00097,   0.00066,   0.00044,321756496.65546,   0.00000,274640135.82653,   0.00000,   0.00000,   0.00000,-152883639.17107,   0.00000
338346773.41924,291528058.13256,34447585.92411,   0.00097,   0.00067,   0.00045,323093606.34253,   0.00000,274640135.82653,   0.00000,   0.00000,   0.00000,-151546529.48400,   0.00000
339553161.85599,292716373.33430,34899416.79930,   0.00097,   0.00067,   0.00045,324407710.65204,   0.00000,274640135.82653,   0.00000,   0.00000,   0.00000,-150232425.17449,   0.00000
340759550.29273,293904688.53603,35355765.98323,   0.00098,   0.00067,   0.00046,325724267.02579,   0.00000,274640135.82653,   0.00000,   0.00000,   0.00000,-148915868.80074,   0.00000
341950124.64884,295086226.27464,35816633.47592,   0.00098,   0.00068,   0.00047,327031329.58211,   0.00000,274640135.82653,   0.00000,   0.00000,   0.00000,-147608806.24442,   0.00000
343140699.00496,296267764.01325,36277500.96861,   0.00098,   0.00068,   0.00047,328339414.17451,   0.00000,274640135.82653,   0.00000,   0.00000,   0.00000,-146300721.65202,   0.00000
344299645.19981,297435746.82561,36738368.46130,   0.00099,   0.00068,   0.00048,329624589.83549,   0.00000,274640135.82653,   0.00000,   0.00000,   0.00000,-145015545.99104,   0.00000
345451813.93153,298587915.55733,37203754.26274,   0.00099,   0.00068,   0.00048,330902281.66615,   0.00000,274640135.82653,   0.00000,   0.00000,   0.00000,-143737854.16037,   0.00000
346610760.12638,299755898.36968,37673658.37293,   0.00099,   0.00069,   0.00049,332192581.88906,   0.00000,274640135.82653,   0.00000,   0.00000,   0.00000,-142447553.93747,   0.00000
347731300.69684,300894512.17515,38143562.48313,   0.00100,   0.00069,   0.00050,333450024.63179,   0.00000,274640135.82653,   0.00000,   0.00000,   0.00000,-141190111.19474,   0.00000
348851841.26730,302033125.98061,38617984.90207,   0.00100,   0.00069,   0.00050,334710099.18561,   0.00000,274640135.82653,   0.00000,   0.00000,   0.00000,-139930036.64092,   0.00000
349956567.75712,303164962.32295,39092407.32102,   0.00100,   0.00070,   0.00051,335959332.28342,   0.00000,274640135.82653,   0.00000,   0.00000,   0.00000,-138680803.54311,   0.00000
351061294.24695,304296798.66529,39571348.04871,   0.00100,   0.00070,   0.00051,337211240.59086,   0.00000,274640135.82653,   0.00000,   0.00000,   0.00000,-137428895.23567,   0.00000
352143429.19302,305406043.46387,40050288.77641,   0.00101,   0.00070,   0.00052,338442301.66995,   0.00000,274640135.82653,   0.00000,   0.00000,   0.00000,-136197834.15658,   0.00000
353216527.52158,306524324.87995,40533747.81286,   0.00101,   0.00071,   0.00053,339674216.79867,   0.00000,274640135.82653,   0.00000,   0.00000,   0.00000,-134965919.02786,   0.00000
354267034.30639,307620014.75228,41017206.84930,   0.00101,   0.00071,   0.00053,340885330.46468,   0.00000,274640135.82653,   0.00000,   0.00000,   0.00000,-133754805.36185,   0.00000
355317541.09119,308715704.62460,41505184.19450,   0.00101,   0.00071,   0.00054,342099221.23642,   0.00000,274640135.82653,   0.00000,   0.00000,   0.00000,-132540914.59011,   0.00000
356352233.79537,309804617.03380,41993161.53970,   0.00102,   0.00071,   0.00055,343302380.99173,   0.00000,274640135.82653,   0.00000,   0.00000,   0.00000,-131337754.83480,   0.00000
357371112.41891,310886751.97987,42485657.19366,   0.00102,   0.00072,   0.00055,344496492.51960,   0.00000,274640135.82653,   0.00000,   0.00000,   0.00000,-130143643.30693,   0.00000
358367399.49869,311946295.38218,42978152.84761,   0.00102,   0.00072,   0.00056,345669880.71473,   0.00000,274640135.82653,   0.00000,   0.00000,   0.00000,-128970255.11180,   0.00000
359370464.04160,313021652.86512,43475166.81031,   0.00102,   0.00072,   0.00057,346856194.02028,   0.00000,274640135.82653,   0.00000,   0.00000,   0.00000,-127783941.80625,   0.00000
360350937.04076,314074418.80430,43972180.77301,   0.00103,   0.00073,   0.00057,348021817.27954,   0.00000,274640135.82653,   0.00000,   0.00000,   0.00000,-126618318.54699,   0.00000
361315595.95928,315120407.28035,44473713.04447,   0.00103,   0.00073,   0.00058,349178531.22493,   0.00000,274640135.82653,   0.00000,   0.00000,   0.00000,-125461604.60160,   0.00000
362280254.87780,316166395.75640,44975245.31593,   0.00103,   0.00073,   0.00058,350336478.99580,   0.00000,274640135.82653,   0.00000,   0.00000,   0.00000,-124303656.83073,   0.00000
363229099.71569,317205606.76933,45481295.89613,   0.00103,   0.00073,   0.00059,351485581.07517,   0.00000,274640135.82653,   0.00000,   0.00000,   0.00000,-123154554.75136,   0.00000
364162130.47294,318238040.31913,45987346.47634,   0.00104,   0.00074,   0.00060,352624124.13845,   0.00000,274640135.82653,   0.00000,   0.00000,   0.00000,-122016011.68808,   0.00000
365088383.76707,319254659.78829,46497915.36530,   0.00104,   0.00074,   0.00060,353755659.18573,   0.00000,274640135.82653,   0.00000,   0.00000,   0.00000,-120884476.64079,   0.00000
365989786.36307,320273538.41184,47008484.25426,   0.00104,   0.00074,   0.00061,354874924.45012,   0.00000,274640135.82653,   0.00000,   0.00000,   0.00000,-119765211.37641,   0.00000
366884411.49593,321276602.95475,47523571.45197,   0.00104,   0.00075,   0.00062,355987245.74491,   0.00000,274640135.82653,   0.00000,   0.00000,   0.00000,-118652890.08162,   0.00000
367779036.62880,322279667.49766,48038658.64968,   0.00104,   0.00075,   0.00062,357100877.06872,   0.00000,274640135.82653,   0.00000,   0.00000,   0.00000,-117539258.75780,   0.00000
368642033.60040,323269177.11431,48558264.15614,   0.00105,   0.00075,   0.00063,358194106.61125,   0.00000,274640135.82653,   0.00000,   0.00000,   0.00000,-116446029.21528,   0.00000
369505030.57201,324258686.73097,49077869.66261,   0.00105,   0.00075,   0.00064,359288685.40020,   0.00000,274640135.82653,   0.00000,   0.00000,   0.00000,-115351450.42633,   0.00000
370352213.46298,325241418.88450,49597475.16907,   0.00105,   0.00076,   0.00064,360372851.10099,   0.00000,274640135.82653,   0.00000,   0.00000,   0.00000,-114267284.72554,   0.00000
371192618.89082,326208336.95739,50121598.98428,   0.00105,   0.00076,   0.00065,361450185.46755,   0.00000,274640135.82653,   0.00000,   0.00000,   0.00000,-113189950.35898,   0.00000
372001396.15740,327161700.10403,50650241.10825,   0.00105,   0.00076,   0.00066,362507307.95814,   0.00000,274640135.82653,   0.00000,   0.00000,   0.00000,-112132827.86838,   0.00000
372816950.88711,328130877.33131,51178883.23222,   0.00106,   0.00077,   0.00067,363575896.63659,   0.00000,274640135.82653,   0.00000,   0.00000,   0.00000,-111064239.18994,   0.00000
373625728.15369,329084240.47795,51707525.35618,   0.00106,   0.00077,   0.00067,364635828.78295,   0.00000,274640135.82653,   0.00000,   0.00000,   0.00000,-110004307.04358,   0.00000
374402877.25901,330024048.69833,52240685.78890,   0.00106,   0.00077,   0.00068,365675678.13136,   0.00000,274640135.82653,   0.00000,   0.00000,   0.00000,-108964457.69517,   0.00000
375180026.36433,330963856.91872,52773846.22162,   0.00106,   0.00077,   0.00069,366716968.16471,   0.00000,274640135.82653,   0.00000,   0.00000,   0.00000,-107923167.66182,   0.00000
375934583.92589,331881073.59534,53311524.96309,   0.00106,   0.00078,   0.00069,367739909.67674,   0.00000,274640135.82653,   0.00000,   0.00000,   0.00000,-106900226.14979,   0.00000
376680104.86995,332807326.88947,53849203.70456,   0.00106,   0.00078,   0.00070,368762701.01623,   0.00000,274640135.82653,   0.00000,   0.00000,   0.00000,-105877434.81030,   0.00000
377418848.35087,333717766.10297,54386882.44603,   0.00107,   0.00078,   0.00071,369776903.67713,   0.00000,274640135.82653,   0.00000,   0.00000,   0.00000,-104863232.14940,   0.00000
378141777.75117,334621427.85334,54929079.49625,   0.00107,   0.00079,   0.00071,370782920.02227,   0.00000,274640135.82653,   0.00000,   0.00000,   0.00000,-103857215.80426,   0.00000
378848893.07083,335518312.14058,55475794.85523,   0.00107,   0.00079,   0.00072,371780811.56464,   0.00000,274640135.82653,   0.00000,   0.00000,   0.00000,-102859324.26188,   0.00000
379556008.39050,336415196.42783,56022510.21420,   0.00107,   0.00079,   0.00073,372780235.16135,   0.00000,274640135.82653,   0.00000,   0.00000,   0.00000,-101859900.66518,   0.00000
380231495.54890,337298525.78881,56569225.57318,   0.00107,   0.00079,   0.00074,373757935.89620,   0.00000,274640135.82653,   0.00000,   0.00000,   0.00000,-100882199.93033,   0.00000
380906982.70730,338181855.14980,57115940.93215,   0.00107,   0.00080,   0.00074,374737186.17448,   0.00000,274640135.82653,   0.00000,   0.00000,   0.00000,-99902949.65205,   0.00000
381575692.40258,339049370.43015,57667174.59988,   0.00108,   0.00080,   0.00075,375709988.44860,   0.00000,274640135.82653,   0.00000,   0.00000,   0.00000,-98930147.37793,   0.00000
382219551.39972,339919144.86489,58222926.57635,   0.00108,   0.00080,   0.00076,376673326.62772,   0.00000,274640135.82653,   0.00000,   0.00000,   0.00000,-97966809.19881,   0.00000
382856632.93373,340773105.21899,58778678.55283,   0.00108,   0.00080,   0.00076,377628211.49999,   0.00000,274640135.82653,   0.00000,   0.00000,   0.00000,-97011924.32654,   0.00000
383477900.38711,341620288.10996,59334430.52931,   0.00108,   0.00081,   0.00077,378573129.60418,   0.00000,274640135.82653,   0.00000,   0.00000,   0.00000,-96067006.22235,   0.00000
384099167.84049,342467471.00093,59894700.81454,   0.00108,   0.00081,   0.00078,379521796.95325,   0.00000,274640135.82653,   0.00000,   0.00000,   0.00000,-95118338.87328,   0.00000
384704621.21323,343307876.42877,60454971.09977,   0.00108,   0.00081,   0.00079,380460546.74805,   0.00000,274640135.82653,   0.00000,   0.00000,   0.00000,-94179589.07848,   0.00000
385287483.04222,344125690.31286,61015241.38500,   0.00108,   0.00081,   0.00079,381379329.92667,   0.00000,274640135.82653,   0.00000,   0.00000,   0.00000,-93260805.89986,   0.00000
385861308.25371,344952540.81445,61580029.97898,   0.00108,   0.00082,   0.00080,382300492.04015,   0.00000,274640135.82653,   0.00000,   0.00000,   0.00000,-92339643.78638,   0.00000
386412541.92143,345756799.77228,62144818.57296,   0.00108,   0.00082,   0.00081,383201759.75943,   0.00000,274640135.82653,   0.00000,   0.00000,   0.00000,-91438376.06710,   0.00000
386963775.58916,346561058.73011,62709607.16694,   0.00108,   0.00082,   0.00082,384104725.01789,   0.00000,274640135.82653,   0.00000,   0.00000,   0.00000,-90535410.80864,   0.00000
387499195.17625,347358540.22481,63278914.06967,   0.00109,   0.00082,   0.00082,385000116.69109,   0.00000,274640135.82653,   0.00000,   0.00000,   0.00000,-89640019.13544,   0.00000
388034614.76335,348156021.71951,63852739.28116,   0.00109,   0.00083,   0.00083,385899477.70080,   0.00000,274640135.82653,   0.00000,   0.00000,   0.00000,-88740658.12573,   0.00000
388554220.26981,348946725.75108,64422046.18389,   0.00109,   0.00083,   0.00084,386786862.06427,   0.00000,274640135.82653,   0.00000,   0.00000,   0.00000,-87853273.76226,   0.00000
389058011.69564,349730652.31953,64995871.39538,   0.00109,   0.00083,   0.00084,387666794.18192,   0.00000,274640135.82653,   0.00000,   0.00000,   0.00000,-86973341.64461,   0.00000
389539211.57771,350491987.34422,65574214.91561,   0.00109,   0.00084,   0.00085,388529266.74848,   0.00000,274640135.82653,   0.00000,   0.00000,   0.00000,-86110869.07805,   0.00000
390011374.84228,351262358.98641,66148040.12710,   0.00109,   0.00084,   0.00086,389389896.41027,   0.00000,274640135.82653,   0.00000,   0.00000,   0.00000,-85250239.41626,   0.00000
390476760.64372,352016916.54797,66726383.64734,   0.00109,   0.00084,   0.00087,390244558.83108,   0.00000,274640135.82653,   0.00000,   0.00000,   0.00000,-84395576.99545,   0.00000
390926332.36453,352764696.64640,67309245.47633,   0.00109,   0.00084,   0.00088,391091962.41821,   0.00000,274640135.82653,   0.00000,   0.00000,   0.00000,-83548173.40832,   0.00000
391375904.08534,353512476.74483,67892107.30531,   0.00109,   0.00085,   0.00088,391941218.83836,   0.00000,274640135.82653,   0.00000,   0.00000,   0.00000,-82698916.98817,   0.00000
391793847.64489,354246701.91701,68474969.13430,   0.00109,   0.00085,   0.00089,392769564.38313,   0.00000,274640135.82653,   0.00000,   0.00000,   0.00000,-81870571.44339,   0.00000
392205013.74131,354965113.00855,69057830.96329,   0.00109,   0.00085,   0.00090,393589709.32159,   0.00000,274640135.82653,   0.00000,   0.00000,   0.00000,-81050426.50494,   0.00000
392622957.30085,355699338.18073,69645211.10103,   0.00109,   0.00085,   0.00091,394424195.50951,   0.00000,274640135.82653,   0.00000,   0.00000,   0.00000,-80215940.31702,   0.00000
393002495.23601,356404194.34601,70232591.23877,   0.00109,   0.00086,   0.00091,395227812.70419,   0.00000,274640135.82653,   0.00000,   0.00000,   0.00000,-79412323.12234,   0.00000
393382033.17116,357109050.51130,70819971.37651,   0.00109,   0.00086,   0.00092,396033355.49208,   0.00000,274640135.82653,   0.00000,   0.00000,   0.00000,-78606780.33445,   0.00000
393745757.02569,357807129.21346,71411869.82301,   0.00109,   0.00086,   0.00093,396831940.98412,   0.00000,274640135.82653,   0.00000,   0.00000,   0.00000,-77808194.84241,   0.00000
394093666.79958,358498430.45250,72003768.26950,   0.00109,   0.00086,   0.00094,397621188.80229,   0.00000,274640135.82653,   0.00000,   0.00000,   0.00000,-77018947.02424,   0.00000
394441576.57347,359189731.69153,72595666.71599,   0.00109,   0.00087,   0.00094,398412410.82929,   0.00000,274640135.82653,   0.00000,   0.00000,   0.00000,-76227724.99724,   0.00000
394773672.26673,359874255.46744,73192083.47124,   0.00109,   0.00087,   0.00095,399196811.01763,   0.00000,274640135.82653,   0.00000,   0.00000,   0.00000,-75443324.80890,   0.00000
395083176.41624,360536187.69958,73788500.22648,   0.00109,   0.00087,   0.00096,399961879.40322,   0.00000,274640135.82653,   0.00000,   0.00000,   0.00000,-74678256.42330,   0.00000
395392680.56574,361198119.93173,74384916.98172,   0.00109,   0.00087,   0.00097,400728971.32002,   0.00000,274640135.82653,   0.00000,   0.00000,   0.00000,-73911164.50651,   0.00000
395693148.09774,361869088.78138,74985852.04572,   0.00109,   0.00087,   0.00097,401499464.44406,   0.00000,274640135.82653,   0.00000,   0.00000,   0.00000,-73140671.38247,   0.00000
395971024.08597,362517466.08727,75586787.10972,   0.00109,   0.00088,   0.00098,402250717.83045,   0.00000,274640135.82653,   0.00000,   0.00000,   0.00000,-72389417.99608,   0.00000
396226308.53045,363143251.84940,76187722.17371,   0.00109,   0.00088,   0.00099,402982761.19141,   0.00000,274640135.82653,   0.00000,   0.00000,   0.00000,-71657374.63512,   0.00000
396488370.43806,363784851.69216,76788657.23771,   0.00109,   0.00088,   0.00100,403726983.01817,   0.00000,274640135.82653,   0.00000,   0.00000,   0.00000,-70913152.80836,   0.00000
396734618.26504,364419674.07180,77394110.61046,   0.00109,   0.00088,   0.00101,404464709.17857,   0.00000,274640135.82653,   0.00000,   0.00000,   0.00000,-70175426.64796,   0.00000
396958274.54825,365031904.90767,77999563.98321,   0.00109,   0.00089,   0.00101,405183321.65867,   0.00000,274640135.82653,   0.00000,   0.00000,   0.00000,-69456814.16786,   0.00000
397181930.83147,365644135.74355,78605017.35595,   0.00109,   0.00089,   0.00102,405904080.55528,   0.00000,274640135.82653,   0.00000,   0.00000,   0.00000,-68736055.27125,   0.00000
397389773.03406,366249589.11630,79210470.72870,   0.00109,   0.00089,   0.00103,406615848.39546,   0.00000,274640135.82653,   0.00000,   0.00000,   0.00000,-68024287.43107,   0.00000
397581801.15601,366848265.02592,79820442.41020,   0.00109,   0.00089,   0.00104,407321314.54504,   0.00000,274640135.82653,   0.00000,   0.00000,   0.00000,-67318821.28149,   0.00000
397758015.19733,367440163.47241,80430414.09170,   0.00109,   0.00090,   0.00105,408017887.83419,   0.00000,274640135.82653,   0.00000,   0.00000,   0.00000,-66622247.99234,   0.00000
397934229.23865,368032061.91890,81044904.08195,   0.00109,   0.00090,   0.00105,408719370.64224,   0.00000,274640135.82653,   0.00000,   0.00000,   0.00000,-65920765.18429,   0.00000
398087851.73622,368601368.82164,81654875.76345,   0.00109,   0.00090,   0.00106,409399237.83972,   0.00000,274640135.82653,   0.00000,   0.00000,   0.00000,-65240897.98681,   0.00000
398248251.69691,369186489.80500,82269365.75370,   0.00109,   0.00090,   0.00107,410094142.53775,   0.00000,274640135.82653,   0.00000,   0.00000,   0.00000,-64545993.28878,   0.00000
398370246.03321,369742241.78148,82883855.74396,   0.00109,   0.00091,   0.00108,410759139.98808,   0.00000,274640135.82653,   0.00000,   0.00000,   0.00000,-63880995.83845,   0.00000
398492240.36951,370297993.75796,83498345.73421,   0.00109,   0.00091,   0.00109,411426438.01776,   0.00000,274640135.82653,   0.00000,   0.00000,   0.00000,-63213697.80877,   0.00000
398614234.70581,370853745.73443,84117354.03321,   0.00109,   0.00091,   0.00109,412098792.20921,   0.00000,274640135.82653,   0.00000,   0.00000,   0.00000,-62541343.61732,   0.00000
398697823.41772,371380128.70402,84731844.02346,   0.00109,   0.00091,   0.00110,412738611.70747,   0.00000,274640135.82653,   0.00000,   0.00000,   0.00000,-61901524.11906,   0.00000
398788189.59275,371922325.75425,85350852.32247,   0.00109,   0.00091,   0.00111,413393649.65244,   0.00000,274640135.82653,   0.00000,   0.00000,   0.00000,-61246486.17409,   0.00000
398855964.22403,372441931.26071,85974378.93022,   0.00109,   0.00092,   0.00112,414032810.59012,   0.00000,274640135.82653,   0.00000,   0.00000,   0.00000,-60607325.23641,   0.00000
398923738.85531,372961536.76717,86593387.22923,   0.00109,   0.00092,   0.00113,414671545.64684,   0.00000,274640135.82653,   0.00000,   0.00000,   0.00000,-59968590.17969,   0.00000
398975699.40596,373474364.81051,87216913.83698,   0.00109,   0.00092,   0.00113,415304567.94304,   0.00000,274640135.82653,   0.00000,   0.00000,   0.00000,-59335567.88349,   0.00000
399011845.87597,373980415.39072,87835922.13599,   0.00109,   0.00092,   0.00114,415926238.69033,   0.00000,274640135.82653,   0.00000,   0.00000,   0.00000,-58713897.13620,   0.00000
399032178.26535,374479688.50779,88459448.74374,   0.00109,   0.00093,   0.00115,416542306.12368,   0.00000,274640135.82653,   0.00000,   0.00000,   0.00000,-58097829.70285,   0.00000
399045733.19161,374963147.54424,89087493.66025,   0.00108,   0.00093,   0.00116,417153640.33301,   0.00000,274640135.82653,   0.00000,   0.00000,   0.00000,-57486495.49352,   0.00000
399050251.50036,375455643.19819,89711020.26800,   0.00108,   0.00093,   0.00117,417763779.97498,   0.00000,274640135.82653,   0.00000,   0.00000,   0.00000,-56876355.85155,   0.00000
399047992.34599,375932324.77151,90339065.18451,   0.00108,   0.00093,   0.00117,418369231.23083,   0.00000,274640135.82653,   0.00000,   0.00000,   0.00000,-56270904.59570,   0.00000
399014105.03035,376395451.41858,90967110.10102,   0.00108,   0.00093,   0.00118,418955538.25780,   0.00000,274640135.82653,   0.00000,   0.00000,   0.00000,-55684597.56873,   0.00000
398980217.71471,376858578.06564,91595155.01753,   0.00108,   0.00094,   0.00119,419544397.80922,   0.00000,274640135.82653,   0.00000,   0.00000,   0.00000,-55095738.01731,   0.00000
398946330.39907,377321704.71271,92223199.93403,   0.00108,   0.00094,   0.00120,420135799.15231,   0.00000,274640135.82653,   0.00000,   0.00000,   0.00000,-54504336.67422,   0.00000
398874037.45904,377755462.35289,92851244.85054,   0.00108,   0.00094,   0.00121,420698112.26853,   0.00000,274640135.82653,   0.00000,   0.00000,   0.00000,-53942023.55800,   0.00000
398801744.51901,378189219.99306,93483808.07580,   0.00108,   0.00094,   0.00122,421266025.18588,   0.00000,274640135.82653,   0.00000,   0.00000,   0.00000,-53374110.64065,   0.00000
398736229.04211,378638791.71387,94111852.99231,   0.00108,   0.00095,   0.00122,421843612.71110,   0.00000,274640135.82653,   0.00000,   0.00000,   0.00000,-52796523.11543,   0.00000
398632307.94081,379058994.42780,94744416.21757,   0.00107,   0.00095,   0.00123,422395300.17458,   0.00000,274640135.82653,   0.00000,   0.00000,   0.00000,-52244835.65194,   0.00000
398521609.37639,379463383.06109,95376979.44282,   0.00107,   0.00095,   0.00124,422939568.65031,   0.00000,274640135.82653,   0.00000,   0.00000,   0.00000,-51700567.17622,   0.00000
398417688.27510,379883585.77501,96014060.97684,   0.00107,   0.00095,   0.00125,423499649.03104,   0.00000,274640135.82653,   0.00000,   0.00000,   0.00000,-51140486.79549,   0.00000
398282139.01255,380290233.56268,96646624.20209,   0.00107,   0.00095,   0.00126,424038000.93815,   0.00000,274640135.82653,   0.00000,   0.00000,   0.00000,-50602134.88838,   0.00000
398139812.28686,380681067.26971,97279187.42735,   0.00107,   0.00096,   0.00126,424568978.33106,   0.00000,274640135.82653,   0.00000,   0.00000,   0.00000,-50071157.49547,   0.00000
397981671.48055,381065123.51362,97916268.96137,   0.00107,   0.00096,   0.00127,425095155.90742,   0.00000,274640135.82653,   0.00000,   0.00000,   0.00000,-49544979.91911,   0.00000
397823530.67423,381449179.75753,98553350.49538,   0.00107,   0.00096,   0.00128,425624091.79165,   0.00000,274640135.82653,   0.00000,   0.00000,   0.00000,-49016044.03488,   0.00000
397649575.78729,381826458.53830,99190432.02939,   0.00106,   0.00096,   0.00129,426145193.23832,   0.00000,274640135.82653,   0.00000,   0.00000,   0.00000,-48494942.58821,   0.00000
397453029.35658,382181145.77532,99827513.56340,   0.00106,   0.00096,   0.00130,426648429.00478,   0.00000,274640135.82653,   0.00000,   0.00000,   0.00000,-47991706.82175,   0.00000
397263260.38900,382551647.09298,100464595.09741,   0.00106,   0.00097,   0.00131,427164547.64104,   0.00000,274640135.82653,   0.00000,   0.00000,   0.00000,-47475588.18549,   0.00000
397050899.87767,382899556.86687,101101676.63142,   0.00106,   0.00097,   0.00131,427662859.24641,   0.00000,274640135.82653,   0.00000,   0.00000,   0.00000,-46977276.58012,   0.00000
396822725.28570,383240689.17763,101743276.47418,   0.00106,   0.00097,   0.00132,428156711.20255,   0.00000,274640135.82653,   0.00000,   0.00000,   0.00000,-46483424.62398,   0.00000
396594550.69373,383581821.48840,102380358.00819,   0.00106,   0.00097,   0.00133,428650212.16197,   0.00000,274640135.82653,   0.00000,   0.00000,   0.00000,-45989923.66456,   0.00000
396343784.55800,383900362.25540,103021957.85096,   0.00105,   0.00097,   0.00134,429129272.62822,   0.00000,274640135.82653,   0.00000,   0.00000,   0.00000,-45510863.19831,   0.00000
396083981.80477,384227939.63991,103663557.69372,   0.00105,   0.00098,   0.00135,429610867.61183,   0.00000,274640135.82653,   0.00000,   0.00000,   0.00000,-45029268.21470,   0.00000
395817401.58841,384539702.94379,104305157.53648,   0.00105,   0.00098,   0.00136,430085328.95187,   0.00000,274640135.82653,   0.00000,   0.00000,   0.00000,-44554806.87466,   0.00000
395535007.29142,384844688.78454,104946757.37925,   0.00105,   0.00098,   0.00136,430552314.29815,   0.00000,274640135.82653,   0.00000,   0.00000,   0.00000,-44087821.52838,   0.00000
395236798.91380,385142897.16216,105588357.22201,   0.00105,   0.00098,   0.00137,431011874.77129,   0.00000,274640135.82653,   0.00000,   0.00000,   0.00000,-43628261.05524,   0.00000
394938590.53618,385441105.53979,106229957.06477,   0.00105,   0.00098,   0.00138,431474426.25467,   0.00000,274640135.82653,   0.00000,   0.00000,   0.00000,-43165709.57186,   0.00000
394617790.61480,385716722.37365,106871556.90753,   0.00104,   0.00099,   0.00139,431919551.33986,   0.00000,274640135.82653,   0.00000,   0.00000,   0.00000,-42720584.48667,   0.00000
394281176.61278,385985561.74438,107513156.75030,   0.00104,   0.00099,   0.00140,432357369.87983,   0.00000,274640135.82653,   0.00000,   0.00000,   0.00000,-42282765.94670,   0.00000
393944562.61077,386254401.11512,108159274.90181,   0.00104,   0.00099,   0.00141,432801624.22231,   0.00000,274640135.82653,   0.00000,   0.00000,   0.00000,-41838511.60422,   0.00000
393592134.52812,386516463.02273,108800874.74457,   0.00104,   0.00099,   0.00141,433235266.19400,   0.00000,274640135.82653,   0.00000,   0.00000,   0.00000,-41404869.63253,   0.00000
393223892.36485,386771747.46721,109446992.89609,   0.00103,   0.00099,   0.00142,433665141.47621,   0.00000,274640135.82653,   0.00000,   0.00000,   0.00000,-40974994.35032,   0.00000
392848872.73845,387011217.83105,110088592.73885,   0.00103,   0.00099,   0.00143,434084661.82364,   0.00000,274640135.82653,   0.00000,   0.00000,   0.00000,-40555474.00289,   0.00000
392480630.57517,387266502.27553,110734710.89037,   0.00103,   0.00100,   0.00144,434520789.76222,   0.00000,274640135.82653,   0.00000,   0.00000,   0.00000,-40119346.06431,   0.00000
392073982.78750,387492417.71313,111380829.04188,   0.00103,   0.00100,   0.00145,434929596.01003,   0.00000,274640135.82653,   0.00000,   0.00000,   0.00000,-39710539.81650,   0.00000
391667334.99984,387718333.15072,112026947.19340,   0.00103,   0.00100,   0.00146,435341603.32289,   0.00000,274640135.82653,   0.00000,   0.00000,   0.00000,-39298532.50364,   0.00000
391238095.66841,387921657.04455,112668547.03616,   0.00102,   0.00100,   0.00146,435733099.05205,   0.00000,274640135.82653,   0.00000,   0.00000,   0.00000,-38907036.77447,   0.00000
390815633.80011,388140795.01902,113314665.18767,   0.00102,   0.00100,   0.00147,436141359.66602,   0.00000,274640135.82653,   0.00000,   0.00000,   0.00000,-38498776.16051,   0.00000
390370580.38806,388337341.44972,113960783.33919,   0.00102,   0.00101,   0.00148,436532688.17639,   0.00000,274640135.82653,   0.00000,   0.00000,   0.00000,-38107447.65014,   0.00000
389925526.97600,388533887.88043,114606901.49070,   0.00102,   0.00101,   0.00149,436927274.55159,   0.00000,274640135.82653,   0.00000,   0.00000,   0.00000,-37712861.27494,   0.00000
389448845.40268,388716879.38488,115253019.64222,   0.00101,   0.00101,   0.00150,437304986.53591,   0.00000,274640135.82653,   0.00000,   0.00000,   0.00000,-37335149.29062,   0.00000
388965386.36623,388884056.80870,115899137.79373,   0.00101,   0.00101,   0.00151,437675992.54100,   0.00000,274640135.82653,   0.00000,   0.00000,   0.00000,-36964143.28553,   0.00000
388488704.79291,389067048.31315,116545255.94525,   0.00101,   0.00101,   0.00152,438060359.09225,   0.00000,274640135.82653,   0.00000,   0.00000,   0.00000,-36579776.73428,   0.00000
387989431.67583,389227448.27384,117191374.09676,   0.00101,   0.00101,   0.00152,438428014.18426,   0.00000,274640135.82653,   0.00000,   0.00000,   0.00000,-36212121.64226,   0.00000
387474344.47812,389381070.77140,117837492.24828,   0.00100,   0.00102,   0.00153,438789054.66361,   0.00000,274640135.82653,   0.00000,   0.00000,   0.00000,-35851081.16292,   0.00000
386959257.28041,389534693.26896,118483610.39979,   0.00100,   0.00102,   0.00154,439153488.27369,   0.00000,274640135.82653,   0.00000,   0.00000,   0.00000,-35486647.55284,   0.00000
386421578.53894,389665724.22277,119129728.55131,   0.00100,   0.00102,   0.00155,439501359.96607,   0.00000,274640135.82653,   0.00000,   0.00000,   0.00000,-35138775.86046,   0.00000
385883899.79747,389796755.17657,119775846.70282,   0.00100,   0.00102,   0.00156,439852660.34581,   0.00000,274640135.82653,   0.00000,   0.00000,   0.00000,-34787475.48072,   0.00000
385337184.43849,389936822.74788,120421964.85434,   0.00099,   0.00102,   0.00157,440207522.55870,   0.00000,274640135.82653,   0.00000,   0.00000,   0.00000,-34432613.26783,   0.00000
384761100.07263,390038484.69479,121068083.00585,   0.00099,   0.00102,   0.00157,440535956.98696,   0.00000,274640135.82653,   0.00000,   0.00000,   0.00000,-34104178.83957,   0.00000
384191793.16990,390155960.72234,121714201.15736,   0.00099,   0.00103,   0.00158,440877907.98651,   0.00000,274640135.82653,   0.00000,   0.00000,   0.00000,-33762227.84002,   0.00000
383599894.72341,390250845.20613,122360319.30888,   0.00098,   0.00103,   0.00159,441203537.50081,   0.00000,274640135.82653,   0.00000,   0.00000,   0.00000,-33436598.32572,   0.00000
382998959.65941,390354766.30742,123006437.46039,   0.00098,   0.00103,   0.00160,441532929.97847,   0.00000,274640135.82653,   0.00000,   0.00000,   0.00000,-33107205.84806,   0.00000
382384469.66916,390427059.24745,123652555.61191,   0.00098,   0.00103,   0.00161,441845890.29436,   0.00000,274640135.82653,   0.00000,   0.00000,   0.00000,-32794245.53216,   0.00000
381760943.06140,390508388.80499,124298673.76342,   0.00098,   0.00103,   0.00162,442162695.72258,   0.00000,274640135.82653,   0.00000,   0.00000,   0.00000,-32477440.10395,   0.00000
381137416.45365,390589718.36252,124944791.91494,   0.00097,   0.00103,   0.00162,442483112.94492,   0.00000,274640135.82653,   0.00000,   0.00000,   0.00000,-32157022.88161,   0.00000
380491298.30213,390648456.37629,125586391.75770,   0.00097,   0.00104,   0.00163,442783617.12087,   0.00000,274640135.82653,   0.00000,   0.00000,   0.00000,-31856518.70566,   0.00000
379845180.15062,390707194.39007,126232509.90922,   0.00097,   0.00104,   0.00164,443091601.89121,   0.00000,274640135.82653,   0.00000,   0.00000,   0.00000,-31548533.93532,   0.00000
379183247.91847,390759154.94071,126878628.06073,   0.00096,   0.00104,   0.00165,443393601.58149,   0.00000,274640135.82653,   0.00000,   0.00000,   0.00000,-31246534.24504,   0.00000
378498724.14257,390788523.94760,127524746.21225,   0.00096,   0.00104,   0.00166,443679703.83201,   0.00000,274640135.82653,   0.00000,   0.00000,   0.00000,-30960431.99451,   0.00000
377814200.36666,390817892.95449,128166346.05501,   0.00096,   0.00104,   0.00167,443965632.13809,   0.00000,274640135.82653,   0.00000,   0.00000,   0.00000,-30674503.68843,   0.00000
377120639.97325,390856298.57888,128812464.20652,   0.00095,   0.00104,   0.00167,444259607.18913,   0.00000,274640135.82653,   0.00000,   0.00000,   0.00000,-30380528.63740,   0.00000
376413524.65359,390863076.04201,129454064.04929,   0.00095,   0.00104,   0.00168,444533465.26653,   0.00000,274640135.82653,   0.00000,   0.00000,   0.00000,-30106670.56000,   0.00000
375697372.71642,390878890.12264,130100182.20080,   0.00095,   0.00105,   0.00169,444815492.94756,   0.00000,274640135.82653,   0.00000,   0.00000,   0.00000,-29824642.87897,   0.00000
374958629.23549,390872112.65951,130741782.04356,   0.00094,   0.00105,   0.00170,445077915.91996,   0.00000,274640135.82653,   0.00000,   0.00000,   0.00000,-29562219.90657,   0.00000
374219885.75456,390865335.19638,131383381.88633,   0.00094,   0.00105,   0.00171,445344171.59922,   0.00000,274640135.82653,   0.00000,   0.00000,   0.00000,-29295964.22731,   0.00000
373465328.19300,390851780.27013,132024981.72909,   0.00094,   0.00105,   0.00172,445604829.99058,   0.00000,274640135.82653,   0.00000,   0.00000,   0.00000,-29035305.83595,   0.00000
372710770.63144,390838225.34387,132666581.57185,   0.00093,   0.00105,   0.00172,445869360.20809,   0.00000,274640135.82653,   0.00000,   0.00000,   0.00000,-28770775.61844,   0.00000
371949435.60676,390808856.33698,133308181.41461,   0.00093,   0.00105,   0.00173,446127812.39367,   0.00000,274640135.82653,   0.00000,   0.00000,   0.00000,-28512323.43286,   0.00000
371156472.42081,390765932.40384,133949781.25738,   0.00093,   0.00105,   0.00174,446371445.80580,   0.00000,274640135.82653,   0.00000,   0.00000,   0.00000,-28268690.02073,   0.00000
370363509.23486,390723008.47070,134591381.10014,   0.00092,   0.00106,   0.00175,446619047.24773,   0.00000,274640135.82653,   0.00000,   0.00000,   0.00000,-28021088.57880,   0.00000
369570546.04891,390680084.53756,135228462.63415,   0.00092,   0.00106,   0.00176,446866508.15134,   0.00000,274640135.82653,   0.00000,   0.00000,   0.00000,-27773627.67519,   0.00000
368754991.31920,390614569.06065,135870062.47691,   0.00092,   0.00106,   0.00177,447102823.51445,   0.00000,274640135.82653,   0.00000,   0.00000,   0.00000,-27537312.31208,   0.00000
367923622.50886,390542276.12063,136507144.01093,   0.00091,   0.00106,   0.00177,447329781.66273,   0.00000,274640135.82653,   0.00000,   0.00000,   0.00000,-27310354.16380,   0.00000
367092253.69852,390469983.18060,137148743.85369,   0.00091,   0.00106,   0.00178,447564920.63728,   0.00000,274640135.82653,   0.00000,   0.00000,   0.00000,-27075215.18925,   0.00000
366254107.42505,390381876.15993,137785825.38770,   0.00091,   0.00106,   0.00179,447790035.46897,   0.00000,274640135.82653,   0.00000,   0.00000,   0.00000,-26850100.35755,   0.00000
365406924.53408,390302805.75678,138422906.92171,   0.00090,   0.00106,   0.00180,448019928.43224,   0.00000,274640135.82653,   0.00000,   0.00000,   0.00000,-26620207.39429,   0.00000
364537150.09935,390201143.80986,139059988.45572,   0.00090,   0.00106,   0.00181,448234865.52369,   0.00000,274640135.82653,   0.00000,   0.00000,   0.00000,-26405270.30284,   0.00000
363660598.20149,390083667.78231,139692551.68098,   0.00089,   0.00107,   0.00182,448439812.64585,   0.00000,274640135.82653,   0.00000,   0.00000,   0.00000,-26200323.18068,   0.00000
362775009.68612,389975228.37227,140329633.21499,   0.00089,   0.00107,   0.00182,448653916.75704,   0.00000,274640135.82653,   0.00000,   0.00000,   0.00000,-25986219.06949,   0.00000
361882643.70763,389850974.88159,140962196.44025,   0.00089,   0.00107,   0.00183,448858052.69214,   0.00000,274640135.82653,   0.00000,   0.00000,   0.00000,-25782083.13438,   0.00000
360974463.64851,389719943.92779,141599277.97426,   0.00088,   0.00107,   0.00184,449061595.92805,   0.00000,274640135.82653,   0.00000,   0.00000,   0.00000,-25578539.89848,   0.00000
360066283.58939,389588912.97398,142231841.19952,   0.00088,   0.00107,   0.00185,449265075.00692,   0.00000,274640135.82653,   0.00000,   0.00000,   0.00000,-25375060.81961,   0.00000
359135511.98651,389435290.47642,142864404.42478,   0.00087,   0.00107,   0.00186,449453927.74159,   0.00000,274640135.82653,   0.00000,   0.00000,   0.00000,-25186208.08494,   0.00000
358204740.38363,389281667.97886,143492449.34129,   0.00087,   0.00107,   0.00187,449642706.26478,   0.00000,274640135.82653,   0.00000,   0.00000,   0.00000,-24997429.56175,   0.00000
357258154.70011,389121268.01817,144125012.56655,   0.00087,   0.00107,   0.00187,449831148.20895,   0.00000,274640135.82653,   0.00000,   0.00000,   0.00000,-24808987.61758,   0.00000
356311569.01660,388960868.05748,144753057.48305,   0.00086,   0.00107,   0.00188,450019529.42462,   0.00000,274640135.82653,   0.00000,   0.00000,   0.00000,-24620606.40191,   0.00000
355342391.78933,388777876.55303,145385620.70831,   0.00086,   0.00108,   0.00189,450197876.82389,   0.00000,274640135.82653,   0.00000,   0.00000,   0.00000,-24442259.00264,   0.00000
354357400.48143,388588107.58545,146013665.62482,   0.00085,   0.00108,   0.00190,450367388.49345,   0.00000,274640135.82653,   0.00000,   0.00000,   0.00000,-24272747.33308,   0.00000
353388223.25415,388405116.08100,146637192.23258,   0.00085,   0.00108,   0.00191,450545641.52314,   0.00000,274640135.82653,   0.00000,   0.00000,   0.00000,-24094494.30339,   0.00000
352387417.86562,388208569.65029,147265237.14908,   0.00085,   0.00108,   0.00191,450715121.31864,   0.00000,274640135.82653,   0.00000,   0.00000,   0.00000,-23925014.50789,   0.00000
351379835.01396,387996209.13896,147888763.75684,   0.00084,   0.00108,   0.00192,450874774.34863,   0.00000,274640135.82653,   0.00000,   0.00000,   0.00000,-23765361.47790,   0.00000
350372252.16229,387783848.62762,148516808.67335,   0.00084,   0.00108,   0.00193,451043296.50428,   0.00000,274640135.82653,   0.00000,   0.00000,   0.00000,-23596839.32225,   0.00000
349342077.76687,387548896.57252,149140335.28110,   0.00083,   0.00108,   0.00194,451193325.07411,   0.00000,274640135.82653,   0.00000,   0.00000,   0.00000,-23446810.75242,   0.00000
348318680.83458,387329758.59806,149759343.58010,   0.00083,   0.00108,   0.00195,451353118.65517,   0.00000,274640135.82653,   0.00000,   0.00000,   0.00000,-23287017.17136,   0.00000
347272692.35852,387088029.07984,150382870.18786,   0.00083,   0.00108,   0.00195,451503472.87076,   0.00000,274640135.82653,   0.00000,   0.00000,   0.00000,-23136662.95577,   0.00000
346226703.88247,386846299.56161,151001878.48686,   0.00082,   0.00109,   0.00196,451653819.51133,   0.00000,274640135.82653,   0.00000,   0.00000,   0.00000,-22986316.31520,   0.00000
345158123.86266,386581978.49963,151620886.78587,   0.00082,   0.00109,   0.00197,451790356.33823,   0.00000,274640135.82653,   0.00000,   0.00000,   0.00000,-22849779.48830,   0.00000
344096321.30597,386333471.51828,152239895.08487,   0.00081,   0.00109,   0.00198,451941213.18067,   0.00000,274640135.82653,   0.00000,   0.00000,   0.00000,-22698922.64586,   0.00000
343005149.74240,386046558.91253,152858903.38387,   0.00081,   0.00109,   0.00199,452068638.24185,   0.00000,274640135.82653,   0.00000,   0.00000,   0.00000,-22571497.58468,   0.00000
341920755.64196,385775460.38742,153473393.37413,   0.00080,   0.00109,   0.00200,452205837.50479,   0.00000,274640135.82653,   0.00000,   0.00000,   0.00000,-22434298.32174,   0.00000
340836361.54151,385504361.86231,154087883.36438,   0.00080,   0.00109,   0.00200,452347611.58575,   0.00000,274640135.82653,   0.00000,   0.00000,   0.00000,-22292524.24078,   0.00000
339729375.89731,385210671.79344,154702373.35463,   0.00079,   0.00109,   0.00201,452475858.31559,   0.00000,274640135.82653,   0.00000,   0.00000,   0.00000,-22164277.51094,   0.00000
338599798.70935,384894390.18081,155316863.34488,   0.00079,   0.00109,   0.00202,452590694.06801,   0.00000,274640135.82653,   0.00000,   0.00000,   0.00000,-22049441.75852,   0.00000
337476998.98451,384593922.64881,155926835.02638,   0.00079,   0.00109,   0.00203,452715297.93329,   0.00000,274640135.82653,   0.00000,   0.00000,   0.00000,-21924837.89324,   0.00000
336347421.79655,384277641.03618,156536806.70788,   0.00078,   0.00109,   0.00203,452834865.37130,   0.00000,274640135.82653,   0.00000,   0.00000,   0.00000,-21805270.45523,   0.00000
335202030.52795,383954581.96043,157146778.38938,   0.00078,   0.00109,   0.00204,452950876.64040,   0.00000,274640135.82653,   0.00000,   0.00000,   0.00000,-21689259.18613,   0.00000
334056639.25936,383631522.88467,157756750.07088,   0.00077,   0.00109,   0.00205,453071631.10710,   0.00000,274640135.82653,   0.00000,   0.00000,   0.00000,-21568504.71943,   0.00000
332888656.44701,383285872.26515,158362203.44363,   0.00077,   0.00109,   0.00206,453174536.85556,   0.00000,274640135.82653,   0.00000,   0.00000,   0.00000,-21465598.97097,   0.00000
331720673.63465,382940221.64564,158967656.81638,   0.00076,   0.00110,   0.00207,453282227.89517,   0.00000,274640135.82653,   0.00000,   0.00000,   0.00000,-21357907.93136,   0.00000
330552690.82230,382594571.02612,159568591.88037,   0.00076,   0.00110,   0.00207,453389930.17698,   0.00000,274640135.82653,   0.00000,   0.00000,   0.00000,-21250205.64955,   0.00000
329362116.46619,382226328.86284,160174045.25312,   0.00075,   0.00110,   0.00208,453489439.69395,   0.00000,274640135.82653,   0.00000,   0.00000,   0.00000,-21150696.13258,   0.00000
328162505.49257,381867123.31707,160774980.31712,   0.00075,   0.00110,   0.00209,453590609.26848,   0.00000,274640135.82653,   0.00000,   0.00000,   0.00000,-21049526.55805,   0.00000
326949339.59270,381476289.61004,161371397.07236,   0.00074,   0.00110,   0.00210,453672561.01259,   0.00000,274640135.82653,   0.00000,   0.00000,   0.00000,-20967574.81394,   0.00000
325742951.15595,381101269.98363,161972332.13636,   0.00074,   0.00110,   0.00211,453773847.82538,   0.00000,274640135.82653,   0.00000,   0.00000,   0.00000,-20866288.00115,   0.00000
324529785.25608,380710436.27660,162568748.89160,   0.00073,   0.00110,   0.00211,453865548.40308,   0.00000,274640135.82653,   0.00000,   0.00000,   0.00000,-20774587.42345,   0.00000
323300805.27558,380312825.10643,163165165.64685,   0.00073,   0.00110,   0.00212,453954212.29505,   0.00000,274640135.82653,   0.00000,   0.00000,   0.00000,-20685923.53148,   0.00000
322056011.21444,379908436.47314,163757064.09334,   0.00072,   0.00110,   0.00213,454035050.30667,   0.00000,274640135.82653,   0.00000,   0.00000,   0.00000,-20605085.51986,   0.00000
320804439.69018,379488233.75922,164348962.53983,   0.00072,   0.00110,   0.00214,454111266.48679,   0.00000,274640135.82653,   0.00000,   0.00000,   0.00000,-20528869.33974,   0.00000
319552868.16592,379068031.04530,164940860.98632,   0.00071,   0.00110,   0.00214,454192463.64490,   0.00000,274640135.82653,   0.00000,   0.00000,   0.00000,-20447672.18163,   0.00000
318301296.64165,378647828.33138,165528241.12406,   0.00071,   0.00110,   0.00215,454273699.92581,   0.00000,274640135.82653,   0.00000,   0.00000,   0.00000,-20366435.90072,   0.00000
317027133.57363,378205034.07370,166115621.26181,   0.00070,   0.00110,   0.00216,454342593.47620,   0.00000,274640135.82653,   0.00000,   0.00000,   0.00000,-20297542.35032,   0.00000
315737156.42498,377755462.35289,166703001.39955,   0.00070,   0.00110,   0.00217,454408822.32228,   0.00000,274640135.82653,   0.00000,   0.00000,   0.00000,-20231313.50425,   0.00000
314447179.27632,377305890.63208,167285863.22853,   0.00069,   0.00110,   0.00217,454475159.64599,   0.00000,274640135.82653,   0.00000,   0.00000,   0.00000,-20164976.18053,   0.00000
313157202.12767,376856318.91127,167868725.05752,   0.00069,   0.00110,   0.00218,454546559.18917,   0.00000,274640135.82653,   0.00000,   0.00000,   0.00000,-20093576.63736,   0.00000
311860447.51589,376390933.10983,168451586.88651,   0.00069,   0.00110,   0.00219,454613505.94246,   0.00000,274640135.82653,   0.00000,   0.00000,   0.00000,-20026629.88407,   0.00000
310547878.82348,375918769.84526,169029930.40675,   0.00068,   0.00110,   0.00220,454672939.70313,   0.00000,274640135.82653,   0.00000,   0.00000,   0.00000,-19967196.12340,   0.00000
309228532.66794,375430792.50006,169608273.92699,   0.00067,   0.00111,   0.00220,454727997.86632,   0.00000,274640135.82653,   0.00000,   0.00000,   0.00000,-19912137.96021,   0.00000
307900149.89489,374951851.77236,170182099.13847,   0.00067,   0.00111,   0.00221,454785117.05010,   0.00000,274640135.82653,   0.00000,   0.00000,   0.00000,-19855018.77643,   0.00000
306564989.65872,374457096.96404,170755924.34996,   0.00066,   0.00111,   0.00222,454837917.71860,   0.00000,274640135.82653,   0.00000,   0.00000,   0.00000,-19802218.10793,   0.00000
305223051.95942,373946528.07508,171329749.56144,   0.00066,   0.00111,   0.00223,454886431.97229,   0.00000,274640135.82653,   0.00000,   0.00000,   0.00000,-19753703.85424,   0.00000
303872077.64262,373444995.80362,171899056.46417,   0.00065,   0.00111,   0.00223,454937088.55329,   0.00000,274640135.82653,   0.00000,   0.00000,   0.00000,-19703047.27324,   0.00000
302514325.86269,372927649.45153,172468363.36691,   0.00065,   0.00111,   0.00224,454983518.04829,   0.00000,274640135.82653,   0.00000,   0.00000,   0.00000,-19656617.77824,   0.00000
301149796.61963,372394489.01882,173037670.26964,   0.00064,   0.00111,   0.00225,455025754.02100,   0.00000,274640135.82653,   0.00000,   0.00000,   0.00000,-19614381.80553,   0.00000
299776230.75906,371870365.20360,173602458.86362,   0.00064,   0.00111,   0.00226,455070216.34417,   0.00000,274640135.82653,   0.00000,   0.00000,   0.00000,-19569919.48236,   0.00000
298395887.43537,371330427.30775,174162729.14885,   0.00063,   0.00111,   0.00226,455105359.41514,   0.00000,274640135.82653,   0.00000,   0.00000,   0.00000,-19534776.41139,   0.00000
297015544.11168,370790489.41191,174722999.43408,   0.00063,   0.00111,   0.00227,455145758.09502,   0.00000,274640135.82653,   0.00000,   0.00000,   0.00000,-19494377.73151,   0.00000
295612609.24423,370227959.97230,175283269.71931,   0.00062,   0.00111,   0.00228,455174887.00205,   0.00000,274640135.82653,   0.00000,   0.00000,   0.00000,-19465248.82447,   0.00000
294225488.45742,369672207.99583,175839021.69579,   0.00062,   0.00111,   0.00229,455211245.58671,   0.00000,274640135.82653,   0.00000,   0.00000,   0.00000,-19428890.23982,   0.00000
292806739.50933,369102901.09309,176394773.67227,   0.00061,   0.00111,   0.00229,455238695.43525,   0.00000,274640135.82653,   0.00000,   0.00000,   0.00000,-19401440.39128,   0.00000
291403804.64188,368540371.65349,176950525.64874,   0.00061,   0.00111,   0.00230,455278576.27654,   0.00000,274640135.82653,   0.00000,   0.00000,   0.00000,-19361559.54999,   0.00000
289978278.23068,367955250.67012,177501759.31647,   0.00060,   0.00111,   0.00231,455302165.56415,   0.00000,274640135.82653,   0.00000,   0.00000,   0.00000,-19337970.26238,   0.00000
288552751.81947,367370129.68676,178048474.67544,   0.00060,   0.00111,   0.00231,455325838.17967,   0.00000,274640135.82653,   0.00000,   0.00000,   0.00000,-19314297.64686,   0.00000
287104633.86450,366762417.15963,178595190.03442,   0.00059,   0.00111,   0.00232,455338640.62218,   0.00000,274640135.82653,   0.00000,   0.00000,   0.00000,-19301495.20434,   0.00000
285679107.45329,366177296.17627,179141905.39339,   0.00059,   0.00111,   0.00233,455373065.00594,   0.00000,274640135.82653,   0.00000,   0.00000,   0.00000,-19267070.82059,   0.00000
284230989.49832,365569583.64914,179684102.44361,   0.00058,   0.00111,   0.00234,455391371.68201,   0.00000,274640135.82653,   0.00000,   0.00000,   0.00000,-19248764.14452,   0.00000
282760279.99959,364939279.57826,180221781.18508,   0.00057,   0.00111,   0.00234,455393667.15922,   0.00000,274640135.82653,   0.00000,   0.00000,   0.00000,-19246468.66731,   0.00000
281312162.04463,364331567.05114,180763978.23531,   0.00057,   0.00111,   0.00235,455422847.38280,   0.00000,274640135.82653,   0.00000,   0.00000,   0.00000,-19217288.44373,   0.00000
279841452.54590,363701262.98025,181297138.66803,   0.00056,   0.00111,   0.00236,455430691.76209,   0.00000,274640135.82653,   0.00000,   0.00000,   0.00000,-19209444.06444,   0.00000
278363965.58404,363055144.82874,181830299.10074,   0.00056,   0.00111,   0.00236,455434779.84808,   0.00000,274640135.82653,   0.00000,   0.00000,   0.00000,-19205355.97845,   0.00000
276893256.08531,362424840.75786,182363459.53346,   0.00055,   0.00111,   0.00237,455453554.53578,   0.00000,274640135.82653,   0.00000,   0.00000,   0.00000,-19186581.29075,   0.00000
275399955.04283,361771945.14321,182892101.65743,   0.00055,   0.00111,   0.00238,455456540.89947,   0.00000,274640135.82653,   0.00000,   0.00000,   0.00000,-19183594.92706,   0.00000
273899876.53721,361103235.44794,183420743.78139,   0.00054,   0.00111,   0.00238,455455887.17202,   0.00000,274640135.82653,   0.00000,   0.00000,   0.00000,-19184248.65451,   0.00000
272406575.49473,360450339.83330,183944867.59661,   0.00054,   0.00111,   0.00239,455464477.31322,   0.00000,274640135.82653,   0.00000,   0.00000,   0.00000,-19175658.51331,   0.00000
270906496.98911,359781630.13802,184468991.41182,   0.00053,   0.00111,   0.00240,455469424.62853,   0.00000,274640135.82653,   0.00000,   0.00000,   0.00000,-19170711.19799,   0.00000
269390604.40287,359106142.97962,184988596.91829,   0.00053,   0.00111,   0.00240,455467937.10817,   0.00000,274640135.82653,   0.00000,   0.00000,   0.00000,-19172198.71836,   0.00000
267867934.35349,358414841.74059,185503684.11600,   0.00052,   0.00111,   0.00241,455457392.29688,   0.00000,274640135.82653,   0.00000,   0.00000,   0.00000,-19182743.52965,   0.00000
266345264.30412,357723540.50156,186018771.31371,   0.00051,   0.00111,   0.00242,455452423.58197,   0.00000,274640135.82653,   0.00000,   0.00000,   0.00000,-19187712.24456,   0.00000
264822594.25474,357032239.26252,186533858.51142,   0.00051,   0.00111,   0.00242,455453031.14593,   0.00000,274640135.82653,   0.00000,   0.00000,   0.00000,-19187104.68060,   0.00000
263284110.12474,356334160.56036,187044427.40038,   0.00050,   0.00111,   0.00243,455447349.01068,   0.00000,274640135.82653,   0.00000,   0.00000,   0.00000,-19192786.81585,   0.00000
261754662.61224,355627045.24070,187550477.98059,   0.00050,   0.00111,   0.00244,455438916.68955,   0.00000,274640135.82653,   0.00000,   0.00000,   0.00000,-19201219.13698,   0.00000
260209401.01910,354913152.45790,188056528.56079,   0.00049,   0.00111,   0.00244,455429811.44680,   0.00000,274640135.82653,   0.00000,   0.00000,   0.00000,-19210324.37973,   0.00000
258664139.42597,354199259.67511,188558060.83225,   0.00049,   0.00111,   0.00245,455420720.65800,   0.00000,274640135.82653,   0.00000,   0.00000,   0.00000,-19219415.16853,   0.00000
257096286.28908,353462775.34856,189059593.10371,   0.00048,   0.00111,   0.00246,455402082.04488,   0.00000,274640135.82653,   0.00000,   0.00000,   0.00000,-19238053.78165,   0.00000
255544247.23282,352733068.48514,189556607.06641,   0.00047,   0.00111,   0.00246,455389608.23031,   0.00000,274640135.82653,   0.00000,   0.00000,   0.00000,-19250527.59622,   0.00000
253976394.09593,351996584.15858,190049102.72036,   0.00047,   0.00111,   0.00247,455371019.25028,   0.00000,274640135.82653,   0.00000,   0.00000,   0.00000,-19269116.57625,   0.00000
252401763.49591,351244285.75140,190541598.37431,   0.00046,   0.00111,   0.00248,455349122.63060,   0.00000,274640135.82653,   0.00000,   0.00000,   0.00000,-19291013.19593,   0.00000
250827132.89589,350491987.34422,191034094.02826,   0.00046,   0.00111,   0.00248,455332909.79715,   0.00000,274640135.82653,   0.00000,   0.00000,   0.00000,-19307226.02938,   0.00000
249252502.29587,349739688.93703,191517553.06471,   0.00045,   0.00111,   0.00249,455310978.00786,   0.00000,274640135.82653,   0.00000,   0.00000,   0.00000,-19329157.81867,   0.00000
247671094.23272,348971576.44922,192001012.10116,   0.00045,   0.00110,   0.00250,455285762.83055,   0.00000,274640135.82653,   0.00000,   0.00000,   0.00000,-19354372.99597,   0.00000
246073872.08894,348196686.49828,192484471.13761,   0.00044,   0.00110,   0.00250,455260355.18748,   0.00000,274640135.82653,   0.00000,   0.00000,   0.00000,-19379780.63905,   0.00000
244492464.02579,347428574.01046,192963411.86530,   0.00043,   0.00110,   0.00251,455240755.89479,   0.00000,274640135.82653,   0.00000,   0.00000,   0.00000,-19399379.93174,   0.00000
242895241.88201,346653684.05952,193437834.28425,   0.00043,   0.00110,   0.00251,455215258.92678,   0.00000,274640135.82653,   0.00000,   0.00000,   0.00000,-19424876.89975,   0.00000
241291242.27510,345862980.02795,193912256.70319,   0.00042,   0.00110,   0.00252,455186606.06804,   0.00000,274640135.82653,   0.00000,   0.00000,   0.00000,-19453529.75849,   0.00000
239687242.66820,345072275.99637,194382160.81339,   0.00042,   0.00110,   0.00253,455157885.71861,   0.00000,274640135.82653,   0.00000,   0.00000,   0.00000,-19482250.10792,   0.00000
238060651.51753,344258980.42104,194847546.61483,   0.00041,   0.00110,   0.00253,455114602.59713,   0.00000,274640135.82653,   0.00000,   0.00000,   0.00000,-19525533.22940,   0.00000
236449874.44750,343452462.30883,195312932.41627,   0.00041,   0.00110,   0.00254,455082706.88717,   0.00000,274640135.82653,   0.00000,   0.00000,   0.00000,-19557428.93936,   0.00000
234823283.29683,342639166.73350,195773799.90896,   0.00040,   0.00110,   0.00255,455045119.77611,   0.00000,274640135.82653,   0.00000,   0.00000,   0.00000,-19595016.05042,   0.00000
233212506.22679,341832648.62129,196234667.40164,   0.00039,   0.00110,   0.00255,455018810.70964,   0.00000,274640135.82653,   0.00000,   0.00000,   0.00000,-19621325.11689,   0.00000
231579137.61300,341003538.96533,196691016.58558,   0.00039,   0.00110,   0.00256,454978101.78546,   0.00000,274640135.82653,   0.00000,   0.00000,   0.00000,-19662034.04107,   0.00000
229952546.46233,340190243.39000,197142847.46077,   0.00038,   0.00110,   0.00256,454946007.22273,   0.00000,274640135.82653,   0.00000,   0.00000,   0.00000,-19694128.60380,   0.00000
228312400.38541,339345319.65340,197590160.02720,   0.00038,   0.00110,   0.00257,454896326.28712,   0.00000,274640135.82653,   0.00000,   0.00000,   0.00000,-19743809.53941,   0.00000
226679031.77162,338516209.99744,198037472.59363,   0.00037,   0.00110,   0.00257,454861080.78022,   0.00000,274640135.82653,   0.00000,   0.00000,   0.00000,-19779055.04631,   0.00000
225038885.69470,337671286.26084,198480266.85131,   0.00037,   0.00110,   0.00258,454816970.48003,   0.00000,274640135.82653,   0.00000,   0.00000,   0.00000,-19823165.34650,   0.00000
223398739.61777,336826362.52424,198923061.10900,   0.00036,   0.00110,   0.00259,454778587.02789,   0.00000,274640135.82653,   0.00000,   0.00000,   0.00000,-19861548.79864,   0.00000
221751816.07772,335965624.70702,199361337.05793,   0.00035,   0.00110,   0.00259,454731359.86058,   0.00000,274640135.82653,   0.00000,   0.00000,   0.00000,-19908775.96595,   0.00000
220095855.92017,335113923.50729,199795094.69810,   0.00035,   0.00110,   0.00260,454687344.54881,   0.00000,274640135.82653,   0.00000,   0.00000,   0.00000,-19952791.27772,   0.00000
218448932.38012,334253185.69006,200224334.02953,   0.00034,   0.00109,   0.00260,454639668.81040,   0.00000,274640135.82653,   0.00000,   0.00000,   0.00000,-20000467.01613,   0.00000
216779417.29631,333369856.32908,200653573.36096,   0.00034,   0.00109,   0.00261,454584011.13610,   0.00000,274640135.82653,   0.00000,   0.00000,   0.00000,-20056124.69043,   0.00000
215132493.75626,332509118.51185,201078294.38363,   0.00033,   0.00109,   0.00261,454541779.50751,   0.00000,274640135.82653,   0.00000,   0.00000,   0.00000,-20098356.31902,   0.00000
213462978.67245,331625789.15086,201498497.09755,   0.00032,   0.00109,   0.00262,454485656.02736,   0.00000,274640135.82653,   0.00000,   0.00000,   0.00000,-20154479.79917,   0.00000
211793463.58864,330742459.78988,201918699.81147,   0.00032,   0.00109,   0.00262,454435296.61842,   0.00000,274640135.82653,   0.00000,   0.00000,   0.00000,-20204839.20811,   0.00000
210132985.12234,329850093.81139,202329865.90789,   0.00031,   0.00109,   0.00263,454375059.70646,   0.00000,274640135.82653,   0.00000,   0.00000,   0.00000,-20265076.12007,   0.00000
208456692.57540,328950950.36977,202745550.31306,   0.00031,   0.00109,   0.00264,454321656.77004,   0.00000,274640135.82653,   0.00000,   0.00000,   0.00000,-20318479.05649,   0.00000
206780400.02847,328051806.92815,203152198.10073,   0.00030,   0.00109,   0.00264,454261912.09209,   0.00000,274640135.82653,   0.00000,   0.00000,   0.00000,-20378223.73444,   0.00000
205104107.48153,327152663.48653,203558845.88840,   0.00030,   0.00109,   0.00265,454207899.86058,   0.00000,274640135.82653,   0.00000,   0.00000,   0.00000,-20432235.96595,   0.00000
203421037.47146,326237705.96428,203956457.05856,   0.00029,   0.00109,   0.00265,454139026.94756,   0.00000,274640135.82653,   0.00000,   0.00000,   0.00000,-20501108.87897,   0.00000
201744744.92453,325338562.52266,204354068.22872,   0.00028,   0.00109,   0.00266,454084279.25179,   0.00000,274640135.82653,   0.00000,   0.00000,   0.00000,-20555856.57474,   0.00000
200070711.53197,324414568.38291,204751679.39888,   0.00028,   0.00109,   0.00266,454023125.96856,   0.00000,274640135.82653,   0.00000,   0.00000,   0.00000,-20617009.85797,   0.00000
198387641.52190,323499610.86066,205140253.95154,   0.00027,   0.00109,   0.00267,453959140.31731,   0.00000,274640135.82653,   0.00000,   0.00000,   0.00000,-20680995.50922,   0.00000
196697794.04871,322568839.25778,205528828.50420,   0.00027,   0.00108,   0.00267,453892495.17018,   0.00000,274640135.82653,   0.00000,   0.00000,   0.00000,-20747640.65635,   0.00000
195007946.57552,321638067.65490,205912884.74811,   0.00026,   0.00108,   0.00268,453825423.47729,   0.00000,274640135.82653,   0.00000,   0.00000,   0.00000,-20814712.34924,   0.00000
193318099.10232,320707296.05201,206292422.68327,   0.00025,   0.00108,   0.00268,453757890.63123,   0.00000,274640135.82653,   0.00000,   0.00000,   0.00000,-20882245.19530,   0.00000
191637288.24664,319767487.83163,206671960.61842,   0.00025,   0.00108,   0.00269,453692208.66218,   0.00000,274640135.82653,   0.00000,   0.00000,   0.00000,-20947927.16435,   0.00000
189947440.77344,318836716.22875,207042461.93607,   0.00024,   0.00108,   0.00269,453623639.96302,   0.00000,274640135.82653,   0.00000,   0.00000,   0.00000,-21016495.86351,   0.00000
188244038.37400,317874316.46460,207412963.25372,   0.00024,   0.00108,   0.00270,453544227.17260,   0.00000,274640135.82653,   0.00000,   0.00000,   0.00000,-21095908.65393,   0.00000
186547413.43768,316927730.78109,207778946.26262,   0.00023,   0.00108,   0.00270,453472542.83415,   0.00000,274640135.82653,   0.00000,   0.00000,   0.00000,-21167592.99238,   0.00000
184859825.11886,315972108.48007,208144929.27152,   0.00022,   0.00108,   0.00271,453402596.27466,   0.00000,274640135.82653,   0.00000,   0.00000,   0.00000,-21237539.55187,   0.00000
183163200.18254,315025522.79656,208501875.66292,   0.00022,   0.00108,   0.00271,453329738.14281,   0.00000,274640135.82653,   0.00000,   0.00000,   0.00000,-21310397.68372,   0.00000
181468834.40060,314054086.41491,208858822.05432,   0.00021,   0.00108,   0.00272,453250373.08524,   0.00000,274640135.82653,   0.00000,   0.00000,   0.00000,-21389762.74129,   0.00000
179765432.00115,313091686.65077,209206731.82821,   0.00021,   0.00107,   0.00272,453168095.09536,   0.00000,274640135.82653,   0.00000,   0.00000,   0.00000,-21472040.73117,   0.00000
178071066.21920,312120250.26912,209554641.60210,   0.00020,   0.00107,   0.00272,453087423.07576,   0.00000,274640135.82653,   0.00000,   0.00000,   0.00000,-21552712.75077,   0.00000
176360886.35663,311142036.42435,209898033.06724,   0.00020,   0.00107,   0.00273,453001982.99419,   0.00000,274640135.82653,   0.00000,   0.00000,   0.00000,-21638152.83234,   0.00000
174666520.57468,310170600.04270,210241424.53238,   0.00019,   0.00107,   0.00273,452926202.39363,   0.00000,274640135.82653,   0.00000,   0.00000,   0.00000,-21713933.43290,   0.00000
172972154.79274,309199163.66105,210575779.38002,   0.00018,   0.00107,   0.00274,452843372.62268,   0.00000,274640135.82653,   0.00000,   0.00000,   0.00000,-21796763.20385,   0.00000
171271011.54767,308211913.19877,210910134.22766,   0.00018,   0.00107,   0.00274,452758026.81940,   0.00000,274640135.82653,   0.00000,   0.00000,   0.00000,-21882109.00713,   0.00000
169569868.30260,307224662.73649,211235452.45779,   0.00017,   0.00107,   0.00275,452665590.86738,   0.00000,274640135.82653,   0.00000,   0.00000,   0.00000,-21974544.95915,   0.00000
167868725.05752,306237412.27421,211560770.68792,   0.00017,   0.00107,   0.00275,452578674.53920,   0.00000,274640135.82653,   0.00000,   0.00000,   0.00000,-22061461.28733,   0.00000
166176618.42996,305241125.19443,211881570.60931,   0.00016,   0.00106,   0.00275,452486767.67814,   0.00000,274640135.82653,   0.00000,   0.00000,   0.00000,-22153368.14839,   0.00000
164475475.18488,304253874.73215,212197852.22193,   0.00016,   0.00106,   0.00276,452398151.04199,   0.00000,274640135.82653,   0.00000,   0.00000,   0.00000,-22241984.78454,   0.00000
162783368.55732,303257587.65237,212509615.52581,   0.00015,   0.00106,   0.00276,452304441.67813,   0.00000,274640135.82653,   0.00000,   0.00000,   0.00000,-22335694.14840,   0.00000
161075447.84912,302254523.10945,212816860.52094,   0.00014,   0.00106,   0.00277,452206106.03087,   0.00000,274640135.82653,   0.00000,   0.00000,   0.00000,-22434029.79566,   0.00000
159376563.75842,301242421.94904,213124105.51606,   0.00014,   0.00106,   0.00277,452109009.91324,   0.00000,274640135.82653,   0.00000,   0.00000,   0.00000,-22531125.91329,   0.00000
157684457.13085,300246134.86926,213422313.89369,   0.00013,   0.00106,   0.00277,452012425.65364,   0.00000,274640135.82653,   0.00000,   0.00000,   0.00000,-22627710.17289,   0.00000
155985573.04016,299234033.70884,213720522.27131,   0.00013,   0.00106,   0.00278,451913375.13389,   0.00000,274640135.82653,   0.00000,   0.00000,   0.00000,-22726760.69264,   0.00000
154286688.94946,298221932.54843,214009694.03143,   0.00012,   0.00106,   0.00278,451806901.57763,   0.00000,274640135.82653,   0.00000,   0.00000,   0.00000,-22833234.24890,   0.00000
152596841.47627,297200794.77051,214298865.79155,   0.00011,   0.00105,   0.00279,451701469.46093,   0.00000,274640135.82653,   0.00000,   0.00000,   0.00000,-22938666.36559,   0.00000
150913771.46620,296195471.07322,214583519.24291,   0.00011,   0.00105,   0.00279,451602710.42543,   0.00000,274640135.82653,   0.00000,   0.00000,   0.00000,-23037425.40110,   0.00000
149208109.91238,295167555.83218,214863654.38553,   0.00010,   0.00105,   0.00279,451491664.25760,   0.00000,274640135.82653,   0.00000,   0.00000,   0.00000,-23148471.56893,   0.00000
147518262.43919,294146418.05426,215139271.21939,   0.00010,   0.00105,   0.00280,451382878.02661,   0.00000,274640135.82653,   0.00000,   0.00000,   0.00000,-23257257.79992,   0.00000
145844229.04663,293132057.73947,215410369.74450,   0.00009,   0.00105,   0.00280,451276196.61500,   0.00000,274640135.82653,   0.00000,   0.00000,   0.00000,-23363939.21153,   0.00000
144147604.11031,292095105.88092,215676949.96086,   0.00009,   0.00105,   0.00280,451157304.27258,   0.00000,274640135.82653,   0.00000,   0.00000,   0.00000,-23482831.55395,   0.00000
142466793.25462,291064931.48550,215939011.86847,   0.00008,   0.00105,   0.00281,451040424.62232,   0.00000,274640135.82653,   0.00000,   0.00000,   0.00000,-23599711.20420,   0.00000
140776945.78142,290043793.70758,216196555.46732,   0.00007,   0.00105,   0.00281,450926738.06132,   0.00000,274640135.82653,   0.00000,   0.00000,   0.00000,-23713397.76521,   0.00000
139089357.46261,288997805.23152,216449580.75743,   0.00007,   0.00104,   0.00281,450799650.37746,   0.00000,274640135.82653,   0.00000,   0.00000,   0.00000,-23840485.44907,   0.00000
137424360.68755,287974408.29923,216698087.73878,   0.00006,   0.00104,   0.00282,450681927.17226,   0.00000,274640135.82653,   0.00000,   0.00000,   0.00000,-23958208.65427,   0.00000
135743549.83186,286944233.90381,216946594.72013,   0.00006,   0.00104,   0.00282,450566255.57147,   0.00000,274640135.82653,   0.00000,   0.00000,   0.00000,-24073880.25506,   0.00000
134071775.59368,285905022.89088,217186065.08398,   0.00005,   0.00104,   0.00282,450438108.57312,   0.00000,274640135.82653,   0.00000,   0.00000,   0.00000,-24202027.25341,   0.00000
132400001.35549,284865811.87796,217421017.13907,   0.00005,   0.00104,   0.00283,450308509.06730,   0.00000,274640135.82653,   0.00000,   0.00000,   0.00000,-24331626.75923,   0.00000
130728227.11731,283826600.86503,217651450.88542,   0.00004,   0.00104,   0.00283,450177434.57619,   0.00000,274640135.82653,   0.00000,   0.00000,   0.00000,-24462701.25034,   0.00000
129056452.87912,282787389.85210,217881884.63176,   0.00004,   0.00104,   0.00283,450051425.27040,   0.00000,274640135.82653,   0.00000,   0.00000,   0.00000,-24588710.55613,   0.00000
127393715.25844,281739142.22167,218103281.76060,   0.00003,   0.00103,   0.00284,449912693.11950,   0.00000,274640135.82653,   0.00000,   0.00000,   0.00000,-24727442.70703,   0.00000
125730977.63776,280690894.59125,218320160.58069,   0.00002,   0.00103,   0.00284,449772380.21153,   0.00000,274640135.82653,   0.00000,   0.00000,   0.00000,-24867755.61500,   0.00000
124068240.01708,279642646.96082,218532521.09203,   0.00002,   0.00103,   0.00284,449630465.45197,   0.00000,274640135.82653,   0.00000,   0.00000,   0.00000,-25009670.37456,   0.00000
122421316.47703,278601176.79351,218740363.29462,   0.00001,   0.00103,   0.00284,449489611.90040,   0.00000,274640135.82653,   0.00000,   0.00000,   0.00000,-25150523.92613,   0.00000
120774392.93698,277559706.62621,218948205.49720,   0.00001,   0.00103,   0.00285,449353635.49382,   0.00000,274640135.82653,   0.00000,   0.00000,   0.00000,-25286500.33271,   0.00000
119127469.39693,276518236.45891,219147011.08228,   0.00000,   0.00103,   0.00285,449209315.02664,   0.00000,274640135.82653,   0.00000,   0.00000,   0.00000,-25430820.79989,   0.00000
117473768.39375,275460952.21098,219341298.35861,  -0.00000,   0.00102,   0.00285,449055900.58363,   0.00000,274640135.82653,   0.00000,   0.00000,   0.00000,-25584235.24290,   0.00000
115835881.47121,274410445.42617,219531067.32619,  -0.00001,   0.00102,   0.00285,448903259.87732,   0.00000,274640135.82653,   0.00000,   0.00000,   0.00000,-25736875.94921,   0.00000
114197994.54866,273359938.64137,219716317.98501,  -0.00001,   0.00102,   0.00286,448748774.25664,   0.00000,274640135.82653,   0.00000,   0.00000,   0.00000,-25891361.56989,   0.00000
112575921.70675,272316209.31969,219897050.33509,  -0.00002,   0.00102,   0.00286,448594857.28744,   0.00000,274640135.82653,   0.00000,   0.00000,   0.00000,-26045278.53909,   0.00000
110938034.78420,271265702.53488,220073264.37641,  -0.00002,   0.00102,   0.00286,448436584.22325,   0.00000,274640135.82653,   0.00000,   0.00000,   0.00000,-26203551.60328,   0.00000
109324998.55979,270212936.59570,220240441.80023,  -0.00003,   0.00102,   0.00286,448267235.16524,   0.00000,274640135.82653,   0.00000,   0.00000,   0.00000,-26372900.66129,   0.00000
107702925.71787,269169207.27403,220407619.22405,  -0.00003,   0.00101,   0.00287,448107383.39396,   0.00000,274640135.82653,   0.00000,   0.00000,   0.00000,-26532752.43257,   0.00000
106089889.49346,268116441.33484,220570278.33911,  -0.00004,   0.00101,   0.00287,447940610.11923,   0.00000,274640135.82653,   0.00000,   0.00000,   0.00000,-26699525.70730,   0.00000
104476853.26905,267063675.39566,220723900.83668,  -0.00005,   0.00101,   0.00287,447765081.66528,   0.00000,274640135.82653,   0.00000,   0.00000,   0.00000,-26875054.16125,   0.00000
102863817.04464,266010909.45648,220877523.33424,  -0.00005,   0.00101,   0.00287,447594137.83857,   0.00000,274640135.82653,   0.00000,   0.00000,   0.00000,-27045997.98796,   0.00000
101266594.90086,264964920.98043,221022109.21430,  -0.00006,   0.00101,   0.00287,447416534.74333,   0.00000,274640135.82653,   0.00000,   0.00000,   0.00000,-27223601.08320,   0.00000
99678409.37459,263909895.88687,221162176.78561,  -0.00006,   0.00101,   0.00288,447231735.37205,   0.00000,274640135.82653,   0.00000,   0.00000,   0.00000,-27408400.45448,   0.00000
98081187.23081,262863907.41082,221302244.35691,  -0.00007,   0.00100,   0.00288,447056371.23424,   0.00000,274640135.82653,   0.00000,   0.00000,   0.00000,-27583764.59229,   0.00000
96493001.70453,261808882.31726,221433275.31072,  -0.00007,   0.00100,   0.00288,446867040.13046,   0.00000,274640135.82653,   0.00000,   0.00000,   0.00000,-27773095.69607,   0.00000
94920630.25889,260760634.68683,221559787.95577,  -0.00008,   0.00100,   0.00288,446677388.92500,   0.00000,274640135.82653,   0.00000,   0.00000,   0.00000,-27962746.90153,   0.00000
93348258.81324,259712387.05640,221677263.98332,  -0.00008,   0.00100,   0.00288,446478611.34823,   0.00000,274640135.82653,   0.00000,   0.00000,   0.00000,-28161524.47830,   0.00000
91775887.36760,258664139.42597,221794740.01087,  -0.00009,   0.00100,   0.00288,446284146.80622,   0.00000,274640135.82653,   0.00000,   0.00000,   0.00000,-28355989.02031,   0.00000
90203515.92196,257615891.79554,221907697.72966,  -0.00009,   0.00100,   0.00288,446087257.97539,   0.00000,274640135.82653,   0.00000,   0.00000,   0.00000,-28552877.85114,   0.00000
88662772.63757,256581199.09137,222011618.83096,  -0.00010,   0.00099,   0.00289,445884822.73863,   0.00000,274640135.82653,   0.00000,   0.00000,   0.00000,-28755313.08790,   0.00000
87099437.80943,255523914.84343,222111021.62350,  -0.00010,   0.00099,   0.00289,445671080.02854,   0.00000,274640135.82653,   0.00000,   0.00000,   0.00000,-28969055.79799,   0.00000
85558694.52505,254489222.13926,222205906.10728,  -0.00011,   0.00099,   0.00289,445463447.32629,   0.00000,274640135.82653,   0.00000,   0.00000,   0.00000,-29176688.50024,   0.00000
84026987.85817,253445492.81758,222296272.28232,  -0.00011,   0.00099,   0.00289,445248008.62241,   0.00000,274640135.82653,   0.00000,   0.00000,   0.00000,-29392127.20412,   0.00000
82479467.11067,252394986.03278,222382120.14861,  -0.00012,   0.00099,   0.00289,445028212.14539,   0.00000,274640135.82653,   0.00000,   0.00000,   0.00000,-29611923.68113,   0.00000
80963574.52442,251358034.17423,222463449.70614,  -0.00012,   0.00099,   0.00289,444809033.38061,   0.00000,274640135.82653,   0.00000,   0.00000,   0.00000,-29831102.44592,   0.00000
79447681.93817,250321082.31568,222535742.64617,  -0.00013,   0.00098,   0.00289,444580272.78778,   0.00000,274640135.82653,   0.00000,   0.00000,   0.00000,-30059863.03875,   0.00000
77931789.35193,249284130.45713,222603517.27745,  -0.00013,   0.00098,   0.00289,444348692.87382,   0.00000,274640135.82653,   0.00000,   0.00000,   0.00000,-30291442.95271,   0.00000
76431710.84631,248253956.06171,222666773.59997,  -0.00014,   0.00098,   0.00289,444115789.78155,   0.00000,274640135.82653,   0.00000,   0.00000,   0.00000,-30524346.04498,   0.00000
74931632.34070,247223781.66628,222725511.61375,  -0.00014,   0.00098,   0.00290,443879968.91473,   0.00000,274640135.82653,   0.00000,   0.00000,   0.00000,-30760166.91180,   0.00000
73440590.45259,246184570.65336,222779731.31877,  -0.00015,   0.00098,   0.00290,443635941.94350,   0.00000,274640135.82653,   0.00000,   0.00000,   0.00000,-31004193.88303,   0.00000
71956326.02760,245161173.72106,222824914.40629,  -0.00015,   0.00098,   0.00290,443388818.13890,   0.00000,274640135.82653,   0.00000,   0.00000,   0.00000,-31251317.68763,   0.00000
70481098.22013,244128740.17127,222870097.49381,  -0.00016,   0.00097,   0.00290,443140165.56870,   0.00000,274640135.82653,   0.00000,   0.00000,   0.00000,-31499970.25783,   0.00000
69005870.41265,243096306.62147,222906243.96382,  -0.00016,   0.00097,   0.00290,442881624.14585,   0.00000,274640135.82653,   0.00000,   0.00000,   0.00000,-31758511.68068,   0.00000
67553234.14893,242086464.61543,222937872.12508,  -0.00016,   0.00097,   0.00290,442627898.63327,   0.00000,274640135.82653,   0.00000,   0.00000,   0.00000,-32012237.19326,   0.00000
66093820.42208,241060808.52876,222960463.66884,  -0.00017,   0.00097,   0.00290,442357527.11478,   0.00000,274640135.82653,   0.00000,   0.00000,   0.00000,-32282608.71175,   0.00000
64650220.77586,240041929.90522,222983055.21260,  -0.00017,   0.00097,   0.00290,442092008.67126,   0.00000,274640135.82653,   0.00000,   0.00000,   0.00000,-32548127.15527,   0.00000
63206621.12964,239023051.28167,222996610.13886,  -0.00018,   0.00096,   0.00290,441816388.28283,   0.00000,274640135.82653,   0.00000,   0.00000,   0.00000,-32823747.54370,   0.00000
61778835.56406,238010950.12126,223005646.75636,  -0.00018,   0.00096,   0.00290,441538620.06280,   0.00000,274640135.82653,   0.00000,   0.00000,   0.00000,-33101515.76373,   0.00000
60366864.07911,237005626.42397,223005646.75636,  -0.00019,   0.00096,   0.00290,441251735.69598,   0.00000,274640135.82653,   0.00000,   0.00000,   0.00000,-33388400.13055,   0.00000
58954892.59415,236000302.72669,223005646.75636,  -0.00019,   0.00096,   0.00290,440968258.72630,   0.00000,274640135.82653,   0.00000,   0.00000,   0.00000,-33671877.10023,   0.00000
57551957.72670,234985942.41190,222996610.13886,  -0.00020,   0.00096,   0.00290,440669019.04444,   0.00000,274640135.82653,   0.00000,   0.00000,   0.00000,-33971116.78209,   0.00000
56155800.32238,233987396.17774,222983055.21260,  -0.00020,   0.00096,   0.00290,440372745.20344,   0.00000,274640135.82653,   0.00000,   0.00000,   0.00000,-34267390.62309,   0.00000
54775456.99869,232995627.40671,222960463.66884,  -0.00021,   0.00095,   0.00290,440067013.29279,   0.00000,274640135.82653,   0.00000,   0.00000,   0.00000,-34573122.53374,   0.00000
53388336.21187,231988044.55504,222937872.12508,  -0.00021,   0.00095,   0.00290,439758110.80989,   0.00000,274640135.82653,   0.00000,   0.00000,   0.00000,-34882025.01664,   0.00000
52023806.96881,231003053.24714,222906243.96382,  -0.00021,   0.00095,   0.00290,439446025.85968,   0.00000,274640135.82653,   0.00000,   0.00000,   0.00000,-35194109.96685,   0.00000
50668314.34326,230009025.32173,222870097.49381,  -0.00022,   0.00095,   0.00290,439124699.01128,   0.00000,274640135.82653,   0.00000,   0.00000,   0.00000,-35515436.81525,   0.00000
49319599.18083,229030811.47696,222824914.40629,  -0.00022,   0.00095,   0.00290,438799105.61390,   0.00000,274640135.82653,   0.00000,   0.00000,   0.00000,-35841030.21263,   0.00000
47979920.63591,228043561.01468,222775213.01002,  -0.00023,   0.00094,   0.00290,438464152.62875,   0.00000,274640135.82653,   0.00000,   0.00000,   0.00000,-36175983.19778,   0.00000
46647019.55411,227072124.63303,222720993.30500,  -0.00023,   0.00094,   0.00290,438131691.34061,   0.00000,274640135.82653,   0.00000,   0.00000,   0.00000,-36508444.48592,   0.00000
45338969.17045,226098429.09700,222662255.29122,  -0.00023,   0.00094,   0.00289,437790465.69492,   0.00000,274640135.82653,   0.00000,   0.00000,   0.00000,-36849670.13161,   0.00000
44015104.70616,225117956.09785,222594480.65994,  -0.00024,   0.00094,   0.00289,437437700.30931,   0.00000,274640135.82653,   0.00000,   0.00000,   0.00000,-37202435.51722,   0.00000
42729645.86626,224166852.10559,222522187.71991,  -0.00024,   0.00094,   0.00289,437088551.77908,   0.00000,274640135.82653,   0.00000,   0.00000,   0.00000,-37551584.04745,   0.00000
41437409.56323,223199934.03269,222445376.47113,  -0.00025,   0.00093,   0.00289,436729068.09905,   0.00000,274640135.82653,   0.00000,   0.00000,   0.00000,-37911067.72748,   0.00000
40160987.34083,222239793.42292,222359528.60485,  -0.00025,   0.00093,   0.00289,436359188.09930,   0.00000,274640135.82653,   0.00000,   0.00000,   0.00000,-38280947.72723,   0.00000
38884565.11843,221279652.81316,222269162.42981,  -0.00025,   0.00093,   0.00289,435985174.96139,   0.00000,274640135.82653,   0.00000,   0.00000,   0.00000,-38654960.86514,   0.00000
37630734.43979,220342103.74715,222174277.94602,  -0.00026,   0.00093,   0.00289,435613715.35879,   0.00000,274640135.82653,   0.00000,   0.00000,   0.00000,-39026420.46774,   0.00000
36385940.37866,219395518.06363,222074875.15348,  -0.00026,   0.00093,   0.00289,435232315.30683,   0.00000,274640135.82653,   0.00000,   0.00000,   0.00000,-39407820.51970,   0.00000
35141146.31752,218448932.38012,221966435.74344,  -0.00027,   0.00093,   0.00289,434839724.63056,   0.00000,274640135.82653,   0.00000,   0.00000,   0.00000,-39800411.19597,   0.00000
33912166.33702,217509124.15974,221848959.71589,  -0.00027,   0.00092,   0.00288,434436337.45481,   0.00000,274640135.82653,   0.00000,   0.00000,   0.00000,-40203798.37172,   0.00000
32705777.90027,216591907.48311,221731483.68834,  -0.00027,   0.00092,   0.00288,434042011.84908,   0.00000,274640135.82653,   0.00000,   0.00000,   0.00000,-40598123.97745,   0.00000
31508426.08103,215665654.18898,221604971.04329,  -0.00028,   0.00092,   0.00288,433630556.53508,   0.00000,274640135.82653,   0.00000,   0.00000,   0.00000,-41009579.29145,   0.00000
30311074.26179,214739400.89485,221469421.78073,  -0.00028,   0.00092,   0.00288,433207691.46427,   0.00000,274640135.82653,   0.00000,   0.00000,   0.00000,-41432444.36226,   0.00000
29136313.98631,213835739.14448,221333872.51818,  -0.00028,   0.00092,   0.00288,432793613.93469,   0.00000,274640135.82653,   0.00000,   0.00000,   0.00000,-41846521.89184,   0.00000
27970590.32833,212923040.77661,221184768.32937,  -0.00029,   0.00091,   0.00288,432355290.58240,   0.00000,274640135.82653,   0.00000,   0.00000,   0.00000,-42284845.24413,   0.00000
26804866.67036,212010342.40873,221035664.14056,  -0.00029,   0.00091,   0.00287,431919288.37533,   0.00000,274640135.82653,   0.00000,   0.00000,   0.00000,-42720847.45120,   0.00000
25661734.55614,211120235.58462,220877523.33424,  -0.00029,   0.00091,   0.00287,431477934.53610,   0.00000,274640135.82653,   0.00000,   0.00000,   0.00000,-43162201.29043,   0.00000
24527639.05942,210221092.14300,220714864.21917,  -0.00030,   0.00091,   0.00287,431026031.05930,   0.00000,274640135.82653,   0.00000,   0.00000,   0.00000,-43614104.76723,   0.00000
23409357.64334,209328726.16451,220543168.48660,  -0.00030,   0.00091,   0.00287,430562573.97207,   0.00000,274640135.82653,   0.00000,   0.00000,   0.00000,-44077561.85446,   0.00000
22297853.69039,208452174.26665,220366954.44528,  -0.00031,   0.00090,   0.00286,430100280.15210,   0.00000,274640135.82653,   0.00000,   0.00000,   0.00000,-44539855.67443,   0.00000
21195386.35493,207566585.75129,220186222.09521,  -0.00031,   0.00090,   0.00286,429627274.67595,   0.00000,274640135.82653,   0.00000,   0.00000,   0.00000,-45012861.15057,   0.00000
20115510.56324,206703588.77968,219996453.12763,  -0.00031,   0.00090,   0.00286,429148432.73892,   0.00000,274640135.82653,   0.00000,   0.00000,   0.00000,-45491703.08761,   0.00000
19044671.38905,205831555.19058,219802165.85130,  -0.00031,   0.00090,   0.00286,428658734.46036,   0.00000,274640135.82653,   0.00000,   0.00000,   0.00000,-45981401.36617,   0.00000
17996423.75862,204982113.14523,219598841.95747,  -0.00032,   0.00090,   0.00285,428162991.36388,   0.00000,274640135.82653,   0.00000,   0.00000,   0.00000,-46477144.46265,   0.00000
16948176.12819,204132671.09988,219390999.75488,  -0.00032,   0.00090,   0.00285,427662184.37157,   0.00000,274640135.82653,   0.00000,   0.00000,   0.00000,-46977951.45496,   0.00000
15908965.11527,203274192.43703,219174120.93479,  -0.00032,   0.00089,   0.00285,427143414.21619,   0.00000,274640135.82653,   0.00000,   0.00000,   0.00000,-47496721.61033,   0.00000
14892345.64610,202438305.31794,218957242.11470,  -0.00033,   0.00089,   0.00285,426632265.33804,   0.00000,274640135.82653,   0.00000,   0.00000,   0.00000,-48007870.48849,   0.00000
13891540.25757,201609195.66197,218726808.36836,  -0.00033,   0.00089,   0.00284,426101901.55101,   0.00000,274640135.82653,   0.00000,   0.00000,   0.00000,-48538234.27552,   0.00000
12906548.94966,200786863.46913,218491856.31326,  -0.00033,   0.00089,   0.00284,425566154.54168,   0.00000,274640135.82653,   0.00000,   0.00000,   0.00000,-49073981.28485,   0.00000
11921557.64176,199964531.27630,218252385.94942,  -0.00034,   0.00089,   0.00284,425025129.30070,   0.00000,274640135.82653,   0.00000,   0.00000,   0.00000,-49615006.52583,   0.00000
10952380.41449,199148976.54659,218008397.27682,  -0.00034,   0.00088,   0.00283,424478619.00880,   0.00000,274640135.82653,   0.00000,   0.00000,   0.00000,-50161516.81773,   0.00000
9999017.26785,198340199.28001,217750853.67796,  -0.00034,   0.00088,   0.00283,423912621.59989,   0.00000,274640135.82653,   0.00000,   0.00000,   0.00000,-50727514.22664,   0.00000
9061468.20184,197538199.47655,217493310.07910,  -0.00034,   0.00088,   0.00283,423347946.88613,   0.00000,274640135.82653,   0.00000,   0.00000,   0.00000,-51292188.94040,   0.00000
8146510.67959,196758791.21686,217226729.86274,  -0.00035,   0.00088,   0.00282,422776355.13828,   0.00000,274640135.82653,   0.00000,   0.00000,   0.00000,-51863780.68825,   0.00000
7240589.77484,195970346.33966,216951113.02888,  -0.00035,   0.00088,   0.00282,422186236.43163,   0.00000,274640135.82653,   0.00000,   0.00000,   0.00000,-52453899.39490,   0.00000
6334668.87010,195181901.46246,216670977.88627,  -0.00035,   0.00088,   0.00282,421590592.81200,   0.00000,274640135.82653,   0.00000,   0.00000,   0.00000,-53049543.01453,   0.00000
5451339.50911,194416048.12902,216386324.43490,  -0.00035,   0.00087,   0.00281,420994789.98619,   0.00000,274640135.82653,   0.00000,   0.00000,   0.00000,-53645345.84034,   0.00000
4599638.30938,193663749.72184,216092634.36603,  -0.00036,   0.00087,   0.00281,420385657.82897,   0.00000,274640135.82653,   0.00000,   0.00000,   0.00000,-54254477.99756,   0.00000
3741159.64653,192895637.23403,215794425.98841,  -0.00036,   0.00087,   0.00281,419765139.84419,   0.00000,274640135.82653,   0.00000,   0.00000,   0.00000,-54874995.98234,   0.00000
2905272.52744,192150116.28997,215487180.99328,  -0.00036,   0.00087,   0.00280,419137250.62562,   0.00000,274640135.82653,   0.00000,   0.00000,   0.00000,-55502885.20091,   0.00000
2085199.48898,191411372.80904,215175417.68940,  -0.00036,   0.00087,   0.00280,418503180.31553,   0.00000,274640135.82653,   0.00000,   0.00000,   0.00000,-56136955.51100,   0.00000
1280940.53115,190679406.79124,214854617.76802,  -0.00037,   0.00087,   0.00279,417855894.21596,   0.00000,274640135.82653,   0.00000,   0.00000,   0.00000,-56784241.61057,   0.00000
476681.57332,189947440.77344,214529299.53789,  -0.00037,   0.00086,   0.00279,417202797.35093,   0.00000,274640135.82653,   0.00000,   0.00000,   0.00000,-57437338.47560,   0.00000
-289171.76012,189244843.76253,214194944.69025,  -0.00037,   0.00086,   0.00278,416541524.66250,   0.00000,274640135.82653,   0.00000,   0.00000,   0.00000,-58098611.16403,   0.00000
-1061802.55669,188526432.67099,213856071.53386,  -0.00037,   0.00086,   0.00278,415868704.14137,   0.00000,274640135.82653,   0.00000,   0.00000,   0.00000,-58771431.68516,   0.00000
-1802805.19199,187821576.50570,213508161.75997,  -0.00037,   0.00086,   0.00278,415181894.87898,   0.00000,274640135.82653,   0.00000,   0.00000,   0.00000,-59458240.94754,   0.00000
-2537030.36416,187132534.42104,213155733.67733,  -0.00038,   0.00086,   0.00277,414494732.51468,   0.00000,274640135.82653,   0.00000,   0.00000,   0.00000,-60145403.31185,   0.00000
-3239627.37508,186457047.26264,212794268.97718,  -0.00038,   0.00085,   0.00277,413793402.24636,   0.00000,274640135.82653,   0.00000,   0.00000,   0.00000,-60846733.58017,   0.00000
-3942224.38599,185781560.10424,212428285.96828,  -0.00038,   0.00085,   0.00276,413086010.22408,   0.00000,274640135.82653,   0.00000,   0.00000,   0.00000,-61554125.60245,   0.00000
-4629007.31627,185112850.40896,212053266.34188,  -0.00038,   0.00085,   0.00276,412364944.11252,   0.00000,274640135.82653,   0.00000,   0.00000,   0.00000,-62275191.71401,   0.00000
-5299976.16592,184450918.17682,211669210.09797,  -0.00038,   0.00085,   0.00275,411630149.45973,   0.00000,274640135.82653,   0.00000,   0.00000,   0.00000,-63009986.36680,   0.00000
-5955130.93494,183795763.40780,211285153.85406,  -0.00039,   0.00085,   0.00275,410895513.22069,   0.00000,274640135.82653,   0.00000,   0.00000,   0.00000,-63744622.60584,   0.00000
-6587694.16020,183163200.18254,210887542.68390,  -0.00039,   0.00085,   0.00274,410145639.66647,   0.00000,274640135.82653,   0.00000,   0.00000,   0.00000,-64494496.16005,   0.00000
-7195406.68732,182528377.80290,210485413.20498,  -0.00039,   0.00084,   0.00274,409382554.59563,   0.00000,274640135.82653,   0.00000,   0.00000,   0.00000,-65257581.23090,   0.00000
-7796341.75132,181909369.50390,210078765.41732,  -0.00039,   0.00084,   0.00273,408618761.57149,   0.00000,274640135.82653,   0.00000,   0.00000,   0.00000,-66021374.25504,   0.00000
-8381462.73468,181297138.66803,209663081.01215,  -0.00039,   0.00084,   0.00273,407840972.97471,   0.00000,274640135.82653,   0.00000,   0.00000,   0.00000,-66799162.85182,   0.00000
-8950769.63742,180691685.29528,209238359.98947,  -0.00039,   0.00084,   0.00272,407049143.14573,   0.00000,274640135.82653,   0.00000,   0.00000,   0.00000,-67590992.68080,   0.00000
-9504262.45952,180093009.38566,208809120.65805,  -0.00039,   0.00084,   0.00271,406250194.92028,   0.00000,274640135.82653,   0.00000,   0.00000,   0.00000,-68389940.90625,   0.00000
-10041941.20099,179501110.93916,208375363.01787,  -0.00040,   0.00084,   0.00271,405444083.38454,   0.00000,274640135.82653,   0.00000,   0.00000,   0.00000,-69196052.44199,   0.00000
-10557028.39870,178931804.03643,207932568.76019,  -0.00040,   0.00083,   0.00270,404629322.88036,   0.00000,274640135.82653,   0.00000,   0.00000,   0.00000,-70010812.94617,   0.00000
-11063078.97891,178353460.51619,207480737.88500,  -0.00040,   0.00083,   0.00270,403794820.16782,   0.00000,274640135.82653,   0.00000,   0.00000,   0.00000,-70845315.65871,   0.00000
-11546538.01536,177797708.53972,207024388.70107,  -0.00040,   0.00083,   0.00269,402958544.08855,   0.00000,274640135.82653,   0.00000,   0.00000,   0.00000,-71681591.73798,   0.00000
-12014182.97117,177248734.02637,206559002.89962,  -0.00040,   0.00083,   0.00269,402107968.16909,   0.00000,274640135.82653,   0.00000,   0.00000,   0.00000,-72532167.65744,   0.00000
-12466013.84636,176706536.97614,206084580.48068,  -0.00040,   0.00083,   0.00268,401243056.99127,   0.00000,274640135.82653,   0.00000,   0.00000,   0.00000,-73397078.83526,   0.00000
-12895253.17778,176186931.46968,205610158.06174,  -0.00040,   0.00083,   0.00267,400383202.39198,   0.00000,274640135.82653,   0.00000,   0.00000,   0.00000,-74256933.43455,   0.00000
-13315455.89171,175658289.34571,205122180.71654,  -0.00040,   0.00083,   0.00267,399496474.64150,   0.00000,274640135.82653,   0.00000,   0.00000,   0.00000,-75143661.18503,   0.00000
-13713067.06187,175152238.76551,204629685.06258,  -0.00040,   0.00082,   0.00266,398607768.83483,   0.00000,274640135.82653,   0.00000,   0.00000,   0.00000,-76032366.99170,   0.00000
-14079050.07077,174659743.11156,204128152.79113,  -0.00040,   0.00082,   0.00265,397703654.83493,   0.00000,274640135.82653,   0.00000,   0.00000,   0.00000,-76936480.99160,   0.00000
-14445033.07967,174167247.45760,203622102.21092,  -0.00041,   0.00082,   0.00265,396792921.11243,   0.00000,274640135.82653,   0.00000,   0.00000,   0.00000,-77847214.71410,   0.00000
-14795202.00794,173681529.26678,203107015.01321,  -0.00041,   0.00082,   0.00264,395867659.15414,   0.00000,274640135.82653,   0.00000,   0.00000,   0.00000,-78772476.67239,   0.00000
-15106965.31181,173225180.08284,202587409.50675,  -0.00041,   0.00082,   0.00263,394939318.97733,   0.00000,274640135.82653,   0.00000,   0.00000,   0.00000,-79700816.84920,   0.00000
-15425506.07882,172753016.81827,202058767.38278,  -0.00041,   0.00082,   0.00263,393991865.64879,   0.00000,274640135.82653,   0.00000,   0.00000,   0.00000,-80648270.17774,   0.00000
-15705641.22143,172310222.56059,201525606.95006,  -0.00041,   0.00081,   0.00262,393041261.53516,   0.00000,274640135.82653,   0.00000,   0.00000,   0.00000,-81598874.29137,   0.00000
-15985776.36405,171867428.30291,200983409.89984,  -0.00041,   0.00081,   0.00261,392077014.62268,   0.00000,274640135.82653,   0.00000,   0.00000,   0.00000,-82563121.20385,   0.00000
-16227505.88227,171454003.05212,200432176.23211,  -0.00041,   0.00081,   0.00261,391102607.71343,   0.00000,274640135.82653,   0.00000,   0.00000,   0.00000,-83537528.11310,   0.00000
-16460198.78299,171031541.18382,199876424.25564,  -0.00041,   0.00081,   0.00260,390114975.75637,   0.00000,274640135.82653,   0.00000,   0.00000,   0.00000,-84525160.07016,   0.00000
-16670300.13995,170631670.85928,199311635.66166,  -0.00041,   0.00081,   0.00259,389118145.94537,   0.00000,274640135.82653,   0.00000,   0.00000,   0.00000,-85521989.88116,   0.00000
-16864587.41628,170238577.99787,198737810.45017,  -0.00041,   0.00081,   0.00258,388106612.97549,   0.00000,274640135.82653,   0.00000,   0.00000,   0.00000,-86533522.85103,   0.00000
-17043060.61198,169852262.59959,198159466.92993,  -0.00041,   0.00081,   0.00258,387087305.95778,   0.00000,274640135.82653,   0.00000,   0.00000,   0.00000,-87552829.86874,   0.00000
-17205719.72705,169472724.66443,197576605.10094,  -0.00041,   0.00080,   0.00257,386060210.39225,   0.00000,274640135.82653,   0.00000,   0.00000,   0.00000,-88579925.43428,   0.00000
-17336750.68085,169106741.65553,196980188.34570,  -0.00041,   0.00080,   0.00256,385010387.15621,   0.00000,274640135.82653,   0.00000,   0.00000,   0.00000,-89629748.67032,   0.00000
-17461004.17153,168756572.72726,196383771.59046,  -0.00041,   0.00080,   0.00255,383966253.67078,   0.00000,274640135.82653,   0.00000,   0.00000,   0.00000,-90673882.15575,   0.00000
-17553629.50094,168419958.72525,195773799.90896,  -0.00041,   0.00080,   0.00255,382899381.24013,   0.00000,274640135.82653,   0.00000,   0.00000,   0.00000,-91740754.58640,   0.00000
-17646254.83035,168083344.72324,195159309.91870,  -0.00041,   0.00080,   0.00254,381825760.47256,   0.00000,274640135.82653,   0.00000,   0.00000,   0.00000,-92814375.35397,   0.00000
-17700474.53538,167776099.72811,194540301.61970,  -0.00041,   0.00080,   0.00253,380748775.28692,   0.00000,274640135.82653,   0.00000,   0.00000,   0.00000,-93891360.53961,   0.00000
-17745657.62290,167459818.11548,193907738.39444,  -0.00041,   0.00080,   0.00252,379644592.57752,   0.00000,274640135.82653,   0.00000,   0.00000,   0.00000,-94995543.24901,   0.00000
-17768249.16665,167166128.04661,193270656.86043,  -0.00041,   0.00080,   0.00251,378538128.68678,   0.00000,274640135.82653,   0.00000,   0.00000,   0.00000,-96102007.13975,   0.00000
-17775026.62978,166879215.44087,192629057.01767,  -0.00041,   0.00079,   0.00250,377423856.47812,   0.00000,274640135.82653,   0.00000,   0.00000,   0.00000,-97216279.34841,   0.00000
-17743398.46852,166621671.84201,191978420.55740,  -0.00041,   0.00079,   0.00250,376299330.73654,   0.00000,274640135.82653,   0.00000,   0.00000,   0.00000,-98340805.08999,   0.00000
-17718547.77038,166348314.16253,191318747.47963,  -0.00040,   0.00079,   0.00249,375155632.40120,   0.00000,274640135.82653,   0.00000,   0.00000,   0.00000,-99484503.42533,   0.00000
-17655291.44786,166104325.48993,190654556.09311,  -0.00040,   0.00079,   0.00248,374008630.67184,   0.00000,274640135.82653,   0.00000,   0.00000,   0.00000,-100631505.15469,   0.00000
-17576221.04470,165867114.28045,189981328.08908,  -0.00040,   0.00079,   0.00247,372846959.59341,   0.00000,274640135.82653,   0.00000,   0.00000,   0.00000,-101793176.23312,   0.00000
-17481336.56091,165636680.53411,189303581.77631,  -0.00040,   0.00079,   0.00246,371677542.83193,   0.00000,274640135.82653,   0.00000,   0.00000,   0.00000,-102962592.99460,   0.00000
-17363860.53336,165428838.33152,188612280.53727,  -0.00040,   0.00079,   0.00245,370492192.34653,   0.00000,274640135.82653,   0.00000,   0.00000,   0.00000,-104147943.48000,   0.00000
-17230570.42518,165227773.59207,187920979.29824,  -0.00040,   0.00079,   0.00244,369306054.50449,   0.00000,274640135.82653,   0.00000,   0.00000,   0.00000,-105334081.32204,   0.00000
-17065652.15574,165040263.77886,187216123.13295,  -0.00040,   0.00078,   0.00243,368097371.85674,   0.00000,274640135.82653,   0.00000,   0.00000,   0.00000,-106542763.96979,   0.00000
-16900733.88630,164852753.96566,186506748.65891,  -0.00040,   0.00078,   0.00242,366882133.26232,   0.00000,274640135.82653,   0.00000,   0.00000,   0.00000,-107758002.56421,   0.00000
-16697409.99247,164694613.15935,185792855.87612,  -0.00040,   0.00078,   0.00242,365663846.26792,   0.00000,274640135.82653,   0.00000,   0.00000,   0.00000,-108976289.55861,   0.00000
-16485049.48113,164527435.73553,185069926.47582,  -0.00040,   0.00078,   0.00241,364425451.83138,   0.00000,274640135.82653,   0.00000,   0.00000,   0.00000,-110214683.99515,   0.00000
-16250097.42603,164382849.85547,184337960.45802,  -0.00039,   0.00078,   0.00240,363178296.86774,   0.00000,274640135.82653,   0.00000,   0.00000,   0.00000,-111461838.95879,   0.00000
-15976739.74655,164267632.98230,183596957.82272,  -0.00039,   0.00078,   0.00239,361921402.30269,   0.00000,274640135.82653,   0.00000,   0.00000,   0.00000,-112718733.52384,   0.00000
-15710159.53019,164136602.02849,182851436.87866,  -0.00039,   0.00078,   0.00238,360652449.52212,   0.00000,274640135.82653,   0.00000,   0.00000,   0.00000,-113987686.30440,   0.00000
-15405173.68944,164034940.08158,182096879.31710,  -0.00039,   0.00078,   0.00237,359373883.38351,   0.00000,274640135.82653,   0.00000,   0.00000,   0.00000,-115266252.44302,   0.00000
-15084373.76805,163940055.59779,181337803.44679,  -0.00039,   0.00078,   0.00236,358087992.13642,   0.00000,274640135.82653,   0.00000,   0.00000,   0.00000,-116552143.69011,   0.00000
-14740982.30291,163867762.65776,180569690.95898,  -0.00039,   0.00077,   0.00235,356793710.51930,   0.00000,274640135.82653,   0.00000,   0.00000,   0.00000,-117846425.30723,   0.00000
-14372740.13964,163793210.56335,179797060.16241,  -0.00038,   0.00077,   0.00234,355485438.89585,   0.00000,274640135.82653,   0.00000,   0.00000,   0.00000,-119154696.93068,   0.00000
-13981906.43260,163741250.01271,179010874.43959,  -0.00038,   0.00077,   0.00233,354162088.60200,   0.00000,274640135.82653,   0.00000,   0.00000,   0.00000,-120478047.22453,   0.00000
-13591072.72557,163689289.46206,178224688.71677,  -0.00038,   0.00077,   0.00232,352839528.37581,   0.00000,274640135.82653,   0.00000,   0.00000,   0.00000,-121800607.45072,   0.00000
-13161833.39414,163666697.91830,177424948.06769,  -0.00038,   0.00077,   0.00231,351501084.30332,   0.00000,274640135.82653,   0.00000,   0.00000,   0.00000,-123139051.52321,   0.00000
-12707743.36458,163641847.22017,176620689.10986,  -0.00038,   0.00077,   0.00230,350148915.41479,   0.00000,274640135.82653,   0.00000,   0.00000,   0.00000,-124491220.41174,   0.00000
-12246875.87189,163632810.60266,175811911.84328,  -0.00037,   0.00077,   0.00229,348796729.38881,   0.00000,274640135.82653,   0.00000,   0.00000,   0.00000,-125843406.43771,   0.00000
-11747602.75481,163653142.99205,174989579.65044,  -0.00037,   0.00077,   0.00227,347429055.28154,   0.00000,274640135.82653,   0.00000,   0.00000,   0.00000,-127211080.54499,   0.00000
-11239293.02023,163664438.76393,174162729.14885,  -0.00037,   0.00077,   0.00226,346048857.07295,   0.00000,274640135.82653,   0.00000,   0.00000,   0.00000,-128591278.75358,   0.00000
-10708391.74189,163698326.07957,173331360.33851,  -0.00037,   0.00077,   0.00225,344668012.51131,   0.00000,274640135.82653,   0.00000,   0.00000,   0.00000,-129972123.31522,   0.00000
-10145862.30228,163745768.32146,172490954.91067,  -0.00037,   0.00076,   0.00224,343272990.14195,   0.00000,274640135.82653,   0.00000,   0.00000,   0.00000,-131367145.68458,   0.00000
-9583332.86268,163793210.56335,171641512.86532,  -0.00036,   0.00076,   0.00223,341865715.98944,   0.00000,274640135.82653,   0.00000,   0.00000,   0.00000,-132774419.83709,   0.00000
-8982397.79868,163870021.81214,170783034.20247,  -0.00036,   0.00076,   0.00222,340450506.76467,   0.00000,274640135.82653,   0.00000,   0.00000,   0.00000,-134189629.06186,   0.00000
-8365648.65405,163953610.52404,169920037.23086,  -0.00036,   0.00076,   0.00221,339029211.04249,   0.00000,274640135.82653,   0.00000,   0.00000,   0.00000,-135610924.78404,   0.00000
-7717271.34816,164050754.16221,169052521.95051,  -0.00036,   0.00076,   0.00220,337601089.95155,   0.00000,274640135.82653,   0.00000,   0.00000,   0.00000,-137039045.87498,   0.00000
-7046302.49851,164170489.34413,168175970.05265,  -0.00035,   0.00076,   0.00219,336166425.43402,   0.00000,274640135.82653,   0.00000,   0.00000,   0.00000,-138473710.39251,   0.00000
-6375333.64886,164290224.52606,167290381.53729,  -0.00035,   0.00076,   0.00217,334720096.52130,   0.00000,274640135.82653,   0.00000,   0.00000,   0.00000,-139920039.30523,   0.00000
-5656922.55732,164430292.09736,166395756.40442,  -0.00035,   0.00076,   0.00216,333259860.18228,   0.00000,274640135.82653,   0.00000,   0.00000,   0.00000,-141380275.64425,   0.00000
-4938511.46577,164570359.66867,165496612.96280,  -0.00034,   0.00076,   0.00215,331794984.12665,   0.00000,274640135.82653,   0.00000,   0.00000,   0.00000,-142845151.69988,   0.00000
-4181694.74984,164739796.24687,164592951.21243,  -0.00034,   0.00076,   0.00214,330330285.23880,   0.00000,274640135.82653,   0.00000,   0.00000,   0.00000,-144309850.58773,   0.00000
-3409063.95327,164916010.28819,163675734.53581,  -0.00034,   0.00076,   0.00213,328847015.52532,   0.00000,274640135.82653,   0.00000,   0.00000,   0.00000,-145793120.30121,   0.00000
-2620619.07607,165099001.79264,162753999.55043,  -0.00033,   0.00076,   0.00212,327358828.71826,   0.00000,274640135.82653,   0.00000,   0.00000,   0.00000,-147281307.10827,   0.00000
-1809582.65512,165304584.84085,161827746.25630,  -0.00033,   0.00076,   0.00210,325872169.78980,   0.00000,274640135.82653,   0.00000,   0.00000,   0.00000,-148767966.03673,   0.00000
-973695.53602,165507908.73468,160892456.34467,  -0.00033,   0.00075,   0.00209,324367257.55615,   0.00000,274640135.82653,   0.00000,   0.00000,   0.00000,-150272878.27038,   0.00000
-108439.41004,165749638.25291,159948129.81553,  -0.00032,   0.00075,   0.00208,322863966.44333,   0.00000,274640135.82653,   0.00000,   0.00000,   0.00000,-151776169.38320,   0.00000
765853.33344,165982331.15363,158999284.97764,  -0.00032,   0.00075,   0.00207,321350152.53632,   0.00000,274640135.82653,   0.00000,   0.00000,   0.00000,-153289983.29021,   0.00000
1678551.70131,166244393.06123,158041403.52225,  -0.00032,   0.00075,   0.00205,319831551.96627,   0.00000,274640135.82653,   0.00000,   0.00000,   0.00000,-154808583.86026,   0.00000
2591250.06919,166506454.96884,157074485.44935,  -0.00031,   0.00075,   0.00204,318303057.16061,   0.00000,274640135.82653,   0.00000,   0.00000,   0.00000,-156337078.66592,   0.00000
3551390.67895,166788849.26583,156103049.06770,  -0.00031,   0.00075,   0.00203,316770083.87037,   0.00000,274640135.82653,   0.00000,   0.00000,   0.00000,-157870051.95616,   0.00000
4518308.75185,167087057.64345,155122576.06855,  -0.00031,   0.00075,   0.00202,315234182.55241,   0.00000,274640135.82653,   0.00000,   0.00000,   0.00000,-159405953.27412,   0.00000
5501040.90538,167392043.48420,154137584.76065,  -0.00030,   0.00075,   0.00200,313695253.87222,   0.00000,274640135.82653,   0.00000,   0.00000,   0.00000,-160944881.95431,   0.00000
6515401.22017,167710584.25121,153143556.83524,  -0.00030,   0.00075,   0.00199,312146497.30234,   0.00000,274640135.82653,   0.00000,   0.00000,   0.00000,-162493638.52419,   0.00000
7561389.69622,168042679.94447,152145010.60108,  -0.00029,   0.00075,   0.00198,310594902.50294,   0.00000,274640135.82653,   0.00000,   0.00000,   0.00000,-164045233.32359,   0.00000
8614155.63540,168390589.71836,151137427.74942,  -0.00029,   0.00075,   0.00196,309041450.02858,   0.00000,274640135.82653,   0.00000,   0.00000,   0.00000,-165598685.79795,   0.00000
9698549.73585,168752054.41851,150120808.28025,  -0.00028,   0.00075,   0.00195,307479168.04361,   0.00000,274640135.82653,   0.00000,   0.00000,   0.00000,-167160967.78292,   0.00000
10805535.38005,169136110.66242,149099670.50233,  -0.00028,   0.00075,   0.00194,305922069.37187,   0.00000,274640135.82653,   0.00000,   0.00000,   0.00000,-168718066.45466,   0.00000
11928335.10489,169526944.36945,148069496.10691,  -0.00028,   0.00075,   0.00192,304357064.77086,   0.00000,274640135.82653,   0.00000,   0.00000,   0.00000,-170283071.05566,   0.00000
13082762.99098,169931333.00274,147030285.09399,  -0.00027,   0.00075,   0.00191,302784344.82913,   0.00000,274640135.82653,   0.00000,   0.00000,   0.00000,-171855790.99740,   0.00000
14237190.87708,170335721.63603,145986555.77231,  -0.00027,   0.00075,   0.00190,301211017.20556,   0.00000,274640135.82653,   0.00000,   0.00000,   0.00000,-173429118.62097,   0.00000
15445838.46820,170776256.73934,144938308.14188,  -0.00026,   0.00075,   0.00188,299644223.73404,   0.00000,274640135.82653,   0.00000,   0.00000,   0.00000,-174995912.09249,   0.00000
16647708.59620,171200977.76201,143881023.89395,  -0.00026,   0.00075,   0.00187,298063859.11297,   0.00000,274640135.82653,   0.00000,   0.00000,   0.00000,-176576276.71356,   0.00000
17894761.81171,171670881.87221,142814703.02851,  -0.00025,   0.00075,   0.00186,296491522.38358,   0.00000,274640135.82653,   0.00000,   0.00000,   0.00000,-178148613.44295,   0.00000
19150851.64472,172131749.36490,141743863.85432,  -0.00025,   0.00075,   0.00184,294912857.44057,   0.00000,274640135.82653,   0.00000,   0.00000,   0.00000,-179727278.38596,   0.00000
20429533.02149,172615208.40134,140663988.06263,  -0.00024,   0.00075,   0.00183,293335985.69544,   0.00000,274640135.82653,   0.00000,   0.00000,   0.00000,-181304150.13109,   0.00000
21724028.47890,173105444.90092,139579593.96218,  -0.00024,   0.00075,   0.00181,291760638.20324,   0.00000,274640135.82653,   0.00000,   0.00000,   0.00000,-182879497.62329,   0.00000
23056929.56070,173625050.40738,138486163.24424,  -0.00023,   0.00075,   0.00180,290188338.50251,   0.00000,274640135.82653,   0.00000,   0.00000,   0.00000,-184451797.32402,   0.00000
24398867.26000,174135619.29634,137388214.21754,  -0.00023,   0.00074,   0.00179,288611106.83495,   0.00000,274640135.82653,   0.00000,   0.00000,   0.00000,-186029028.99158,   0.00000
25785988.04681,174691371.27282,136281228.57333,  -0.00022,   0.00074,   0.00177,287045506.06058,   0.00000,274640135.82653,   0.00000,   0.00000,   0.00000,-187594629.76595,   0.00000
27166331.37050,175231309.16866,135165206.31163,  -0.00022,   0.00074,   0.00176,285468962.32958,   0.00000,274640135.82653,   0.00000,   0.00000,   0.00000,-189171173.49695,   0.00000
28585080.31859,175800616.07140,134044665.74117,  -0.00021,   0.00074,   0.00174,283904219.65591,   0.00000,274640135.82653,   0.00000,   0.00000,   0.00000,-190735916.17062,   0.00000
30035457.42793,176383477.90039,132915088.55320,  -0.00021,   0.00074,   0.00173,282338031.14882,   0.00000,274640135.82653,   0.00000,   0.00000,   0.00000,-192302104.67771,   0.00000
31485834.53727,176966339.72938,131780993.05649,  -0.00020,   0.00074,   0.00171,280776068.55856,   0.00000,274640135.82653,   0.00000,   0.00000,   0.00000,-193864067.26797,   0.00000
32967839.80788,177562756.48462,130642379.25102,  -0.00020,   0.00074,   0.00170,279220064.12414,   0.00000,274640135.82653,   0.00000,   0.00000,   0.00000,-195420071.70239,   0.00000
34472436.62225,178181764.78362,129494728.82805,  -0.00019,   0.00074,   0.00168,277671361.46367,   0.00000,274640135.82653,   0.00000,   0.00000,   0.00000,-196968774.36286,   0.00000
36015439.06101,178830142.08951,128338041.78758,  -0.00018,   0.00074,   0.00167,276131570.80535,   0.00000,274640135.82653,   0.00000,   0.00000,   0.00000,-198508565.02118,   0.00000
37551664.03663,179462705.31477,127176836.43835,  -0.00018,   0.00074,   0.00165,274590076.35589,   0.00000,274640135.82653,   0.00000,   0.00000,   0.00000,-200050059.47064,   0.00000
39126294.63665,180124637.54692,126006594.47162,  -0.00017,   0.00074,   0.00164,273058835.95744,   0.00000,274640135.82653,   0.00000,   0.00000,   0.00000,-201581299.86909,   0.00000
40732553.39794,180800124.70532,124831834.19614,  -0.00017,   0.00074,   0.00162,271536987.81599,   0.00000,274640135.82653,   0.00000,   0.00000,   0.00000,-203103148.01054,   0.00000
42338812.15922,181475611.86372,123648037.30316,  -0.00016,   0.00074,   0.00161,270016707.37374,   0.00000,274640135.82653,   0.00000,   0.00000,   0.00000,-204623428.45279,   0.00000
43983476.54489,182180468.02901,122459722.10142,  -0.00016,   0.00074,   0.00159,268515342.96800,   0.00000,274640135.82653,   0.00000,   0.00000,   0.00000,-206124792.85853,   0.00000
45643955.01120,182892101.65743,121262370.28218,  -0.00015,   0.00074,   0.00158,267018089.19460,   0.00000,274640135.82653,   0.00000,   0.00000,   0.00000,-207622046.63193,   0.00000
47320247.55814,183610512.74897,120060500.15419,  -0.00014,   0.00074,   0.00156,265531735.19406,   0.00000,274640135.82653,   0.00000,   0.00000,   0.00000,-209108400.63247,   0.00000
49034945.72946,184358292.84740,118849593.40869,  -0.00014,   0.00074,   0.00155,264060759.52323,   0.00000,274640135.82653,   0.00000,   0.00000,   0.00000,-210579376.30330,   0.00000
50765457.98142,185112850.40896,117634168.35444,  -0.00013,   0.00074,   0.00153,262602271.83835,   0.00000,274640135.82653,   0.00000,   0.00000,   0.00000,-212037863.98818,   0.00000
52511784.31401,185874185.43365,116414224.99144,  -0.00012,   0.00074,   0.00151,261156907.83225,   0.00000,274640135.82653,   0.00000,   0.00000,   0.00000,-213483227.99427,   0.00000
54289738.80787,186649075.38459,115185245.01094,  -0.00012,   0.00074,   0.00150,259721091.81790,   0.00000,274640135.82653,   0.00000,   0.00000,   0.00000,-214919044.00863,   0.00000
56074470.76485,187439779.41617,113947228.41293,  -0.00011,   0.00074,   0.00148,258300877.53832,   0.00000,274640135.82653,   0.00000,   0.00000,   0.00000,-216339258.28821,   0.00000
57890830.88309,188244038.37400,112704693.50617,  -0.00010,   0.00074,   0.00147,256898046.52505,   0.00000,274640135.82653,   0.00000,   0.00000,   0.00000,-217742089.30148,   0.00000
59745596.62573,189077666.33871,111457640.29066,  -0.00010,   0.00074,   0.00145,255522521.46873,   0.00000,274640135.82653,   0.00000,   0.00000,   0.00000,-219117614.35780,   0.00000
61593584.90523,189895480.22280,110201550.45765,  -0.00009,   0.00074,   0.00143,254147329.11465,   0.00000,274640135.82653,   0.00000,   0.00000,   0.00000,-220492806.71188,   0.00000
63479978.80913,190742663.11377,108940942.31588,  -0.00008,   0.00074,   0.00142,252801340.51642,   0.00000,274640135.82653,   0.00000,   0.00000,   0.00000,-221838795.31011,   0.00000
65382186.79366,191596623.46787,107671297.55661,  -0.00008,   0.00074,   0.00140,251468517.31812,   0.00000,274640135.82653,   0.00000,   0.00000,   0.00000,-223171618.50841,   0.00000
67306986.32195,192473175.36573,106397134.48859,  -0.00007,   0.00074,   0.00138,250164775.58516,   0.00000,274640135.82653,   0.00000,   0.00000,   0.00000,-224475360.24137,   0.00000
69263414.01150,193363282.18984,105113934.80306,  -0.00006,   0.00074,   0.00137,248878677.71299,   0.00000,274640135.82653,   0.00000,   0.00000,   0.00000,-225761458.11354,   0.00000
71235655.78168,194260166.47709,103826216.80879,  -0.00005,   0.00074,   0.00135,247614479.53133,   0.00000,274640135.82653,   0.00000,   0.00000,   0.00000,-227025656.29520,   0.00000
73223711.63250,195163828.22746,102533980.50576,  -0.00005,   0.00075,   0.00133,246373016.76417,   0.00000,274640135.82653,   0.00000,   0.00000,   0.00000,-228267119.06236,   0.00000
75234359.02707,196090081.52159,101232707.58522,  -0.00004,   0.00075,   0.00132,245159133.03326,   0.00000,274640135.82653,   0.00000,   0.00000,   0.00000,-229481002.79327,   0.00000
77276634.58291,197029889.74197,99926916.35594,  -0.00003,   0.00075,   0.00130,243972979.54879,   0.00000,274640135.82653,   0.00000,   0.00000,   0.00000,-230667156.27774,   0.00000
79334724.21938,197976475.42548,98616606.81790,  -0.00003,   0.00075,   0.00128,242812643.06021,   0.00000,274640135.82653,   0.00000,   0.00000,   0.00000,-231827492.76632,   0.00000
81415405.39960,198945652.65276,97297260.66236,  -0.00002,   0.00075,   0.00126,241683410.22875,   0.00000,274640135.82653,   0.00000,   0.00000,   0.00000,-232956725.59778,   0.00000
83511900.66046,199921607.34316,95968877.88932,  -0.00001,   0.00075,   0.00125,240576660.94673,   0.00000,274640135.82653,   0.00000,   0.00000,   0.00000,-234063474.87980,   0.00000
85640024.08259,200911116.95981,94640495.11627,  -0.00000,   0.00075,   0.00123,239507677.73825,   0.00000,274640135.82653,   0.00000,   0.00000,   0.00000,-235132458.08828,   0.00000
87783961.58534,201907404.03959,93303075.72573,   0.00001,   0.00075,   0.00121,238463380.28565,   0.00000,274640135.82653,   0.00000,   0.00000,   0.00000,-236176755.54088,   0.00000
89950490.63185,202926282.66314,91956619.71767,   0.00001,   0.00075,   0.00120,237455065.22802,   0.00000,274640135.82653,   0.00000,   0.00000,   0.00000,-237185070.59850,   0.00000
92132833.75900,203951938.74981,90605645.40087,   0.00002,   0.00075,   0.00118,236479029.18469,   0.00000,274640135.82653,   0.00000,   0.00000,   0.00000,-238161106.64184,   0.00000
94346805.04740,204991149.76273,89250152.77531,   0.00003,   0.00075,   0.00116,235540230.89876,   0.00000,274640135.82653,   0.00000,   0.00000,   0.00000,-239099904.92777,   0.00000
96576590.41644,206037138.23879,87890141.84101,   0.00004,   0.00075,   0.00114,234635902.91839,   0.00000,274640135.82653,   0.00000,   0.00000,   0.00000,-240004232.90814,   0.00000
98828967.32924,207105718.25860,86521094.28920,   0.00005,   0.00075,   0.00112,233772535.44054,   0.00000,274640135.82653,   0.00000,   0.00000,   0.00000,-240867600.38599,   0.00000
101097158.32267,208181075.74154,85147528.42863,   0.00005,   0.00075,   0.00111,232945884.99545,   0.00000,274640135.82653,   0.00000,   0.00000,   0.00000,-241694250.83108,   0.00000
103381163.39673,209263210.68761,83769444.25932,   0.00006,   0.00075,   0.00109,232156932.89254,   0.00000,274640135.82653,   0.00000,   0.00000,   0.00000,-242483202.93399,   0.00000
105703574.09518,210374714.64056,82382323.47250,   0.00007,   0.00075,   0.00107,231417260.72619,   0.00000,274640135.82653,   0.00000,   0.00000,   0.00000,-243222875.10033,   0.00000
108041798.87426,211492996.05665,80990684.37693,   0.00008,   0.00075,   0.00105,230717807.74198,   0.00000,274640135.82653,   0.00000,   0.00000,   0.00000,-243922328.08455,   0.00000
110395837.73398,212618054.93586,79594526.97261,   0.00009,   0.00075,   0.00103,230059549.14687,   0.00000,274640135.82653,   0.00000,   0.00000,   0.00000,-244580586.67966,   0.00000
112765690.67432,213749891.27820,78189332.95078,   0.00010,   0.00075,   0.00102,229438833.36309,   0.00000,274640135.82653,   0.00000,   0.00000,   0.00000,-245201302.46344,   0.00000
115173949.23906,214911096.62742,76779620.62021,   0.00010,   0.00075,   0.00100,228877671.97958,   0.00000,274640135.82653,   0.00000,   0.00000,   0.00000,-245762463.84695,   0.00000
117582207.80380,216072301.97665,75365389.98088,   0.00011,   0.00075,   0.00098,228355825.37511,   0.00000,274640135.82653,   0.00000,   0.00000,   0.00000,-246284310.45142,   0.00000
120022094.52980,217247062.25213,73946641.03279,   0.00012,   0.00075,   0.00096,227884749.27176,   0.00000,274640135.82653,   0.00000,   0.00000,   0.00000,-246755386.55477,   0.00000
122477795.33643,218428599.99074,72518855.46721,   0.00013,   0.00076,   0.00094,227455849.50473,   0.00000,274640135.82653,   0.00000,   0.00000,   0.00000,-247184286.32180,   0.00000
124956087.68682,219632729.27311,71091069.90163,   0.00014,   0.00076,   0.00092,227090144.43449,   0.00000,274640135.82653,   0.00000,   0.00000,   0.00000,-247549991.39204,   0.00000
127466008.19847,220850413.48173,69649729.40978,   0.00015,   0.00076,   0.00091,226770417.35238,   0.00000,274640135.82653,   0.00000,   0.00000,   0.00000,-247869718.47415,   0.00000
129975928.71012,222068097.69035,68208388.91794,   0.00016,   0.00076,   0.00089,226498626.43738,   0.00000,274640135.82653,   0.00000,   0.00000,   0.00000,-248141509.38914,   0.00000
132517477.38304,223299336.82523,66762530.11735,   0.00017,   0.00076,   0.00087,226283267.39770,   0.00000,274640135.82653,   0.00000,   0.00000,   0.00000,-248356868.42883,   0.00000
135081617.59972,224553167.50387,65307634.69926,   0.00018,   0.00076,   0.00085,226127010.31909,   0.00000,274640135.82653,   0.00000,   0.00000,   0.00000,-248513125.50744,   0.00000
137661571.89702,225813775.64564,63848220.97241,   0.00019,   0.00076,   0.00083,226023176.46901,   0.00000,274640135.82653,   0.00000,   0.00000,   0.00000,-248616959.35752,   0.00000
140257340.27496,227081161.25053,62384288.93681,   0.00020,   0.00076,   0.00081,225972507.42248,   0.00000,274640135.82653,   0.00000,   0.00000,   0.00000,-248667628.40405,   0.00000
142884736.81416,228362101.78168,60915838.59246,   0.00020,   0.00076,   0.00079,225982426.10314,   0.00000,274640135.82653,   0.00000,   0.00000,   0.00000,-248657709.72339,   0.00000
145518910.81649,229658856.39346,59438351.63060,   0.00021,   0.00076,   0.00077,226048645.24505,   0.00000,274640135.82653,   0.00000,   0.00000,   0.00000,-248591490.58148,   0.00000
148184712.98008,230969165.93150,57960864.66875,   0.00022,   0.00076,   0.00075,226180792.09058,   0.00000,274640135.82653,   0.00000,   0.00000,   0.00000,-248459343.73595,   0.00000
150866329.22431,232286252.93266,56474341.08939,   0.00023,   0.00076,   0.00073,226365703.87392,   0.00000,274640135.82653,   0.00000,   0.00000,   0.00000,-248274431.95261,   0.00000
153563759.54916,233610117.39696,54983299.20128,   0.00024,   0.00076,   0.00071,226607495.18510,   0.00000,274640135.82653,   0.00000,   0.00000,   0.00000,-248032640.64143,   0.00000
156283781.41778,234956573.40501,53487739.00441,   0.00025,   0.00076,   0.00070,226918762.18413,   0.00000,274640135.82653,   0.00000,   0.00000,   0.00000,-247721373.64240,   0.00000
159019617.36702,236309806.87619,51987660.49880,   0.00026,   0.00077,   0.00068,227287964.91742,   0.00000,274640135.82653,   0.00000,   0.00000,   0.00000,-247352170.90911,   0.00000
161771267.39690,237669817.81050,50478545.37568,   0.00027,   0.00077,   0.00066,227712512.24694,   0.00000,274640135.82653,   0.00000,   0.00000,   0.00000,-246927623.57959,   0.00000
164554545.58804,239043383.67106,48969430.25256,   0.00028,   0.00077,   0.00064,228206655.62721,   0.00000,274640135.82653,   0.00000,   0.00000,   0.00000,-246433480.19931,   0.00000
167337823.77918,240416949.53162,47451278.51194,   0.00029,   0.00077,   0.00062,228749380.87839,   0.00000,274640135.82653,   0.00000,   0.00000,   0.00000,-245890754.94814,   0.00000
170159507.59471,241819884.39907,45933126.77132,   0.00030,   0.00077,   0.00060,229374624.71832,   0.00000,274640135.82653,   0.00000,   0.00000,   0.00000,-245265511.10821,   0.00000
172997005.49087,243229596.72965,44405938.41319,   0.00031,   0.00077,   0.00058,230057103.45947,   0.00000,274640135.82653,   0.00000,   0.00000,   0.00000,-244583032.36705,   0.00000
175850317.46767,244646086.52335,42874231.74631,   0.00032,   0.00077,   0.00056,230799803.00214,   0.00000,274640135.82653,   0.00000,   0.00000,   0.00000,-243840332.82439,   0.00000
178719443.52509,246069353.78019,41338006.77069,   0.00033,   0.00077,   0.00054,231602851.44804,   0.00000,274640135.82653,   0.00000,   0.00000,   0.00000,-243037284.37849,   0.00000
181611161.12628,247515212.58078,39801781.79506,   0.00034,   0.00077,   0.00052,232480998.47840,   0.00000,274640135.82653,   0.00000,   0.00000,   0.00000,-242159137.34813,   0.00000
184518692.80809,248967848.84450,38256520.20192,   0.00035,   0.00077,   0.00050,233417222.47451,   0.00000,274640135.82653,   0.00000,   0.00000,   0.00000,-241222913.35202,   0.00000
187435261.10741,250411448.49072,36706740.30004,   0.00036,   0.00077,   0.00048,234401556.64979,   0.00000,274640135.82653,   0.00000,   0.00000,   0.00000,-240238579.17674,   0.00000
190381198.41362,251893453.76132,35152442.08940,   0.00038,   0.00077,   0.00046,235471054.93486,   0.00000,274640135.82653,   0.00000,   0.00000,   0.00000,-239169080.89167,   0.00000
193336172.33733,253366422.41443,33593625.57001,   0.00039,   0.00078,   0.00044,236588504.09422,   0.00000,274640135.82653,   0.00000,   0.00000,   0.00000,-238051631.73231,   0.00000
196329551.88543,254868760.07442,32030290.74187,   0.00040,   0.00078,   0.00042,237787566.80160,   0.00000,274640135.82653,   0.00000,   0.00000,   0.00000,-236852569.02493,   0.00000
199316153.97041,256355283.65378,30462437.60498,   0.00041,   0.00078,   0.00040,239025295.35054,   0.00000,274640135.82653,   0.00000,   0.00000,   0.00000,-235614840.47599,   0.00000
202325347.59914,257864398.77689,28890066.15934,   0.00042,   0.00078,   0.00038,240335178.63554,   0.00000,274640135.82653,   0.00000,   0.00000,   0.00000,-234304957.19099,   0.00000
205366169.38914,259387068.82627,27313176.40494,   0.00043,   0.00078,   0.00036,241713911.69295,   0.00000,274640135.82653,   0.00000,   0.00000,   0.00000,-232926224.13358,   0.00000
208413768.64226,260925552.95627,25731768.34179,   0.00044,   0.00078,   0.00033,243154965.04187,   0.00000,274640135.82653,   0.00000,   0.00000,   0.00000,-231485170.78466,   0.00000
211486218.59352,262461777.93190,24150360.27864,   0.00045,   0.00078,   0.00031,244653379.89649,   0.00000,274640135.82653,   0.00000,   0.00000,   0.00000,-229986755.93004,   0.00000
214565446.00790,264013816.98816,22559915.59799,   0.00046,   0.00078,   0.00029,246211764.87382,   0.00000,274640135.82653,   0.00000,   0.00000,   0.00000,-228428370.95271,   0.00000
217676301.58355,265579410.97068,20964952.60859,   0.00047,   0.00078,   0.00027,247837930.02572,   0.00000,274640135.82653,   0.00000,   0.00000,   0.00000,-226802205.80081,   0.00000
220787157.15920,267145004.95320,19369989.61919,   0.00048,   0.00078,   0.00025,249513177.48474,   0.00000,274640135.82653,   0.00000,   0.00000,   0.00000,-225126958.34179,   0.00000
223929640.89612,268724153.86197,17765990.01228,   0.00049,   0.00079,   0.00023,251254339.00655,   0.00000,274640135.82653,   0.00000,   0.00000,   0.00000,-223385796.81998,   0.00000
227078902.09616,270319116.85137,16161990.40537,   0.00051,   0.00079,   0.00021,253055555.64713,   0.00000,274640135.82653,   0.00000,   0.00000,   0.00000,-221584580.17940,   0.00000
230253013.99433,271911820.68640,14553472.48971,   0.00052,   0.00079,   0.00019,254910539.43151,   0.00000,274640135.82653,   0.00000,   0.00000,   0.00000,-219729596.39502,   0.00000
233433903.35563,273520338.60206,12935917.95655,   0.00053,   0.00079,   0.00017,256822616.79598,   0.00000,274640135.82653,   0.00000,   0.00000,   0.00000,-217817519.03055,   0.00000
236646420.87820,275142411.44397,11322881.73214,   0.00054,   0.00079,   0.00015,258801142.07981,   0.00000,274640135.82653,   0.00000,   0.00000,   0.00000,-215838993.74672,   0.00000
239858938.40077,276764484.28589,9700808.89022,   0.00055,   0.00079,   0.00013,260823257.75188,   0.00000,274640135.82653,   0.00000,   0.00000,   0.00000,-213816878.07465,   0.00000
243103084.08460,278400112.05406,8074217.73956,   0.00056,   0.00079,   0.00010,262909461.62060,   0.00000,274640135.82653,   0.00000,   0.00000,   0.00000,-211730674.20593,   0.00000
246354007.23155,280051553.90286,6447626.58889,   0.00057,   0.00079,   0.00008,265051057.06816,   0.00000,274640135.82653,   0.00000,   0.00000,   0.00000,-209589078.75837,   0.00000
249613966.99601,281693959.13416,4811998.82072,   0.00059,   0.00079,   0.00006,267232742.21514,   0.00000,274640135.82653,   0.00000,   0.00000,   0.00000,-207407393.61139,   0.00000
252896518.30423,283358955.90921,3176371.05255,   0.00060,   0.00080,   0.00004,269478610.43836,   0.00000,274640135.82653,   0.00000,   0.00000,   0.00000,-205161525.38817,   0.00000
256194883.69308,285030730.14740,1540743.28438,   0.00061,   0.00080,   0.00002,271775720.89760,   0.00000,274640135.82653,   0.00000,   0.00000,   0.00000,-202864414.92893,   0.00000
259509063.16257,286709281.84871,-103921.10129,   0.00062,   0.00080,  -0.00000,274123223.07300,   0.00000,274640135.82653,   0.00000,   0.00000,   0.00000,-200516912.75353,   0.00000
262839056.71268,288394611.01315,-1748585.48697,   0.00063,   0.00080,  -0.00002,276520571.61979,   0.00000,274640135.82653,   0.00000,   0.00000,   0.00000,-198119564.20674,   0.00000
266184864.34343,290086717.64072,-3402286.49014,   0.00065,   0.00080,  -0.00004,278967236.13026,   0.00000,274640135.82653,   0.00000,   0.00000,   0.00000,-195672899.69627,   0.00000
269537449.43730,291794638.34892,-5051469.18457,   0.00066,   0.00080,  -0.00007,281463171.76686,   0.00000,274640135.82653,   0.00000,   0.00000,   0.00000,-193176964.05967,   0.00000
272914885.22931,293500299.90274,-6709688.49650,   0.00067,   0.00080,  -0.00009,284006020.56851,   0.00000,274640135.82653,   0.00000,   0.00000,   0.00000,-190634115.25802,   0.00000
276299098.48445,295221775.53720,-8367907.80843,   0.00068,   0.00080,  -0.00011,286596656.96588,   0.00000,274640135.82653,   0.00000,   0.00000,   0.00000,-188043478.86065,   0.00000
279714939.90085,296956806.09791,-10030645.42911,   0.00069,   0.00081,  -0.00013,289244496.34168,   0.00000,274640135.82653,   0.00000,   0.00000,   0.00000,-185395639.48484,   0.00000
283130781.31725,298691836.65862,-11697901.35854,   0.00071,   0.00081,  -0.00015,291927255.01083,   0.00000,274640135.82653,   0.00000,   0.00000,   0.00000,-182712880.81570,   0.00000
286562436.81428,300433644.68246,-13365157.28798,   0.00072,   0.00081,  -0.00017,294654526.55087,   0.00000,274640135.82653,   0.00000,   0.00000,   0.00000,-179985609.27566,   0.00000
290009906.39194,302182230.16943,-15036931.52616,   0.00073,   0.00081,  -0.00020,297426181.90074,   0.00000,274640135.82653,   0.00000,   0.00000,   0.00000,-177213953.92579,   0.00000
293464153.43273,303946629.73702,-16713224.07310,   0.00074,   0.00081,  -0.00022,300242099.43099,   0.00000,274640135.82653,   0.00000,   0.00000,   0.00000,-174398036.39554,   0.00000
296943251.17165,305708770.15024,-18389516.62003,   0.00075,   0.00081,  -0.00024,303099840.65918,   0.00000,274640135.82653,   0.00000,   0.00000,   0.00000,-171540295.16735,   0.00000
300429126.37371,307486724.64410,-20070327.47572,   0.00077,   0.00081,  -0.00026,306000378.89623,   0.00000,274640135.82653,   0.00000,   0.00000,   0.00000,-168639756.93030,   0.00000
303924038.19326,309255642.52045,-21755656.64016,   0.00078,   0.00081,  -0.00028,308931344.31634,   0.00000,274640135.82653,   0.00000,   0.00000,   0.00000,-165708791.51019,   0.00000
307441541.55658,311047151.94056,-23440985.80460,   0.00079,   0.00082,  -0.00030,311913859.52231,   0.00000,274640135.82653,   0.00000,   0.00000,   0.00000,-162726276.30422,   0.00000
310974859.00053,312845438.82379,-25126314.96904,   0.00080,   0.00082,  -0.00033,314935803.62962,   0.00000,274640135.82653,   0.00000,   0.00000,   0.00000,-159704332.19691,   0.00000
314523990.52511,314650503.17016,-26820680.75099,   0.00082,   0.00082,  -0.00035,317998733.69418,   0.00000,274640135.82653,   0.00000,   0.00000,   0.00000,-156641402.13235,   0.00000
318073122.04969,316455567.51652,-28510528.22418,   0.00083,   0.00082,  -0.00037,321087491.95744,   0.00000,274640135.82653,   0.00000,   0.00000,   0.00000,-153552643.86909,   0.00000
321644845.11802,318283223.40665,-30209412.31488,   0.00084,   0.00082,  -0.00039,324227211.03272,   0.00000,274640135.82653,   0.00000,   0.00000,   0.00000,-150412924.79381,   0.00000
325225604.80387,320101842.67927,-31908296.40557,   0.00086,   0.00082,  -0.00041,327392709.84709,   0.00000,274640135.82653,   0.00000,   0.00000,   0.00000,-147247425.97944,   0.00000
328806364.48971,321920461.95189,-33607180.49627,   0.00087,   0.00082,  -0.00044,330583181.88579,   0.00000,274640135.82653,   0.00000,   0.00000,   0.00000,-144056953.94074,   0.00000
332425529.79994,323768450.23139,-35310582.89572,   0.00088,   0.00082,  -0.00046,333832825.55890,   0.00000,274640135.82653,   0.00000,   0.00000,   0.00000,-140807310.26763,   0.00000
336037917.64705,325600624.43027,-37018503.60392,   0.00089,   0.00083,  -0.00048,337096724.59850,   0.00000,274640135.82653,   0.00000,   0.00000,   0.00000,-137543411.22803,   0.00000
339672897.03791,327455390.17290,-38721906.00336,   0.00091,   0.00083,  -0.00050,340404386.74950,   0.00000,274640135.82653,   0.00000,   0.00000,   0.00000,-134235749.07703,   0.00000
343307876.42877,329310155.91554,-40434345.02032,   0.00092,   0.00083,  -0.00053,343737567.43339,   0.00000,274640135.82653,   0.00000,   0.00000,   0.00000,-130902568.39314,   0.00000
346958669.90027,331171699.12130,-42146784.03727,   0.00093,   0.00083,  -0.00055,347103982.82959,   0.00000,274640135.82653,   0.00000,   0.00000,   0.00000,-127536152.99694,   0.00000
350625277.45240,333040019.79019,-43859223.05422,   0.00095,   0.00083,  -0.00057,350503045.59232,   0.00000,274640135.82653,   0.00000,   0.00000,   0.00000,-124137090.23421,   0.00000
354307699.08516,334915117.92221,-45571662.07117,   0.00096,   0.00083,  -0.00059,353934183.39544,   0.00000,274640135.82653,   0.00000,   0.00000,   0.00000,-120705952.43109,   0.00000
357990120.71791,336790216.05423,-47293137.70563,   0.00097,   0.00083,  -0.00061,357389043.87480,   0.00000,274640135.82653,   0.00000,   0.00000,   0.00000,-117251091.95173,   0.00000
361688356.43130,338672091.64937,-49010095.03133,   0.00099,   0.00084,  -0.00064,360873203.33777,   0.00000,274640135.82653,   0.00000,   0.00000,   0.00000,-113766932.48876,   0.00000
365386592.14469,340553967.24452,-50731570.66578,   0.00100,   0.00084,  -0.00066,364378360.47015,   0.00000,274640135.82653,   0.00000,   0.00000,   0.00000,-110261775.35638,   0.00000
369116456.01935,342449397.76592,-52453046.30024,   0.00101,   0.00084,  -0.00068,367925000.86802,   0.00000,274640135.82653,   0.00000,   0.00000,   0.00000,-106715134.95851,   0.00000
372837283.27650,344353864.90483,-54179040.24345,   0.00102,   0.00084,  -0.00070,371490739.86321,   0.00000,274640135.82653,   0.00000,   0.00000,   0.00000,-103149395.96332,   0.00000
376582961.23178,346256072.88936,-55905034.18665,   0.00104,   0.00084,  -0.00073,375086624.62414,   0.00000,274640135.82653,   0.00000,   0.00000,   0.00000,-99553511.20239,   0.00000
380335416.65019,348174094.95452,-57631028.12986,   0.00105,   0.00084,  -0.00075,378710042.50542,   0.00000,274640135.82653,   0.00000,   0.00000,   0.00000,-95930093.32111,   0.00000
384096908.68611,350083080.40217,-59357022.07307,   0.00106,   0.00084,  -0.00077,382351327.56205,   0.00000,274640135.82653,   0.00000,   0.00000,   0.00000,-92288808.26448,   0.00000
387865178.18515,352007879.93046,-61087534.32503,   0.00108,   0.00085,  -0.00079,386021250.01050,   0.00000,274640135.82653,   0.00000,   0.00000,   0.00000,-88618885.81603,   0.00000
391642484.30170,353923642.84125,-62818046.57699,   0.00109,   0.00085,  -0.00082,389708309.71872,   0.00000,274640135.82653,   0.00000,   0.00000,   0.00000,-84931826.10781,   0.00000
395426567.88138,355855219.83266,-64553077.13770,   0.00111,   0.00085,  -0.00084,393423180.72444,   0.00000,274640135.82653,   0.00000,   0.00000,   0.00000,-81216955.10209,   0.00000
399242279.62231,357800351.75034,-66283589.38966,   0.00112,   0.00085,  -0.00086,397173770.70414,   0.00000,274640135.82653,   0.00000,   0.00000,   0.00000,-77466365.12239,   0.00000
403035399.81949,359722892.12425,-68018619.95037,   0.00113,   0.00085,  -0.00088,400919731.31068,   0.00000,274640135.82653,   0.00000,   0.00000,   0.00000,-73720404.51585,   0.00000
406851111.56043,361668024.04192,-69753650.51108,   0.00115,   0.00085,  -0.00091,404701450.79292,   0.00000,274640135.82653,   0.00000,   0.00000,   0.00000,-69938685.03361,   0.00000
410682637.38200,363619933.42272,-71493199.38054,   0.00116,   0.00085,  -0.00093,408510861.59326,   0.00000,274640135.82653,   0.00000,   0.00000,   0.00000,-66129274.23327,   0.00000
414514163.20357,365571842.80352,-73228229.94125,   0.00117,   0.00086,  -0.00095,412331393.68427,   0.00000,274640135.82653,   0.00000,   0.00000,   0.00000,-62308742.14226,   0.00000
418361503.10577,367530529.64745,-74967778.81071,   0.00119,   0.00086,  -0.00097,416178947.40451,   0.00000,274640135.82653,   0.00000,   0.00000,   0.00000,-58461188.42202,   0.00000
422208843.00797,369489216.49137,-76707327.68018,   0.00120,   0.00086,  -0.00100,420039302.89712,   0.00000,274640135.82653,   0.00000,   0.00000,   0.00000,-54600832.92941,   0.00000
426065219.52768,371438866.71780,-78446876.54964,   0.00121,   0.00086,  -0.00102,423913856.85269,   0.00000,274640135.82653,   0.00000,   0.00000,   0.00000,-50726278.97384,   0.00000
429928373.51051,373404331.02485,-80186425.41910,   0.00123,   0.00086,  -0.00104,427810323.09038,   0.00000,274640135.82653,   0.00000,   0.00000,   0.00000,-46829812.73615,   0.00000
433807341.57398,375376572.79504,-81925974.28856,   0.00124,   0.00086,  -0.00107,431730081.95266,   0.00000,274640135.82653,   0.00000,   0.00000,   0.00000,-42910053.87387,   0.00000
437686309.63744,377348814.56522,-83670041.46678,   0.00126,   0.00086,  -0.00109,435663919.69253,   0.00000,274640135.82653,   0.00000,   0.00000,   0.00000,-38976216.13400,   0.00000
441581091.78154,379327833.79853,-85409590.33624,   0.00127,   0.00086,  -0.00111,439617858.46982,   0.00000,274640135.82653,   0.00000,   0.00000,   0.00000,-35022277.35671,   0.00000
445475873.92563,381306853.03184,-87153657.51446,   0.00128,   0.00087,  -0.00113,443585332.13475,   0.00000,274640135.82653,   0.00000,   0.00000,   0.00000,-31054803.69177,   0.00000
449370656.06973,383285872.26515,-88893206.38392,   0.00130,   0.00087,  -0.00116,447560754.48612,   0.00000,274640135.82653,   0.00000,   0.00000,   0.00000,-27079381.34041,   0.00000
453281252.29445,385271668.96159,-90637273.56213,   0.00131,   0.00087,  -0.00118,451560709.18751,   0.00000,274640135.82653,   0.00000,   0.00000,   0.00000,-23079426.63902,   0.00000
457207662.59981,387264243.12116,-92376822.43160,   0.00133,   0.00087,  -0.00120,455579513.69871,   0.00000,274640135.82653,   0.00000,   0.00000,   0.00000,-19060622.12782,   0.00000
461134072.90517,389256817.28072,-94120889.60981,   0.00134,   0.00087,  -0.00122,459610864.77333,   0.00000,274640135.82653,   0.00000,   0.00000,   0.00000,-15029271.05319,   0.00000
465060483.21053,391249391.44029,-95864956.78802,   0.00135,   0.00087,  -0.00125,463651785.42444,   0.00000,274640135.82653,   0.00000,   0.00000,   0.00000,-10988350.40209,   0.00000
468986893.51589,393241965.59986,-97609023.96624,   0.00137,   0.00087,  -0.00127,467702027.61020,   0.00000,274640135.82653,   0.00000,   0.00000,   0.00000,-6938108.21633,   0.00000
472929117.90188,395241317.22255,-99348572.83570,   0.00138,   0.00088,  -0.00129,471770006.10499,   0.00000,274640135.82653,   0.00000,   0.00000,   0.00000,-2870129.72154,   0.00000
475706736.66759,396649151.39147,-100572500.73931,   0.00139,   0.00088,  -0.00131,474640136.22425,   0.00000,274640135.82653,   0.00000,   0.00000,   0.00000,   0.39772,   0.00000
475685185.41964,396282392.49680,-100791903.37317,   0.00140,   0.00088,  -0.00131,474640136.22425,   0.00000,274644593.60040,   0.00000,   0.00000,  -0.00000,  -0.00000,   2.00000
475608448.97924,395067089.61198,-101517671.18588,   0.00141,   0.00088,  -0.00134,478729625.91402,   0.00002,274659529.54811,   0.00002,   0.00001,  -0.00002,   0.00000,   2.00000
475528085.54399,393854325.19028,-102235910.89128,   0.00142,   0.00088,  -0.00136,478766235.20085,   0.00003,274674563.04144,   0.00003,   0.00002,  -0.00003,   0.00000,   2.00000
475445474.08704,392650968.72996,-102942036.66762,   0.00144,   0.00088,  -0.00138,478785480.36239,   0.00005,274689630.00650,   0.00004,   0.00002,  -0.00004,   0.00000,   2.00000
475359517.78835,391450373.96161,-103640783.02681,   0.00145,   0.00088,  -0.00140,478822009.60567,   0.00006,274704793.67859,   0.00005,   0.00003,  -0.00006,   0.00000,   2.00000
475271651.63690,390259357.84287,-104327639.03626,   0.00147,   0.00088,  -0.00143,478841096.53276,   0.00007,274719989.53646,   0.00006,   0.00004,  -0.00007,   0.00000,   2.00000
475179150.51750,389075678.04951,-105006473.43255,   0.00148,   0.00089,  -0.00145,478863037.42988,   0.00009,274735227.82901,   0.00008,   0.00004,  -0.00008,   0.00000,   2.00000
475086652.21615,387897331.36063,-105674441.63153,   0.00149,   0.00089,  -0.00147,478896414.01080,   0.00010,274750550.36656,   0.00009,   0.00005,  -0.00010,   0.00000,   2.00000
474994761.10736,386719908.37422,-106333204.48121,   0.00151,   0.00089,  -0.00150,478906219.11905,   0.00011,274765869.92376,   0.00010,   0.00006,  -0.00011,   0.00000,   2.00000
474893639.47833,385556588.77998,-106985635.33156,   0.00152,   0.00089,  -0.00152,478939976.98535,   0.00013,274781274.69388,   0.00011,   0.00006,  -0.00013,   0.00000,   2.00000
474791444.08490,384403111.69539,-107626754.80287,   0.00154,   0.00089,  -0.00154,478958589.85072,   0.00014,274796708.27938,   0.00013,   0.00007,  -0.00014,   0.00000,   2.00000
474689845.15036,383255281.78315,-108257375.77288,   0.00155,   0.00089,  -0.00156,478991669.26248,   0.00016,274812223.90388,   0.00014,   0.00007,  -0.00016,   0.00000,   2.00000
474581820.44123,382107916.21279,-108885956.04609,   0.00157,   0.00089,  -0.00159,478992836.41676,   0.00017,274827703.19005,   0.00015,   0.00008,  -0.00017,   0.00000,   2.00000
474472752.53212,380975415.56838,-109501826.74044,   0.00158,   0.00090,  -0.00161,479034652.06663,   0.00019,274843296.54065,   0.00016,   0.00009,  -0.00018,   0.00000,   2.00000
474367720.15736,379851104.98391,-110103795.66439,   0.00159,   0.00090,  -0.00163,479064422.81608,   0.00020,274858958.71662,   0.00018,   0.00009,  -0.00020,   0.00000,   2.00000
474256513.95503,378727117.64324,-110704112.13058,   0.00161,   0.00090,  -0.00165,479065475.20196,   0.00021,274874582.85454,   0.00019,   0.00010,  -0.00021,   0.00000,   2.00000
474144743.74855,377618328.17085,-111291989.66741,   0.00162,   0.00090,  -0.00168,479106999.27981,   0.00023,274890319.17065,   0.00020,   0.00011,  -0.00023,   0.00000,   2.00000
474026975.26493,376509724.15670,-111878422.94366,   0.00164,   0.00090,  -0.00170,479107989.76516,   0.00024,274906016.51761,   0.00021,   0.00011,  -0.00024,   0.00000,   2.00000
473912068.54950,375418831.25098,-112448945.01159,   0.00165,   0.00090,  -0.00172,479146121.10541,   0.00026,274921812.91954,   0.00023,   0.00012,  -0.00026,   0.00000,   2.00000
473795877.40371,374326327.09487,-113015151.41529,   0.00167,   0.00090,  -0.00174,479158509.99466,   0.00027,274937612.07987,   0.00024,   0.00012,  -0.00027,   0.00000,   2.00000
473679912.20114,373243949.08031,-113571153.31279,   0.00168,   0.00091,  -0.00177,479176290.13887,   0.00029,274953433.83575,   0.00025,   0.00013,  -0.00029,   0.00000,   2.00000
473564133.17710,372177210.94523,-114115162.70554,   0.00169,   0.00091,  -0.00179,479217320.00384,   0.00030,274969364.66169,   0.00027,   0.00014,  -0.00030,   0.00000,   2.00000
473442701.63068,371110318.91512,-114658337.08883,   0.00171,   0.00091,  -0.00181,479218117.38865,   0.00031,274985253.80728,   0.00028,   0.00014,  -0.00032,   0.00000,   2.00000
473326442.63546,370052024.99031,-115188443.37960,   0.00172,   0.00091,  -0.00183,479247143.00723,   0.00033,275001206.71773,   0.00029,   0.00015,  -0.00033,   0.00000,   2.00000
473203089.05741,369003015.81163,-115715555.92952,   0.00174,   0.00091,  -0.00185,479256400.42316,   0.00034,275017149.02751,   0.00030,   0.00015,  -0.00035,   0.00000,   2.00000
473081958.15311,367960287.64644,-116233343.19630,   0.00175,   0.00091,  -0.00188,479288567.89687,   0.00036,275033166.44656,   0.00032,   0.00016,  -0.00037,   0.00000,   2.00000
472961723.16124,366927695.21989,-116741559.28096,   0.00177,   0.00091,  -0.00190,479305888.94891,   0.00037,275049202.79724,   0.00033,   0.00017,  -0.00038,   0.00000,   2.00000
472839271.23952,365902855.80701,-117243868.57788,   0.00178,   0.00091,  -0.00192,479326452.75783,   0.00039,275065270.02836,   0.00034,   0.00017,  -0.00040,   0.00000,   2.00000
472717922.96069,364888116.55846,-117736816.83888,   0.00179,   0.00092,  -0.00194,479343605.92523,   0.00040,275081354.96918,   0.00036,   0.00018,  -0.00041,   0.00000,   2.00000
472597773.13601,363883450.61062,-118220530.09410,   0.00181,   0.00092,  -0.00197,479360655.63541,   0.00042,275097456.91697,   0.00037,   0.00018,  -0.00043,   0.00000,   2.00000
472476980.79688,362876645.84085,-118701019.76258,   0.00182,   0.00092,  -0.00199,479372633.88537,   0.00043,275113556.66734,   0.00038,   0.00019,  -0.00044,   0.00000,   2.00000
472352957.11549,361887399.34807,-119173578.03581,   0.00184,   0.00092,  -0.00201,479401293.09666,   0.00045,275129716.79672,   0.00039,   0.00019,  -0.00046,   0.00000,   2.00000
472231675.21576,360898262.51603,-119639555.06973,   0.00185,   0.00092,  -0.00203,479409819.60577,   0.00046,275145861.06334,   0.00041,   0.00020,  -0.00048,   0.00000,   2.00000
472107377.02431,359926705.69392,-120097781.83994,   0.00187,   0.00092,  -0.00205,479438300.03180,   0.00048,275162064.53684,   0.00042,   0.00021,  -0.00049,   0.00000,   2.00000
471985936.30044,358955125.90607,-120549623.37468,   0.00188,   0.00092,  -0.00208,479446727.05908,   0.00049,275178251.16093,   0.00043,   0.00021,  -0.00051,   0.00000,   2.00000
471864985.71114,358003507.64898,-120990413.08964,   0.00190,   0.00093,  -0.00210,479471578.60133,   0.00051,275194482.69801,   0.00045,   0.00022,  -0.00053,   0.00000,   2.00000
471739004.64951,357050484.61200,-121431846.81287,   0.00191,   0.00093,  -0.00212,479471853.50915,   0.00052,275210666.03144,   0.00046,   0.00022,  -0.00054,   0.00000,   2.00000
471619557.61241,356106198.01317,-121861435.06291,   0.00192,   0.00093,  -0.00214,479499776.18459,   0.00054,275226905.68052,   0.00047,   0.00023,  -0.00056,   0.00000,   2.00000
471502000.88108,355171758.64564,-122282648.88904,   0.00194,   0.00093,  -0.00216,479516162.33319,   0.00055,275243157.52506,   0.00049,   0.00023,  -0.00057,   0.00000,   2.00000
471383057.98237,354244754.50962,-122699052.03778,   0.00195,   0.00093,  -0.00219,479535964.40316,   0.00057,275259434.31808,   0.00050,   0.00024,  -0.00059,   0.00000,   2.00000
471261452.60180,353328552.60799,-123110620.94650,   0.00197,   0.00093,  -0.00221,479540737.22106,   0.00058,275275678.75727,   0.00051,   0.00024,  -0.00061,   0.00000,   2.00000
471143319.52359,352418667.50653,-123514145.84875,   0.00198,   0.00093,  -0.00223,479571871.63028,   0.00060,275291990.82450,   0.00053,   0.00025,  -0.00062,   0.00000,   2.00000
471026999.26703,351511568.98567,-123911973.52470,   0.00200,   0.00093,  -0.00225,479564915.61702,   0.00061,275308225.43973,   0.00054,   0.00025,  -0.00064,   0.00000,   2.00000
470905145.17938,350619665.05510,-124306349.21184,   0.00201,   0.00094,  -0.00227,479596042.12830,   0.00063,275324527.42034,   0.00055,   0.00026,  -0.00066,   0.00000,   2.00000
470789941.26147,349729383.45442,-124691802.03582,   0.00202,   0.00094,  -0.00229,479600425.18088,   0.00064,275340794.62560,   0.00056,   0.00026,  -0.00067,   0.00000,   2.00000
470672737.72518,348856648.80746,-125070530.67376,   0.00204,   0.00094,  -0.00232,479627854.63199,   0.00066,275357114.61605,   0.00058,   0.00027,  -0.00069,   0.00000,   2.00000
470562251.19692,347985369.77229,-125440553.49700,   0.00205,   0.00094,  -0.00234,479632102.83672,   0.00067,275373398.73864,   0.00059,   0.00027,  -0.00071,   0.00000,   2.00000
470450752.47618,347121185.03820,-125806420.17434,   0.00207,   0.00094,  -0.00236,479651402.80622,   0.00069,275389704.32408,   0.00060,   0.00028,  -0.00072,   0.00000,   2.00000
470332714.78910,346275329.74820,-126169239.18742,   0.00208,   0.00094,  -0.00238,479667132.42096,   0.00070,275406017.46249,   0.00062,   0.00028,  -0.00074,   0.00000,   2.00000
470221532.90164,345430654.82459,-126523596.99659,   0.00210,   0.00094,  -0.00240,479671189.52551,   0.00072,275422293.40339,   0.00063,   0.00029,  -0.00076,   0.00000,   2.00000
470109498.02703,344592897.69991,-126874007.50614,   0.00211,   0.00094,  -0.00242,479690295.15064,   0.00073,275438589.57921,   0.00064,   0.00029,  -0.00077,   0.00000,   2.00000
470000104.05296,343764384.16447,-127217138.21608,   0.00212,   0.00095,  -0.00244,479705743.05756,   0.00075,275454891.73047,   0.00066,   0.00030,  -0.00079,   0.00000,   2.00000
469889351.87989,342935217.19420,-127558917.29746,   0.00214,   0.00095,  -0.00247,479701817.40722,   0.00076,275471125.73138,   0.00067,   0.00030,  -0.00081,   0.00000,   2.00000
469785362.83380,342125102.69092,-127887706.96740,   0.00215,   0.00095,  -0.00249,479736386.01941,   0.00078,275487438.63754,   0.00068,   0.00031,  -0.00082,   0.00000,   2.00000
469679335.56411,341324744.51752,-128212973.92581,   0.00217,   0.00095,  -0.00251,479740161.46842,   0.00079,275503712.19162,   0.00070,   0.00031,  -0.00084,   0.00000,   2.00000
469576791.55881,340522716.42749,-128533670.75006,   0.00218,   0.00095,  -0.00253,479747516.37673,   0.00081,275519960.13876,   0.00071,   0.00032,  -0.00086,   0.00000,   2.00000
469468763.49110,339727956.26798,-128854336.42177,   0.00220,   0.00095,  -0.00255,479754819.40394,   0.00082,275536182.27794,   0.00072,   0.00032,  -0.00088,   0.00000,   2.00000
469366482.57532,338955181.38347,-129162428.28514,   0.00221,   0.00095,  -0.00257,479773883.01033,   0.00084,275552423.35281,   0.00074,   0.00033,  -0.00089,   0.00000,   2.00000
469264244.58063,338178094.12496,-129469527.89570,   0.00222,   0.00095,  -0.00259,479784758.43252,   0.00085,275568651.90544,   0.00075,   0.00033,  -0.00091,   0.00000,   2.00000
469168440.88128,337412163.14831,-129766601.06590,   0.00224,   0.00096,  -0.00261,479795940.04885,   0.00087,275584868.86917,   0.00076,   0.00034,  -0.00093,   0.00000,   2.00000
469067246.13909,336653155.51666,-130063967.24624,   0.00225,   0.00096,  -0.00263,479802985.04078,   0.00088,275601058.33050,   0.00077,   0.00034,  -0.00094,   0.00000,   2.00000
468969069.19146,335902805.13976,-130354787.25374,   0.00227,   0.00096,  -0.00265,479817706.40476,   0.00090,275617249.65961,   0.00079,   0.00034,  -0.00096,   0.00000,   2.00000
468873134.35764,335153057.73491,-130641704.29356,   0.00228,   0.00096,  -0.00268,479809552.70600,   0.00091,275633354.86894,   0.00080,   0.00035,  -0.00098,   0.00000,   2.00000
468776208.71193,334420395.02138,-130923186.03454,   0.00229,   0.00096,  -0.00270,479835449.57288,   0.00093,275649504.87814,   0.00081,   0.00035,  -0.00099,   0.00000,   2.00000
468686401.86610,333687630.82202,-131197371.91744,   0.00231,   0.00096,  -0.00272,479838611.31586,   0.00094,275665611.97415,   0.00083,   0.00036,  -0.00101,   0.00000,   2.00000
468595668.62865,332971889.32240,-131466275.78218,   0.00232,   0.00096,  -0.00274,479864366.43462,   0.00096,275681762.97709,   0.00084,   0.00036,  -0.00103,   0.00000,   2.00000
468507205.54597,332256295.59545,-131731599.47155,   0.00234,   0.00096,  -0.00276,479855987.67730,   0.00097,275697826.28767,   0.00085,   0.00037,  -0.00105,   0.00000,   2.00000
468413468.25112,331547059.80770,-131997669.75840,   0.00235,   0.00096,  -0.00278,479862581.86551,   0.00099,275713859.79192,   0.00087,   0.00037,  -0.00106,   0.00000,   2.00000
468331354.78559,330848010.57665,-132250761.68310,   0.00236,   0.00097,  -0.00280,479884465.92811,   0.00100,275729922.17605,   0.00088,   0.00037,  -0.00108,   0.00000,   2.00000
468242666.25794,330157862.41957,-132505026.41826,   0.00238,   0.00097,  -0.00282,479875741.45227,   0.00101,275745895.32098,   0.00089,   0.00038,  -0.00110,   0.00000,   2.00000
468162094.72689,329475440.85342,-132749759.03377,   0.00239,   0.00097,  -0.00284,479901215.77967,   0.00103,275761911.13223,   0.00090,   0.00038,  -0.00111,   0.00000,   2.00000
468079863.73615,328801377.54837,-132992219.53115,   0.00241,   0.00097,  -0.00286,479903790.28320,   0.00104,275777881.03413,   0.00092,   0.00039,  -0.00113,   0.00000,   2.00000
467996016.40836,328135569.63519,-133232454.26046,   0.00242,   0.00097,  -0.00288,479906274.96659,   0.00106,275793804.71749,   0.00093,   0.00039,  -0.00115,   0.00000,   2.00000
467919356.44108,327468844.44498,-133465971.73988,   0.00243,   0.00097,  -0.00290,479908869.49579,   0.00107,275809682.65114,   0.00094,   0.00039,  -0.00116,   0.00000,   2.00000
467837196.08548,326819058.49932,-133698334.25218,   0.00245,   0.00097,  -0.00292,479922426.62940,   0.00109,275825557.14181,   0.00096,   0.00040,  -0.00118,   0.00000,   2.00000
467762246.89330,326168166.80856,-133924090.28452,   0.00246,   0.00097,  -0.00294,479924902.03634,   0.00110,275841385.29776,   0.00097,   0.00040,  -0.00120,   0.00000,   2.00000
467690599.39099,325524998.73211,-134144256.56796,   0.00248,   0.00097,  -0.00296,479938528.88319,   0.00112,275857210.19544,   0.00098,   0.00041,  -0.00121,   0.00000,   2.00000
467612453.23164,324889920.97023,-134366121.58817,   0.00249,   0.00098,  -0.00298,479929233.73358,   0.00113,275872943.21297,   0.00099,   0.00041,  -0.00123,   0.00000,   2.00000
467546207.20355,324264529.38576,-134575587.62274,   0.00250,   0.00098,  -0.00300,479950283.57548,   0.00115,275888701.68902,   0.00101,   0.00041,  -0.00125,   0.00000,   2.00000
467478376.20740,323646825.15241,-134783284.93433,   0.00252,   0.00098,  -0.00302,479952260.72247,   0.00116,275904411.68252,   0.00102,   0.00042,  -0.00127,   0.00000,   2.00000
467408997.12680,323036712.34217,-134989250.75458,   0.00253,   0.00098,  -0.00304,479954152.88842,   0.00118,275920072.93534,   0.00103,   0.00042,  -0.00128,   0.00000,   2.00000
467343023.64868,322433952.90530,-135189892.66565,   0.00254,   0.00098,  -0.00306,479967394.01638,   0.00119,275935729.37774,   0.00105,   0.00042,  -0.00130,   0.00000,   2.00000
467279293.17607,321829621.41845,-135387971.74699,   0.00256,   0.00098,  -0.00308,479958010.31990,   0.00120,275951293.42741,   0.00106,   0.00043,  -0.00132,   0.00000,   2.00000
467210271.93800,321241693.34000,-135585395.63518,   0.00257,   0.00098,  -0.00310,479970806.84154,   0.00122,275966851.12492,   0.00107,   0.00043,  -0.00133,   0.00000,   2.00000
467152098.24518,320654175.16746,-135773439.59346,   0.00258,   0.00098,  -0.00311,479968837.63036,   0.00123,275982345.15973,   0.00108,   0.00043,  -0.00135,   0.00000,   2.00000
467088660.53001,320082922.33954,-135960957.22717,   0.00260,   0.00098,  -0.00313,479981458.20888,   0.00125,275997832.12261,   0.00110,   0.00044,  -0.00137,   0.00000,   2.00000
467032421.85931,319509583.86679,-136142462.92367,   0.00261,   0.00098,  -0.00315,479983223.98493,   0.00126,276013269.90191,   0.00111,   0.00044,  -0.00138,   0.00000,   2.00000
466974667.54167,318943289.78522,-136322603.72998,   0.00262,   0.00099,  -0.00317,479984604.20074,   0.00128,276028657.09507,   0.00112,   0.00045,  -0.00140,   0.00000,   2.00000
466919076.68229,318386247.88688,-136498174.82315,   0.00264,   0.00099,  -0.00319,479982012.53389,   0.00129,276043978.33792,   0.00113,   0.00045,  -0.00142,   0.00000,   2.00000
466866953.80387,317836040.50275,-136668812.60606,   0.00265,   0.00099,  -0.00321,479994631.69495,   0.00131,276059292.70986,   0.00115,   0.00045,  -0.00143,   0.00000,   2.00000
466817008.29474,317283449.54753,-136837307.12482,   0.00266,   0.00099,  -0.00323,479984714.25308,   0.00132,276074512.81741,   0.00116,   0.00046,  -0.00145,   0.00000,   2.00000
466765552.97903,316749086.31297,-137002321.63553,   0.00268,   0.00099,  -0.00325,479992917.10124,   0.00133,276089709.08855,   0.00117,   0.00046,  -0.00147,   0.00000,   2.00000
466717599.13993,316221345.43935,-137162536.33652,   0.00269,   0.00099,  -0.00327,480005307.52434,   0.00135,276104897.72839,   0.00118,   0.00046,  -0.00148,   0.00000,   2.00000
466671811.80042,315690906.98679,-137320749.92049,   0.00270,   0.00099,  -0.00328,479995192.63377,   0.00136,276119991.41704,   0.00120,   0.00047,  -0.00150,   0.00000,   2.00000
466624532.42525,315166969.79702,-137477921.08248,   0.00272,   0.00099,  -0.00330,479996018.04393,   0.00138,276135032.89528,   0.00121,   0.00047,  -0.00151,   0.00000,   2.00000
466584486.70015,314663349.18499,-137624886.19388,   0.00273,   0.00099,  -0.00332,480011367.39574,   0.00139,276150078.42734,   0.00122,   0.00047,  -0.00153,   0.00000,   2.00000
466542892.39330,314154429.60007,-137773230.20139,   0.00274,   0.00099,  -0.00334,480004958.20040,   0.00140,276165043.56855,   0.00123,   0.00047,  -0.00155,   0.00000,   2.00000
466503502.06522,313654044.03606,-137917449.82726,   0.00275,   0.00100,  -0.00336,480001632.91969,   0.00142,276179940.46381,   0.00124,   0.00048,  -0.00156,   0.00000,   2.00000
466462638.82351,313159819.38765,-138060810.62859,   0.00277,   0.00100,  -0.00337,480002134.00918,   0.00143,276194784.16538,   0.00126,   0.00048,  -0.00158,   0.00000,   2.00000
466424013.10229,312673949.86928,-138200125.17002,   0.00278,   0.00100,  -0.00339,479998620.82824,   0.00145,276209559.14992,   0.00127,   0.00048,  -0.00160,   0.00000,   2.00000
466388787.26567,312182583.06137,-138337235.21853,   0.00279,   0.00100,  -0.00341,480003336.25543,   0.00146,276224297.65634,   0.00128,   0.00049,  -0.00161,   0.00000,   2.00000
466355906.66841,311711127.79021,-138468102.78926,   0.00281,   0.00100,  -0.00343,480006702.67522,   0.00147,276238994.33340,   0.00129,   0.00049,  -0.00163,   0.00000,   2.00000
466321564.59839,311245507.26018,-138598281.84839,   0.00282,   0.00100,  -0.00345,480006887.34817,   0.00149,276253636.91349,   0.00130,   0.00049,  -0.00164,   0.00000,   2.00000
466289313.54967,310776239.40354,-138726861.53452,   0.00283,   0.00100,  -0.00346,479996049.47209,   0.00150,276268182.75323,   0.00132,   0.00050,  -0.00166,   0.00000,   2.00000
466264461.71757,310326854.83219,-138845619.34311,   0.00284,   0.00100,  -0.00348,480010516.56087,   0.00151,276282730.31708,   0.00133,   0.00050,  -0.00168,   0.00000,   2.00000
466232951.35779,309871161.91791,-138969806.29314,   0.00286,   0.00100,  -0.00350,479992069.18091,   0.00153,276297151.72564,   0.00134,   0.00050,  -0.00169,   0.00000,   2.00000
466208691.76089,309423525.95244,-139086501.58932,   0.00287,   0.00100,  -0.00352,479999371.95930,   0.00154,276311547.44031,   0.00135,   0.00050,  -0.00171,   0.00000,   2.00000
466186871.58153,308995385.41659,-139197230.95309,   0.00288,   0.00100,  -0.00353,480002135.32900,   0.00155,276325899.67191,   0.00136,   0.00051,  -0.00172,   0.00000,   2.00000
466163361.82290,308560851.45607,-139309777.26772,   0.00289,   0.00101,  -0.00355,479994876.89625,   0.00157,276340169.67160,   0.00137,   0.00051,  -0.00174,   0.00000,   2.00000
466147093.75933,308134174.25797,-139414961.58102,   0.00291,   0.00101,  -0.00357,480001940.16929,   0.00158,276354413.31590,   0.00139,   0.00051,  -0.00175,   0.00000,   2.00000
466124327.12570,307712523.10704,-139523486.29630,   0.00292,   0.00101,  -0.00358,479990065.22218,   0.00159,276368557.02143,   0.00140,   0.00052,  -0.00177,   0.00000,   2.00000
466103833.55951,307298325.55491,-139628426.95247,   0.00293,   0.00101,  -0.00360,479985526.02436,   0.00161,276382629.61596,   0.00141,   0.00052,  -0.00179,   0.00000,   2.00000
466090336.01348,306879981.37892,-139728350.89698,   0.00294,   0.00101,  -0.00362,479985421.06711,   0.00162,276396648.59521,   0.00142,   0.00052,  -0.00180,   0.00000,   2.00000
466074332.68999,306480527.20819,-139826260.41315,   0.00296,   0.00101,  -0.00363,479976180.95688,   0.00163,276410578.44318,   0.00143,   0.00052,  -0.00182,   0.00000,   2.00000
466061874.21221,306086341.49133,-139920162.77694,   0.00297,   0.00101,  -0.00365,479986755.78442,   0.00165,276424496.54705,   0.00144,   0.00053,  -0.00183,   0.00000,   2.00000
466051363.37849,305687469.36961,-140012890.73005,   0.00298,   0.00101,  -0.00367,479975024.92273,   0.00166,276438316.13428,   0.00145,   0.00053,  -0.00185,   0.00000,   2.00000
466043396.43880,305307591.01411,-140099974.55739,   0.00299,   0.00101,  -0.00368,479976909.10553,   0.00167,276452090.38605,   0.00147,   0.00053,  -0.00186,   0.00000,   2.00000
466028620.47482,304920275.74167,-140192872.25766,   0.00300,   0.00101,  -0.00370,479957567.49209,   0.00168,276465736.96007,   0.00148,   0.00053,  -0.00188,   0.00000,   2.00000
466021471.10051,304552172.60926,-140276412.77228,   0.00301,   0.00101,  -0.00372,479970647.42326,   0.00170,276479382.34751,   0.00149,   0.00054,  -0.00189,   0.00000,   2.00000
466016242.54022,304179036.25547,-140358895.00383,   0.00303,   0.00101,  -0.00373,479958592.01384,   0.00171,276492928.69193,   0.00150,   0.00054,  -0.00191,   0.00000,   2.00000
466013256.94800,303812750.49876,-140438097.81445,   0.00304,   0.00102,  -0.00375,479953261.67207,   0.00172,276506402.48361,   0.00151,   0.00054,  -0.00192,   0.00000,   2.00000
466012874.08609,303465148.43005,-140511825.35382,   0.00305,   0.00102,  -0.00376,479954637.43632,   0.00173,276519829.92693,   0.00152,   0.00054,  -0.00194,   0.00000,   2.00000
466010634.53628,303110032.31570,-140587767.13395,   0.00306,   0.00102,  -0.00378,479946326.95410,   0.00175,276533173.55742,   0.00153,   0.00055,  -0.00195,   0.00000,   2.00000
466014391.66336,302763780.30926,-140657334.87312,   0.00307,   0.00102,  -0.00379,479936729.28303,   0.00176,276546428.55322,   0.00154,   0.00055,  -0.00197,   0.00000,   2.00000
466016635.37971,302421867.48719,-140726931.66286,   0.00308,   0.00102,  -0.00381,479935025.44357,   0.00177,276559625.98522,   0.00155,   0.00055,  -0.00198,   0.00000,   2.00000
466016120.75665,302086047.89496,-140797143.42049,   0.00310,   0.00102,  -0.00382,479917811.82477,   0.00178,276572705.62765,   0.00156,   0.00055,  -0.00199,   0.00000,   2.00000
466019151.62972,301754856.29761,-140863642.40728,   0.00311,   0.00102,  -0.00384,479927336.70367,   0.00180,276585772.03862,   0.00158,   0.00056,  -0.00201,   0.00000,   2.00000
466028192.91601,301432254.08617,-140923875.47301,   0.00312,   0.00102,  -0.00386,479917378.87287,   0.00181,276598749.23530,   0.00159,   0.00056,  -0.00202,   0.00000,   2.00000
466034460.49302,301115512.46819,-140984822.15531,   0.00313,   0.00102,  -0.00387,479899884.10874,   0.00182,276611608.17934,   0.00160,   0.00056,  -0.00204,   0.00000,   2.00000
466044254.07496,300803225.87328,-141042141.73272,   0.00314,   0.00102,  -0.00388,479909137.38596,   0.00183,276624453.48541,   0.00161,   0.00056,  -0.00205,   0.00000,   2.00000
466056296.84867,300497116.46653,-141096454.68165,   0.00315,   0.00102,  -0.00390,479902913.84610,   0.00184,276637224.83048,   0.00162,   0.00057,  -0.00207,   0.00000,   2.00000
466069327.14791,300198864.90771,-141148382.43799,   0.00316,   0.00102,  -0.00391,479881145.51907,   0.00186,276649861.86557,   0.00163,   0.00057,  -0.00208,   0.00000,   2.00000
466080399.31880,299892414.77535,-141202732.04585,   0.00317,   0.00103,  -0.00393,479871986.81864,   0.00187,276662414.34523,   0.00164,   0.00057,  -0.00209,   0.00000,   2.00000
466094190.77901,299604048.42110,-141251907.52134,   0.00319,   0.00103,  -0.00394,479872142.31247,   0.00188,276674918.72403,   0.00165,   0.00057,  -0.00211,   0.00000,   2.00000
466110246.06172,299321598.29114,-141298161.74636,   0.00320,   0.00103,  -0.00396,479865511.86794,   0.00189,276687348.68351,   0.00166,   0.00057,  -0.00212,   0.00000,   2.00000
466128559.06877,299045003.47130,-141341521.11907,   0.00321,   0.00103,  -0.00397,479858791.32994,   0.00190,276699704.10379,   0.00167,   0.00058,  -0.00213,   0.00000,   2.00000
466149123.67184,298774204.00878,-141382011.36271,   0.00322,   0.00103,  -0.00399,479851981.08529,   0.00191,276711984.86880,   0.00168,   0.00058,  -0.00215,   0.00000,   2.00000
466171442.61638,298497072.22827,-141421856.17568,   0.00323,   0.00103,  -0.00400,479838411.71650,   0.00193,276724164.97906,   0.00169,   0.00058,  -0.00216,   0.00000,   2.00000
