# sigma_xx, sigma_yy, sigma_xy, epsilon_xx, epsilon_yy, epsilon_xy, vonMises, epsPlastic, hardening, epsilonP__xx, epsilonP__yy, epsilonP__xy, yieldValue, iteration
   0.00000,   0.00000,   0.00000,   0.00000,   0.00000,   0.00000,   0.00000,   0.00000,274640135.82653,   0.00000,   0.00000,   0.00000,-474640135.82653,   0.00000
   0.00000,   0.00000,   0.00000,   0.00000,   0.00000,   0.00000,   0.00000,   0.00000,274640135.82653,   0.00000,   0.00000,   0.00000,-474640135.82653,   0.00000
-1133725.58335,725910.62531,-925739.95475,  -0.00001,   0.00001,  -0.00001,2281720.13466,   0.00000,274640135.82653,   0.00000,   0.00000,   0.00000,-472358415.69187,   0.00000
-2253177.64318,1457938.47500,-1843323.61035,  -0.00001,   0.00001,  -0.00002,4547627.32234,   0.00000,274640135.82653,   0.00000,   0.00000,   0.00000,-470092508.50418,   0.00000
-3401176.75006,2177731.87594,-2760907.26594,  -0.00002,   0.00002,  -0.00004,6825334.95341,   0.00000,274640135.82653,   0.00000,   0.00000,   0.00000,-467814800.87312,   0.00000
-4547136.78216,2875095.45419,-3670334.62237,  -0.00003,   0.00002,  -0.00005,9079105.01089,   0.00000,274640135.82653,   0.00000,   0.00000,   0.00000,-465561030.81564,   0.00000
-5701253.11341,3580615.33160,-4579761.97880,  -0.00003,   0.00003,  -0.00006,11342916.15374,   0.00000,274640135.82653,   0.00000,   0.00000,   0.00000,-463297219.67279,   0.00000
-6853330.36988,4263705.38632,-5481033.03607,  -0.00004,   0.00003,  -0.00007,13582822.67497,   0.00000,274640135.82653,   0.00000,   0.00000,   0.00000,-461057313.15156,   0.00000
-8013563.92550,4954951.74020,-6382304.09334,  -0.00005,   0.00004,  -0.00008,15832782.21518,   0.00000,274640135.82653,   0.00000,   0.00000,   0.00000,-458807353.61135,   0.00000
-9200305.45340,5611533.82264,-7275418.85145,  -0.00005,   0.00004,  -0.00009,18070913.53256,   0.00000,274640135.82653,   0.00000,   0.00000,   0.00000,-456569222.29397,   0.00000
-10366656.23340,6288506.65299,-8164455.45998,  -0.00006,   0.00005,  -0.00011,20302183.69913,   0.00000,274640135.82653,   0.00000,   0.00000,   0.00000,-454337952.12740,   0.00000
-11559514.98567,6930815.21191,-9053492.06851,  -0.00007,   0.00005,  -0.00012,22531591.25348,   0.00000,274640135.82653,   0.00000,   0.00000,   0.00000,-452108544.57304,   0.00000
-12752373.73794,7573123.77082,-9934372.37788,  -0.00007,   0.00006,  -0.00013,24751278.91476,   0.00000,274640135.82653,   0.00000,   0.00000,   0.00000,-449888856.91177,   0.00000
-13945232.49021,8215432.32973,-10811174.53767,  -0.00008,   0.00006,  -0.00014,26966153.52748,   0.00000,274640135.82653,   0.00000,   0.00000,   0.00000,-447673982.29905,   0.00000
-15144208.46685,8843467.36512,-11683898.54787,  -0.00009,   0.00007,  -0.00015,29172276.81041,   0.00000,274640135.82653,   0.00000,   0.00000,   0.00000,-445467859.01612,   0.00000
-16357457.96702,9465385.17613,-12552544.40850,  -0.00009,   0.00007,  -0.00016,31379749.85907,   0.00000,274640135.82653,   0.00000,   0.00000,   0.00000,-443260385.96746,   0.00000
-17576824.69156,10073029.46361,-13417112.11955,  -0.00010,   0.00008,  -0.00017,33578553.49316,   0.00000,274640135.82653,   0.00000,   0.00000,   0.00000,-441061582.33337,   0.00000
-18802308.64048,10666400.22756,-14277601.68101,  -0.00011,   0.00009,  -0.00019,35768723.52311,   0.00000,274640135.82653,   0.00000,   0.00000,   0.00000,-438871412.30342,   0.00000
-20021675.36502,11274044.51504,-15134013.09290,  -0.00011,   0.00009,  -0.00020,37958027.87776,   0.00000,274640135.82653,   0.00000,   0.00000,   0.00000,-436682107.94877,   0.00000
-21253276.53830,11853141.75546,-15982268.20562,  -0.00012,   0.00010,  -0.00021,40129982.85141,   0.00000,274640135.82653,   0.00000,   0.00000,   0.00000,-434510152.97512,   0.00000
-22499151.23512,12426121.77151,-16830523.31835,  -0.00013,   0.00010,  -0.00022,42308356.70518,   0.00000,274640135.82653,   0.00000,   0.00000,   0.00000,-432331779.12135,   0.00000
-23730752.40840,13005219.01193,-17674700.28149,  -0.00013,   0.00011,  -0.00023,44475758.04782,   0.00000,274640135.82653,   0.00000,   0.00000,   0.00000,-430164377.77871,   0.00000
-24982744.32959,13563925.50444,-18510720.94548,  -0.00014,   0.00011,  -0.00024,46636059.46127,   0.00000,274640135.82653,   0.00000,   0.00000,   0.00000,-428004076.36526,   0.00000
-26240853.47514,14108358.47343,-19342663.45988,  -0.00015,   0.00012,  -0.00025,48787902.46118,   0.00000,274640135.82653,   0.00000,   0.00000,   0.00000,-425852233.36535,   0.00000
-27507118.91986,14660947.74157,-20174605.97429,  -0.00015,   0.00012,  -0.00026,50950069.59378,   0.00000,274640135.82653,   0.00000,   0.00000,   0.00000,-423690066.23275,   0.00000
-28771345.28979,15191107.18702,-20998392.18953,  -0.00016,   0.00013,  -0.00027,53088850.62986,   0.00000,274640135.82653,   0.00000,   0.00000,   0.00000,-421551285.19667,   0.00000
-30049845.18325,15715149.40811,-21818100.25519,  -0.00017,   0.00013,  -0.00028,55229389.09166,   0.00000,274640135.82653,   0.00000,   0.00000,   0.00000,-419410746.73487,   0.00000
-31314071.55317,16245308.85356,-22633730.17127,  -0.00017,   0.00013,  -0.00029,57358914.95859,   0.00000,274640135.82653,   0.00000,   0.00000,   0.00000,-417281220.86794,   0.00000
-32598688.67100,16755077.55111,-23445281.93777,  -0.00018,   0.00014,  -0.00030,59486506.19246,   0.00000,274640135.82653,   0.00000,   0.00000,   0.00000,-415153629.63407,   0.00000
-33883305.78883,17264846.24866,-24252755.55469,  -0.00019,   0.00014,  -0.00032,61609511.01898,   0.00000,274640135.82653,   0.00000,   0.00000,   0.00000,-413030624.80755,   0.00000
-35174040.13103,17760341.42268,-25052072.87245,  -0.00019,   0.00015,  -0.00033,63719422.89563,   0.00000,274640135.82653,   0.00000,   0.00000,   0.00000,-410920712.93090,   0.00000
-36479047.99676,18249719.37233,-25851390.19022,  -0.00020,   0.00015,  -0.00034,65836074.55742,   0.00000,274640135.82653,   0.00000,   0.00000,   0.00000,-408804061.26911,   0.00000
-37775899.56333,18730941.02282,-26646629.35839,  -0.00021,   0.00016,  -0.00035,67938011.85430,   0.00000,274640135.82653,   0.00000,   0.00000,   0.00000,-406702123.97223,   0.00000
-39087024.65343,19206045.44894,-27433712.22741,  -0.00022,   0.00016,  -0.00036,70037136.93272,   0.00000,274640135.82653,   0.00000,   0.00000,   0.00000,-404602998.89381,   0.00000
-40389993.44437,19672993.57589,-28216716.94685,  -0.00022,   0.00017,  -0.00037,72121561.78295,   0.00000,274640135.82653,   0.00000,   0.00000,   0.00000,-402518574.04358,   0.00000
-41707235.75885,20133824.47848,-28999721.66629,  -0.00023,   0.00017,  -0.00038,74212816.52917,   0.00000,274640135.82653,   0.00000,   0.00000,   0.00000,-400427319.29736,   0.00000
-43030595.29769,20580381.85754,-29774570.08657,  -0.00024,   0.00018,  -0.00039,76291188.24202,   0.00000,274640135.82653,   0.00000,   0.00000,   0.00000,-398348947.58451,   0.00000
-44353954.83653,21026939.23659,-30545340.35727,  -0.00024,   0.00018,  -0.00040,78365086.92763,   0.00000,274640135.82653,   0.00000,   0.00000,   0.00000,-396275048.89890,   0.00000
-45677314.37538,21473496.61565,-31312032.47838,  -0.00025,   0.00019,  -0.00041,80434506.86666,   0.00000,274640135.82653,   0.00000,   0.00000,   0.00000,-394205628.95987,   0.00000
-47027181.88649,21885389.72327,-32074646.44992,  -0.00026,   0.00019,  -0.00042,82498988.82628,   0.00000,274640135.82653,   0.00000,   0.00000,   0.00000,-392141147.00025,   0.00000
-48356658.64970,22317673.57879,-32829104.12230,  -0.00026,   0.00020,  -0.00043,84551187.72233,   0.00000,274640135.82653,   0.00000,   0.00000,   0.00000,-390088948.10420,   0.00000
-49706526.16082,22729566.68641,-33583561.79467,  -0.00027,   0.00020,  -0.00044,86606850.85084,   0.00000,274640135.82653,   0.00000,   0.00000,   0.00000,-388033284.97569,   0.00000
-51042120.14840,23147577.01840,-34329863.16789,  -0.00028,   0.00020,  -0.00045,88646648.40682,   0.00000,274640135.82653,   0.00000,   0.00000,   0.00000,-385993487.41971,   0.00000
-52398104.88389,23545196.60249,-35076164.54110,  -0.00028,   0.00021,  -0.00046,90689984.65269,   0.00000,274640135.82653,   0.00000,   0.00000,   0.00000,-383950151.17384,   0.00000
-53754089.61938,23942816.18658,-35814309.61516,  -0.00029,   0.00021,  -0.00047,92724210.45453,   0.00000,274640135.82653,   0.00000,   0.00000,   0.00000,-381915925.37199,   0.00000
-55116191.57923,24326162.24714,-36548376.53963,  -0.00030,   0.00022,  -0.00048,94750586.51914,   0.00000,274640135.82653,   0.00000,   0.00000,   0.00000,-379889549.30739,   0.00000
-56478293.53909,24709508.30770,-37278365.31452,  -0.00031,   0.00022,  -0.00048,96772609.07340,   0.00000,274640135.82653,   0.00000,   0.00000,   0.00000,-377867526.75313,   0.00000
-57846512.72332,25078580.84473,-38004275.93984,  -0.00031,   0.00023,  -0.00049,98786829.41812,   0.00000,274640135.82653,   0.00000,   0.00000,   0.00000,-375853306.40841,   0.00000
-59214731.90754,25447653.38175,-38726108.41557,  -0.00032,   0.00023,  -0.00050,100796715.86535,   0.00000,274640135.82653,   0.00000,   0.00000,   0.00000,-373843419.96118,   0.00000
-60582951.09177,25816725.91878,-39439784.59214,  -0.00033,   0.00024,  -0.00051,102797570.83640,   0.00000,274640135.82653,   0.00000,   0.00000,   0.00000,-371842564.99013,   0.00000
-61971561.02390,26165407.70791,-40153460.76871,  -0.00033,   0.00024,  -0.00052,104802267.78013,   0.00000,274640135.82653,   0.00000,   0.00000,   0.00000,-369837868.04639,   0.00000
-63352014.65687,26505933.19787,-40858980.64612,  -0.00034,   0.00024,  -0.00053,106787711.94543,   0.00000,274640135.82653,   0.00000,   0.00000,   0.00000,-367852423.88110,   0.00000
-64732468.28984,26846458.68783,-41564500.52353,  -0.00035,   0.00025,  -0.00054,108773551.20612,   0.00000,274640135.82653,   0.00000,   0.00000,   0.00000,-365866584.62041,   0.00000
-66127195.44634,27180866.95343,-42261864.10178,  -0.00035,   0.00025,  -0.00055,110757372.12232,   0.00000,274640135.82653,   0.00000,   0.00000,   0.00000,-363882763.70421,   0.00000
-67521922.60284,27515275.21902,-42955149.53045,  -0.00036,   0.00026,  -0.00056,112736947.35821,   0.00000,274640135.82653,   0.00000,   0.00000,   0.00000,-361903188.46832,   0.00000
-68908493.46018,27841527.18545,-43644356.80954,  -0.00037,   0.00026,  -0.00057,114701954.84344,   0.00000,274640135.82653,   0.00000,   0.00000,   0.00000,-359938180.98309,   0.00000
-70315455.06542,28147388.40399,-44329485.93905,  -0.00037,   0.00027,  -0.00058,116666383.72047,   0.00000,274640135.82653,   0.00000,   0.00000,   0.00000,-357973752.10606,   0.00000
-71722416.67066,28453249.62252,-45006458.76940,  -0.00038,   0.00027,  -0.00059,118621972.18520,   0.00000,274640135.82653,   0.00000,   0.00000,   0.00000,-356018163.64133,   0.00000
-73115104.75237,28765228.06542,-45683431.59975,  -0.00039,   0.00027,  -0.00059,120570963.83467,   0.00000,274640135.82653,   0.00000,   0.00000,   0.00000,-354069171.99186,   0.00000
-74528183.58198,29056815.76042,-46356326.28051,  -0.00040,   0.00028,  -0.00060,122519497.82847,   0.00000,274640135.82653,   0.00000,   0.00000,   0.00000,-352120637.99806,   0.00000
-75941262.41159,29348403.45542,-47021064.66212,  -0.00040,   0.00028,  -0.00061,124459232.26541,   0.00000,274640135.82653,   0.00000,   0.00000,   0.00000,-350180903.56112,   0.00000
-77360458.46558,29625717.62688,-47681724.89415,  -0.00041,   0.00029,  -0.00062,126391548.14916,   0.00000,274640135.82653,   0.00000,   0.00000,   0.00000,-348248587.67736,   0.00000
-78779654.51956,29903031.79835,-48338306.97659,  -0.00042,   0.00029,  -0.00063,128319723.95234,   0.00000,274640135.82653,   0.00000,   0.00000,   0.00000,-346320411.87419,   0.00000
-80198850.57354,30180345.96982,-48990810.90946,  -0.00042,   0.00029,  -0.00064,130243758.52057,   0.00000,274640135.82653,   0.00000,   0.00000,   0.00000,-344396377.30596,   0.00000
-81624163.85189,30443386.61776,-49639236.69274,  -0.00043,   0.00030,  -0.00065,132160437.91199,   0.00000,274640135.82653,   0.00000,   0.00000,   0.00000,-342479697.91454,   0.00000
-83049477.13025,30706427.26569,-50283584.32645,  -0.00044,   0.00030,  -0.00065,134073001.06334,   0.00000,274640135.82653,   0.00000,   0.00000,   0.00000,-340567134.76319,   0.00000
-84480907.63297,30955194.39010,-50923853.81057,  -0.00044,   0.00031,  -0.00066,135978260.73682,   0.00000,274640135.82653,   0.00000,   0.00000,   0.00000,-338661875.08971,   0.00000
-85912338.13569,31203961.51450,-51555966.99554,  -0.00045,   0.00031,  -0.00067,137874854.66713,   0.00000,274640135.82653,   0.00000,   0.00000,   0.00000,-336765281.15940,   0.00000
-87343768.63842,31452728.63891,-52184002.03092,  -0.00046,   0.00031,  -0.00068,139767371.42827,   0.00000,274640135.82653,   0.00000,   0.00000,   0.00000,-334872764.39826,   0.00000
-88781316.36551,31687222.23978,-52812037.06630,  -0.00047,   0.00032,  -0.00069,141657224.55476,   0.00000,274640135.82653,   0.00000,   0.00000,   0.00000,-332982911.27177,   0.00000
-90218864.09261,31921715.84065,-53431915.80252,  -0.00047,   0.00032,  -0.00069,143538458.96618,   0.00000,274640135.82653,   0.00000,   0.00000,   0.00000,-331101676.86035,   0.00000
-91662529.04407,32141935.91800,-54047716.38917,  -0.00048,   0.00032,  -0.00070,145412521.29916,   0.00000,274640135.82653,   0.00000,   0.00000,   0.00000,-329227614.52737,   0.00000
-93106193.99554,32362155.99534,-54659438.82623,  -0.00049,   0.00033,  -0.00071,147282559.84200,   0.00000,274640135.82653,   0.00000,   0.00000,   0.00000,-327357575.98453,   0.00000
-94549858.94700,32582376.07268,-55267083.11371,  -0.00049,   0.00033,  -0.00072,149148575.41043,   0.00000,274640135.82653,   0.00000,   0.00000,   0.00000,-325491560.41609,   0.00000
-95999641.12284,32788322.62649,-55866571.10203,  -0.00050,   0.00034,  -0.00073,151002959.24792,   0.00000,274640135.82653,   0.00000,   0.00000,   0.00000,-323637176.57861,   0.00000
-97449423.29867,32994269.18030,-56466059.09035,  -0.00051,   0.00034,  -0.00073,152857881.35177,   0.00000,274640135.82653,   0.00000,   0.00000,   0.00000,-321782254.47476,   0.00000
-98905322.69888,33185942.21058,-57061468.92909,  -0.00051,   0.00034,  -0.00074,154705751.83558,   0.00000,274640135.82653,   0.00000,   0.00000,   0.00000,-319934383.99095,   0.00000
-100346948.57555,33383732.46523,-57648722.46867,  -0.00052,   0.00035,  -0.00075,156537742.96792,   0.00000,274640135.82653,   0.00000,   0.00000,   0.00000,-318102392.85861,   0.00000
-101802847.97576,33575405.49551,-58231897.85867,  -0.00053,   0.00035,  -0.00076,158373171.32713,   0.00000,274640135.82653,   0.00000,   0.00000,   0.00000,-316266964.49940,   0.00000
-103264864.60034,33752805.00226,-58810995.09908,  -0.00054,   0.00035,  -0.00076,160201630.38658,   0.00000,274640135.82653,   0.00000,   0.00000,   0.00000,-314438505.43995,   0.00000
-104726881.22491,33930204.50901,-59386014.18992,  -0.00054,   0.00036,  -0.00077,162026167.54947,   0.00000,274640135.82653,   0.00000,   0.00000,   0.00000,-312613968.27706,   0.00000
-106195015.07386,34093330.49222,-59956955.13118,  -0.00055,   0.00036,  -0.00078,163843790.12320,   0.00000,274640135.82653,   0.00000,   0.00000,   0.00000,-310796345.70333,   0.00000
-107657031.69844,34270729.99897,-60523817.92286,  -0.00056,   0.00037,  -0.00079,165660502.48169,   0.00000,274640135.82653,   0.00000,   0.00000,   0.00000,-308979633.34484,   0.00000
-109117009.24822,34425699.68303,-61086602.56495,  -0.00056,   0.00037,  -0.00079,167459842.75467,   0.00000,274640135.82653,   0.00000,   0.00000,   0.00000,-307180293.07186,   0.00000
-110585143.09717,34588825.66624,-61641230.90789,  -0.00057,   0.00037,  -0.00080,169261321.67207,   0.00000,274640135.82653,   0.00000,   0.00000,   0.00000,-305378814.15446,   0.00000
-112045120.64696,34743795.35030,-62195859.25082,  -0.00058,   0.00038,  -0.00081,171052880.24975,   0.00000,274640135.82653,   0.00000,   0.00000,   0.00000,-303587255.57678,   0.00000
-113525488.94465,34878374.28645,-62742331.29460,  -0.00058,   0.00038,  -0.00082,172840743.27627,   0.00000,274640135.82653,   0.00000,   0.00000,   0.00000,-301799392.55026,   0.00000
-114985466.49443,35033343.97051,-63288803.33837,  -0.00059,   0.00038,  -0.00082,174624557.20206,   0.00000,274640135.82653,   0.00000,   0.00000,   0.00000,-300015578.62447,   0.00000
-116465834.79212,35167922.90666,-63827119.08299,  -0.00060,   0.00039,  -0.00083,176404757.20888,   0.00000,274640135.82653,   0.00000,   0.00000,   0.00000,-298235378.61765,   0.00000
-117938046.79065,35294345.54365,-64361356.67802,  -0.00061,   0.00039,  -0.00084,178170627.72698,   0.00000,274640135.82653,   0.00000,   0.00000,   0.00000,-296469508.09955,   0.00000
-119410258.78918,35420768.18065,-64891516.12347,  -0.00061,   0.00039,  -0.00084,179932683.00111,   0.00000,274640135.82653,   0.00000,   0.00000,   0.00000,-294707452.82542,   0.00000
-120896744.31124,35541073.59327,-65417597.41935,  -0.00062,   0.00040,  -0.00085,181698588.16273,   0.00000,274640135.82653,   0.00000,   0.00000,   0.00000,-292941547.66380,   0.00000
-122368956.30976,35667496.23026,-65939600.56564,  -0.00063,   0.00040,  -0.00086,183453042.52539,   0.00000,274640135.82653,   0.00000,   0.00000,   0.00000,-291187093.30114,   0.00000
-123847285.53266,35779645.34372,-66453447.41277,  -0.00063,   0.00040,  -0.00086,185196455.49253,   0.00000,274640135.82653,   0.00000,   0.00000,   0.00000,-289443680.33399,   0.00000
-125325614.75556,35891794.45718,-66967294.25990,  -0.00064,   0.00041,  -0.00087,186940491.41296,   0.00000,274640135.82653,   0.00000,   0.00000,   0.00000,-287699644.41357,   0.00000
-126795787.67930,35995787.27148,-67472984.80787,  -0.00065,   0.00041,  -0.00088,188665825.49943,   0.00000,274640135.82653,   0.00000,   0.00000,   0.00000,-285974310.32710,   0.00000
-128280234.12657,36093662.86141,-67978675.35584,  -0.00065,   0.00041,  -0.00088,190399515.22542,   0.00000,274640135.82653,   0.00000,   0.00000,   0.00000,-284240620.60111,   0.00000
-129764680.57384,36191538.45134,-68476209.60465,  -0.00066,   0.00042,  -0.00089,192125107.81254,   0.00000,274640135.82653,   0.00000,   0.00000,   0.00000,-282515028.01399,   0.00000
-131240970.72194,36281257.74211,-68969665.70388,  -0.00067,   0.00042,  -0.00090,193836410.16690,   0.00000,274640135.82653,   0.00000,   0.00000,   0.00000,-280803725.65963,   0.00000
-132731534.39358,36364859.80851,-69463121.80311,  -0.00067,   0.00042,  -0.00090,195556137.11582,   0.00000,274640135.82653,   0.00000,   0.00000,   0.00000,-279083998.71071,   0.00000
-134207824.54169,36454579.09928,-69948421.60318,  -0.00068,   0.00043,  -0.00091,197260009.41738,   0.00000,274640135.82653,   0.00000,   0.00000,   0.00000,-277380126.40915,   0.00000
-135690231.91417,36530024.86652,-70429643.25367,  -0.00069,   0.00043,  -0.00092,198957415.66012,   0.00000,274640135.82653,   0.00000,   0.00000,   0.00000,-275682720.16640,   0.00000
-137186912.81018,36599353.40938,-70906786.75458,  -0.00070,   0.00043,  -0.00092,200658992.43501,   0.00000,274640135.82653,   0.00000,   0.00000,   0.00000,-273981143.39152,   0.00000
-138669320.18266,36674799.17662,-71375773.95633,  -0.00070,   0.00044,  -0.00093,202344740.59836,   0.00000,274640135.82653,   0.00000,   0.00000,   0.00000,-272295395.22817,   0.00000
-140143571.25598,36742088.64470,-71844761.15807,  -0.00071,   0.00044,  -0.00093,204020533.96168,   0.00000,274640135.82653,   0.00000,   0.00000,   0.00000,-270619601.86485,   0.00000
-141632095.85283,36803260.88840,-72309670.21024,  -0.00072,   0.00044,  -0.00094,205700556.09859,   0.00000,274640135.82653,   0.00000,   0.00000,   0.00000,-268939579.72794,   0.00000
-143120620.44968,36864433.13211,-72770501.11283,  -0.00072,   0.00045,  -0.00095,207376942.94950,   0.00000,274640135.82653,   0.00000,   0.00000,   0.00000,-267263192.87703,   0.00000
-144600988.74737,36917449.07666,-73223175.71625,  -0.00073,   0.00045,  -0.00095,209034791.40439,   0.00000,274640135.82653,   0.00000,   0.00000,   0.00000,-265605344.42214,   0.00000
-146095630.56859,36964347.79683,-73675850.31968,  -0.00074,   0.00045,  -0.00096,210701254.71908,   0.00000,274640135.82653,   0.00000,   0.00000,   0.00000,-263938881.10745,   0.00000
-147575998.86627,37017363.74138,-74120368.62394,  -0.00074,   0.00046,  -0.00096,212351883.02465,   0.00000,274640135.82653,   0.00000,   0.00000,   0.00000,-262288252.80188,   0.00000
-149062484.38833,37056106.16239,-74560808.77862,  -0.00075,   0.00046,  -0.00097,213996254.91917,   0.00000,274640135.82653,   0.00000,   0.00000,   0.00000,-260643880.90736,   0.00000
-150548969.91039,37094848.58340,-75001248.93331,  -0.00076,   0.00046,  -0.00098,215641307.26832,   0.00000,274640135.82653,   0.00000,   0.00000,   0.00000,-258998828.55821,   0.00000
-152035455.43245,37133591.00442,-75433532.78883,  -0.00076,   0.00047,  -0.00098,217278529.35034,   0.00000,274640135.82653,   0.00000,   0.00000,   0.00000,-257361606.47619,   0.00000
-153513784.65535,37164177.12627,-75861738.49478,  -0.00077,   0.00047,  -0.00099,218901534.31917,   0.00000,274640135.82653,   0.00000,   0.00000,   0.00000,-255738601.50736,   0.00000
-155006387.40178,37188646.02375,-76285866.05114,  -0.00078,   0.00047,  -0.00099,220529030.46641,   0.00000,274640135.82653,   0.00000,   0.00000,   0.00000,-254111105.36012,   0.00000
-156484716.62468,37219232.14561,-76705915.45792,  -0.00078,   0.00047,  -0.00100,222144932.80879,   0.00000,274640135.82653,   0.00000,   0.00000,   0.00000,-252495203.01774,   0.00000
-157969163.07195,37235544.74393,-77121886.71512,  -0.00079,   0.00048,  -0.00100,223754701.28079,   0.00000,274640135.82653,   0.00000,   0.00000,   0.00000,-250885434.54574,   0.00000
-159467883.04275,37245740.11788,-77533779.82274,  -0.00080,   0.00048,  -0.00101,225369055.65944,   0.00000,274640135.82653,   0.00000,   0.00000,   0.00000,-249271080.16709,   0.00000
-160938055.96649,37268169.94057,-77941594.78078,  -0.00080,   0.00048,  -0.00101,226963692.60208,   0.00000,274640135.82653,   0.00000,   0.00000,   0.00000,-247676443.22445,   0.00000
-162428619.63813,37270209.01536,-78345331.58924,  -0.00081,   0.00049,  -0.00102,228560378.25282,   0.00000,274640135.82653,   0.00000,   0.00000,   0.00000,-246079757.57371,   0.00000
-163913066.08539,37286521.61368,-78744990.24812,  -0.00082,   0.00049,  -0.00102,230156134.99634,   0.00000,274640135.82653,   0.00000,   0.00000,   0.00000,-244484000.83019,   0.00000
-165395473.45787,37280404.38931,-79140570.75742,  -0.00083,   0.00049,  -0.00103,231735174.59783,   0.00000,274640135.82653,   0.00000,   0.00000,   0.00000,-242904961.22870,   0.00000
-166871763.60598,37288560.68847,-79527994.96756,  -0.00083,   0.00050,  -0.00103,233309099.87029,   0.00000,274640135.82653,   0.00000,   0.00000,   0.00000,-241331035.95624,   0.00000
-168354170.97846,37282443.46410,-79915419.17770,  -0.00084,   0.00050,  -0.00104,234881214.67029,   0.00000,274640135.82653,   0.00000,   0.00000,   0.00000,-239758921.15624,   0.00000
-169836578.35094,37276326.23973,-80298765.23826,  -0.00085,   0.00050,  -0.00104,236449881.88262,   0.00000,274640135.82653,   0.00000,   0.00000,   0.00000,-238190253.94391,   0.00000
-171310829.42426,37262052.71620,-80678033.14924,  -0.00085,   0.00050,  -0.00105,238004388.83769,   0.00000,274640135.82653,   0.00000,   0.00000,   0.00000,-236635746.98884,   0.00000
-172793236.79674,37255935.49183,-81049144.76106,  -0.00086,   0.00051,  -0.00105,239562043.51918,   0.00000,274640135.82653,   0.00000,   0.00000,   0.00000,-235078092.30735,   0.00000
-174267487.87005,37241661.96830,-81420256.37287,  -0.00087,   0.00051,  -0.00106,241109692.94803,   0.00000,274640135.82653,   0.00000,   0.00000,   0.00000,-233530442.87850,   0.00000
-175747856.16774,37213114.92124,-81783211.68553,  -0.00087,   0.00051,  -0.00106,242647339.11426,   0.00000,274640135.82653,   0.00000,   0.00000,   0.00000,-231992796.71227,   0.00000
-177222107.24106,37198841.39770,-82146166.99819,  -0.00088,   0.00051,  -0.00107,244188174.18786,   0.00000,274640135.82653,   0.00000,   0.00000,   0.00000,-230451961.63867,   0.00000
-178688202.01522,37176411.57501,-82505044.16126,  -0.00089,   0.00052,  -0.00107,245714859.53214,   0.00000,274640135.82653,   0.00000,   0.00000,   0.00000,-228925276.29439,   0.00000
-180174687.53728,37133591.00442,-82855765.02518,  -0.00089,   0.00052,  -0.00108,247239940.46294,   0.00000,274640135.82653,   0.00000,   0.00000,   0.00000,-227400195.36359,   0.00000
-181640782.31143,37111161.18173,-83206485.88909,  -0.00090,   0.00052,  -0.00108,248759864.75824,   0.00000,274640135.82653,   0.00000,   0.00000,   0.00000,-225880271.06829,   0.00000
-183112994.30996,37074457.83550,-83549050.45385,  -0.00091,   0.00053,  -0.00109,250269915.47298,   0.00000,274640135.82653,   0.00000,   0.00000,   0.00000,-224370220.35355,   0.00000
-184570932.78496,37043871.71365,-83891615.01860,  -0.00091,   0.00053,  -0.00109,251772335.31127,   0.00000,274640135.82653,   0.00000,   0.00000,   0.00000,-222867800.51526,   0.00000
-186049262.00786,36992894.84389,-84226023.28420,  -0.00092,   0.00053,  -0.00109,253273314.70696,   0.00000,274640135.82653,   0.00000,   0.00000,   0.00000,-221366821.11957,   0.00000
-187507200.48285,36962308.72204,-84560431.54979,  -0.00093,   0.00053,  -0.00110,254769035.17204,   0.00000,274640135.82653,   0.00000,   0.00000,   0.00000,-219871100.65449,   0.00000
-188977373.40659,36903175.55312,-84886683.51622,  -0.00093,   0.00054,  -0.00110,256252618.18584,   0.00000,274640135.82653,   0.00000,   0.00000,   0.00000,-218387517.64069,   0.00000
-190441429.10596,36858315.90774,-85212935.48265,  -0.00094,   0.00054,  -0.00111,257739319.56164,   0.00000,274640135.82653,   0.00000,   0.00000,   0.00000,-216900816.26489,   0.00000
-191905484.80532,36813456.26236,-85531031.14993,  -0.00094,   0.00054,  -0.00111,259218675.44690,   0.00000,274640135.82653,   0.00000,   0.00000,   0.00000,-215421460.37963,   0.00000
-193361384.20553,36760440.31781,-85849126.81720,  -0.00095,   0.00054,  -0.00112,260687978.67167,   0.00000,274640135.82653,   0.00000,   0.00000,   0.00000,-213952157.15486,   0.00000
-194823400.83011,36693150.84973,-86159066.18531,  -0.00096,   0.00055,  -0.00112,262147636.50237,   0.00000,274640135.82653,   0.00000,   0.00000,   0.00000,-212492499.32416,   0.00000
-196279300.23031,36640134.90519,-86469005.55342,  -0.00096,   0.00055,  -0.00112,263610375.34304,   0.00000,274640135.82653,   0.00000,   0.00000,   0.00000,-211029760.48349,   0.00000
-197741316.85489,36572845.43711,-86774866.77195,  -0.00097,   0.00055,  -0.00113,265067532.04157,   0.00000,274640135.82653,   0.00000,   0.00000,   0.00000,-209572603.78496,   0.00000
-199189059.95594,36511673.19341,-87072571.69132,  -0.00098,   0.00055,  -0.00113,266508926.62188,   0.00000,274640135.82653,   0.00000,   0.00000,   0.00000,-208131209.20465,   0.00000
-200636803.05698,36450500.94970,-87370276.61069,  -0.00098,   0.00056,  -0.00114,267951065.39417,   0.00000,274640135.82653,   0.00000,   0.00000,   0.00000,-206689070.43236,   0.00000
-202090663.38240,36375055.18246,-87663903.38048,  -0.00099,   0.00056,  -0.00114,269387675.60148,   0.00000,274640135.82653,   0.00000,   0.00000,   0.00000,-205252460.22505,   0.00000
-203544523.70781,36299609.41522,-87949373.85111,  -0.00100,   0.00056,  -0.00114,270817094.30305,   0.00000,274640135.82653,   0.00000,   0.00000,   0.00000,-203823041.52348,   0.00000
-204984110.50970,36230280.87236,-88234844.32174,  -0.00100,   0.00056,  -0.00115,272238707.69808,   0.00000,274640135.82653,   0.00000,   0.00000,   0.00000,-202401428.12845,   0.00000
-206429814.53595,36146678.80596,-88516236.64279,  -0.00101,   0.00057,  -0.00115,273654847.14921,   0.00000,274640135.82653,   0.00000,   0.00000,   0.00000,-200985288.67732,   0.00000
-207869401.33784,36077350.26309,-88793550.81425,  -0.00102,   0.00057,  -0.00115,275070035.47135,   0.00000,274640135.82653,   0.00000,   0.00000,   0.00000,-199570100.35518,   0.00000
-209300831.84056,35999865.42106,-89066786.83614,  -0.00102,   0.00057,  -0.00116,276471170.01634,   0.00000,274640135.82653,   0.00000,   0.00000,   0.00000,-198168965.81019,   0.00000
-210738379.56765,35908107.05550,-89335944.70845,  -0.00103,   0.00057,  -0.00116,277866885.61285,   0.00000,274640135.82653,   0.00000,   0.00000,   0.00000,-196773250.21368,   0.00000
-212169810.07038,35830622.21348,-89601024.43117,  -0.00104,   0.00058,  -0.00116,279261649.42682,   0.00000,274640135.82653,   0.00000,   0.00000,   0.00000,-195378486.39971,   0.00000
-213607357.79747,35738863.84792,-89862026.00432,  -0.00104,   0.00058,  -0.00117,280651037.98917,   0.00000,274640135.82653,   0.00000,   0.00000,   0.00000,-193989097.83736,   0.00000
-215030632.00104,35653222.70673,-90118949.42789,  -0.00105,   0.00058,  -0.00117,282028606.94901,   0.00000,274640135.82653,   0.00000,   0.00000,   0.00000,-192611528.87752,   0.00000
-216474296.95250,35547190.81764,-90371794.70187,  -0.00105,   0.00058,  -0.00117,283409528.75636,   0.00000,274640135.82653,   0.00000,   0.00000,   0.00000,-191230607.07017,   0.00000
-217883297.63253,35467666.90082,-90620561.82628,  -0.00106,   0.00059,  -0.00118,284772115.35441,   0.00000,274640135.82653,   0.00000,   0.00000,   0.00000,-189868020.47212,   0.00000
-219312689.06047,35367752.23610,-90865250.80110,  -0.00107,   0.00059,  -0.00118,286138099.07024,   0.00000,274640135.82653,   0.00000,   0.00000,   0.00000,-188502036.75629,   0.00000
-220727806.96487,35273954.79575,-91109939.77593,  -0.00107,   0.00059,  -0.00118,287496126.43898,   0.00000,274640135.82653,   0.00000,   0.00000,   0.00000,-187144009.38755,   0.00000
-222149042.09364,35165883.83187,-91346472.45159,  -0.00108,   0.00059,  -0.00119,288845006.50777,   0.00000,274640135.82653,   0.00000,   0.00000,   0.00000,-185795129.31876,   0.00000
-223570277.22241,35057812.86799,-91583005.12725,  -0.00109,   0.00060,  -0.00119,290194666.60591,   0.00000,274640135.82653,   0.00000,   0.00000,   0.00000,-184445469.22062,   0.00000
-224971121.60328,34970132.65201,-91811381.50376,  -0.00109,   0.00060,  -0.00119,291530744.55255,   0.00000,274640135.82653,   0.00000,   0.00000,   0.00000,-183109391.27398,   0.00000
-226384200.43290,34853905.38897,-92039757.88026,  -0.00110,   0.00060,  -0.00120,292863322.25446,   0.00000,274640135.82653,   0.00000,   0.00000,   0.00000,-181776813.57207,   0.00000
-227791162.03814,34751951.64946,-92264056.10718,  -0.00110,   0.00060,  -0.00120,294194947.68521,   0.00000,274640135.82653,   0.00000,   0.00000,   0.00000,-180445188.14132,   0.00000
-229189967.34422,34641841.61079,-92484276.18452,  -0.00111,   0.00060,  -0.00120,295512579.92356,   0.00000,274640135.82653,   0.00000,   0.00000,   0.00000,-179127555.90297,   0.00000
-230588772.65030,34531731.57212,-92700418.11229,  -0.00112,   0.00061,  -0.00121,296827146.18616,   0.00000,274640135.82653,   0.00000,   0.00000,   0.00000,-177812989.64037,   0.00000
-231987577.95638,34421621.53345,-92912481.89047,  -0.00112,   0.00061,  -0.00121,298138660.42007,   0.00000,274640135.82653,   0.00000,   0.00000,   0.00000,-176501475.40646,   0.00000
-233378226.96330,34303355.19561,-93120467.51907,  -0.00113,   0.00061,  -0.00121,299436199.59110,   0.00000,274640135.82653,   0.00000,   0.00000,   0.00000,-175203936.23543,   0.00000
-234783149.49375,34178971.63341,-93324374.99809,  -0.00113,   0.00061,  -0.00121,300739576.54593,   0.00000,274640135.82653,   0.00000,   0.00000,   0.00000,-173900559.28060,   0.00000
-236159524.97714,34066822.51995,-93528282.47711,  -0.00114,   0.00062,  -0.00122,302025980.88108,   0.00000,274640135.82653,   0.00000,   0.00000,   0.00000,-172614154.94545,   0.00000
-237550173.98406,33948556.18212,-93724033.65697,  -0.00115,   0.00062,  -0.00122,303314454.83042,   0.00000,274640135.82653,   0.00000,   0.00000,   0.00000,-171325680.99611,   0.00000
-238932666.69182,33822133.54513,-93919784.83683,  -0.00115,   0.00062,  -0.00122,304592755.07231,   0.00000,274640135.82653,   0.00000,   0.00000,   0.00000,-170047380.75422,   0.00000
-240315159.39957,33695710.90813,-94107379.71753,  -0.00116,   0.00062,  -0.00122,305864289.61341,   0.00000,274640135.82653,   0.00000,   0.00000,   0.00000,-168775846.21312,   0.00000
-241683378.58380,33575405.49551,-94294974.59823,  -0.00117,   0.00062,  -0.00123,307127672.92900,   0.00000,274640135.82653,   0.00000,   0.00000,   0.00000,-167512462.89753,   0.00000
-243051597.76803,33455100.08289,-94478491.32934,  -0.00117,   0.00063,  -0.00123,308388058.13356,   0.00000,274640135.82653,   0.00000,   0.00000,   0.00000,-166252077.69297,   0.00000
-244425934.17663,33320521.14673,-94657929.91088,  -0.00118,   0.00063,  -0.00123,309643448.21292,   0.00000,274640135.82653,   0.00000,   0.00000,   0.00000,-164996687.61361,   0.00000
-245779879.83732,33206332.95848,-94837368.49242,  -0.00118,   0.00063,  -0.00123,310892646.73433,   0.00000,274640135.82653,   0.00000,   0.00000,   0.00000,-163747489.09220,   0.00000
-247146059.94676,33063597.72317,-95008650.77480,  -0.00119,   0.00063,  -0.00124,312131135.12224,   0.00000,274640135.82653,   0.00000,   0.00000,   0.00000,-162509000.70429,   0.00000
-248506122.83183,32935136.01139,-95175854.90759,  -0.00119,   0.00063,  -0.00124,313368679.50754,   0.00000,274640135.82653,   0.00000,   0.00000,   0.00000,-161271456.31899,   0.00000
-249872302.94126,32792400.77607,-95343059.04039,  -0.00120,   0.00064,  -0.00124,314605020.22100,   0.00000,274640135.82653,   0.00000,   0.00000,   0.00000,-160035115.60553,   0.00000
-251218092.30280,32670056.28866,-95506185.02361,  -0.00121,   0.00064,  -0.00124,315831388.28767,   0.00000,274640135.82653,   0.00000,   0.00000,   0.00000,-158808747.53886,   0.00000
-252555725.36517,32539555.50209,-95665232.85724,  -0.00121,   0.00064,  -0.00124,317043811.58254,   0.00000,274640135.82653,   0.00000,   0.00000,   0.00000,-157596324.24399,   0.00000
-253899475.65192,32394781.19198,-95820202.54130,  -0.00122,   0.00064,  -0.00125,318251342.79130,   0.00000,274640135.82653,   0.00000,   0.00000,   0.00000,-156388793.03523,   0.00000
-255237108.71429,32264280.40541,-95971094.07577,  -0.00122,   0.00064,  -0.00125,319457915.52979,   0.00000,274640135.82653,   0.00000,   0.00000,   0.00000,-155182220.29674,   0.00000
-256580859.00104,32119506.09530,-96121985.61025,  -0.00123,   0.00065,  -0.00125,320663310.49110,   0.00000,274640135.82653,   0.00000,   0.00000,   0.00000,-153976825.33543,   0.00000
-257910335.76425,31980849.00957,-96264720.84556,  -0.00124,   0.00065,  -0.00125,321853067.31785,   0.00000,274640135.82653,   0.00000,   0.00000,   0.00000,-152787068.50868,   0.00000
-259245929.75183,31827918.40031,-96407456.08088,  -0.00124,   0.00065,  -0.00125,323041668.43350,   0.00000,274640135.82653,   0.00000,   0.00000,   0.00000,-151598467.39303,   0.00000
-260561132.99152,31695378.53894,-96546113.16661,  -0.00125,   0.00065,  -0.00126,324220204.01571,   0.00000,274640135.82653,   0.00000,   0.00000,   0.00000,-150419931.81081,   0.00000
-261882453.45557,31548565.15405,-96680692.10277,  -0.00125,   0.00065,  -0.00126,325393939.26922,   0.00000,274640135.82653,   0.00000,   0.00000,   0.00000,-149246196.55731,   0.00000
-263203773.91962,31401751.76915,-96815271.03892,  -0.00126,   0.00066,  -0.00126,326568440.47159,   0.00000,274640135.82653,   0.00000,   0.00000,   0.00000,-148071695.35494,   0.00000
-264510820.86014,31261055.60863,-96941693.67591,  -0.00126,   0.00066,  -0.00126,327727312.48422,   0.00000,274640135.82653,   0.00000,   0.00000,   0.00000,-146912823.34231,   0.00000
-265823985.02503,31106085.92457,-97068116.31290,  -0.00127,   0.00066,  -0.00126,328885057.32055,   0.00000,274640135.82653,   0.00000,   0.00000,   0.00000,-145755078.50598,   0.00000
-267131031.96556,30965389.76405,-97190460.80032,  -0.00128,   0.00066,  -0.00126,330041841.49414,   0.00000,274640135.82653,   0.00000,   0.00000,   0.00000,-144598294.33239,   0.00000
-268429922.60692,30816537.30436,-97308727.13815,  -0.00128,   0.00066,  -0.00127,331184734.21574,   0.00000,274640135.82653,   0.00000,   0.00000,   0.00000,-143455401.61079,   0.00000
-269734930.47265,30653411.32115,-97422915.32640,  -0.00129,   0.00067,  -0.00127,332322935.42013,   0.00000,274640135.82653,   0.00000,   0.00000,   0.00000,-142317200.40640,   0.00000
-271019547.59048,30510676.08583,-97537103.51465,  -0.00129,   0.00067,  -0.00127,333454563.39194,   0.00000,274640135.82653,   0.00000,   0.00000,   0.00000,-141185572.43459,   0.00000
-272310281.93268,30353667.32699,-97643135.40374,  -0.00130,   0.00067,  -0.00127,334577937.33056,   0.00000,274640135.82653,   0.00000,   0.00000,   0.00000,-140062198.49597,   0.00000
-273580625.52697,30217049.31604,-97749167.29283,  -0.00130,   0.00067,  -0.00127,335694693.29420,   0.00000,274640135.82653,   0.00000,   0.00000,   0.00000,-138945442.53233,   0.00000
-274877477.09354,30045767.03367,-97851121.03234,  -0.00131,   0.00067,  -0.00127,336814200.75669,   0.00000,274640135.82653,   0.00000,   0.00000,   0.00000,-137825935.06984,   0.00000
-276139664.38868,29900992.72356,-97953074.77185,  -0.00131,   0.00067,  -0.00127,337917812.91003,   0.00000,274640135.82653,   0.00000,   0.00000,   0.00000,-136722322.91650,   0.00000
-277422242.43172,29735827.66556,-98046872.21220,  -0.00132,   0.00068,  -0.00127,339022517.66826,   0.00000,274640135.82653,   0.00000,   0.00000,   0.00000,-135617618.15827,   0.00000
-278684429.72686,29591053.35545,-98140669.65255,  -0.00133,   0.00068,  -0.00128,340120538.57390,   0.00000,274640135.82653,   0.00000,   0.00000,   0.00000,-134519597.25263,   0.00000
-279938460.72283,29438122.74619,-98230388.94332,  -0.00133,   0.00068,  -0.00128,341204682.80300,   0.00000,274640135.82653,   0.00000,   0.00000,   0.00000,-133435453.02353,   0.00000
-281198608.94318,29270918.61339,-98316030.08451,  -0.00134,   0.00068,  -0.00128,342284255.05617,   0.00000,274640135.82653,   0.00000,   0.00000,   0.00000,-132355880.77036,   0.00000
-282452639.93915,29117988.00412,-98401671.22570,  -0.00134,   0.00068,  -0.00128,343366379.12806,   0.00000,274640135.82653,   0.00000,   0.00000,   0.00000,-131273756.69846,   0.00000
-283698514.63597,28956901.09570,-98479156.06773,  -0.00135,   0.00068,  -0.00128,344431142.16991,   0.00000,274640135.82653,   0.00000,   0.00000,   0.00000,-130208993.65662,   0.00000
-284944389.33278,28795814.18727,-98556640.90975,  -0.00135,   0.00069,  -0.00128,345496662.81762,   0.00000,274640135.82653,   0.00000,   0.00000,   0.00000,-129143473.00890,   0.00000
-286175990.50607,28640844.50322,-98630047.60220,  -0.00136,   0.00069,  -0.00128,346550106.66664,   0.00000,274640135.82653,   0.00000,   0.00000,   0.00000,-128090029.15989,   0.00000
-287407591.67935,28485874.81916,-98703454.29465,  -0.00136,   0.00069,  -0.00128,347604288.18828,   0.00000,274640135.82653,   0.00000,   0.00000,   0.00000,-127035847.63825,   0.00000
-288645310.07701,28316631.61157,-98772782.83752,  -0.00137,   0.00069,  -0.00128,348653979.54926,   0.00000,274640135.82653,   0.00000,   0.00000,   0.00000,-125986156.27727,   0.00000
-289868754.95113,28153505.62836,-98838033.23080,  -0.00137,   0.00069,  -0.00128,349691588.45886,   0.00000,274640135.82653,   0.00000,   0.00000,   0.00000,-124948547.36767,   0.00000
-291092199.82525,27990379.64514,-98899205.47451,  -0.00138,   0.00069,  -0.00129,350726488.68755,   0.00000,274640135.82653,   0.00000,   0.00000,   0.00000,-123913647.13898,   0.00000
-292301371.17584,27833370.88629,-98956299.56863,  -0.00138,   0.00070,  -0.00129,351749297.47426,   0.00000,274640135.82653,   0.00000,   0.00000,   0.00000,-122890838.35227,   0.00000
-293516659.75080,27662088.60392,-99013393.66276,  -0.00139,   0.00070,  -0.00129,352771116.90132,   0.00000,274640135.82653,   0.00000,   0.00000,   0.00000,-121869018.92521,   0.00000
-294711557.57786,27511197.06944,-99066409.60730,  -0.00139,   0.00070,  -0.00129,353782555.26634,   0.00000,274640135.82653,   0.00000,   0.00000,   0.00000,-120857580.56019,   0.00000
-295912572.62930,27346032.01144,-99115347.40227,  -0.00140,   0.00070,  -0.00129,354789581.38957,   0.00000,274640135.82653,   0.00000,   0.00000,   0.00000,-119850554.43696,   0.00000
-297119704.90510,27166593.42990,-99164285.19723,  -0.00140,   0.00070,  -0.00129,355795642.80733,   0.00000,274640135.82653,   0.00000,   0.00000,   0.00000,-118844493.01920,   0.00000
-298306446.43300,27007545.59626,-99209144.84262,  -0.00141,   0.00070,  -0.00129,356791299.94652,   0.00000,274640135.82653,   0.00000,   0.00000,   0.00000,-117848835.88001,   0.00000
-299493187.96089,26848497.76263,-99249926.33842,  -0.00142,   0.00071,  -0.00129,357784288.76703,   0.00000,274640135.82653,   0.00000,   0.00000,   0.00000,-116855847.05950,   0.00000
-300671773.18963,26681293.62983,-99290707.83423,  -0.00142,   0.00071,  -0.00129,358766849.74521,   0.00000,274640135.82653,   0.00000,   0.00000,   0.00000,-115873286.08132,   0.00000
-301836084.89484,26520206.72140,-99323333.03087,  -0.00143,   0.00071,  -0.00129,359733890.99397,   0.00000,274640135.82653,   0.00000,   0.00000,   0.00000,-114906244.83256,   0.00000
-303014670.12358,26353002.58861,-99355958.22751,  -0.00143,   0.00071,  -0.00129,360711154.17687,   0.00000,274640135.82653,   0.00000,   0.00000,   0.00000,-113928981.64966,   0.00000
-304185099.05316,26177642.15665,-99388583.42416,  -0.00144,   0.00071,  -0.00129,361677983.36703,   0.00000,274640135.82653,   0.00000,   0.00000,   0.00000,-112962152.45950,   0.00000
-305341254.45920,26008398.94906,-99413052.32164,  -0.00144,   0.00071,  -0.00129,362629315.64879,   0.00000,274640135.82653,   0.00000,   0.00000,   0.00000,-112010820.17774,   0.00000
-306491292.64088,25853429.26501,-99437521.21912,  -0.00144,   0.00072,  -0.00129,363583037.42430,   0.00000,274640135.82653,   0.00000,   0.00000,   0.00000,-111057098.40223,   0.00000
-307633174.52339,25690303.28179,-99461990.11660,  -0.00145,   0.00072,  -0.00129,364526286.75716,   0.00000,274640135.82653,   0.00000,   0.00000,   0.00000,-110113849.06937,   0.00000
-308781173.63028,25512903.77504,-99478302.71493,  -0.00145,   0.00072,  -0.00129,365461932.28711,   0.00000,274640135.82653,   0.00000,   0.00000,   0.00000,-109178203.53942,   0.00000
-309923055.51279,25349777.79182,-99494615.31325,  -0.00146,   0.00072,  -0.00129,366399955.77413,   0.00000,274640135.82653,   0.00000,   0.00000,   0.00000,-108240180.05240,   0.00000
-311056781.09615,25178495.50945,-99506849.76199,  -0.00146,   0.00072,  -0.00129,367324187.76429,   0.00000,274640135.82653,   0.00000,   0.00000,   0.00000,-107315948.06224,   0.00000
-312190506.67950,25007213.22707,-99519084.21073,  -0.00147,   0.00072,  -0.00129,368249144.07044,   0.00000,274640135.82653,   0.00000,   0.00000,   0.00000,-106390991.75608,   0.00000
-313309958.73932,24842048.16906,-99527240.50989,  -0.00147,   0.00072,  -0.00129,369161933.98001,   0.00000,274640135.82653,   0.00000,   0.00000,   0.00000,-105478201.84652,   0.00000
-314415137.27561,24683000.33543,-99531318.65947,  -0.00148,   0.00073,  -0.00129,370062546.30092,   0.00000,274640135.82653,   0.00000,   0.00000,   0.00000,-104577589.52561,   0.00000
-315540706.55981,24503561.75389,-99535396.80905,  -0.00148,   0.00073,  -0.00129,370971857.25840,   0.00000,274640135.82653,   0.00000,   0.00000,   0.00000,-103668278.56813,   0.00000
-316631611.57256,24350631.14462,-99535396.80905,  -0.00149,   0.00073,  -0.00129,371860990.04886,   0.00000,274640135.82653,   0.00000,   0.00000,   0.00000,-102779145.77767,   0.00000
-317742907.33323,24177309.78746,-99531318.65947,  -0.00149,   0.00073,  -0.00129,372755571.86281,   0.00000,274640135.82653,   0.00000,   0.00000,   0.00000,-101884563.96372,   0.00000
-318831773.27120,24001949.35550,-99527240.50989,  -0.00150,   0.00073,  -0.00129,373630020.34853,   0.00000,274640135.82653,   0.00000,   0.00000,   0.00000,-101010115.47800,   0.00000
-319928795.50833,23834745.22270,-99519084.21073,  -0.00150,   0.00073,  -0.00129,374513143.92423,   0.00000,274640135.82653,   0.00000,   0.00000,   0.00000,-100126991.90230,   0.00000
-320997270.69839,23679775.53865,-99506849.76199,  -0.00151,   0.00073,  -0.00129,375374429.51365,   0.00000,274640135.82653,   0.00000,   0.00000,   0.00000,-99265706.31288,   0.00000
-322086136.63636,23504415.10669,-99494615.31325,  -0.00151,   0.00074,  -0.00129,376244493.15232,   0.00000,274640135.82653,   0.00000,   0.00000,   0.00000,-98395642.67420,   0.00000
-323160729.05080,23335171.89910,-99478302.71493,  -0.00152,   0.00074,  -0.00129,377102368.52183,   0.00000,274640135.82653,   0.00000,   0.00000,   0.00000,-97537767.30470,   0.00000
-324221047.94171,23172045.91589,-99457911.96702,  -0.00152,   0.00074,  -0.00129,377948045.91196,   0.00000,274640135.82653,   0.00000,   0.00000,   0.00000,-96692089.91457,   0.00000
-325281366.83261,23008919.93267,-99437521.21912,  -0.00152,   0.00074,  -0.00129,378794420.24482,   0.00000,274640135.82653,   0.00000,   0.00000,   0.00000,-95845715.58171,   0.00000
-326333529.42436,22837637.65029,-99413052.32164,  -0.00153,   0.00074,  -0.00129,379627030.03587,   0.00000,274640135.82653,   0.00000,   0.00000,   0.00000,-95013105.79066,   0.00000
-327385692.01610,22666355.36792,-99388583.42416,  -0.00153,   0.00074,  -0.00129,380460335.62688,   0.00000,274640135.82653,   0.00000,   0.00000,   0.00000,-94179800.19965,   0.00000
-328437854.60785,22495073.08554,-99360036.37709,  -0.00154,   0.00074,  -0.00129,381291144.24881,   0.00000,274640135.82653,   0.00000,   0.00000,   0.00000,-93348991.57772,   0.00000
-329475743.67606,22329908.02753,-99327411.18045,  -0.00154,   0.00074,  -0.00129,382109745.16810,   0.00000,274640135.82653,   0.00000,   0.00000,   0.00000,-92530390.65842,   0.00000
-330499359.22075,22170860.19390,-99294785.98381,  -0.00155,   0.00075,  -0.00129,382919302.39311,   0.00000,274640135.82653,   0.00000,   0.00000,   0.00000,-91720833.43342,   0.00000
-331529091.98980,21997538.83673,-99258082.63758,  -0.00155,   0.00075,  -0.00129,383724843.51899,   0.00000,274640135.82653,   0.00000,   0.00000,   0.00000,-90915292.30754,   0.00000
-332538434.01095,21844608.22746,-99221379.29136,  -0.00156,   0.00075,  -0.00129,384522840.85611,   0.00000,274640135.82653,   0.00000,   0.00000,   0.00000,-90117294.97042,   0.00000
-333553893.25647,21677404.09467,-99180597.79556,  -0.00156,   0.00075,  -0.00129,385316837.19188,   0.00000,274640135.82653,   0.00000,   0.00000,   0.00000,-89323298.63465,   0.00000
-334569352.50200,21510199.96187,-99135738.15017,  -0.00156,   0.00075,  -0.00129,386108375.64753,   0.00000,274640135.82653,   0.00000,   0.00000,   0.00000,-88531760.17900,   0.00000
-335570538.22399,21349113.05344,-99090878.50479,  -0.00157,   0.00075,  -0.00129,386890825.32234,   0.00000,274640135.82653,   0.00000,   0.00000,   0.00000,-87749310.50419,   0.00000
-336563567.64682,21179869.84586,-99041940.70982,  -0.00157,   0.00075,  -0.00129,387659531.76745,   0.00000,274640135.82653,   0.00000,   0.00000,   0.00000,-86980604.05908,   0.00000
-337556597.06965,21010626.63827,-98993002.91486,  -0.00158,   0.00075,  -0.00129,388428915.20276,   0.00000,274640135.82653,   0.00000,   0.00000,   0.00000,-86211220.62377,   0.00000
-338543509.26810,20855656.95421,-98939986.97031,  -0.00158,   0.00076,  -0.00129,389197348.97990,   0.00000,274640135.82653,   0.00000,   0.00000,   0.00000,-85442786.84663,   0.00000
-339507991.64387,20698648.19537,-98882892.87619,  -0.00159,   0.00076,  -0.00129,389942234.71742,   0.00000,274640135.82653,   0.00000,   0.00000,   0.00000,-84697901.10911,   0.00000
-340492864.76754,20521248.68862,-98825798.78206,  -0.00159,   0.00076,  -0.00128,390696131.12325,   0.00000,274640135.82653,   0.00000,   0.00000,   0.00000,-83944004.70328,   0.00000
-341457347.14331,20364239.92977,-98764626.53835,  -0.00159,   0.00076,  -0.00128,391439262.07632,   0.00000,274640135.82653,   0.00000,   0.00000,   0.00000,-83200873.75021,   0.00000
-342407555.99554,20213348.39530,-98703454.29465,  -0.00160,   0.00076,  -0.00128,392173217.78495,   0.00000,274640135.82653,   0.00000,   0.00000,   0.00000,-82466918.04158,   0.00000
-343363882.07215,20048183.33729,-98638203.90136,  -0.00160,   0.00076,  -0.00128,392903287.12373,   0.00000,274640135.82653,   0.00000,   0.00000,   0.00000,-81736848.70280,   0.00000
-344320208.14875,19883018.27929,-98572953.50808,  -0.00161,   0.00076,  -0.00128,393634026.27055,   0.00000,274640135.82653,   0.00000,   0.00000,   0.00000,-81006109.55598,   0.00000
-345247987.17830,19730087.67002,-98503624.96521,  -0.00161,   0.00076,  -0.00128,394342635.86242,   0.00000,274640135.82653,   0.00000,   0.00000,   0.00000,-80297499.96411,   0.00000
-346196156.95574,19556766.31285,-98430218.27276,  -0.00161,   0.00076,  -0.00128,395057270.71806,   0.00000,274640135.82653,   0.00000,   0.00000,   0.00000,-79582865.10847,   0.00000
-347123935.98529,19403835.70359,-98356811.58031,  -0.00162,   0.00077,  -0.00128,395764145.35592,   0.00000,274640135.82653,   0.00000,   0.00000,   0.00000,-78875990.47060,   0.00000
-348043558.71567,19242748.79516,-98279326.73829,  -0.00162,   0.00077,  -0.00128,396457305.52885,   0.00000,274640135.82653,   0.00000,   0.00000,   0.00000,-78182830.29768,   0.00000
-348963181.44605,19081661.88674,-98201841.89626,  -0.00162,   0.00077,  -0.00128,397151123.02502,   0.00000,274640135.82653,   0.00000,   0.00000,   0.00000,-77489012.80151,   0.00000
-349868530.65290,18926692.20268,-98124357.05423,  -0.00163,   0.00077,  -0.00128,397835683.10541,   0.00000,274640135.82653,   0.00000,   0.00000,   0.00000,-76804452.72112,   0.00000
-350773879.85975,18771722.51862,-98038715.91304,  -0.00163,   0.00077,  -0.00127,398514857.62933,   0.00000,274640135.82653,   0.00000,   0.00000,   0.00000,-76125278.19720,   0.00000
-351664955.54307,18622870.05894,-97957152.92143,  -0.00164,   0.00077,  -0.00127,399187768.40370,   0.00000,274640135.82653,   0.00000,   0.00000,   0.00000,-75452367.42283,   0.00000
-352562148.45076,18459744.07572,-97867433.63066,  -0.00164,   0.00077,  -0.00127,399853900.06739,   0.00000,274640135.82653,   0.00000,   0.00000,   0.00000,-74786235.75914,   0.00000
-353438950.61055,18317008.84041,-97781792.48948,  -0.00164,   0.00077,  -0.00127,400515150.56461,   0.00000,274640135.82653,   0.00000,   0.00000,   0.00000,-74124985.26192,   0.00000
-354321869.99471,18160000.08156,-97687995.04913,  -0.00165,   0.00077,  -0.00127,401169654.23330,   0.00000,274640135.82653,   0.00000,   0.00000,   0.00000,-73470481.59323,   0.00000
-355190515.85534,18009108.54709,-97594197.60878,  -0.00165,   0.00077,  -0.00127,401814854.52865,   0.00000,274640135.82653,   0.00000,   0.00000,   0.00000,-72825281.29788,   0.00000
-356065278.94033,17843943.48908,-97500400.16843,  -0.00165,   0.00078,  -0.00127,402459292.35259,   0.00000,274640135.82653,   0.00000,   0.00000,   0.00000,-72180843.47394,   0.00000
-356919651.27743,17699169.17898,-97402524.57850,  -0.00166,   0.00078,  -0.00127,403092836.36860,   0.00000,274640135.82653,   0.00000,   0.00000,   0.00000,-71547299.45793,   0.00000
-357780140.83890,17540121.34534,-97304648.98857,  -0.00166,   0.00078,  -0.00126,403725620.02571,   0.00000,274640135.82653,   0.00000,   0.00000,   0.00000,-70914515.80082,   0.00000
-358620239.65246,17401464.25961,-97202695.24906,  -0.00167,   0.00078,  -0.00126,404347494.63907,   0.00000,274640135.82653,   0.00000,   0.00000,   0.00000,-70292641.18746,   0.00000
-359452182.16686,17254650.87471,-97096663.35997,  -0.00167,   0.00078,  -0.00126,404955679.37453,   0.00000,274640135.82653,   0.00000,   0.00000,   0.00000,-69684456.45200,   0.00000
-360284124.68127,17107837.48982,-96990631.47088,  -0.00167,   0.00078,  -0.00126,405564493.80523,   0.00000,274640135.82653,   0.00000,   0.00000,   0.00000,-69075642.02130,   0.00000
-361122184.42004,16946750.58139,-96884599.58179,  -0.00168,   0.00078,  -0.00126,406172560.53642,   0.00000,274640135.82653,   0.00000,   0.00000,   0.00000,-68467575.29011,   0.00000
-361939853.41091,16806054.42087,-96774489.54311,  -0.00168,   0.00078,  -0.00126,406769698.11529,   0.00000,274640135.82653,   0.00000,   0.00000,   0.00000,-67870437.71124,   0.00000
-362749366.10262,16657201.96118,-96664379.50444,  -0.00168,   0.00078,  -0.00126,407356061.98071,   0.00000,274640135.82653,   0.00000,   0.00000,   0.00000,-67284073.84582,   0.00000
-363552761.56996,16522623.02503,-96550191.31619,  -0.00169,   0.00078,  -0.00126,407941504.47764,   0.00000,274640135.82653,   0.00000,   0.00000,   0.00000,-66698631.34889,   0.00000
-364362274.26168,16373770.56534,-96436003.12794,  -0.00169,   0.00079,  -0.00125,408526204.35778,   0.00000,274640135.82653,   0.00000,   0.00000,   0.00000,-66113931.46875,   0.00000
-365157513.42986,16231035.33003,-96317736.79011,  -0.00169,   0.00079,  -0.00125,409098594.33243,   0.00000,274640135.82653,   0.00000,   0.00000,   0.00000,-65541541.49410,   0.00000
-365944596.29888,16080143.79555,-96195392.30270,  -0.00170,   0.00079,  -0.00125,409657321.20314,   0.00000,274640135.82653,   0.00000,   0.00000,   0.00000,-64982814.62339,   0.00000
-366725561.94352,15943525.78461,-96077125.96486,  -0.00170,   0.00079,  -0.00125,410220885.19597,   0.00000,274640135.82653,   0.00000,   0.00000,   0.00000,-64419250.63056,   0.00000
-367498371.28901,15798751.47451,-95950703.32787,  -0.00170,   0.00079,  -0.00125,410767916.57924,   0.00000,274640135.82653,   0.00000,   0.00000,   0.00000,-63872219.24729,   0.00000
-368265063.41013,15668250.68793,-95828358.84046,  -0.00171,   0.00079,  -0.00125,411319758.11450,   0.00000,274640135.82653,   0.00000,   0.00000,   0.00000,-63320377.71203,   0.00000
-369023599.23208,15529593.60220,-95697858.05389,  -0.00171,   0.00079,  -0.00124,411855085.80282,   0.00000,274640135.82653,   0.00000,   0.00000,   0.00000,-62785050.02371,   0.00000
-369782135.05404,15390936.51647,-95571435.41689,  -0.00171,   0.00079,  -0.00124,412393864.52814,   0.00000,274640135.82653,   0.00000,   0.00000,   0.00000,-62246271.29839,   0.00000
-370526397.35247,15258396.65510,-95440934.63032,  -0.00172,   0.00079,  -0.00124,412920312.59651,   0.00000,274640135.82653,   0.00000,   0.00000,   0.00000,-61719823.23002,   0.00000
-371276776.87526,15111583.27021,-95306355.69417,  -0.00172,   0.00079,  -0.00124,413443211.61795,   0.00000,274640135.82653,   0.00000,   0.00000,   0.00000,-61196924.20858,   0.00000
-372006765.65015,14985160.63321,-95171776.75801,  -0.00172,   0.00079,  -0.00124,413957934.02523,   0.00000,274640135.82653,   0.00000,   0.00000,   0.00000,-60682201.80130,   0.00000
-372728598.12589,14850581.69706,-95037197.82186,  -0.00172,   0.00079,  -0.00124,414461808.90937,   0.00000,274640135.82653,   0.00000,   0.00000,   0.00000,-60178326.91716,   0.00000
-373450430.60162,14716002.76091,-94898540.73613,  -0.00173,   0.00080,  -0.00123,414963470.10686,   0.00000,274640135.82653,   0.00000,   0.00000,   0.00000,-59676665.71967,   0.00000
-374172263.07735,14581423.82475,-94755805.50081,  -0.00173,   0.00080,  -0.00123,415462937.88605,   0.00000,274640135.82653,   0.00000,   0.00000,   0.00000,-59177197.94048,   0.00000
-374879822.02955,14452962.11297,-94613070.26550,  -0.00173,   0.00080,  -0.00123,415952872.49717,   0.00000,274640135.82653,   0.00000,   0.00000,   0.00000,-58687263.32936,   0.00000
-375573107.45822,14330617.62556,-94470335.03018,  -0.00174,   0.00080,  -0.00123,416433251.36560,   0.00000,274640135.82653,   0.00000,   0.00000,   0.00000,-58206884.46093,   0.00000
-376272510.11126,14193999.61461,-94327599.79487,  -0.00174,   0.00080,  -0.00123,416912906.49629,   0.00000,274640135.82653,   0.00000,   0.00000,   0.00000,-57727229.33024,   0.00000
-376965795.53993,14071655.12720,-94176708.26039,  -0.00174,   0.00080,  -0.00122,417388922.09898,   0.00000,274640135.82653,   0.00000,   0.00000,   0.00000,-57251213.72755,   0.00000
-377650924.66944,13941154.34063,-94029894.87550,  -0.00175,   0.00080,  -0.00122,417856829.43638,   0.00000,274640135.82653,   0.00000,   0.00000,   0.00000,-56783306.39015,   0.00000
-378321780.27542,13816770.77843,-93879003.34102,  -0.00175,   0.00080,  -0.00122,418312394.87848,   0.00000,274640135.82653,   0.00000,   0.00000,   0.00000,-56327740.94805,   0.00000
-378992635.88139,13692387.21622,-93728111.80655,  -0.00175,   0.00080,  -0.00122,418768540.21172,   0.00000,274640135.82653,   0.00000,   0.00000,   0.00000,-55871595.61481,   0.00000
-379649217.96384,13574120.87839,-93573142.12249,  -0.00175,   0.00080,  -0.00122,419212343.10816,   0.00000,274640135.82653,   0.00000,   0.00000,   0.00000,-55427792.71837,   0.00000
-380305800.04629,13455854.54056,-93414094.28886,  -0.00176,   0.00080,  -0.00121,419654000.49569,   0.00000,274640135.82653,   0.00000,   0.00000,   0.00000,-54986135.33084,   0.00000
-380954225.82957,13329431.90357,-93259124.60480,  -0.00176,   0.00080,  -0.00121,420087481.73448,   0.00000,274640135.82653,   0.00000,   0.00000,   0.00000,-54552654.09205,   0.00000
-381596534.38849,13217282.79011,-93100076.77117,  -0.00176,   0.00080,  -0.00121,420520099.17813,   0.00000,274640135.82653,   0.00000,   0.00000,   0.00000,-54120036.64840,   0.00000
-382230686.64824,13096977.37748,-92936950.78795,  -0.00176,   0.00080,  -0.00121,420939099.81529,   0.00000,274640135.82653,   0.00000,   0.00000,   0.00000,-53701036.01124,   0.00000
-382850565.38446,12982789.18923,-92773824.80473,  -0.00177,   0.00081,  -0.00121,421348459.25718,   0.00000,274640135.82653,   0.00000,   0.00000,   0.00000,-53291676.56935,   0.00000
-383484717.64422,12862483.77661,-92610698.82152,  -0.00177,   0.00081,  -0.00120,421768612.77657,   0.00000,274640135.82653,   0.00000,   0.00000,   0.00000,-52871523.04996,   0.00000
-384090322.85691,12754412.81273,-92447572.83830,  -0.00177,   0.00081,  -0.00120,422168874.81752,   0.00000,274640135.82653,   0.00000,   0.00000,   0.00000,-52471261.00901,   0.00000
-384695928.06960,12646341.84885,-92276290.55592,  -0.00178,   0.00081,  -0.00120,422564343.79393,   0.00000,274640135.82653,   0.00000,   0.00000,   0.00000,-52075792.03259,   0.00000
-385307650.50666,12523997.36144,-92109086.42313,  -0.00178,   0.00081,  -0.00120,422961794.31749,   0.00000,274640135.82653,   0.00000,   0.00000,   0.00000,-51678341.50904,   0.00000
-385898982.19582,12422043.62193,-91937804.14075,  -0.00178,   0.00081,  -0.00120,423348160.62985,   0.00000,274640135.82653,   0.00000,   0.00000,   0.00000,-51291975.19668,   0.00000
-386482157.58582,12311933.58326,-91766521.85837,  -0.00178,   0.00081,  -0.00119,423723575.10293,   0.00000,274640135.82653,   0.00000,   0.00000,   0.00000,-50916560.72360,   0.00000
-387065332.97582,12201823.54458,-91591161.42641,  -0.00178,   0.00081,  -0.00119,424096901.58855,   0.00000,274640135.82653,   0.00000,   0.00000,   0.00000,-50543234.23798,   0.00000
-387634234.84228,12097830.73028,-91415800.99446,  -0.00179,   0.00081,  -0.00119,424460524.55193,   0.00000,274640135.82653,   0.00000,   0.00000,   0.00000,-50179611.27460,   0.00000
-388203136.70875,11993837.91598,-91240440.56250,  -0.00179,   0.00081,  -0.00119,424824701.47197,   0.00000,274640135.82653,   0.00000,   0.00000,   0.00000,-49815434.35456,   0.00000
-388772038.57522,11889845.10168,-91061001.98096,  -0.00179,   0.00081,  -0.00118,425186810.65895,   0.00000,274640135.82653,   0.00000,   0.00000,   0.00000,-49453325.16758,   0.00000
-389312393.39462,11798086.73612,-90881563.39942,  -0.00179,   0.00081,  -0.00118,425528908.04711,   0.00000,274640135.82653,   0.00000,   0.00000,   0.00000,-49111227.77942,   0.00000
-389873138.96193,11685937.62266,-90698046.66830,  -0.00180,   0.00081,  -0.00118,425877994.04659,   0.00000,274640135.82653,   0.00000,   0.00000,   0.00000,-48762141.77994,   0.00000
-390413493.78133,11594179.25710,-90518608.08677,  -0.00180,   0.00081,  -0.00118,426221187.15566,   0.00000,274640135.82653,   0.00000,   0.00000,   0.00000,-48418948.67087,   0.00000
-390945692.30157,11494264.59238,-90331013.20607,  -0.00180,   0.00081,  -0.00117,426548193.66251,   0.00000,274640135.82653,   0.00000,   0.00000,   0.00000,-48091942.16402,   0.00000
-391463617.29829,11400467.15203,-90147496.47495,  -0.00180,   0.00082,  -0.00117,426868030.88528,   0.00000,274640135.82653,   0.00000,   0.00000,   0.00000,-47772104.94125,   0.00000
-391995815.81853,11300552.48731,-89959901.59425,  -0.00181,   0.00082,  -0.00117,427196141.22995,   0.00000,274640135.82653,   0.00000,   0.00000,   0.00000,-47443994.59658,   0.00000
-392499467.29171,11212872.27134,-89768228.56397,  -0.00181,   0.00082,  -0.00117,427501592.16160,   0.00000,274640135.82653,   0.00000,   0.00000,   0.00000,-47138543.66493,   0.00000
-393017392.28842,11119074.83099,-89580633.68327,  -0.00181,   0.00082,  -0.00116,427820481.10664,   0.00000,274640135.82653,   0.00000,   0.00000,   0.00000,-46819654.71989,   0.00000
-393506770.23807,11037511.83938,-89388960.65299,  -0.00181,   0.00082,  -0.00116,428116688.98333,   0.00000,274640135.82653,   0.00000,   0.00000,   0.00000,-46523446.84320,   0.00000
-394002265.41209,10941675.32424,-89193209.47313,  -0.00181,   0.00082,  -0.00116,428409659.23082,   0.00000,274640135.82653,   0.00000,   0.00000,   0.00000,-46230476.59571,   0.00000
-394491643.36174,10860112.33263,-88997458.29327,  -0.00182,   0.00082,  -0.00116,428704402.85972,   0.00000,274640135.82653,   0.00000,   0.00000,   0.00000,-45935732.96681,   0.00000
-394972865.01223,10770393.04186,-88801707.11341,  -0.00182,   0.00082,  -0.00115,428988121.06871,   0.00000,274640135.82653,   0.00000,   0.00000,   0.00000,-45652014.75781,   0.00000
-395454086.66272,10680673.75109,-88605955.93355,  -0.00182,   0.00082,  -0.00115,429272377.18481,   0.00000,274640135.82653,   0.00000,   0.00000,   0.00000,-45367758.64172,   0.00000
-395921034.78967,10597071.68469,-88406126.60411,  -0.00182,   0.00082,  -0.00115,429544289.87916,   0.00000,274640135.82653,   0.00000,   0.00000,   0.00000,-45095845.94737,   0.00000
-396373709.39310,10519586.84267,-88206297.27467,  -0.00182,   0.00082,  -0.00115,429806374.42949,   0.00000,274640135.82653,   0.00000,   0.00000,   0.00000,-44833761.39704,   0.00000
-396826383.99653,10442102.00064,-88002389.79565,  -0.00183,   0.00082,  -0.00114,430066483.15978,   0.00000,274640135.82653,   0.00000,   0.00000,   0.00000,-44573652.66675,   0.00000
-397279058.59995,10364617.15861,-87802560.46621,  -0.00183,   0.00082,  -0.00114,430329629.36765,   0.00000,274640135.82653,   0.00000,   0.00000,   0.00000,-44310506.45888,   0.00000
-397717459.67984,10293249.54095,-87594574.83761,  -0.00183,   0.00082,  -0.00114,430577939.98593,   0.00000,274640135.82653,   0.00000,   0.00000,   0.00000,-44062195.84060,   0.00000
-398147704.46058,10213725.62414,-87390667.35859,  -0.00183,   0.00082,  -0.00114,430817678.83147,   0.00000,274640135.82653,   0.00000,   0.00000,   0.00000,-43822456.99506,   0.00000
-398571832.01694,10148475.23085,-87182681.72999,  -0.00183,   0.00082,  -0.00113,431056670.48857,   0.00000,274640135.82653,   0.00000,   0.00000,   0.00000,-43583465.33796,   0.00000
-399002076.79767,10068951.31403,-86974696.10139,  -0.00184,   0.00082,  -0.00113,431294988.19333,   0.00000,274640135.82653,   0.00000,   0.00000,   0.00000,-43345147.63320,   0.00000
-399418048.05488,9995544.62158,-86766710.47279,  -0.00184,   0.00082,  -0.00113,431523435.15162,   0.00000,274640135.82653,   0.00000,   0.00000,   0.00000,-43116700.67491,   0.00000
-399819745.78855,9928255.15351,-86554646.69461,  -0.00184,   0.00082,  -0.00113,431739542.33739,   0.00000,274640135.82653,   0.00000,   0.00000,   0.00000,-42900593.48914,   0.00000
-400221443.52222,9860965.68543,-86342582.91643,  -0.00184,   0.00083,  -0.00112,431956175.20119,   0.00000,274640135.82653,   0.00000,   0.00000,   0.00000,-42683960.62534,   0.00000
-400623141.25589,9793676.21735,-86126440.98867,  -0.00184,   0.00083,  -0.00112,432170894.72377,   0.00000,274640135.82653,   0.00000,   0.00000,   0.00000,-42469241.10276,   0.00000
-401010565.46603,9732503.97365,-85914377.21048,  -0.00184,   0.00083,  -0.00112,432378159.49149,   0.00000,274640135.82653,   0.00000,   0.00000,   0.00000,-42261976.33504,   0.00000
-401383716.15263,9677448.95431,-85698235.28272,  -0.00185,   0.00083,  -0.00111,432573084.72285,   0.00000,274640135.82653,   0.00000,   0.00000,   0.00000,-42067051.10368,   0.00000
-401762984.06361,9608120.41144,-85478015.20538,  -0.00185,   0.00083,  -0.00111,432764915.07473,   0.00000,274640135.82653,   0.00000,   0.00000,   0.00000,-41875220.75180,   0.00000
-402136134.75022,9553065.39211,-85261873.27762,  -0.00185,   0.00083,  -0.00111,432960882.55922,   0.00000,274640135.82653,   0.00000,   0.00000,   0.00000,-41679253.26731,   0.00000
-402501129.13766,9489854.07361,-85041653.20028,  -0.00185,   0.00083,  -0.00111,433143326.86136,   0.00000,274640135.82653,   0.00000,   0.00000,   0.00000,-41496808.96517,   0.00000
-402845732.77721,9447033.50302,-84817354.97335,  -0.00185,   0.00083,  -0.00110,433314642.15618,   0.00000,274640135.82653,   0.00000,   0.00000,   0.00000,-41325493.67035,   0.00000
-403196453.64112,9389939.40889,-84597134.89601,  -0.00185,   0.00083,  -0.00110,433487678.20815,   0.00000,274640135.82653,   0.00000,   0.00000,   0.00000,-41152457.61838,   0.00000
-403547174.50504,9332845.31477,-84372836.66909,  -0.00185,   0.00083,  -0.00110,433658845.30620,   0.00000,274640135.82653,   0.00000,   0.00000,   0.00000,-40981290.52033,   0.00000
-403883621.84542,9281868.44501,-84148538.44217,  -0.00186,   0.00083,  -0.00109,433820074.78646,   0.00000,274640135.82653,   0.00000,   0.00000,   0.00000,-40820061.04007,   0.00000
-404220069.18581,9230891.57526,-83924240.21524,  -0.00186,   0.00083,  -0.00109,433981819.44658,   0.00000,274640135.82653,   0.00000,   0.00000,   0.00000,-40658316.37994,   0.00000
-404542243.00266,9186031.92987,-83695863.83874,  -0.00186,   0.00083,  -0.00109,434131247.88315,   0.00000,274640135.82653,   0.00000,   0.00000,   0.00000,-40508887.94338,   0.00000
-404850143.29598,9147289.50886,-83467487.46224,  -0.00186,   0.00083,  -0.00109,434270718.89588,   0.00000,274640135.82653,   0.00000,   0.00000,   0.00000,-40369416.93065,   0.00000
-405158043.58930,9108547.08784,-83239111.08574,  -0.00186,   0.00083,  -0.00108,434410699.54163,   0.00000,274640135.82653,   0.00000,   0.00000,   0.00000,-40229436.28490,   0.00000
-405472061.10699,9055531.14330,-83006656.55965,  -0.00186,   0.00083,  -0.00108,434547667.07390,   0.00000,274640135.82653,   0.00000,   0.00000,   0.00000,-40092468.75263,   0.00000
-405765687.87678,9022905.94666,-82774202.03357,  -0.00186,   0.00083,  -0.00108,434675853.36066,   0.00000,274640135.82653,   0.00000,   0.00000,   0.00000,-39964282.46587,   0.00000
-406065431.87094,8976007.22648,-82541747.50749,  -0.00187,   0.00083,  -0.00107,434803369.53838,   0.00000,274640135.82653,   0.00000,   0.00000,   0.00000,-39836766.28815,   0.00000
-406344785.11720,8949499.25421,-82309292.98140,  -0.00187,   0.00083,  -0.00107,434922084.30189,   0.00000,274640135.82653,   0.00000,   0.00000,   0.00000,-39718051.52464,   0.00000
-406630255.58783,8908717.75840,-82072760.30574,  -0.00187,   0.00083,  -0.00107,435037812.31428,   0.00000,274640135.82653,   0.00000,   0.00000,   0.00000,-39602323.51225,   0.00000
-406901452.53493,8874053.48697,-81836227.63008,  -0.00187,   0.00083,  -0.00106,435143551.73001,   0.00000,274640135.82653,   0.00000,   0.00000,   0.00000,-39496584.09652,   0.00000
-407172649.48202,8839389.21554,-81599694.95441,  -0.00187,   0.00083,  -0.00106,435249801.22289,   0.00000,274640135.82653,   0.00000,   0.00000,   0.00000,-39390334.60364,   0.00000
-407429572.90559,8810842.16847,-81359084.12917,  -0.00187,   0.00083,  -0.00106,435343757.49561,   0.00000,274640135.82653,   0.00000,   0.00000,   0.00000,-39296378.33092,   0.00000
-407686496.32916,8782295.12141,-81118473.30392,  -0.00187,   0.00083,  -0.00105,435438228.98087,   0.00000,274640135.82653,   0.00000,   0.00000,   0.00000,-39201906.84566,   0.00000
-407929146.22919,8759865.29872,-80877862.47868,  -0.00187,   0.00084,  -0.00105,435522690.42276,   0.00000,274640135.82653,   0.00000,   0.00000,   0.00000,-39117445.40377,   0.00000
-408171796.12922,8737435.47603,-80637251.65343,  -0.00187,   0.00084,  -0.00105,435607658.02328,   0.00000,274640135.82653,   0.00000,   0.00000,   0.00000,-39032477.80325,   0.00000
-408414446.02926,8715005.65333,-80396640.82819,  -0.00188,   0.00084,  -0.00105,435693131.48631,   0.00000,274640135.82653,   0.00000,   0.00000,   0.00000,-38947004.34022,   0.00000
-408642822.40576,8698693.05501,-80151951.85337,  -0.00188,   0.00084,  -0.00104,435766322.93417,   0.00000,274640135.82653,   0.00000,   0.00000,   0.00000,-38873812.89236,   0.00000
-408877316.00663,8668106.93316,-79907262.87854,  -0.00188,   0.00084,  -0.00104,435838846.25226,   0.00000,274640135.82653,   0.00000,   0.00000,   0.00000,-38801289.57427,   0.00000
-409091418.85961,8657911.55921,-79658495.75414,  -0.00188,   0.00084,  -0.00104,435900279.39735,   0.00000,274640135.82653,   0.00000,   0.00000,   0.00000,-38739856.42918,   0.00000
-409291248.18905,8653833.40963,-79413806.77931,  -0.00188,   0.00084,  -0.00103,435953909.34848,   0.00000,274640135.82653,   0.00000,   0.00000,   0.00000,-38686226.47805,   0.00000
-409511468.26639,8629364.51215,-79165039.65491,  -0.00188,   0.00084,  -0.00103,436015186.45093,   0.00000,274640135.82653,   0.00000,   0.00000,   0.00000,-38624949.37560,   0.00000
-409703141.29667,8617130.06341,-78916272.53050,  -0.00188,   0.00084,  -0.00103,436055866.12859,   0.00000,274640135.82653,   0.00000,   0.00000,   0.00000,-38584269.69794,   0.00000
-409902970.62611,8613051.91382,-78667505.40610,  -0.00188,   0.00084,  -0.00102,436108787.77831,   0.00000,274640135.82653,   0.00000,   0.00000,   0.00000,-38531348.04822,   0.00000
-410094643.65639,8600817.46508,-78414660.13211,  -0.00188,   0.00084,  -0.00102,436148273.82569,   0.00000,274640135.82653,   0.00000,   0.00000,   0.00000,-38491862.00084,   0.00000
-410272043.16313,8594700.24071,-78161814.85813,  -0.00188,   0.00084,  -0.00102,436177706.22461,   0.00000,274640135.82653,   0.00000,   0.00000,   0.00000,-38462429.60192,   0.00000
-410443325.44551,8602856.53987,-77908969.58414,  -0.00188,   0.00084,  -0.00101,436208826.38360,   0.00000,274640135.82653,   0.00000,   0.00000,   0.00000,-38431309.44293,   0.00000
-410620724.95226,8596739.31550,-77656124.31016,  -0.00189,   0.00084,  -0.00101,436239273.73147,   0.00000,274640135.82653,   0.00000,   0.00000,   0.00000,-38400862.09506,   0.00000
-410783850.93548,8596739.31550,-77399200.88659,  -0.00189,   0.00084,  -0.00101,436257477.51918,   0.00000,274640135.82653,   0.00000,   0.00000,   0.00000,-38382658.30735,   0.00000
-410946976.91869,8596739.31550,-77146355.61260,  -0.00189,   0.00084,  -0.00100,436278358.79339,   0.00000,274640135.82653,   0.00000,   0.00000,   0.00000,-38361777.03314,   0.00000
-411095829.37838,8602856.53987,-76889432.18904,  -0.00189,   0.00084,  -0.00100,436286995.98347,   0.00000,274640135.82653,   0.00000,   0.00000,   0.00000,-38353139.84306,   0.00000
-411244681.83806,8608973.76424,-76628430.61589,  -0.00189,   0.00084,  -0.00100,436293990.99914,   0.00000,274640135.82653,   0.00000,   0.00000,   0.00000,-38346144.82739,   0.00000
-411393534.29775,8615090.98861,-76371507.19233,  -0.00189,   0.00084,  -0.00099,436303648.75545,   0.00000,274640135.82653,   0.00000,   0.00000,   0.00000,-38336487.07108,   0.00000
-411534230.45827,8613051.91382,-76110505.61918,  -0.00189,   0.00084,  -0.00099,436299897.30715,   0.00000,274640135.82653,   0.00000,   0.00000,   0.00000,-38340238.51938,   0.00000
-411654535.87089,8631403.58694,-75853582.19561,  -0.00189,   0.00084,  -0.00099,436289367.58094,   0.00000,274640135.82653,   0.00000,   0.00000,   0.00000,-38350768.24559,   0.00000
-411789114.80705,8643638.03568,-75588502.47289,  -0.00189,   0.00084,  -0.00098,436285696.21954,   0.00000,274640135.82653,   0.00000,   0.00000,   0.00000,-38354439.60699,   0.00000
-411909420.21967,8661989.70879,-75327500.89974,  -0.00189,   0.00084,  -0.00098,436274057.06244,   0.00000,274640135.82653,   0.00000,   0.00000,   0.00000,-38366078.76409,   0.00000
-412021569.33313,8672185.08274,-75066499.32660,  -0.00189,   0.00084,  -0.00098,436251126.83022,   0.00000,274640135.82653,   0.00000,   0.00000,   0.00000,-38389008.99631,   0.00000
-412127601.22222,8696653.98022,-74801419.60387,  -0.00189,   0.00084,  -0.00097,436227784.24514,   0.00000,274640135.82653,   0.00000,   0.00000,   0.00000,-38412351.58139,   0.00000
-412239750.33568,8706849.35417,-74536339.88114,  -0.00189,   0.00084,  -0.00097,436203769.21240,   0.00000,274640135.82653,   0.00000,   0.00000,   0.00000,-38436366.61412,   0.00000
-412331508.70124,8737435.47603,-74271260.15842,  -0.00189,   0.00084,  -0.00097,436170833.56766,   0.00000,274640135.82653,   0.00000,   0.00000,   0.00000,-38469302.25887,   0.00000
-412429384.29117,8753748.07435,-74002102.28611,  -0.00189,   0.00084,  -0.00096,436135141.31400,   0.00000,274640135.82653,   0.00000,   0.00000,   0.00000,-38504994.51253,   0.00000
-412506869.13320,8790451.42057,-73737022.56338,  -0.00189,   0.00084,  -0.00096,436092600.48934,   0.00000,274640135.82653,   0.00000,   0.00000,   0.00000,-38547535.33719,   0.00000
-412590471.19960,8812881.24326,-73467864.69108,  -0.00189,   0.00084,  -0.00096,436047309.41963,   0.00000,274640135.82653,   0.00000,   0.00000,   0.00000,-38592826.40690,   0.00000
-412667956.04163,8849584.58949,-73198706.81877,  -0.00189,   0.00084,  -0.00095,436003726.03358,   0.00000,274640135.82653,   0.00000,   0.00000,   0.00000,-38636409.79295,   0.00000
-412737284.58449,8878131.63655,-72929548.94646,  -0.00190,   0.00085,  -0.00095,435948827.93740,   0.00000,274640135.82653,   0.00000,   0.00000,   0.00000,-38691307.88913,   0.00000
-412800495.90299,8920952.20715,-72656312.92457,  -0.00190,   0.00085,  -0.00094,435893594.49808,   0.00000,274640135.82653,   0.00000,   0.00000,   0.00000,-38746541.32845,   0.00000
-412869824.44586,8949499.25421,-72387155.05227,  -0.00190,   0.00085,  -0.00094,435839723.19019,   0.00000,274640135.82653,   0.00000,   0.00000,   0.00000,-38800412.63634,   0.00000
-412924879.46519,8984163.52564,-72113919.03038,  -0.00190,   0.00085,  -0.00094,435773688.82286,   0.00000,274640135.82653,   0.00000,   0.00000,   0.00000,-38866447.00367,   0.00000
-412979934.48453,9018827.79708,-71840683.00849,  -0.00190,   0.00085,  -0.00093,435708172.58782,   0.00000,274640135.82653,   0.00000,   0.00000,   0.00000,-38931963.23871,   0.00000
-413014598.75596,9073882.81641,-71567446.98660,  -0.00190,   0.00085,  -0.00093,435633720.69897,   0.00000,274640135.82653,   0.00000,   0.00000,   0.00000,-39006415.12755,   0.00000
-413055380.25176,9114664.31221,-71290132.81514,  -0.00190,   0.00085,  -0.00093,435556580.14109,   0.00000,274640135.82653,   0.00000,   0.00000,   0.00000,-39083555.68544,   0.00000
-413096161.74757,9155445.80802,-71016896.79325,  -0.00190,   0.00085,  -0.00092,435481962.25714,   0.00000,274640135.82653,   0.00000,   0.00000,   0.00000,-39158173.56939,   0.00000
-413136943.24337,9196227.30382,-70739582.62178,  -0.00190,   0.00085,  -0.00092,435405869.68401,   0.00000,274640135.82653,   0.00000,   0.00000,   0.00000,-39234266.14252,   0.00000
-413157333.99127,9257399.54753,-70462268.45031,  -0.00190,   0.00085,  -0.00092,435320845.37660,   0.00000,274640135.82653,   0.00000,   0.00000,   0.00000,-39319290.44993,   0.00000
-413169568.44002,9310415.49207,-70184954.27885,  -0.00190,   0.00085,  -0.00091,435224470.69733,   0.00000,274640135.82653,   0.00000,   0.00000,   0.00000,-39415665.12920,   0.00000
-413196076.41229,9357314.21225,-69903561.95780,  -0.00190,   0.00085,  -0.00091,435137318.93874,   0.00000,274640135.82653,   0.00000,   0.00000,   0.00000,-39502816.88779,   0.00000
-413208310.86103,9410330.15679,-69626247.78633,  -0.00190,   0.00085,  -0.00091,435041989.06477,   0.00000,274640135.82653,   0.00000,   0.00000,   0.00000,-39598146.76176,   0.00000
-413206271.78624,9469463.32571,-69344855.46528,  -0.00190,   0.00085,  -0.00090,434934549.50636,   0.00000,274640135.82653,   0.00000,   0.00000,   0.00000,-39705586.32017,   0.00000
-413204232.71145,9528596.49463,-69063463.14423,  -0.00190,   0.00085,  -0.00090,434827637.47216,   0.00000,274640135.82653,   0.00000,   0.00000,   0.00000,-39812498.35437,   0.00000
-413196076.41229,9602003.18707,-68782070.82318,  -0.00190,   0.00085,  -0.00089,434722469.93972,   0.00000,274640135.82653,   0.00000,   0.00000,   0.00000,-39917665.88681,   0.00000
-413194037.33750,9661136.35599,-68500678.50214,  -0.00190,   0.00085,  -0.00089,434616615.93744,   0.00000,274640135.82653,   0.00000,   0.00000,   0.00000,-40023519.88909,   0.00000
-413177724.73918,9726386.74928,-68219286.18109,  -0.00190,   0.00085,  -0.00089,434500603.20788,   0.00000,274640135.82653,   0.00000,   0.00000,   0.00000,-40139532.61865,   0.00000
-413161412.14085,9791637.14256,-67933815.71046,  -0.00190,   0.00085,  -0.00088,434383200.89536,   0.00000,274640135.82653,   0.00000,   0.00000,   0.00000,-40256934.93117,   0.00000
-413145099.54253,9856887.53585,-67652423.38941,  -0.00190,   0.00085,  -0.00088,434268243.67142,   0.00000,274640135.82653,   0.00000,   0.00000,   0.00000,-40371892.15511,   0.00000
-413114513.42068,9928255.15351,-67366952.91878,  -0.00190,   0.00085,  -0.00088,434141217.55800,   0.00000,274640135.82653,   0.00000,   0.00000,   0.00000,-40498918.26853,   0.00000
-413083927.29883,9999622.77116,-67081482.44815,  -0.00190,   0.00085,  -0.00087,434014726.42796,   0.00000,274640135.82653,   0.00000,   0.00000,   0.00000,-40625409.39857,   0.00000
-413053341.17697,10070990.38882,-66791933.82794,  -0.00190,   0.00085,  -0.00087,433886887.34204,   0.00000,274640135.82653,   0.00000,   0.00000,   0.00000,-40753248.48449,   0.00000
-413016637.83075,10156631.53001,-66506463.35732,  -0.00190,   0.00085,  -0.00086,433762708.28664,   0.00000,274640135.82653,   0.00000,   0.00000,   0.00000,-40877427.53989,   0.00000
-412971778.18537,10234116.37204,-66220992.88669,  -0.00190,   0.00085,  -0.00086,433627129.74226,   0.00000,274640135.82653,   0.00000,   0.00000,   0.00000,-41013006.08427,   0.00000
-412912645.01645,10317718.43844,-65931444.26648,  -0.00190,   0.00085,  -0.00086,433479515.28117,   0.00000,274640135.82653,   0.00000,   0.00000,   0.00000,-41160620.54536,   0.00000
-412867785.37107,10395203.28046,-65641895.64627,  -0.00190,   0.00085,  -0.00085,433343153.16784,   0.00000,274640135.82653,   0.00000,   0.00000,   0.00000,-41296982.65869,   0.00000
-412808652.20215,10478805.34686,-65352347.02606,  -0.00190,   0.00085,  -0.00085,433196627.40126,   0.00000,274640135.82653,   0.00000,   0.00000,   0.00000,-41443508.42527,   0.00000
-412749519.03323,10562407.41326,-65062798.40585,  -0.00190,   0.00085,  -0.00085,433050645.65405,   0.00000,274640135.82653,   0.00000,   0.00000,   0.00000,-41589490.17248,   0.00000
-412684268.63995,10660283.00319,-64773249.78564,  -0.00190,   0.00085,  -0.00084,432906456.37902,   0.00000,274640135.82653,   0.00000,   0.00000,   0.00000,-41733679.44751,   0.00000
-412610861.94750,10750002.29396,-64479623.01585,  -0.00190,   0.00085,  -0.00084,432749025.43117,   0.00000,274640135.82653,   0.00000,   0.00000,   0.00000,-41891110.39536,   0.00000
-412537455.25505,10839721.58473,-64190074.39564,  -0.00190,   0.00085,  -0.00083,432593966.28171,   0.00000,274640135.82653,   0.00000,   0.00000,   0.00000,-42046169.54482,   0.00000
-412464048.56260,10929440.87550,-63896447.62585,  -0.00190,   0.00085,  -0.00083,432437641.19714,   0.00000,274640135.82653,   0.00000,   0.00000,   0.00000,-42202494.62939,   0.00000
-412384524.64579,11033433.68980,-63602820.85606,  -0.00190,   0.00085,  -0.00083,432283132.44475,   0.00000,274640135.82653,   0.00000,   0.00000,   0.00000,-42357003.38178,   0.00000
-412296844.42981,11129270.20494,-63309194.08628,  -0.00190,   0.00085,  -0.00082,432117199.07444,   0.00000,274640135.82653,   0.00000,   0.00000,   0.00000,-42522936.75209,   0.00000
-412209164.21383,11225106.72008,-63015567.31649,  -0.00190,   0.00085,  -0.00082,431951820.36275,   0.00000,274640135.82653,   0.00000,   0.00000,   0.00000,-42688315.46378,   0.00000
-412121483.99785,11320943.23522,-62721940.54670,  -0.00190,   0.00086,  -0.00082,431786996.94700,   0.00000,274640135.82653,   0.00000,   0.00000,   0.00000,-42853138.87953,   0.00000
-412013413.03397,11437170.49826,-62424235.62733,  -0.00190,   0.00086,  -0.00081,431611497.32406,   0.00000,274640135.82653,   0.00000,   0.00000,   0.00000,-43028638.50247,   0.00000
-411925732.81799,11533007.01340,-62130608.85754,  -0.00190,   0.00086,  -0.00081,431447794.80839,   0.00000,274640135.82653,   0.00000,   0.00000,   0.00000,-43192341.01814,   0.00000
-411817661.85411,11649234.27644,-61832903.93817,  -0.00190,   0.00086,  -0.00080,431273434.98598,   0.00000,274640135.82653,   0.00000,   0.00000,   0.00000,-43366700.84055,   0.00000
-411701434.59107,11757305.24032,-61535199.01880,  -0.00190,   0.00086,  -0.00080,431087632.69209,   0.00000,274640135.82653,   0.00000,   0.00000,   0.00000,-43552503.13444,   0.00000
-411593363.62719,11873532.50336,-61237494.09943,  -0.00190,   0.00086,  -0.00080,430914419.56377,   0.00000,274640135.82653,   0.00000,   0.00000,   0.00000,-43725716.26276,   0.00000
-411477136.36415,11981603.46724,-60939789.18006,  -0.00190,   0.00086,  -0.00079,430729755.38238,   0.00000,274640135.82653,   0.00000,   0.00000,   0.00000,-43910380.44415,   0.00000
-411354791.87673,12103947.95466,-60642084.26069,  -0.00190,   0.00086,  -0.00079,430546948.07681,   0.00000,274640135.82653,   0.00000,   0.00000,   0.00000,-44093187.74972,   0.00000
-411238564.61369,12212018.91854,-60344379.34132,  -0.00189,   0.00086,  -0.00078,430363423.07050,   0.00000,274640135.82653,   0.00000,   0.00000,   0.00000,-44276712.75603,   0.00000
-411116220.12628,12334363.40595,-60042596.27237,  -0.00189,   0.00086,  -0.00078,430180055.24902,   0.00000,274640135.82653,   0.00000,   0.00000,   0.00000,-44460080.57751,   0.00000
-410979602.11534,12462825.11773,-59744891.35300,  -0.00189,   0.00086,  -0.00078,429988230.53807,   0.00000,274640135.82653,   0.00000,   0.00000,   0.00000,-44651905.28846,   0.00000
-410863374.85229,12570896.08161,-59443108.28405,  -0.00189,   0.00086,  -0.00077,429804735.17602,   0.00000,274640135.82653,   0.00000,   0.00000,   0.00000,-44835400.65051,   0.00000
-410726756.84135,12699357.79339,-59141325.21510,  -0.00189,   0.00086,  -0.00077,429612380.59304,   0.00000,274640135.82653,   0.00000,   0.00000,   0.00000,-45027755.23349,   0.00000
-410575865.30688,12833936.72955,-58839542.14615,  -0.00189,   0.00086,  -0.00076,429409863.58303,   0.00000,274640135.82653,   0.00000,   0.00000,   0.00000,-45230272.24350,   0.00000
-410439247.29593,12962398.44133,-58537759.07720,  -0.00189,   0.00086,  -0.00076,429218690.49117,   0.00000,274640135.82653,   0.00000,   0.00000,   0.00000,-45421445.33536,   0.00000
-410288355.76146,13096977.37748,-58235976.00825,  -0.00189,   0.00086,  -0.00076,429017353.62153,   0.00000,274640135.82653,   0.00000,   0.00000,   0.00000,-45622782.20500,   0.00000
-410151737.75051,13225439.08927,-57934192.93930,  -0.00189,   0.00086,  -0.00075,428827365.23971,   0.00000,274640135.82653,   0.00000,   0.00000,   0.00000,-45812770.58682,   0.00000
-410000846.21604,13360018.02542,-57632409.87035,  -0.00189,   0.00086,  -0.00075,428627211.77940,   0.00000,274640135.82653,   0.00000,   0.00000,   0.00000,-46012924.04713,   0.00000
-409849954.68156,13494596.96157,-57326548.65181,  -0.00189,   0.00086,  -0.00075,428426013.44196,   0.00000,274640135.82653,   0.00000,   0.00000,   0.00000,-46214122.38457,   0.00000
-409684789.62356,13635293.12210,-57024765.58286,  -0.00189,   0.00086,  -0.00074,428216291.06206,   0.00000,274640135.82653,   0.00000,   0.00000,   0.00000,-46423844.76447,   0.00000
-409533898.08908,13769872.05825,-56718904.36433,  -0.00189,   0.00086,  -0.00074,428016301.99983,   0.00000,274640135.82653,   0.00000,   0.00000,   0.00000,-46623833.82669,   0.00000
-409368733.03107,13910568.21878,-56413043.14580,  -0.00189,   0.00086,  -0.00073,427806158.77990,   0.00000,274640135.82653,   0.00000,   0.00000,   0.00000,-46833977.04663,   0.00000
-409197450.74870,14065537.90283,-56107181.92727,  -0.00189,   0.00086,  -0.00073,427597968.77492,   0.00000,274640135.82653,   0.00000,   0.00000,   0.00000,-47042167.05161,   0.00000
-409032285.69069,14206234.06336,-55805398.85832,  -0.00189,   0.00086,  -0.00073,427390645.47415,   0.00000,274640135.82653,   0.00000,   0.00000,   0.00000,-47249490.35238,   0.00000
-408867120.63268,14346930.22388,-55499537.63979,  -0.00189,   0.00086,  -0.00072,427182327.38090,   0.00000,274640135.82653,   0.00000,   0.00000,   0.00000,-47457808.44563,   0.00000
-408695838.35031,14501899.90794,-55189598.27168,  -0.00189,   0.00086,  -0.00072,426974395.95193,   0.00000,274640135.82653,   0.00000,   0.00000,   0.00000,-47665739.87460,   0.00000
-408510282.54440,14662986.81636,-54883737.05315,  -0.00189,   0.00086,  -0.00071,426757904.19503,   0.00000,274640135.82653,   0.00000,   0.00000,   0.00000,-47882231.63150,   0.00000
-408345117.48639,14803682.97689,-54577875.83462,  -0.00189,   0.00086,  -0.00071,426551438.00126,   0.00000,274640135.82653,   0.00000,   0.00000,   0.00000,-48088697.82527,   0.00000
-408159561.68048,14964769.88531,-54272014.61609,  -0.00189,   0.00086,  -0.00071,426336182.79174,   0.00000,274640135.82653,   0.00000,   0.00000,   0.00000,-48303953.03479,   0.00000
-407974005.87457,15125856.79374,-53962075.24798,  -0.00189,   0.00086,  -0.00070,426119999.64414,   0.00000,274640135.82653,   0.00000,   0.00000,   0.00000,-48520136.18239,   0.00000
-407794567.29304,15272670.17863,-53652135.87987,  -0.00189,   0.00086,  -0.00070,425903076.47212,   0.00000,274640135.82653,   0.00000,   0.00000,   0.00000,-48737059.35441,   0.00000
-407609011.48713,15433757.08706,-53346274.66134,  -0.00188,   0.00087,  -0.00069,425689699.93864,   0.00000,274640135.82653,   0.00000,   0.00000,   0.00000,-48950435.88789,   0.00000
-407423455.68122,15594843.99549,-53036335.29322,  -0.00188,   0.00087,  -0.00069,425475422.57330,   0.00000,274640135.82653,   0.00000,   0.00000,   0.00000,-49164713.25323,   0.00000
-407223626.35178,15762048.12828,-52726395.92511,  -0.00188,   0.00087,  -0.00069,425251009.28696,   0.00000,274640135.82653,   0.00000,   0.00000,   0.00000,-49389126.53957,   0.00000
-407031953.32150,15937408.56024,-52420534.70658,  -0.00188,   0.00087,  -0.00068,425040920.30093,   0.00000,274640135.82653,   0.00000,   0.00000,   0.00000,-49599215.52560,   0.00000
-406832123.99206,16104612.69304,-52110595.33847,  -0.00188,   0.00087,  -0.00068,424817786.69148,   0.00000,274640135.82653,   0.00000,   0.00000,   0.00000,-49822349.13505,   0.00000
-406646568.18615,16265699.60146,-51800655.97036,  -0.00188,   0.00087,  -0.00067,424606075.32166,   0.00000,274640135.82653,   0.00000,   0.00000,   0.00000,-50034060.50487,   0.00000
-406446738.85671,16432903.73426,-51490716.60225,  -0.00188,   0.00087,  -0.00067,424384228.82309,   0.00000,274640135.82653,   0.00000,   0.00000,   0.00000,-50255907.00344,   0.00000
-406240792.30290,16614381.39059,-51176699.08456,  -0.00188,   0.00087,  -0.00067,424162966.37871,   0.00000,274640135.82653,   0.00000,   0.00000,   0.00000,-50477169.44782,   0.00000
-406040962.97346,16781585.52338,-50866759.71645,  -0.00188,   0.00087,  -0.00066,423942423.09939,   0.00000,274640135.82653,   0.00000,   0.00000,   0.00000,-50697712.72714,   0.00000
-405835016.41965,16963063.17971,-50556820.34834,  -0.00188,   0.00087,  -0.00066,423723951.81302,   0.00000,274640135.82653,   0.00000,   0.00000,   0.00000,-50916184.01351,   0.00000
-405629069.86584,17144540.83604,-50246880.98022,  -0.00188,   0.00087,  -0.00065,423506137.96972,   0.00000,274640135.82653,   0.00000,   0.00000,   0.00000,-51133997.85681,   0.00000
-405408849.78850,17332135.71674,-49932863.46253,  -0.00188,   0.00087,  -0.00065,423276756.01353,   0.00000,274640135.82653,   0.00000,   0.00000,   0.00000,-51363379.81300,   0.00000
-405202903.23469,17513613.37307,-49622924.09442,  -0.00188,   0.00087,  -0.00065,423060267.82852,   0.00000,274640135.82653,   0.00000,   0.00000,   0.00000,-51579867.99801,   0.00000
-404996956.68088,17695091.02940,-49308906.57673,  -0.00188,   0.00087,  -0.00064,422843013.40543,   0.00000,274640135.82653,   0.00000,   0.00000,   0.00000,-51797122.42110,   0.00000
-404776736.60353,17882685.91010,-48998967.20862,  -0.00188,   0.00087,  -0.00064,422617070.83090,   0.00000,274640135.82653,   0.00000,   0.00000,   0.00000,-52023064.99563,   0.00000
-404570790.04972,18064163.56642,-48684949.69093,  -0.00188,   0.00087,  -0.00063,422401164.85598,   0.00000,274640135.82653,   0.00000,   0.00000,   0.00000,-52238970.97055,   0.00000
-404350569.97238,18251758.44712,-48370932.17324,  -0.00188,   0.00087,  -0.00063,422175153.57067,   0.00000,274640135.82653,   0.00000,   0.00000,   0.00000,-52464982.25586,   0.00000
-404138506.19420,18447509.62698,-48060992.80512,  -0.00187,   0.00087,  -0.00062,421963468.64653,   0.00000,274640135.82653,   0.00000,   0.00000,   0.00000,-52676667.18000,   0.00000
-403918286.11686,18635104.50768,-47746975.28743,  -0.00187,   0.00087,  -0.00062,421738816.56926,   0.00000,274640135.82653,   0.00000,   0.00000,   0.00000,-52901319.25727,   0.00000
-403691948.81514,18836972.91191,-47432957.76974,  -0.00187,   0.00087,  -0.00062,421516324.52326,   0.00000,274640135.82653,   0.00000,   0.00000,   0.00000,-53123811.30327,   0.00000
-403486002.26133,19018450.56824,-47118940.25205,  -0.00187,   0.00087,  -0.00061,421303830.58223,   0.00000,274640135.82653,   0.00000,   0.00000,   0.00000,-53336305.24430,   0.00000
-403259664.95962,19220318.97247,-46809000.88394,  -0.00187,   0.00087,  -0.00061,421084083.20104,   0.00000,274640135.82653,   0.00000,   0.00000,   0.00000,-53556052.62549,   0.00000
-403033327.65791,19422187.37670,-46494983.36625,  -0.00187,   0.00087,  -0.00060,420863664.15861,   0.00000,274640135.82653,   0.00000,   0.00000,   0.00000,-53776471.66792,   0.00000
-402821263.87973,19617938.55656,-46180965.84856,  -0.00187,   0.00087,  -0.00060,420654729.88076,   0.00000,274640135.82653,   0.00000,   0.00000,   0.00000,-53985405.94577,   0.00000
-402594926.57801,19819806.96079,-45866948.33086,  -0.00187,   0.00088,  -0.00060,420435707.60587,   0.00000,274640135.82653,   0.00000,   0.00000,   0.00000,-54204428.22066,   0.00000
-402362472.05193,20035948.88855,-45552930.81317,  -0.00187,   0.00088,  -0.00059,420218896.05933,   0.00000,274640135.82653,   0.00000,   0.00000,   0.00000,-54421239.76720,   0.00000
-402136134.75022,20237817.29278,-45238913.29548,  -0.00187,   0.00088,  -0.00059,420001280.43970,   0.00000,274640135.82653,   0.00000,   0.00000,   0.00000,-54638855.38683,   0.00000
-401909797.44851,20439685.69701,-44924895.77779,  -0.00187,   0.00088,  -0.00058,419784366.97527,   0.00000,274640135.82653,   0.00000,   0.00000,   0.00000,-54855768.85126,   0.00000
-401691616.44595,20649710.40040,-44610878.26010,  -0.00187,   0.00088,  -0.00058,419580471.64981,   0.00000,274640135.82653,   0.00000,   0.00000,   0.00000,-55059664.17672,   0.00000
-401459161.91987,20865852.32816,-44292782.59283,  -0.00187,   0.00088,  -0.00058,419365212.95959,   0.00000,274640135.82653,   0.00000,   0.00000,   0.00000,-55274922.86694,   0.00000
-401226707.39379,21081994.25593,-43978765.07513,  -0.00187,   0.00088,  -0.00057,419151972.05914,   0.00000,274640135.82653,   0.00000,   0.00000,   0.00000,-55488163.76739,   0.00000
-400994252.86770,21298136.18369,-43664747.55744,  -0.00187,   0.00088,  -0.00057,418939449.30269,   0.00000,274640135.82653,   0.00000,   0.00000,   0.00000,-55700686.52383,   0.00000
-400761798.34162,21514278.11145,-43350730.03975,  -0.00187,   0.00088,  -0.00056,418727645.78371,   0.00000,274640135.82653,   0.00000,   0.00000,   0.00000,-55912490.04282,   0.00000
-400543617.33907,21724302.81484,-43036712.52206,  -0.00186,   0.00088,  -0.00056,418527348.48705,   0.00000,274640135.82653,   0.00000,   0.00000,   0.00000,-56112787.33948,   0.00000
-400311162.81299,21940444.74260,-42718616.85479,  -0.00186,   0.00088,  -0.00056,418315736.99024,   0.00000,274640135.82653,   0.00000,   0.00000,   0.00000,-56324398.83628,   0.00000
-400072591.06253,22170860.19390,-42404599.33710,  -0.00186,   0.00088,  -0.00055,418107676.05953,   0.00000,274640135.82653,   0.00000,   0.00000,   0.00000,-56532459.76700,   0.00000
-399854410.05998,22380884.89729,-42090581.81941,  -0.00186,   0.00088,  -0.00055,417909559.61082,   0.00000,274640135.82653,   0.00000,   0.00000,   0.00000,-56730576.21571,   0.00000
-399615838.30953,22611300.34858,-41776564.30171,  -0.00186,   0.00088,  -0.00054,417702964.85650,   0.00000,274640135.82653,   0.00000,   0.00000,   0.00000,-56937170.97003,   0.00000
-399391540.08260,22835598.57550,-41462546.78402,  -0.00186,   0.00088,  -0.00054,417507892.25245,   0.00000,274640135.82653,   0.00000,   0.00000,   0.00000,-57132243.57408,   0.00000
-399152968.33215,23066014.02680,-41144451.11675,  -0.00186,   0.00088,  -0.00053,417301568.01878,   0.00000,274640135.82653,   0.00000,   0.00000,   0.00000,-57338567.80775,   0.00000
-398928670.10523,23290312.25372,-40830433.59906,  -0.00186,   0.00088,  -0.00053,417107982.05521,   0.00000,274640135.82653,   0.00000,   0.00000,   0.00000,-57532153.77132,   0.00000
-398704371.87830,23514610.48064,-40516416.08137,  -0.00186,   0.00088,  -0.00053,416915136.42324,   0.00000,274640135.82653,   0.00000,   0.00000,   0.00000,-57724999.40329,   0.00000
-398459682.90348,23759299.45547,-40202398.56368,  -0.00186,   0.00089,  -0.00052,416713864.28580,   0.00000,274640135.82653,   0.00000,   0.00000,   0.00000,-57926271.54073,   0.00000
-398235384.67656,23983597.68239,-39884302.89640,  -0.00186,   0.00089,  -0.00052,416521337.59010,   0.00000,274640135.82653,   0.00000,   0.00000,   0.00000,-58118798.23643,   0.00000
-398004969.22526,24222169.43284,-39570285.37871,  -0.00186,   0.00089,  -0.00051,416332361.55094,   0.00000,274640135.82653,   0.00000,   0.00000,   0.00000,-58307774.27559,   0.00000
-397774553.77397,24460741.18330,-39256267.86102,  -0.00186,   0.00089,  -0.00051,416144142.81305,   0.00000,274640135.82653,   0.00000,   0.00000,   0.00000,-58495993.01347,   0.00000
-397544138.32268,24699312.93375,-38942250.34333,  -0.00186,   0.00089,  -0.00051,415956682.40447,   0.00000,274640135.82653,   0.00000,   0.00000,   0.00000,-58683453.42206,   0.00000
-397313722.87138,24937884.68420,-38628232.82564,  -0.00186,   0.00089,  -0.00050,415769981.35093,   0.00000,274640135.82653,   0.00000,   0.00000,   0.00000,-58870154.47560,   0.00000
-397097580.94362,25170339.21029,-38310137.15837,  -0.00186,   0.00089,  -0.00050,415593690.28710,   0.00000,274640135.82653,   0.00000,   0.00000,   0.00000,-59046445.53943,   0.00000
-396861048.26796,25423184.48427,-37996119.64067,  -0.00186,   0.00089,  -0.00049,415410179.11174,   0.00000,274640135.82653,   0.00000,   0.00000,   0.00000,-59229956.71479,   0.00000
-396644906.34020,25655639.01036,-37682102.12298,  -0.00185,   0.00089,  -0.00049,415236552.50018,   0.00000,274640135.82653,   0.00000,   0.00000,   0.00000,-59403583.32635,   0.00000
-396408373.66453,25908484.28434,-37368084.60529,  -0.00185,   0.00089,  -0.00049,415054586.32540,   0.00000,274640135.82653,   0.00000,   0.00000,   0.00000,-59585549.50113,   0.00000
-396186114.51240,26155212.33396,-37054067.08760,  -0.00185,   0.00089,  -0.00048,414884171.88018,   0.00000,274640135.82653,   0.00000,   0.00000,   0.00000,-59755963.94635,   0.00000
-395963855.36027,26401940.38357,-36740049.56991,  -0.00185,   0.00089,  -0.00048,414714534.39475,   0.00000,274640135.82653,   0.00000,   0.00000,   0.00000,-59925601.43178,   0.00000
-395741596.20814,26648668.43319,-36426032.05222,  -0.00185,   0.00089,  -0.00047,414545674.82294,   0.00000,274640135.82653,   0.00000,   0.00000,   0.00000,-60094461.00359,   0.00000
-395519337.05600,26895396.48280,-36112014.53453,  -0.00185,   0.00089,  -0.00047,414377594.11574,   0.00000,274640135.82653,   0.00000,   0.00000,   0.00000,-60262541.71079,   0.00000
-395290960.67950,27156398.05595,-35797997.01683,  -0.00185,   0.00089,  -0.00047,414212001.27191,   0.00000,274640135.82653,   0.00000,   0.00000,   0.00000,-60428134.55462,   0.00000
-395082975.05090,27397008.88119,-35483979.49914,  -0.00185,   0.00090,  -0.00046,414056256.38344,   0.00000,274640135.82653,   0.00000,   0.00000,   0.00000,-60583879.44309,   0.00000
-394854598.67440,27658010.45434,-35169961.98145,  -0.00185,   0.00090,  -0.00046,413892245.55676,   0.00000,274640135.82653,   0.00000,   0.00000,   0.00000,-60747890.26976,   0.00000
-394640495.82143,27912894.80311,-34855944.46376,  -0.00185,   0.00090,  -0.00045,413739797.30836,   0.00000,274640135.82653,   0.00000,   0.00000,   0.00000,-60900338.51817,   0.00000
-394426392.96845,28167779.15189,-34541926.94607,  -0.00185,   0.00090,  -0.00045,413588144.09109,   0.00000,274640135.82653,   0.00000,   0.00000,   0.00000,-61051991.73544,   0.00000
-394206172.89111,28436937.02419,-34231987.57796,  -0.00185,   0.00090,  -0.00045,413440043.01282,   0.00000,274640135.82653,   0.00000,   0.00000,   0.00000,-61200092.81371,   0.00000
-393992070.03814,28691821.37297,-33917970.06026,  -0.00185,   0.00090,  -0.00044,413289980.57244,   0.00000,274640135.82653,   0.00000,   0.00000,   0.00000,-61350155.25409,   0.00000
-393771849.96080,28960979.24528,-33603952.54257,  -0.00185,   0.00090,  -0.00044,413142473.48092,   0.00000,274640135.82653,   0.00000,   0.00000,   0.00000,-61497662.34561,   0.00000
-393565903.40699,29224019.89321,-33294013.17446,  -0.00185,   0.00090,  -0.00043,413007524.62094,   0.00000,274640135.82653,   0.00000,   0.00000,   0.00000,-61632611.20559,   0.00000
-393359956.85318,29487060.54115,-32979995.65677,  -0.00185,   0.00090,  -0.00043,412872391.42094,   0.00000,274640135.82653,   0.00000,   0.00000,   0.00000,-61767744.40559,   0.00000
-393139736.77584,29756218.41346,-32665978.13908,  -0.00185,   0.00090,  -0.00042,412727313.63977,   0.00000,274640135.82653,   0.00000,   0.00000,   0.00000,-61912822.18676,   0.00000
-392933790.22202,30019259.06139,-32356038.77097,  -0.00185,   0.00090,  -0.00042,412594765.34529,   0.00000,274640135.82653,   0.00000,   0.00000,   0.00000,-62045370.48124,   0.00000
-392735999.96737,30290456.00849,-32046099.40286,  -0.00185,   0.00090,  -0.00042,412475559.74427,   0.00000,274640135.82653,   0.00000,   0.00000,   0.00000,-62164576.08226,   0.00000
-392530053.41356,30553496.65643,-31732081.88517,  -0.00185,   0.00090,  -0.00041,412343667.01528,   0.00000,274640135.82653,   0.00000,   0.00000,   0.00000,-62296468.81125,   0.00000
-392332263.15891,30824693.60352,-31422142.51705,  -0.00185,   0.00091,  -0.00041,412226080.41569,   0.00000,274640135.82653,   0.00000,   0.00000,   0.00000,-62414055.41084,   0.00000
-392134472.90426,31095890.55062,-31112203.14894,  -0.00184,   0.00091,  -0.00040,412109302.79956,   0.00000,274640135.82653,   0.00000,   0.00000,   0.00000,-62530833.02697,   0.00000
-391936682.64961,31367087.49772,-30802263.78083,  -0.00184,   0.00091,  -0.00040,411993334.85480,   0.00000,274640135.82653,   0.00000,   0.00000,   0.00000,-62646800.97173,   0.00000
-391732775.17059,31652557.96835,-30492324.41272,  -0.00184,   0.00091,  -0.00040,411880008.60354,   0.00000,274640135.82653,   0.00000,   0.00000,   0.00000,-62760127.22299,   0.00000
-391549258.43948,31917637.69107,-30182385.04461,  -0.00184,   0.00091,  -0.00039,411776412.45014,   0.00000,274640135.82653,   0.00000,   0.00000,   0.00000,-62863723.37639,   0.00000
-391359624.48399,32196990.93733,-29872445.67650,  -0.00184,   0.00091,  -0.00039,411675470.74911,   0.00000,274640135.82653,   0.00000,   0.00000,   0.00000,-62964665.07742,   0.00000
-391169990.52850,32476344.18359,-29562506.30839,  -0.00184,   0.00091,  -0.00038,411575352.76786,   0.00000,274640135.82653,   0.00000,   0.00000,   0.00000,-63064783.05867,   0.00000
-390980356.57301,32755697.42985,-29252566.94028,  -0.00184,   0.00091,  -0.00038,411476059.10767,   0.00000,274640135.82653,   0.00000,   0.00000,   0.00000,-63164076.71886,   0.00000
-390798878.91668,33043206.97527,-28946705.72175,  -0.00184,   0.00091,  -0.00038,411391055.86767,   0.00000,274640135.82653,   0.00000,   0.00000,   0.00000,-63249079.95886,   0.00000
-390609244.96119,33322560.22153,-28636766.35363,  -0.00184,   0.00091,  -0.00037,411293409.28193,   0.00000,274640135.82653,   0.00000,   0.00000,   0.00000,-63346726.54460,   0.00000
-390427767.30486,33610069.76694,-28326826.98552,  -0.00184,   0.00091,  -0.00037,411209204.84794,   0.00000,274640135.82653,   0.00000,   0.00000,   0.00000,-63430930.97859,   0.00000
-390260563.17207,33891462.08799,-28020965.76699,  -0.00184,   0.00092,  -0.00036,411137401.62939,   0.00000,274640135.82653,   0.00000,   0.00000,   0.00000,-63502734.19714,   0.00000
-390079085.51574,34178971.63341,-27715104.54846,  -0.00184,   0.00092,  -0.00036,411055687.36819,   0.00000,274640135.82653,   0.00000,   0.00000,   0.00000,-63584448.45834,   0.00000
-389911881.38294,34460363.95446,-27409243.32993,  -0.00184,   0.00092,  -0.00036,410985519.36758,   0.00000,274640135.82653,   0.00000,   0.00000,   0.00000,-63654616.45895,   0.00000
-389738560.02577,34756029.79904,-27103382.11140,  -0.00184,   0.00092,  -0.00035,410918083.99008,   0.00000,274640135.82653,   0.00000,   0.00000,   0.00000,-63722051.83645,   0.00000
-389565238.66861,35051695.64362,-26797520.89287,  -0.00184,   0.00092,  -0.00035,410851481.80769,   0.00000,274640135.82653,   0.00000,   0.00000,   0.00000,-63788654.01883,   0.00000
-389406190.83497,35341244.26383,-26491659.67434,  -0.00184,   0.00092,  -0.00034,410796431.83914,   0.00000,274640135.82653,   0.00000,   0.00000,   0.00000,-63843703.98739,   0.00000
-389247143.00133,35630792.88404,-26185798.45581,  -0.00184,   0.00092,  -0.00034,410742211.35833,   0.00000,274640135.82653,   0.00000,   0.00000,   0.00000,-63897924.46819,   0.00000
-389088095.16770,35920341.50425,-25879937.23728,  -0.00184,   0.00092,  -0.00034,410688820.69383,   0.00000,274640135.82653,   0.00000,   0.00000,   0.00000,-63951315.13270,   0.00000
-388922930.10969,36224163.64799,-25578154.16833,  -0.00184,   0.00092,  -0.00033,410638976.93208,   0.00000,274640135.82653,   0.00000,   0.00000,   0.00000,-64001158.89445,   0.00000
-388778155.79959,36507595.04382,-25272292.94980,  -0.00184,   0.00092,  -0.00033,410597955.14524,   0.00000,274640135.82653,   0.00000,   0.00000,   0.00000,-64042180.68129,   0.00000
-388627264.26511,36805299.96319,-24970509.88085,  -0.00184,   0.00093,  -0.00032,410560473.94001,   0.00000,274640135.82653,   0.00000,   0.00000,   0.00000,-64079661.88652,   0.00000
-388484529.02980,37111161.18173,-24668726.81190,  -0.00184,   0.00093,  -0.00032,410536499.96164,   0.00000,274640135.82653,   0.00000,   0.00000,   0.00000,-64103635.86489,   0.00000
-388333637.49532,37408866.10110,-24362865.59337,  -0.00184,   0.00093,  -0.00032,410499946.38330,   0.00000,274640135.82653,   0.00000,   0.00000,   0.00000,-64140189.44323,   0.00000
-388197019.48438,37700453.79609,-24061082.52442,  -0.00184,   0.00093,  -0.00031,410475652.17267,   0.00000,274640135.82653,   0.00000,   0.00000,   0.00000,-64164483.65386,   0.00000
-388068557.77260,38000197.79025,-23763377.60505,  -0.00184,   0.00093,  -0.00031,410465585.47695,   0.00000,274640135.82653,   0.00000,   0.00000,   0.00000,-64174550.34957,   0.00000
-387925822.53728,38306059.00879,-23461594.53610,  -0.00184,   0.00093,  -0.00031,410444937.41754,   0.00000,274640135.82653,   0.00000,   0.00000,   0.00000,-64195198.40899,   0.00000
-387791243.60113,38620076.52648,-23159811.46714,  -0.00184,   0.00093,  -0.00030,410437835.76855,   0.00000,274640135.82653,   0.00000,   0.00000,   0.00000,-64202300.05797,   0.00000
-387677055.41288,38913703.29627,-22862106.54778,  -0.00184,   0.00093,  -0.00030,410440925.41356,   0.00000,274640135.82653,   0.00000,   0.00000,   0.00000,-64199210.41297,   0.00000
-387542476.47672,39227720.81396,-22564401.62841,  -0.00184,   0.00093,  -0.00029,410436170.29606,   0.00000,274640135.82653,   0.00000,   0.00000,   0.00000,-64203965.53047,   0.00000
-387422171.06410,39535621.10728,-22262618.55945,  -0.00184,   0.00094,  -0.00029,410442264.74314,   0.00000,274640135.82653,   0.00000,   0.00000,   0.00000,-64197871.08339,   0.00000
-387316139.17501,39837404.17623,-21964913.64008,  -0.00184,   0.00094,  -0.00029,410460536.84962,   0.00000,274640135.82653,   0.00000,   0.00000,   0.00000,-64179598.97691,   0.00000
-387195833.76239,40145304.46955,-21667208.72072,  -0.00184,   0.00094,  -0.00028,410468948.38815,   0.00000,274640135.82653,   0.00000,   0.00000,   0.00000,-64171187.43837,   0.00000
-387083684.64893,40461361.06203,-21373581.95093,  -0.00184,   0.00094,  -0.00028,410491563.13184,   0.00000,274640135.82653,   0.00000,   0.00000,   0.00000,-64148572.69469,   0.00000
-386991926.28337,40757026.90661,-21075877.03156,  -0.00184,   0.00094,  -0.00027,410522964.49882,   0.00000,274640135.82653,   0.00000,   0.00000,   0.00000,-64117171.32771,   0.00000
-386887933.46907,41081239.79825,-20778172.11219,  -0.00184,   0.00094,  -0.00027,410559343.58652,   0.00000,274640135.82653,   0.00000,   0.00000,   0.00000,-64080792.24001,   0.00000
-386790057.87914,41391179.16637,-20484545.34240,  -0.00184,   0.00094,  -0.00027,410595086.38807,   0.00000,274640135.82653,   0.00000,   0.00000,   0.00000,-64045049.43846,   0.00000
-386692182.28921,41701118.53448,-20190918.57261,  -0.00184,   0.00094,  -0.00026,410631639.35458,   0.00000,274640135.82653,   0.00000,   0.00000,   0.00000,-64008496.47195,   0.00000
-386602462.99844,42019214.20175,-19897291.80282,  -0.00184,   0.00095,  -0.00026,410681771.11421,   0.00000,274640135.82653,   0.00000,   0.00000,   0.00000,-63958364.71232,   0.00000
-386512743.70767,42337309.86902,-19603665.03303,  -0.00184,   0.00095,  -0.00025,410732722.95038,   0.00000,274640135.82653,   0.00000,   0.00000,   0.00000,-63907412.87615,   0.00000
-386437297.94043,42649288.31192,-19310038.26324,  -0.00184,   0.00095,  -0.00025,410795150.28849,   0.00000,274640135.82653,   0.00000,   0.00000,   0.00000,-63844985.53804,   0.00000
-386355734.94882,42975540.27835,-19020489.64303,  -0.00184,   0.00095,  -0.00025,410861089.07745,   0.00000,274640135.82653,   0.00000,   0.00000,   0.00000,-63779046.74908,   0.00000
-386280289.18159,43287518.72126,-18730941.02282,  -0.00184,   0.00095,  -0.00024,410925699.84324,   0.00000,274640135.82653,   0.00000,   0.00000,   0.00000,-63714435.98329,   0.00000
-386212999.71351,43607653.46332,-18437314.25303,  -0.00184,   0.00095,  -0.00024,411003351.46251,   0.00000,274640135.82653,   0.00000,   0.00000,   0.00000,-63636784.36402,   0.00000
-386145710.24543,43927788.20538,-18147765.63282,  -0.00184,   0.00095,  -0.00024,411082365.57415,   0.00000,274640135.82653,   0.00000,   0.00000,   0.00000,-63557770.25238,   0.00000
-386086577.07652,44256079.24660,-17862295.16219,  -0.00184,   0.00095,  -0.00023,411175520.26534,   0.00000,274640135.82653,   0.00000,   0.00000,   0.00000,-63464615.56119,   0.00000
-386033561.13197,44570096.76429,-17572746.54198,  -0.00184,   0.00096,  -0.00023,411266776.29346,   0.00000,274640135.82653,   0.00000,   0.00000,   0.00000,-63373359.53307,   0.00000
-385988701.48659,44892270.58115,-17283197.92178,  -0.00184,   0.00096,  -0.00022,411371644.20125,   0.00000,274640135.82653,   0.00000,   0.00000,   0.00000,-63268491.62527,   0.00000
-385929568.31767,45220561.62237,-16997727.45115,  -0.00184,   0.00096,  -0.00022,411467193.02615,   0.00000,274640135.82653,   0.00000,   0.00000,   0.00000,-63172942.80038,   0.00000
-385892864.97145,45550891.73838,-16712256.98052,  -0.00184,   0.00096,  -0.00022,411586989.21262,   0.00000,274640135.82653,   0.00000,   0.00000,   0.00000,-63053146.61391,   0.00000
-385848005.32606,45873065.55524,-16426786.50989,  -0.00185,   0.00096,  -0.00021,411694753.60434,   0.00000,274640135.82653,   0.00000,   0.00000,   0.00000,-62945382.22219,   0.00000
-385825575.50337,46197278.44688,-16141316.03926,  -0.00185,   0.00096,  -0.00021,411826760.95939,   0.00000,274640135.82653,   0.00000,   0.00000,   0.00000,-62813374.86714,   0.00000
-385788872.15715,46527608.56289,-15859923.71821,  -0.00185,   0.00096,  -0.00021,411949411.22856,   0.00000,274640135.82653,   0.00000,   0.00000,   0.00000,-62690724.59797,   0.00000
-385760325.11008,46866094.97806,-15578531.39716,  -0.00185,   0.00097,  -0.00020,412085684.34779,   0.00000,274640135.82653,   0.00000,   0.00000,   0.00000,-62554451.47874,   0.00000
-385752168.81092,47184190.64534,-15293060.92654,  -0.00185,   0.00097,  -0.00020,412230664.31516,   0.00000,274640135.82653,   0.00000,   0.00000,   0.00000,-62409471.51136,   0.00000
-385723621.76386,47522677.06051,-15015746.75507,  -0.00185,   0.00097,  -0.00020,412368954.07530,   0.00000,274640135.82653,   0.00000,   0.00000,   0.00000,-62271181.75123,   0.00000
-385723621.76386,47848929.02694,-14734354.43402,  -0.00185,   0.00097,  -0.00019,412528784.69170,   0.00000,274640135.82653,   0.00000,   0.00000,   0.00000,-62111351.13483,   0.00000
-385703231.01596,48195571.74128,-14452962.11297,  -0.00185,   0.00097,  -0.00019,412681048.31020,   0.00000,274640135.82653,   0.00000,   0.00000,   0.00000,-61959087.51633,   0.00000
-385717504.53949,48515706.48334,-14175647.94150,  -0.00185,   0.00097,  -0.00018,412853450.15291,   0.00000,274640135.82653,   0.00000,   0.00000,   0.00000,-61786685.67362,   0.00000
-385711387.31512,48856231.97330,-13898333.77004,  -0.00185,   0.00097,  -0.00018,413018282.60423,   0.00000,274640135.82653,   0.00000,   0.00000,   0.00000,-61621853.22230,   0.00000
-385733817.13781,49184523.01453,-13621019.59857,  -0.00185,   0.00098,  -0.00018,413205064.48867,   0.00000,274640135.82653,   0.00000,   0.00000,   0.00000,-61435071.33786,   0.00000
-385735856.21260,49533204.80365,-13343705.42710,  -0.00185,   0.00098,  -0.00017,413384307.55854,   0.00000,274640135.82653,   0.00000,   0.00000,   0.00000,-61255828.26799,   0.00000
-385758286.03529,49861495.84488,-13070469.40521,  -0.00185,   0.00098,  -0.00017,413572993.19524,   0.00000,274640135.82653,   0.00000,   0.00000,   0.00000,-61067142.63129,   0.00000
-385788872.15715,50197943.18526,-12797233.38332,  -0.00185,   0.00098,  -0.00017,413775304.74059,   0.00000,274640135.82653,   0.00000,   0.00000,   0.00000,-60864831.08594,   0.00000
-385813341.05463,50548664.04917,-12523997.36144,  -0.00185,   0.00098,  -0.00016,413980678.37193,   0.00000,274640135.82653,   0.00000,   0.00000,   0.00000,-60659457.45460,   0.00000
-385843927.17648,50885111.38956,-12250761.33955,  -0.00185,   0.00098,  -0.00016,414184482.29461,   0.00000,274640135.82653,   0.00000,   0.00000,   0.00000,-60455653.53192,   0.00000
-385882669.59750,51229715.02910,-11977525.31766,  -0.00186,   0.00099,  -0.00016,414401931.62437,   0.00000,274640135.82653,   0.00000,   0.00000,   0.00000,-60238204.20216,   0.00000
-385935685.54204,51568201.44428,-11708367.44536,  -0.00186,   0.00099,  -0.00015,414631040.27108,   0.00000,274640135.82653,   0.00000,   0.00000,   0.00000,-60009095.55545,   0.00000
-385988701.48659,51906687.85945,-11439209.57305,  -0.00186,   0.00099,  -0.00015,414860872.47672,   0.00000,274640135.82653,   0.00000,   0.00000,   0.00000,-59779263.34981,   0.00000
-386035600.20676,52259447.79816,-11170051.70074,  -0.00186,   0.00099,  -0.00015,415093786.96072,   0.00000,274640135.82653,   0.00000,   0.00000,   0.00000,-59546348.86581,   0.00000
-386096772.45047,52606090.51249,-10900893.82843,  -0.00186,   0.00099,  -0.00014,415337993.29289,   0.00000,274640135.82653,   0.00000,   0.00000,   0.00000,-59302142.53364,   0.00000
-386172218.21771,52946616.00246,-10635814.10571,  -0.00186,   0.00099,  -0.00014,415593792.11335,   0.00000,274640135.82653,   0.00000,   0.00000,   0.00000,-59046343.71318,   0.00000
-386247663.98494,53287141.49242,-10370734.38298,  -0.00186,   0.00100,  -0.00013,415850294.81662,   0.00000,274640135.82653,   0.00000,   0.00000,   0.00000,-58789841.00991,   0.00000
-386316992.52781,53641940.50591,-10105654.66025,  -0.00186,   0.00100,  -0.00013,416109892.20987,   0.00000,274640135.82653,   0.00000,   0.00000,   0.00000,-58530243.61666,   0.00000
-386400594.59421,53990622.29504,-9840574.93753,  -0.00186,   0.00100,  -0.00013,416380746.55438,   0.00000,274640135.82653,   0.00000,   0.00000,   0.00000,-58259389.27215,   0.00000
-386484196.66061,54339304.08416,-9579573.36438,  -0.00186,   0.00100,  -0.00012,416652590.53598,   0.00000,274640135.82653,   0.00000,   0.00000,   0.00000,-57987545.29055,   0.00000
-386582072.25054,54681868.64892,-9318571.79124,  -0.00187,   0.00100,  -0.00012,416935657.84420,   0.00000,274640135.82653,   0.00000,   0.00000,   0.00000,-57704477.98233,   0.00000
-386688104.13963,55032589.51283,-9057570.21809,  -0.00187,   0.00100,  -0.00012,417232359.99976,   0.00000,274640135.82653,   0.00000,   0.00000,   0.00000,-57407775.82677,   0.00000
-386794136.02872,55383310.37675,-8796568.64494,  -0.00187,   0.00101,  -0.00011,417529751.37330,   0.00000,274640135.82653,   0.00000,   0.00000,   0.00000,-57110384.45323,   0.00000
-386894050.69344,55748304.76420,-8539645.22138,  -0.00187,   0.00101,  -0.00011,417830520.68643,   0.00000,274640135.82653,   0.00000,   0.00000,   0.00000,-56809615.14010,   0.00000
-387028629.62959,56086791.17937,-8282721.79781,  -0.00187,   0.00101,  -0.00011,418150562.20143,   0.00000,274640135.82653,   0.00000,   0.00000,   0.00000,-56489573.62510,   0.00000
-387142817.81784,56445668.34245,-8025798.37425,  -0.00187,   0.00101,  -0.00010,418463200.62450,   0.00000,274640135.82653,   0.00000,   0.00000,   0.00000,-56176935.20203,   0.00000
-387265162.30526,56812701.80468,-7768874.95068,  -0.00187,   0.00101,  -0.00010,418789488.24087,   0.00000,274640135.82653,   0.00000,   0.00000,   0.00000,-55850647.58566,   0.00000
-387407897.54057,57159344.51902,-7516029.67669,  -0.00187,   0.00102,  -0.00010,419124710.95589,   0.00000,274640135.82653,   0.00000,   0.00000,   0.00000,-55515424.87064,   0.00000
-387544515.55151,57520260.75688,-7263184.40271,  -0.00188,   0.00102,  -0.00009,419463055.66048,   0.00000,274640135.82653,   0.00000,   0.00000,   0.00000,-55177080.16605,   0.00000
-387695407.08599,57875059.77038,-7010339.12872,  -0.00188,   0.00102,  -0.00009,419812554.17257,   0.00000,274640135.82653,   0.00000,   0.00000,   0.00000,-54827581.65396,   0.00000
-387846298.62046,58229858.78388,-6761572.00432,  -0.00188,   0.00102,  -0.00009,420162896.47470,   0.00000,274640135.82653,   0.00000,   0.00000,   0.00000,-54477239.35183,   0.00000
-388005346.45410,58592814.09653,-6512804.87991,  -0.00188,   0.00102,  -0.00008,420526862.11011,   0.00000,274640135.82653,   0.00000,   0.00000,   0.00000,-54113273.71642,   0.00000
-388178667.81127,58949652.18482,-6264037.75551,  -0.00188,   0.00103,  -0.00008,420901950.09822,   0.00000,274640135.82653,   0.00000,   0.00000,   0.00000,-53738185.72830,   0.00000
-388337715.64490,59312607.49747,-6015270.63110,  -0.00188,   0.00103,  -0.00008,421267183.32581,   0.00000,274640135.82653,   0.00000,   0.00000,   0.00000,-53372952.50072,   0.00000
-388519193.30123,59677601.88492,-5770581.65628,  -0.00188,   0.00103,  -0.00008,421656699.59176,   0.00000,274640135.82653,   0.00000,   0.00000,   0.00000,-52983436.23477,   0.00000
-388700670.95756,60042596.27237,-5525892.68145,  -0.00189,   0.00103,  -0.00007,422046832.58718,   0.00000,274640135.82653,   0.00000,   0.00000,   0.00000,-52593303.23935,   0.00000
-388896422.13742,60401473.43544,-5281203.70663,  -0.00189,   0.00103,  -0.00007,422448050.52586,   0.00000,274640135.82653,   0.00000,   0.00000,   0.00000,-52192085.30066,   0.00000
-389086056.09291,60774624.12205,-5040592.88139,  -0.00189,   0.00104,  -0.00007,422852569.48856,   0.00000,274640135.82653,   0.00000,   0.00000,   0.00000,-51787566.33797,   0.00000
-389296080.79630,61127384.06076,-4795903.90656,  -0.00189,   0.00104,  -0.00006,423265458.94095,   0.00000,274640135.82653,   0.00000,   0.00000,   0.00000,-51374676.88558,   0.00000
-389493871.05095,61508691.04652,-4559371.23090,  -0.00189,   0.00104,  -0.00006,423684335.84163,   0.00000,274640135.82653,   0.00000,   0.00000,   0.00000,-50955799.98490,   0.00000
-389712052.05350,61869607.28439,-4318760.40565,  -0.00189,   0.00104,  -0.00006,424111563.75433,   0.00000,274640135.82653,   0.00000,   0.00000,   0.00000,-50528572.07220,   0.00000
-389924115.83168,62244797.04579,-4082227.72999,  -0.00190,   0.00104,  -0.00005,424542073.37944,   0.00000,274640135.82653,   0.00000,   0.00000,   0.00000,-50098062.44709,   0.00000
-390150453.13340,62613869.58282,-3845695.05433,  -0.00190,   0.00105,  -0.00005,424983611.97327,   0.00000,274640135.82653,   0.00000,   0.00000,   0.00000,-49656523.85325,   0.00000
-390391063.95864,62976824.89547,-3609162.37866,  -0.00190,   0.00105,  -0.00005,425436165.74943,   0.00000,274640135.82653,   0.00000,   0.00000,   0.00000,-49203970.07709,   0.00000
-390625557.55951,63354053.73166,-3376707.85258,  -0.00190,   0.00105,  -0.00004,425891983.22258,   0.00000,274640135.82653,   0.00000,   0.00000,   0.00000,-48748152.60395,   0.00000
-390874324.68392,63725165.34348,-3144253.32650,  -0.00190,   0.00105,  -0.00004,426358797.67059,   0.00000,274640135.82653,   0.00000,   0.00000,   0.00000,-48281338.15594,   0.00000
-391123091.80832,64096276.95529,-2911798.80041,  -0.00190,   0.00105,  -0.00004,426826165.31575,   0.00000,274640135.82653,   0.00000,   0.00000,   0.00000,-47813970.51078,   0.00000
-391380015.23189,64475544.86627,-2683422.42391,  -0.00191,   0.00106,  -0.00003,427307212.91394,   0.00000,274640135.82653,   0.00000,   0.00000,   0.00000,-47332922.91259,   0.00000
-391651212.17899,64848695.55288,-2455046.04741,  -0.00191,   0.00106,  -0.00003,427799225.44457,   0.00000,274640135.82653,   0.00000,   0.00000,   0.00000,-46840910.38196,   0.00000
-391922409.12608,65221846.23949,-2226669.67090,  -0.00191,   0.00106,  -0.00003,428291771.20438,   0.00000,274640135.82653,   0.00000,   0.00000,   0.00000,-46348364.62215,   0.00000
-392207879.59671,65588879.70172,-2002371.44398,  -0.00191,   0.00106,  -0.00003,428795319.31379,   0.00000,274640135.82653,   0.00000,   0.00000,   0.00000,-45844816.51274,   0.00000
-392487232.84297,65970186.68749,-1778073.21706,  -0.00191,   0.00107,  -0.00002,429302031.36314,   0.00000,274640135.82653,   0.00000,   0.00000,   0.00000,-45338104.46339,   0.00000
-392780859.61276,66345376.44889,-1553774.99014,  -0.00192,   0.00107,  -0.00002,429819670.67291,   0.00000,274640135.82653,   0.00000,   0.00000,   0.00000,-44820465.15362,   0.00000
-393068369.15818,66734839.73382,-1333554.91279,  -0.00192,   0.00107,  -0.00002,430340529.57314,   0.00000,274640135.82653,   0.00000,   0.00000,   0.00000,-44299606.25339,   0.00000
-393370152.22713,67118185.79438,-1113334.83545,  -0.00192,   0.00107,  -0.00001,430872297.82620,   0.00000,274640135.82653,   0.00000,   0.00000,   0.00000,-43767838.00032,   0.00000
-393686208.81961,67495414.63057,-893114.75811,  -0.00192,   0.00107,  -0.00001,431414961.34399,   0.00000,274640135.82653,   0.00000,   0.00000,   0.00000,-43225174.48254,   0.00000
-394016538.93562,67866526.24238,-676972.83035,  -0.00193,   0.00108,  -0.00001,431968525.46831,   0.00000,274640135.82653,   0.00000,   0.00000,   0.00000,-42671610.35822,   0.00000
-394326478.30373,68258028.60210,-456752.75301,  -0.00193,   0.00108,  -0.00001,432514859.70302,   0.00000,274640135.82653,   0.00000,   0.00000,   0.00000,-42125276.12351,   0.00000
-394664964.71891,68637296.51308,-244688.97482,  -0.00193,   0.00108,  -0.00000,433082473.29351,   0.00000,274640135.82653,   0.00000,   0.00000,   0.00000,-41557662.53302,   0.00000
-394997333.90971,69030837.94759,-28547.04706,  -0.00193,   0.00108,  -0.00000,433653259.84614,   0.00000,274640135.82653,   0.00000,   0.00000,   0.00000,-40986875.98039,   0.00000
-395343976.62405,69418262.15773,183516.73112,  -0.00193,   0.00109,   0.00000,434234899.35846,   0.00000,274640135.82653,   0.00000,   0.00000,   0.00000,-40405236.46807,   0.00000
-395690619.33838,69805686.36787,391502.35972,  -0.00194,   0.00109,   0.00001,434816990.44105,   0.00000,274640135.82653,   0.00000,   0.00000,   0.00000,-39823145.38547,   0.00000
-396051535.57625,70186993.35364,599487.98832,  -0.00194,   0.00109,   0.00001,435409895.98430,   0.00000,274640135.82653,   0.00000,   0.00000,   0.00000,-39230239.84223,   0.00000
-396420608.11327,70576456.63856,807473.61692,  -0.00194,   0.00109,   0.00001,436016344.49711,   0.00000,274640135.82653,   0.00000,   0.00000,   0.00000,-38623791.32942,   0.00000
-396789680.65030,70965919.92349,1015459.24552,  -0.00194,   0.00110,   0.00001,436623236.48323,   0.00000,274640135.82653,   0.00000,   0.00000,   0.00000,-38016899.34330,   0.00000
-397166909.48649,71363539.50758,1219366.72454,  -0.00195,   0.00110,   0.00002,437243645.76740,   0.00000,274640135.82653,   0.00000,   0.00000,   0.00000,-37396490.05913,   0.00000
-397544138.32268,71761159.09167,1423274.20356,  -0.00195,   0.00110,   0.00002,437864489.48666,   0.00000,274640135.82653,   0.00000,   0.00000,   0.00000,-36775646.33987,   0.00000
-397935640.68240,72152661.45139,1623103.53300,  -0.00195,   0.00110,   0.00002,438496065.70261,   0.00000,274640135.82653,   0.00000,   0.00000,   0.00000,-36144070.12392,   0.00000
-398335299.34128,72552320.11027,1827011.01202,  -0.00195,   0.00111,   0.00002,439141223.19754,   0.00000,274640135.82653,   0.00000,   0.00000,   0.00000,-35498912.62899,   0.00000
-398741075.22453,72937705.24562,2022762.19188,  -0.00196,   0.00111,   0.00003,439783910.15636,   0.00000,274640135.82653,   0.00000,   0.00000,   0.00000,-34856225.67017,   0.00000
-399148890.18257,73345520.20366,2222591.52132,  -0.00196,   0.00111,   0.00003,440442964.06719,   0.00000,274640135.82653,   0.00000,   0.00000,   0.00000,-34197171.75934,   0.00000
-399577095.88851,73732944.41380,2418342.70118,  -0.00196,   0.00111,   0.00003,441109899.67928,   0.00000,274640135.82653,   0.00000,   0.00000,   0.00000,-33530236.14725,   0.00000
-399999184.37008,74134642.14747,2610015.73146,  -0.00196,   0.00112,   0.00003,441779951.56184,   0.00000,274640135.82653,   0.00000,   0.00000,   0.00000,-32860184.26469,   0.00000
-400435546.37519,74530222.65677,2805766.91132,  -0.00197,   0.00112,   0.00004,442460787.30773,   0.00000,274640135.82653,   0.00000,   0.00000,   0.00000,-32179348.51880,   0.00000
-400865791.15592,74940076.68960,2993361.79202,  -0.00197,   0.00112,   0.00004,443144661.92116,   0.00000,274640135.82653,   0.00000,   0.00000,   0.00000,-31495473.90537,   0.00000
-401310309.46019,75343813.49806,3185034.82230,  -0.00197,   0.00113,   0.00004,443839314.57537,   0.00000,274640135.82653,   0.00000,   0.00000,   0.00000,-30800821.25116,   0.00000
-401769101.28798,75741433.08215,3372629.70300,  -0.00198,   0.00113,   0.00004,444544561.12758,   0.00000,274640135.82653,   0.00000,   0.00000,   0.00000,-30095574.69895,   0.00000
-402221775.89141,76153326.18977,3560224.58370,  -0.00198,   0.00113,   0.00005,445253004.24405,   0.00000,274640135.82653,   0.00000,   0.00000,   0.00000,-29387131.58248,   0.00000
-402688724.01836,76559102.07303,3743741.31482,  -0.00198,   0.00113,   0.00005,445972015.36043,   0.00000,274640135.82653,   0.00000,   0.00000,   0.00000,-28668120.46610,   0.00000
-403169945.66885,76958760.73191,3927258.04593,  -0.00198,   0.00114,   0.00005,446701673.82082,   0.00000,274640135.82653,   0.00000,   0.00000,   0.00000,-27938462.00571,   0.00000
-403645050.09497,77372692.91432,4110774.77705,  -0.00199,   0.00114,   0.00005,447434531.51290,   0.00000,274640135.82653,   0.00000,   0.00000,   0.00000,-27205604.31363,   0.00000
-404134428.04462,77780507.87236,4290213.35859,  -0.00199,   0.00114,   0.00006,448177913.54532,   0.00000,274640135.82653,   0.00000,   0.00000,   0.00000,-26462222.28121,   0.00000
-404631962.29343,78196479.12956,4469651.94013,  -0.00199,   0.00114,   0.00006,448934786.37517,   0.00000,274640135.82653,   0.00000,   0.00000,   0.00000,-25705349.45136,   0.00000
-405135613.76661,78598176.86323,4645012.37209,  -0.00200,   0.00115,   0.00006,449688990.29496,   0.00000,274640135.82653,   0.00000,   0.00000,   0.00000,-24951145.53157,   0.00000
-405641304.31458,79022304.41959,4820372.80404,  -0.00200,   0.00115,   0.00006,450459555.31927,   0.00000,274640135.82653,   0.00000,   0.00000,   0.00000,-24180580.50726,   0.00000
-406153112.08692,79432158.45242,4991655.08642,  -0.00200,   0.00115,   0.00006,451227422.11776,   0.00000,274640135.82653,   0.00000,   0.00000,   0.00000,-23412713.70877,   0.00000
-406673076.15842,79850168.78442,5167015.51838,  -0.00201,   0.00116,   0.00007,452008902.83985,   0.00000,274640135.82653,   0.00000,   0.00000,   0.00000,-22631232.98668,   0.00000
-407207313.75346,80262061.89204,5334219.65118,  -0.00201,   0.00116,   0.00007,452800679.40618,   0.00000,274640135.82653,   0.00000,   0.00000,   0.00000,-21839456.42035,   0.00000
-407735434.12412,80688228.52319,5505501.93355,  -0.00201,   0.00116,   0.00007,453595806.86204,   0.00000,274640135.82653,   0.00000,   0.00000,   0.00000,-21044328.96449,   0.00000
-408277828.01832,81108277.92997,5672706.06635,  -0.00202,   0.00117,   0.00007,454401351.15338,   0.00000,274640135.82653,   0.00000,   0.00000,   0.00000,-20238784.67315,   0.00000
-408834495.43604,81522210.11238,5835832.04957,  -0.00202,   0.00117,   0.00008,455217286.40871,   0.00000,274640135.82653,   0.00000,   0.00000,   0.00000,-19422849.41782,   0.00000
-409385045.62940,81950415.81833,5998958.03278,  -0.00202,   0.00117,   0.00008,456036427.76575,   0.00000,274640135.82653,   0.00000,   0.00000,   0.00000,-18603708.06077,   0.00000
-409949869.34628,82372504.29990,6162084.01600,  -0.00203,   0.00117,   0.00008,456866102.98358,   0.00000,274640135.82653,   0.00000,   0.00000,   0.00000,-17774032.84295,   0.00000
-410514693.06317,82794592.78147,6321131.84963,  -0.00203,   0.00118,   0.00008,457695886.78636,   0.00000,274640135.82653,   0.00000,   0.00000,   0.00000,-16944249.04017,   0.00000
-411101946.60275,83218720.33783,6480179.68327,  -0.00203,   0.00118,   0.00008,458549367.05451,   0.00000,274640135.82653,   0.00000,   0.00000,   0.00000,-16090768.77202,   0.00000
-411668809.39443,83663238.64210,6639227.51691,  -0.00204,   0.00118,   0.00009,459395831.49638,   0.00000,274640135.82653,   0.00000,   0.00000,   0.00000,-15244304.33015,   0.00000
-412270336.45754,84081248.97409,6794197.20096,  -0.00204,   0.00119,   0.00009,460259899.29928,   0.00000,274640135.82653,   0.00000,   0.00000,   0.00000,-14380236.52724,   0.00000
-412865746.29628,84513532.82961,6945088.73544,  -0.00204,   0.00119,   0.00009,461126996.90279,   0.00000,274640135.82653,   0.00000,   0.00000,   0.00000,-13513138.92374,   0.00000
-413475429.65855,84939699.46077,7100058.41949,  -0.00205,   0.00119,   0.00009,462004756.13796,   0.00000,274640135.82653,   0.00000,   0.00000,   0.00000,-12635379.68857,   0.00000
-414078995.79645,85380139.61545,7246871.80439,  -0.00205,   0.00120,   0.00009,462885360.45799,   0.00000,274640135.82653,   0.00000,   0.00000,   0.00000,-11754775.36854,   0.00000
-414696835.45788,85814462.54576,7397763.33886,  -0.00205,   0.00120,   0.00010,463776620.88801,   0.00000,274640135.82653,   0.00000,   0.00000,   0.00000,-10863514.93852,   0.00000
-415322831.41847,86256941.77524,7544576.72376,  -0.00206,   0.00120,   0.00010,464681130.99553,   0.00000,274640135.82653,   0.00000,   0.00000,   0.00000,-9959004.83100,   0.00000
-415948827.37906,86699421.00471,7687311.95907,  -0.00206,   0.00121,   0.00010,465585677.82675,   0.00000,274640135.82653,   0.00000,   0.00000,   0.00000,-9054457.99978,   0.00000
-416589096.86319,87135783.00982,7830047.19439,  -0.00207,   0.00121,   0.00010,466500660.63377,   0.00000,274640135.82653,   0.00000,   0.00000,   0.00000,-8139475.19276,   0.00000
-417243639.87084,87566027.79055,7972782.42970,  -0.00207,   0.00121,   0.00010,467426067.07271,   0.00000,274640135.82653,   0.00000,   0.00000,   0.00000,-7214068.75382,   0.00000
-417892065.65413,88010546.09481,8111439.51543,  -0.00207,   0.00122,   0.00011,468354491.83341,   0.00000,274640135.82653,   0.00000,   0.00000,   0.00000,-6285643.99312,   0.00000
-418548647.73658,88463220.69824,8250096.60117,  -0.00208,   0.00122,   0.00011,469296351.59234,   0.00000,274640135.82653,   0.00000,   0.00000,   0.00000,-5343784.23419,   0.00000
-419205229.81902,88915895.30167,8384675.53732,  -0.00208,   0.00122,   0.00011,470238213.90973,   0.00000,274640135.82653,   0.00000,   0.00000,   0.00000,-4401921.91680,   0.00000
-419876085.42500,89362452.68072,8519254.47348,  -0.00208,   0.00123,   0.00011,471190476.31170,   0.00000,274640135.82653,   0.00000,   0.00000,   0.00000,-3449659.51483,   0.00000
-420561214.55451,89802892.83540,8653833.40963,  -0.00209,   0.00123,   0.00011,472153126.56868,   0.00000,274640135.82653,   0.00000,   0.00000,   0.00000,-2487009.25785,   0.00000
-421254499.98318,90251489.28925,8784334.19620,  -0.00209,   0.00123,   0.00011,473128972.53296,   0.00000,274640135.82653,   0.00000,   0.00000,   0.00000,-1511163.29357,   0.00000
-421941668.18748,90714359.26663,8910756.83319,  -0.00210,   0.00124,   0.00012,474107834.95901,   0.00000,274640135.82653,   0.00000,   0.00000,   0.00000,-532300.86751,   0.00000
-422319962.36059,90959137.84923,8979739.88829,  -0.00210,   0.00124,   0.00012,474640371.46533,   0.00000,274640135.82653,   0.00000,   0.00000,   0.00000,  -2.64496,   0.00000
-422260532.50583,91050362.14805,9028613.38027,  -0.00210,   0.00124,   0.00012,474642652.68051,   0.00000,274642654.00354,  -0.00000,   0.00000,   0.00000,  -1.32303,   1.00000
-422124359.85402,91260402.22634,9135450.63033,  -0.00210,   0.00124,   0.00012,474648337.65764,   0.00001,274648344.48328,  -0.00001,   0.00000,   0.00000,  -6.82564,   1.00000
-421997219.99193,91456621.67770,9238053.03262,  -0.00211,   0.00125,   0.00012,474654013.25488,   0.00001,274654016.95412,  -0.00001,   0.00001,   0.00000,  -3.69924,   1.00000
-421861517.41830,91665919.91710,9340373.42208,  -0.00211,   0.00125,   0.00012,474659701.84067,   0.00002,274659707.63057,  -0.00001,   0.00001,   0.00000,  -5.78989,   1.00000
-421737565.43791,91857475.93103,9437999.16284,  -0.00212,   0.00125,   0.00012,474665509.31886,   0.00002,274665512.98694,  -0.00002,   0.00001,   0.00000,  -3.66808,   1.00000
-421599350.56735,92070808.47631,9535554.08382,  -0.00212,   0.00126,   0.00013,474671275.31290,   0.00003,274671278.87081,  -0.00002,   0.00002,   0.00000,  -3.55791,   1.00000
-421472703.90865,92266311.03919,9632478.02441,  -0.00213,   0.00126,   0.00013,474677151.10892,   0.00003,274677160.78808,  -0.00003,   0.00002,   0.00000,  -9.67916,   1.00000
-421337724.07945,92474941.58917,9725058.15341,  -0.00213,   0.00126,   0.00013,474683056.62430,   0.00004,274683059.41538,  -0.00003,   0.00002,   0.00000,  -2.79108,   1.00000
-421208830.27536,92674505.05546,9813154.71018,  -0.00213,   0.00127,   0.00013,474689010.27522,   0.00004,274689014.92479,  -0.00004,   0.00002,   0.00000,  -4.64957,   1.00000
-421080097.81410,92873662.98430,9901052.42847,  -0.00214,   0.00127,   0.00013,474694964.85913,   0.00005,274694971.03352,  -0.00004,   0.00003,   0.00000,  -6.17439,   1.00000
-420948545.50242,93077151.24123,9988469.53599,  -0.00214,   0.00127,   0.00013,474700994.36308,   0.00006,274701002.92411,  -0.00005,   0.00003,   0.00000,  -8.56103,   1.00000
-420823119.81750,93271573.61349,10071405.77270,  -0.00215,   0.00128,   0.00013,474707087.43214,   0.00006,274707091.43881,  -0.00005,   0.00003,   0.00000,  -4.00667,   1.00000
-420697855.20937,93465592.21123,10154150.58053,  -0.00215,   0.00128,   0.00014,474713173.19655,   0.00007,274713180.52169,  -0.00006,   0.00004,   0.00000,  -7.32514,   1.00000
-420570013.40894,93664000.42121,10232352.58590,  -0.00216,   0.00129,   0.00014,474719342.54369,   0.00007,274719343.77080,  -0.00006,   0.00004,   0.00000,  -1.22712,   1.00000
-420433623.41194,93875432.51345,10310303.35600,  -0.00216,   0.00129,   0.00014,474725524.73167,   0.00008,274725525.28835,  -0.00007,   0.00004,   0.00000,  -0.55668,   1.00000
-420317878.35403,94055600.64333,10383629.28086,  -0.00217,   0.00129,   0.00014,474731802.87112,   0.00008,274731803.02493,  -0.00007,   0.00005,   0.00000,  -0.15382,   1.00000
-420187812.01232,94257549.96939,10456936.97615,  -0.00217,   0.00130,   0.00014,474738032.36099,   0.00009,274738041.51194,  -0.00007,   0.00005,   0.00000,  -9.15095,   1.00000
-420060741.12938,94455044.47664,10529546.84447,  -0.00218,   0.00130,   0.00014,474744406.73036,   0.00009,274744413.07119,  -0.00008,   0.00005,   0.00001,  -6.34083,   1.00000
-419934083.71167,94652184.94684,10597919.21029,  -0.00218,   0.00130,   0.00014,474750773.57461,   0.00010,274750783.55704,  -0.00008,   0.00005,   0.00001,  -9.98243,   1.00000
-419807857.77180,94848978.10765,10662064.78822,  -0.00218,   0.00131,   0.00014,474757149.79647,   0.00011,274757152.83566,  -0.00009,   0.00006,   0.00001,  -3.03919,   1.00000
-419678859.22390,95050032.93551,10725752.32047,  -0.00219,   0.00131,   0.00015,474763592.03356,   0.00011,274763597.80511,  -0.00009,   0.00006,   0.00001,  -5.77155,   1.00000
-419555849.36620,95241911.79569,10789051.98844,  -0.00219,   0.00132,   0.00015,474770096.60153,   0.00012,274770100.50468,  -0.00010,   0.00006,   0.00001,  -3.90316,   1.00000
-419430315.67795,95438120.67870,10847827.58950,  -0.00220,   0.00132,   0.00015,474776675.67247,   0.00012,274776677.21168,  -0.00010,   0.00007,   0.00001,  -1.53921,   1.00000
-419304981.08900,95633897.06717,10906456.74226,  -0.00220,   0.00132,   0.00015,474783246.57840,   0.00013,274783254.29934,  -0.00011,   0.00007,   0.00001,  -7.72093,   1.00000
-419171344.39307,95842734.25397,10960804.79593,  -0.00221,   0.00133,   0.00015,474789838.94187,   0.00014,274789848.05362,  -0.00011,   0.00007,   0.00001,  -9.11176,   1.00000
-419049777.54901,96033680.69494,11010481.90943,  -0.00221,   0.00133,   0.00015,474796554.91563,   0.00014,274796555.08016,  -0.00012,   0.00008,   0.00001,  -0.16453,   1.00000
-418922365.39171,96232880.82283,11064331.96901,  -0.00222,   0.00134,   0.00015,474803201.30067,   0.00015,274803206.78366,  -0.00012,   0.00008,   0.00001,  -5.48299,   1.00000
-418798517.54968,96427680.30939,11109371.11698,  -0.00222,   0.00134,   0.00015,474809982.80979,   0.00015,274809988.04990,  -0.00013,   0.00008,   0.00001,  -5.24012,   1.00000
-418674648.81036,96621966.56465,11158355.66103,  -0.00223,   0.00134,   0.00015,474816765.29088,   0.00016,274816771.18661,  -0.00013,   0.00009,   0.00001,  -5.89573,   1.00000
-418557064.59732,96807128.65480,11202912.97264,  -0.00223,   0.00135,   0.00015,474823609.20849,   0.00017,274823610.10630,  -0.00014,   0.00009,   0.00001,  -0.89781,   1.00000
-418431160.25603,97005345.84142,11243217.77551,  -0.00224,   0.00135,   0.00016,474830456.31502,   0.00017,274830465.73360,  -0.00015,   0.00009,   0.00001,  -9.41858,   1.00000
-418302561.37037,97207745.91572,11283099.33411,  -0.00224,   0.00136,   0.00016,474837396.17722,   0.00018,274837396.79546,  -0.00015,   0.00010,   0.00001,  -0.61824,   1.00000
-418183200.41830,97396360.54186,11318892.52314,  -0.00225,   0.00136,   0.00016,474844304.90765,   0.00019,274844308.33629,  -0.00016,   0.00010,   0.00001,  -3.42864,   1.00000
-418052358.83680,97602556.95914,11354193.72085,  -0.00225,   0.00136,   0.00016,474851309.53215,   0.00019,274851313.51103,  -0.00016,   0.00010,   0.00001,  -3.97887,   1.00000
-417936380.25268,97786107.37845,11389234.54673,  -0.00226,   0.00137,   0.00016,474858354.12507,   0.00020,274858357.81942,  -0.00017,   0.00011,   0.00001,  -3.69435,   1.00000
-417812088.66193,97982697.94183,11420043.82442,  -0.00226,   0.00137,   0.00016,474865410.83834,   0.00021,274865418.79958,  -0.00017,   0.00011,   0.00001,  -7.96124,   1.00000
-417685360.80333,98183514.28668,11446387.03711,  -0.00227,   0.00138,   0.00016,474872550.29688,   0.00021,274872553.53712,  -0.00018,   0.00012,   0.00001,  -3.24024,   1.00000
-417558870.37695,98383856.44416,11472658.81750,  -0.00227,   0.00138,   0.00016,474879680.65656,   0.00022,274879688.47216,  -0.00018,   0.00012,   0.00001,  -7.81560,   1.00000
-417438491.73151,98574940.12385,11498613.23102,  -0.00228,   0.00139,   0.00016,474886872.68236,   0.00023,274886880.57043,  -0.00019,   0.00012,   0.00001,  -7.88807,   1.00000
-417315677.05905,98770238.32004,11520111.22585,  -0.00229,   0.00139,   0.00016,474894137.74318,   0.00023,274894146.41811,  -0.00019,   0.00013,   0.00001,  -8.67493,   1.00000
-417193108.66315,98965070.68691,11541550.07752,  -0.00229,   0.00139,   0.00016,474901403.19397,   0.00024,274901412.34144,  -0.00020,   0.00013,   0.00001,  -9.14747,   1.00000
-417062243.61250,99172892.86300,11558790.78254,  -0.00230,   0.00140,   0.00016,474908690.02573,   0.00024,274908694.99333,  -0.00020,   0.00013,   0.00001,  -4.96760,   1.00000
-416937763.73975,99371495.56260,11571676.23391,  -0.00230,   0.00140,   0.00016,474916027.49811,   0.00025,274916033.08872,  -0.00021,   0.00014,   0.00001,  -5.59061,   1.00000
-416810374.75097,99574105.29236,11588257.24856,  -0.00231,   0.00141,   0.00017,474923440.36212,   0.00026,274923448.32967,  -0.00022,   0.00014,   0.00001,  -7.96755,   1.00000
-416689637.83511,99767578.24400,11596424.78791,  -0.00231,   0.00141,   0.00017,474930912.02573,   0.00027,274930917.16404,  -0.00022,   0.00014,   0.00002,  -5.13831,   1.00000
-416568905.53050,99960497.60240,11608628.38002,  -0.00232,   0.00142,   0.00017,474938385.45322,   0.00027,274938387.69861,  -0.00023,   0.00015,   0.00002,  -2.24539,   1.00000
-416439862.50635,100166385.29569,11616657.42400,  -0.00232,   0.00142,   0.00017,474945870.32306,   0.00028,274945875.06155,  -0.00023,   0.00015,   0.00002,  -4.73849,   1.00000
-416317243.82582,100363035.29574,11620355.87320,  -0.00233,   0.00142,   0.00017,474953415.19846,   0.00029,274953417.64773,  -0.00024,   0.00016,   0.00002,  -2.44928,   1.00000
-416191980.28263,100563738.97629,11623714.36292,  -0.00233,   0.00143,   0.00017,474961034.11165,   0.00029,274961035.64184,  -0.00024,   0.00016,   0.00002,  -1.53019,   1.00000
-416067231.63502,100764022.65533,11623003.74872,  -0.00234,   0.00143,   0.00017,474968651.70783,   0.00030,274968651.94361,  -0.00025,   0.00016,   0.00002,  -0.23578,   1.00000
-415933925.27112,100977155.91386,11622213.66042,  -0.00235,   0.00144,   0.00017,474976282.12466,   0.00031,274976286.86940,  -0.00026,   0.00017,   0.00002,  -4.74474,   1.00000
-415813003.07170,101172188.83966,11616870.57702,  -0.00235,   0.00144,   0.00017,474984033.45047,   0.00031,274984033.72603,  -0.00026,   0.00017,   0.00002,  -0.27556,   1.00000
-415686408.49710,101375552.16745,11611790.20424,  -0.00236,   0.00145,   0.00017,474991718.86635,   0.00032,274991723.79362,  -0.00027,   0.00018,   0.00002,  -4.92727,   1.00000
-415563133.02147,101574088.29467,11606148.05880,  -0.00236,   0.00145,   0.00017,474999544.55066,   0.00033,274999546.00631,  -0.00027,   0.00018,   0.00002,  -1.45565,   1.00000
-415434434.19892,101781029.01121,11596710.45231,  -0.00237,   0.00146,   0.00017,475007307.59027,   0.00034,275007309.75139,  -0.00028,   0.00018,   0.00002,  -2.16112,   1.00000
-415309316.44940,101983191.65448,11582666.11939,  -0.00237,   0.00146,   0.00017,475015203.74441,   0.00034,275015203.95350,  -0.00029,   0.00019,   0.00002,  -0.20909,   1.00000
-415184466.38527,102184828.52585,11568662.75189,  -0.00238,   0.00147,   0.00017,475023089.63487,   0.00035,275023098.16672,  -0.00029,   0.00019,   0.00002,  -8.53185,   1.00000
-415051067.53589,102399281.14798,11554619.66757,  -0.00239,   0.00147,   0.00017,475031009.62428,   0.00036,275031010.99945,  -0.00030,   0.00020,   0.00002,  -1.37517,   1.00000
-414924158.00485,102604411.87442,11536313.22993,  -0.00239,   0.00148,   0.00017,475038978.40654,   0.00036,275038978.87135,  -0.00030,   0.00020,   0.00002,  -0.46482,   1.00000
-414797770.52528,102809086.29425,11514002.28348,  -0.00240,   0.00148,   0.00017,475046939.98356,   0.00037,275046945.04646,  -0.00031,   0.00020,   0.00002,  -5.06289,   1.00000
-414668543.26967,103017621.36103,11495490.74962,  -0.00240,   0.00148,   0.00017,475054983.12499,   0.00038,275054988.28728,  -0.00032,   0.00021,   0.00002,  -5.16229,   1.00000
-414537214.20882,103230237.71549,11468592.37655,  -0.00241,   0.00149,   0.00017,475063095.74708,   0.00039,275063103.61377,  -0.00032,   0.00021,   0.00002,  -7.86669,   1.00000
-414406183.34384,103442288.62860,11441775.53820,  -0.00242,   0.00149,   0.00017,475071214.21916,   0.00039,275071218.88457,  -0.00033,   0.00022,   0.00002,  -4.66541,   1.00000
-414275441.19297,103653772.65326,11415039.72947,  -0.00242,   0.00150,   0.00017,475079327.64351,   0.00040,275079334.15751,  -0.00033,   0.00022,   0.00002,  -6.51400,   1.00000
-414142365.74268,103869227.78478,11384003.67390,  -0.00243,   0.00150,   0.00017,475087518.17444,   0.00041,275087523.19327,  -0.00034,   0.00022,   0.00002,  -5.01884,   1.00000
-414015580.02720,104075238.33766,11352821.29706,  -0.00243,   0.00151,   0.00017,475095764.62155,   0.00042,275095768.74029,  -0.00035,   0.00023,   0.00002,  -4.11874,   1.00000
-413880216.16828,104293998.49971,11321654.31540,  -0.00244,   0.00151,   0.00017,475104024.05366,   0.00042,275104033.21596,  -0.00035,   0.00023,   0.00003,  -9.16230,   1.00000
-413745645.25218,104512327.40528,11282466.57916,  -0.00245,   0.00152,   0.00017,475112289.92760,   0.00043,275112294.32873,  -0.00036,   0.00024,   0.00003,  -4.40113,   1.00000
-413617139.31406,104721107.18932,11247219.51576,  -0.00245,   0.00152,   0.00017,475120608.73767,   0.00044,275120613.57291,  -0.00037,   0.00024,   0.00003,  -4.83524,   1.00000
-413486303.55178,104933820.82922,11207705.69634,  -0.00246,   0.00153,   0.00017,475128998.98018,   0.00045,275129006.61143,  -0.00037,   0.00025,   0.00003,  -7.63125,   1.00000
-413347133.55958,105159325.88502,11164177.58146,  -0.00246,   0.00153,   0.00017,475137410.80593,   0.00045,275137417.01445,  -0.00038,   0.00025,   0.00003,  -6.20853,   1.00000
-413217151.88988,105370908.35591,11120865.62135,  -0.00247,   0.00154,   0.00017,475145799.24809,   0.00046,275145808.35431,  -0.00039,   0.00025,   0.00003,  -9.10622,   1.00000
-413075735.45077,105599607.33145,11077296.05216,  -0.00248,   0.00154,   0.00017,475154285.69253,   0.00047,275154294.25730,  -0.00039,   0.00026,   0.00003,  -8.56476,   1.00000
-412943763.10787,105814456.92018,11029885.28972,  -0.00248,   0.00155,   0.00017,475162757.29833,   0.00048,275162759.38249,  -0.00040,   0.00026,   0.00003,  -2.08416,   1.00000
-412800581.09233,106046465.93450,10978175.44111,  -0.00249,   0.00155,   0.00017,475171312.74515,   0.00049,275171317.61504,  -0.00040,   0.00027,   0.00003,  -4.86988,   1.00000
-412672655.28404,106255640.56559,10926478.23242,  -0.00250,   0.00156,   0.00017,475179905.59575,   0.00049,275179912.99804,  -0.00041,   0.00027,   0.00003,  -7.40229,   1.00000
-412530088.33813,106486400.05453,10875098.89012,  -0.00250,   0.00156,   0.00017,475188462.11767,   0.00050,275188471.21697,  -0.00042,   0.00028,   0.00003,  -9.09931,   1.00000
-412391284.77030,106712063.57517,10819289.43182,  -0.00251,   0.00157,   0.00017,475197151.01909,   0.00051,275197159.69513,  -0.00042,   0.00028,   0.00003,  -8.67604,   1.00000
-412246749.72603,106945983.08126,10763888.83711,  -0.00252,   0.00157,   0.00017,475205790.98648,   0.00052,275205791.87792,  -0.00043,   0.00028,   0.00003,  -0.89144,   1.00000
-412108826.04719,107170402.99666,10704381.76957,  -0.00252,   0.00158,   0.00017,475214478.01769,   0.00053,275214478.82753,  -0.00044,   0.00029,   0.00003,  -0.80984,   1.00000
-411968380.79729,107398537.20391,10644765.83122,  -0.00253,   0.00159,   0.00017,475223239.28969,   0.00053,275223241.33177,  -0.00044,   0.00029,   0.00003,  -2.04209,   1.00000
-411819573.96418,107639351.65299,10581209.61079,  -0.00253,   0.00159,   0.00017,475232016.44493,   0.00054,275232021.68375,  -0.00045,   0.00030,   0.00003,  -5.23882,   1.00000
-411680018.09075,107866200.66290,10517938.25587,  -0.00254,   0.00160,   0.00017,475240775.87723,   0.00055,275240782.72557,  -0.00046,   0.00030,   0.00003,  -6.84834,   1.00000
-411529260.51919,108110069.42431,10450442.67960,  -0.00255,   0.00160,   0.00017,475249630.77930,   0.00056,275249637.23559,  -0.00046,   0.00031,   0.00003,  -6.45629,   1.00000
-411387764.96728,108339962.99216,10383246.00137,  -0.00255,   0.00161,   0.00017,475258467.96293,   0.00057,275258472.39921,  -0.00047,   0.00031,   0.00003,  -4.43628,   1.00000
-411243762.99433,108573509.39061,10315978.23195,  -0.00256,   0.00161,   0.00017,475267373.51418,   0.00057,275267383.20701,  -0.00048,   0.00032,   0.00003,  -9.69283,   1.00000
-411091394.91267,108819693.33448,10244800.99370,  -0.00257,   0.00162,   0.00017,475276307.00225,   0.00058,275276312.01422,  -0.00048,   0.00032,   0.00003,  -5.01197,   1.00000
-410945693.05171,109056287.75420,10169587.99830,  -0.00257,   0.00162,   0.00017,475285293.11293,   0.00059,275285295.53038,  -0.00049,   0.00033,   0.00003,  -2.41745,   1.00000
-410800105.16929,109292097.10354,10098686.10788,  -0.00258,   0.00163,   0.00017,475294271.22995,   0.00060,275294280.64575,  -0.00050,   0.00033,   0.00004,  -9.41579,   1.00000
-410646355.15116,109540594.94478,10019831.21572,  -0.00259,   0.00163,   0.00017,475303280.07255,   0.00061,275303282.40590,  -0.00050,   0.00033,   0.00004,  -2.33335,   1.00000
-410490128.15325,109792639.00318,9940958.88029,  -0.00259,   0.00164,   0.00017,475312351.33924,   0.00061,275312360.01316,  -0.00051,   0.00034,   0.00004,  -8.67392,   1.00000
-410343204.42821,110030685.65957,9862426.76609,  -0.00260,   0.00164,   0.00016,475321410.97500,   0.00062,275321418.09815,  -0.00052,   0.00034,   0.00004,  -7.12315,   1.00000
-410178730.87771,110294476.88170,9784016.13519,  -0.00261,   0.00165,   0.00016,475330508.55211,   0.00063,275330515.64372,  -0.00053,   0.00035,   0.00004,  -7.09160,   1.00000
-410029921.72688,110535357.15223,9701680.52839,  -0.00261,   0.00166,   0.00016,475339640.20322,   0.00064,275339648.22680,  -0.00053,   0.00035,   0.00004,  -8.02357,   1.00000
-409869904.38416,110793071.07609,9615222.62545,  -0.00262,   0.00166,   0.00016,475348867.76467,   0.00065,275348874.86854,  -0.00054,   0.00036,   0.00004,  -7.10387,   1.00000
-409713056.72806,111045724.62390,9529333.45009,  -0.00263,   0.00167,   0.00016,475358022.62184,   0.00066,275358026.09030,  -0.00055,   0.00036,   0.00004,  -3.46846,   1.00000
-409553765.07716,111301861.23423,9443469.61581,  -0.00263,   0.00167,   0.00016,475367252.22380,   0.00067,275367253.15424,  -0.00055,   0.00037,   0.00004,  -0.93044,   1.00000
-409392235.37775,111561525.89878,9353576.71525,  -0.00264,   0.00168,   0.00016,475376552.96661,   0.00067,275376554.72579,  -0.00056,   0.00037,   0.00004,  -1.75918,   1.00000
-409231268.55651,111820448.92423,9259936.94535,  -0.00265,   0.00168,   0.00016,475385851.09625,   0.00068,275385855.19816,  -0.00057,   0.00038,   0.00004,  -4.10191,   1.00000
-409070477.45656,112078495.32023,9170681.94084,  -0.00265,   0.00169,   0.00016,475395154.00857,   0.00069,275395157.24452,  -0.00057,   0.00038,   0.00004,  -3.23595,   1.00000
-408901466.37422,112349078.20022,9073550.62971,  -0.00266,   0.00170,   0.00016,475404475.53676,   0.00070,275404476.79353,  -0.00058,   0.00039,   0.00004,  -1.25678,   1.00000
-408738830.70355,112609764.84109,8980628.74648,  -0.00267,   0.00170,   0.00016,475413850.81575,   0.00071,275413853.73705,  -0.00059,   0.00039,   0.00004,  -2.92130,   1.00000
-408573968.18430,112873912.74457,8883720.41662,  -0.00268,   0.00171,   0.00016,475423297.23731,   0.00072,275423305.32636,  -0.00060,   0.00040,   0.00004,  -8.08905,   1.00000
-408403472.74605,113146273.91758,8783278.79628,  -0.00268,   0.00171,   0.00016,475432692.40548,   0.00073,275432700.23385,  -0.00060,   0.00040,   0.00004,  -7.82837,   1.00000
-408230580.78502,113421973.93590,8682942.81932,  -0.00269,   0.00172,   0.00015,475442162.66675,   0.00073,275442171.20772,  -0.00061,   0.00041,   0.00004,  -8.54098,   1.00000
-408058082.00193,113696793.82915,8582961.88218,  -0.00270,   0.00172,   0.00015,475451634.27821,   0.00074,275451642.56501,  -0.00062,   0.00041,   0.00004,  -8.28680,   1.00000
-407892374.78047,113961805.27197,8479097.94559,  -0.00270,   0.00173,   0.00015,475461164.72059,   0.00075,275461168.62146,  -0.00062,   0.00042,   0.00004,  -3.90087,   1.00000
-407718044.46649,114239143.70498,8375540.48360,  -0.00271,   0.00174,   0.00015,475470708.92551,   0.00076,275470715.18076,  -0.00063,   0.00042,   0.00004,  -6.25525,   1.00000
-407535286.93838,114528828.70004,8268230.16734,  -0.00272,   0.00174,   0.00015,475480275.78506,   0.00077,275480281.10655,  -0.00064,   0.00043,   0.00004,  -5.32149,   1.00000
-407361939.74838,114804401.65794,8161365.09712,  -0.00272,   0.00175,   0.00015,475489819.01548,   0.00078,275489827.36367,  -0.00065,   0.00043,   0.00004,  -8.34818,   1.00000
-407177218.66835,115096414.17275,8054591.12104,  -0.00273,   0.00175,   0.00015,475499462.74823,   0.00079,275499469.97996,  -0.00065,   0.00044,   0.00004,  -7.23173,   1.00000
-407002093.66441,115374369.24366,7944202.28377,  -0.00274,   0.00176,   0.00015,475509085.31041,   0.00080,275509091.68412,  -0.00066,   0.00044,   0.00004,  -6.37371,   1.00000
-406815592.30336,115668723.25681,7833927.87866,  -0.00275,   0.00177,   0.00015,475518802.06960,   0.00080,275518809.89084,  -0.00067,   0.00045,   0.00004,  -7.82125,   1.00000
-406638699.60287,115949011.59698,7720052.92335,  -0.00275,   0.00177,   0.00015,475528504.14300,   0.00081,275528507.14135,  -0.00068,   0.00045,   0.00005,  -2.99835,   1.00000
-406453180.04211,116241530.71966,7606532.58124,  -0.00276,   0.00178,   0.00014,475538220.18644,   0.00082,275538225.28252,  -0.00068,   0.00046,   0.00005,  -5.09607,   1.00000
-406259059.39291,116546237.57117,7493367.32103,  -0.00277,   0.00178,   0.00014,475547963.24207,   0.00083,275547964.36947,  -0.00069,   0.00046,   0.00005,  -1.12741,   1.00000
-406065523.85220,116849991.32294,7376553.50358,  -0.00277,   0.00179,   0.00014,475557697.54782,   0.00084,275557703.08655,  -0.00070,   0.00047,   0.00005,  -5.53873,   1.00000
-405878868.22007,117143758.79455,7255953.71658,  -0.00278,   0.00180,   0.00014,475567491.23937,   0.00085,275567496.67451,  -0.00071,   0.00047,   0.00005,  -5.43514,   1.00000
-405683447.82283,117449631.47855,7139800.96993,  -0.00279,   0.00180,   0.00014,475577309.68716,   0.00086,275577312.41900,  -0.00071,   0.00048,   0.00005,  -2.73184,   1.00000
-405495064.22443,117745545.42141,7015807.77684,  -0.00280,   0.00181,   0.00014,475587176.82044,   0.00087,275587182.04498,  -0.00072,   0.00048,   0.00005,  -5.22454,   1.00000
-405297917.97527,118053542.09617,6896279.40926,  -0.00280,   0.00181,   0.00014,475597068.90055,   0.00088,275597073.89095,  -0.00073,   0.00049,   0.00005,  -4.99041,   1.00000
-405095038.51261,118369607.93433,6773273.07190,  -0.00281,   0.00182,   0.00014,475606903.73381,   0.00089,275606910.30018,  -0.00074,   0.00049,   0.00005,  -6.56638,   1.00000
-404905272.32583,118666500.78460,6650443.34149,  -0.00282,   0.00183,   0.00013,475616857.32507,   0.00090,275616857.74274,  -0.00074,   0.00050,   0.00005,  -0.41767,   1.00000
-404700674.97466,118984615.27215,6524094.47355,  -0.00282,   0.00183,   0.00013,475626765.99908,   0.00090,275626770.51562,  -0.00075,   0.00050,   0.00005,  -4.51654,   1.00000
-404493820.20887,119305702.58853,6398031.68724,  -0.00283,   0.00184,   0.00013,475636757.51403,   0.00091,275636759.91026,  -0.00076,   0.00051,   0.00005,  -2.39624,   1.00000
-404290277.68069,119621704.80561,6268557.67197,  -0.00284,   0.00185,   0.00013,475646673.05269,   0.00092,275646673.41510,  -0.00077,   0.00051,   0.00005,  -0.36241,   1.00000
-404081759.87948,119944697.12242,6139213.75649,  -0.00285,   0.00185,   0.00013,475656738.80769,   0.00093,275656739.44741,  -0.00077,   0.00052,   0.00005,  -0.63971,   1.00000
-403876419.96253,120262555.06353,6010528.01800,  -0.00285,   0.00186,   0.00013,475666726.06766,   0.00094,275666730.53402,  -0.00078,   0.00052,   0.00005,  -4.46636,   1.00000
-403653508.24865,120605566.27702,5878170.16943,  -0.00286,   0.00186,   0.00013,475676755.72189,   0.00095,275676763.39432,  -0.00079,   0.00053,   0.00005,  -7.67244,   1.00000
-403446556.37151,120925221.31724,5746235.29344,  -0.00287,   0.00187,   0.00013,475686824.26330,   0.00096,275686831.31080,  -0.00080,   0.00053,   0.00005,  -7.04750,   1.00000
-403230990.19750,121256864.54568,5614753.32347,  -0.00287,   0.00188,   0.00012,475696920.92629,   0.00097,275696921.03447,  -0.00080,   0.00054,   0.00005,  -0.10818,   1.00000
-403016010.79988,121587401.04063,5479706.40822,  -0.00288,   0.00188,   0.00012,475707002.18805,   0.00098,275707011.01960,  -0.00081,   0.00054,   0.00005,  -8.83154,   1.00000
-402798831.78600,121920777.61873,5345017.05608,  -0.00289,   0.00189,   0.00012,475717173.66580,   0.00099,275717177.80231,  -0.00082,   0.00055,   0.00005,  -4.13651,   1.00000
-402566632.88763,122275169.12871,5210906.26993,  -0.00290,   0.00190,   0.00012,475727311.23439,   0.00100,275727311.88154,  -0.00083,   0.00056,   0.00005,  -0.64715,   1.00000
-402350576.24339,122606190.28284,5073178.29806,  -0.00290,   0.00190,   0.00012,475737476.79208,   0.00101,275737480.08696,  -0.00083,   0.00056,   0.00005,  -3.29487,   1.00000
-402126001.88054,122949160.93957,4931874.13517,  -0.00291,   0.00191,   0.00012,475747666.55742,   0.00102,275747669.73751,  -0.00084,   0.00057,   0.00005,  -3.18009,   1.00000
-401892718.99424,123303951.88140,4795132.00899,  -0.00292,   0.00192,   0.00011,475757882.21264,   0.00103,275757882.42361,  -0.00085,   0.00057,   0.00005,  -0.21098,   1.00000
-401660050.08823,123657532.92210,4654851.08754,  -0.00293,   0.00192,   0.00011,475768089.58618,   0.00104,275768095.69161,  -0.00086,   0.00058,   0.00005,  -6.10543,   1.00000
-401427907.72407,124009874.59803,4515106.49546,  -0.00293,   0.00193,   0.00011,475778306.72967,   0.00104,275778310.14101,  -0.00087,   0.00058,   0.00005,  -3.41135,   1.00000
-401193707.99124,124364927.87447,4371709.99294,  -0.00294,   0.00194,   0.00011,475788596.66852,   0.00105,275788601.13439,  -0.00087,   0.00059,   0.00005,  -4.46587,   1.00000
-400960034.78021,124718723.77560,4228865.97778,  -0.00295,   0.00194,   0.00011,475798889.54930,   0.00106,275798893.37696,  -0.00088,   0.00059,   0.00005,  -3.82766,   1.00000
-400717838.83787,125084334.98386,4082478.21828,  -0.00296,   0.00195,   0.00011,475809207.02910,   0.00107,275809207.67782,  -0.00089,   0.00060,   0.00005,  -0.64872,   1.00000
-400485235.05312,125435581.62580,3940748.96325,  -0.00296,   0.00196,   0.00010,475819498.89844,   0.00108,275819502.50464,  -0.00090,   0.00060,   0.00005,  -3.60620,   1.00000
-400234949.18624,125811665.30632,3795443.40578,  -0.00297,   0.00196,   0.00010,475829834.41574,   0.00109,275829841.00560,  -0.00090,   0.00061,   0.00005,  -6.58985,   1.00000
-399985301.29573,126186438.45796,3646638.85758,  -0.00298,   0.00197,   0.00010,475840175.93542,   0.00110,275840180.42275,  -0.00091,   0.00062,   0.00005,  -4.48733,   1.00000
-399736202.70622,126559870.84527,3498410.51421,  -0.00299,   0.00198,   0.00010,475850513.79337,   0.00111,275850521.36559,  -0.00092,   0.00062,   0.00005,  -7.57222,   1.00000
-399485028.74951,126935819.39897,3350660.70670,  -0.00299,   0.00198,   0.00010,475860936.28805,   0.00112,275860939.75598,  -0.00093,   0.00063,   0.00005,  -3.46793,   1.00000
-399227884.50688,127319579.73197,3203553.00964,  -0.00300,   0.00199,   0.00010,475871299.70121,   0.00113,275871305.33259,  -0.00094,   0.00063,   0.00005,  -5.63138,   1.00000
-398977916.28741,127692819.25164,3052892.50795,  -0.00301,   0.00200,   0.00009,475881717.63722,   0.00114,275881726.33592,  -0.00094,   0.00064,   0.00005,  -8.69870,   1.00000
-398719342.47981,128077709.83889,2902796.73014,  -0.00302,   0.00200,   0.00009,475892165.05944,   0.00115,275892170.56836,  -0.00095,   0.00064,   0.00005,  -5.50892,   1.00000
-398461350.59885,128461210.74571,2753288.46465,  -0.00302,   0.00201,   0.00009,475902615.99692,   0.00116,275902616.38436,  -0.00096,   0.00065,   0.00005,  -0.38744,   1.00000
-398194802.64311,128856326.92688,2600282.42514,  -0.00303,   0.00202,   0.00009,475913078.11103,   0.00117,275913085.33321,  -0.00097,   0.00065,   0.00006,  -7.22218,   1.00000
-397928856.34482,129250012.54544,2447876.86328,  -0.00304,   0.00202,   0.00009,475923551.03847,   0.00118,275923555.95542,  -0.00098,   0.00066,   0.00006,  -4.91695,   1.00000
-397663501.02156,129642268.40625,2296069.54611,  -0.00305,   0.00203,   0.00009,475934020.57757,   0.00119,275934028.31139,  -0.00098,   0.00067,   0.00006,  -7.73382,   1.00000
-397389591.64698,130046086.21196,2140778.84076,  -0.00305,   0.00204,   0.00008,475944515.65871,   0.00120,275944524.03784,  -0.00099,   0.00067,   0.00006,  -8.37913,   1.00000
-397122899.88801,130439229.75349,1986058.98122,  -0.00306,   0.00204,   0.00008,475955070.08944,   0.00121,275955075.62596,  -0.00100,   0.00068,   0.00006,  -5.53652,   1.00000
-396840988.23588,130853098.42007,1831973.47008,  -0.00307,   0.00205,   0.00008,475965591.80396,   0.00122,275965597.03410,  -0.00101,   0.00068,   0.00006,  -5.23014,   1.00000
-396568950.84545,131252520.20175,1674448.08853,  -0.00308,   0.00206,   0.00008,475976094.35286,   0.00123,275976097.96591,  -0.00102,   0.00069,   0.00006,  -3.61305,   1.00000
-396285722.17640,131667152.09222,1517487.27309,  -0.00308,   0.00207,   0.00008,475986694.45437,   0.00124,275986699.06224,  -0.00102,   0.00069,   0.00006,  -4.60788,   1.00000
-395996484.97006,132089480.52777,1361178.37088,  -0.00309,   0.00207,   0.00007,475997243.04341,   0.00125,275997248.21299,  -0.00103,   0.00070,   0.00006,  -5.16958,   1.00000
-395714544.84472,132501029.49397,1205463.81467,  -0.00310,   0.00208,   0.00007,476007844.28969,   0.00126,276007853.27479,  -0.00104,   0.00071,   0.00006,  -8.98511,   1.00000
-395433273.70535,132911075.74062,1046307.25836,  -0.00311,   0.00209,   0.00007,476018459.80624,   0.00127,276018460.02159,  -0.00105,   0.00071,   0.00006,  -0.21535,   1.00000
-395136711.21928,133341762.22368,887794.88773,  -0.00311,   0.00209,   0.00007,476029028.56721,   0.00128,276029037.41345,  -0.00106,   0.00072,   0.00006,  -8.84624,   1.00000
-394847519.87593,133761628.69336,725835.43685,  -0.00312,   0.00210,   0.00007,476039667.58901,   0.00129,276039670.50739,  -0.00106,   0.00072,   0.00006,  -2.91839,   1.00000
-394543017.83663,134202089.01008,568591.17318,  -0.00313,   0.00211,   0.00006,476050271.19421,   0.00130,276050274.57955,  -0.00107,   0.00073,   0.00006,  -3.38533,   1.00000
-394245910.82836,134631671.13673,407903.00500,  -0.00314,   0.00212,   0.00006,476060931.02268,   0.00131,276060934.48917,  -0.00108,   0.00073,   0.00006,  -3.46649,   1.00000
-393949467.21421,135059655.65669,247858.24835,  -0.00314,   0.00212,   0.00006,476071588.09751,   0.00132,276071596.57587,  -0.00109,   0.00074,   0.00006,  -8.47836,   1.00000
-393637711.24778,135508206.34631,84393.74653,  -0.00315,   0.00213,   0.00006,476082223.22614,   0.00133,276082229.80962,  -0.00110,   0.00075,   0.00006,  -6.58347,   1.00000
-393333380.15898,135945819.07007,-78416.04604,  -0.00316,   0.00214,   0.00006,476092911.78347,   0.00134,276092918.99359,  -0.00110,   0.00075,   0.00006,  -7.21012,   1.00000
-393029733.49189,136381799.66857,-240571.80293,  -0.00317,   0.00214,   0.00005,476103604.99665,   0.00135,276103610.42325,  -0.00111,   0.00076,   0.00006,  -5.42660,   1.00000
-392710731.93623,136838301.72621,-402080.53891,  -0.00317,   0.00215,   0.00005,476114266.14972,   0.00136,276114273.46026,  -0.00112,   0.00076,   0.00006,  -7.31053,   1.00000
-392399215.28160,137283818.46696,-562930.48908,  -0.00318,   0.00216,   0.00005,476124988.08189,   0.00137,276124992.34752,  -0.00113,   0.00077,   0.00006,  -4.26563,   1.00000
-392072319.63275,137749808.37195,-727202.17160,  -0.00319,   0.00217,   0.00005,476135681.18244,   0.00138,276135683.20933,  -0.00114,   0.00077,   0.00006,  -2.02690,   1.00000
-391762228.27546,138191905.65916,-890803.11160,  -0.00320,   0.00217,   0.00004,476146401.61854,   0.00139,276146407.05978,  -0.00114,   0.00078,   0.00006,  -5.44124,   1.00000
-391427438.91699,138667333.34474,-1053747.03999,  -0.00320,   0.00218,   0.00004,476157116.48058,   0.00140,276157125.99346,  -0.00115,   0.00079,   0.00006,  -9.51288,   1.00000
-391102679.44353,139128131.30880,-1220105.99299,  -0.00321,   0.00219,   0.00004,476167820.94775,   0.00141,276167824.65191,  -0.00116,   0.00079,   0.00006,  -3.70415,   1.00000
-390776156.21791,139590717.30101,-1385755.39926,  -0.00322,   0.00220,   0.00004,476178598.35331,   0.00142,276178602.25374,  -0.00117,   0.00080,   0.00006,  -3.90043,   1.00000
-390443528.47171,140060873.25509,-1550763.83269,  -0.00323,   0.00220,   0.00004,476189325.06132,   0.00143,276189329.25801,  -0.00118,   0.00080,   0.00006,  -4.19669,   1.00000
-390102323.15657,140542075.83869,-1715090.90510,  -0.00323,   0.00221,   0.00003,476200076.13350,   0.00144,276200082.17544,  -0.00118,   0.00081,   0.00006,  -6.04194,   1.00000
-389771207.74974,141008655.99301,-1878768.98498,  -0.00324,   0.00222,   0.00003,476210813.53106,   0.00145,276210814.51724,  -0.00119,   0.00082,   0.00006,  -0.98619,   1.00000
-389422130.21567,141499063.61052,-2045811.06934,  -0.00325,   0.00223,   0.00003,476221590.55201,   0.00146,276221596.53568,  -0.00120,   0.00082,   0.00006,  -5.98366,   1.00000
-389083167.98596,141974819.82935,-2212194.03151,  -0.00326,   0.00223,   0.00003,476232354.16791,   0.00147,276232358.00029,  -0.00121,   0.00083,   0.00006,  -3.83238,   1.00000
-388735623.34148,142461565.24548,-2377881.39671,  -0.00326,   0.00224,   0.00002,476243142.47514,   0.00148,276243145.68520,  -0.00122,   0.00083,   0.00006,  -3.21006,   1.00000
-388388805.03447,142946442.53820,-2546956.34455,  -0.00327,   0.00225,   0.00002,476253932.55240,   0.00149,276253936.59567,  -0.00122,   0.00084,   0.00006,  -4.04327,   1.00000
-388033459.44840,143442274.29321,-2711258.28359,  -0.00328,   0.00226,   0.00002,476264744.01901,   0.00150,276264753.60508,  -0.00123,   0.00085,   0.00005,  -9.58608,   1.00000
-387671929.32747,143945558.53762,-2879008.33370,  -0.00329,   0.00226,   0.00002,476275515.93016,   0.00151,276275521.10671,  -0.00124,   0.00085,   0.00005,  -5.17655,   1.00000
-387318138.33781,144437564.00823,-3046016.56180,  -0.00329,   0.00227,   0.00002,476286335.33884,   0.00152,276286344.49389,  -0.00125,   0.00086,   0.00005,  -9.15505,   1.00000
-386958189.20990,144937069.15359,-3212406.57849,  -0.00330,   0.00228,   0.00001,476297111.79953,   0.00153,276297118.05489,  -0.00126,   0.00086,   0.00005,  -6.25535,   1.00000
-386589603.42681,145447392.00417,-3382150.93070,  -0.00331,   0.00229,   0.00001,476307916.94829,   0.00154,276307918.94731,  -0.00126,   0.00087,   0.00005,  -1.99902,   1.00000
-386221897.07130,145955797.86876,-3547142.17943,  -0.00331,   0.00229,   0.00001,476318717.35552,   0.00155,276318722.55609,  -0.00127,   0.00088,   0.00005,  -5.20057,   1.00000
-385854939.07400,146462234.13848,-3715521.21941,  -0.00332,   0.00230,   0.00001,476329520.14396,   0.00156,276329529.81326,  -0.00128,   0.00088,   0.00005,  -9.66930,   1.00000
-385479413.96085,146979461.28796,-3883178.14027,  -0.00333,   0.00231,   0.00000,476340355.67761,   0.00157,276340364.17713,  -0.00129,   0.00089,   0.00005,  -8.49952,   1.00000
-385097709.29406,147504110.80785,-4050228.70378,  -0.00334,   0.00232,   0.00000,476351148.47134,   0.00158,276351149.26999,  -0.00130,   0.00089,   0.00005,  -0.79865,   1.00000
-384723790.71722,148017312.65205,-4220575.73294,  -0.00334,   0.00232,  -0.00000,476361985.66047,   0.00159,276361990.80458,  -0.00131,   0.00090,   0.00005,  -5.14411,   1.00000
-384334343.04172,148550696.45163,-4386210.86571,  -0.00335,   0.00233,  -0.00000,476372803.09016,   0.00160,276372806.72096,  -0.00131,   0.00091,   0.00005,  -3.63080,   1.00000
-383945669.42135,149081997.61229,-4555228.88552,  -0.00336,   0.00234,  -0.00001,476383623.54514,   0.00161,276383626.72513,  -0.00132,   0.00091,   0.00005,  -3.17999,   1.00000
-383557852.31108,149611261.33442,-4723555.09563,  -0.00337,   0.00235,  -0.00001,476394443.27655,   0.00162,276394450.19394,  -0.00133,   0.00092,   0.00005,  -6.91740,   1.00000
-383163813.70550,150147926.38147,-4891288.04004,  -0.00337,   0.00235,  -0.00001,476405220.49864,   0.00163,276405224.80191,  -0.00134,   0.00092,   0.00005,  -4.30326,   1.00000
-382768310.25679,150685770.58961,-5058191.34051,  -0.00338,   0.00236,  -0.00001,476416072.86306,   0.00164,276416079.57855,  -0.00135,   0.00093,   0.00005,  -6.71549,   1.00000
-382366473.87758,151230938.02791,-5228571.18667,  -0.00339,   0.00237,  -0.00002,476426879.32911,   0.00165,276426886.45916,  -0.00135,   0.00094,   0.00005,  -7.13005,   1.00000
-381965625.05154,151774062.46444,-5394193.58048,  -0.00340,   0.00238,  -0.00002,476437688.86074,   0.00166,276437696.20077,  -0.00136,   0.00094,   0.00005,  -7.34003,   1.00000
-381565562.00671,152315056.00290,-5563197.67489,  -0.00340,   0.00239,  -0.00002,476448509.12307,   0.00167,276448510.26236,  -0.00137,   0.00095,   0.00005,  -1.13928,   1.00000
-381156925.07231,152866599.62004,-5731456.07062,  -0.00341,   0.00239,  -0.00002,476459348.35354,   0.00168,276459352.66051,  -0.00138,   0.00095,   0.00005,  -4.30698,   1.00000
-380742028.24716,153425482.21722,-5899137.92623,  -0.00342,   0.00240,  -0.00003,476470145.37781,   0.00169,276470146.78781,  -0.00139,   0.00096,   0.00005,  -1.41000,   1.00000
-380335219.24465,153972748.80765,-6066014.94139,  -0.00343,   0.00241,  -0.00003,476480991.39475,   0.00170,276480996.61715,  -0.00139,   0.00097,   0.00005,  -5.22240,   1.00000
-379912652.70722,154539984.49292,-6232268.37037,  -0.00343,   0.00242,  -0.00003,476491814.68234,   0.00171,276491823.14980,  -0.00140,   0.00097,   0.00005,  -8.46746,   1.00000
-379483688.28758,155114456.01673,-6402022.38880,  -0.00344,   0.00242,  -0.00003,476502599.87713,   0.00172,276502602.65941,  -0.00141,   0.00098,   0.00005,  -2.78229,   1.00000
-379062999.88539,155677290.25292,-6566894.39654,  -0.00345,   0.00243,  -0.00004,476513430.60396,   0.00173,276513437.01685,  -0.00142,   0.00098,   0.00005,  -6.41289,   1.00000
-378635882.58113,156247385.24357,-6735277.86883,  -0.00345,   0.00244,  -0.00004,476524223.40322,   0.00174,276524224.42830,  -0.00143,   0.00099,   0.00005,  -1.02507,   1.00000
-378209690.48681,156815281.79802,-6902970.94913,  -0.00346,   0.00245,  -0.00004,476535008.99695,   0.00175,276535015.85114,  -0.00143,   0.00100,   0.00005,  -6.85418,   1.00000
-377774939.64061,157393553.96591,-7069909.44303,  -0.00347,   0.00246,  -0.00004,476545828.91719,   0.00176,276545836.40847,  -0.00144,   0.00100,   0.00005,  -7.49128,   1.00000
-377333864.98385,157979102.01320,-7236300.91073,  -0.00348,   0.00246,  -0.00005,476556606.96131,   0.00177,276556609.46537,  -0.00145,   0.00101,   0.00005,  -2.50406,   1.00000
-376893741.57867,158562390.32937,-7402009.99156,  -0.00348,   0.00247,  -0.00005,476567378.12063,   0.00178,276567386.71765,  -0.00146,   0.00101,   0.00005,  -8.59702,   1.00000
-376444924.13128,159155894.17457,-7571025.76164,  -0.00349,   0.00248,  -0.00005,476578188.08204,   0.00179,276578194.57124,  -0.00147,   0.00102,   0.00005,  -6.48919,   1.00000
-376006751.64487,159734651.22185,-7735361.34962,  -0.00350,   0.00249,  -0.00005,476588974.75726,   0.00180,276588980.05280,  -0.00147,   0.00103,   0.00005,  -5.29554,   1.00000
-375552674.74669,160333222.32519,-7899098.23292,  -0.00350,   0.00250,  -0.00006,476599739.24062,   0.00181,276599743.87090,  -0.00148,   0.00103,   0.00005,  -4.63028,   1.00000
-375099429.67879,160929407.42869,-8066221.26239,  -0.00351,   0.00250,  -0.00006,476610508.74074,   0.00182,276610513.13235,  -0.00149,   0.00104,   0.00005,  -4.39161,   1.00000
-374647165.44242,161523288.61495,-8232657.93855,  -0.00352,   0.00251,  -0.00006,476621278.94352,   0.00183,276621286.70390,  -0.00150,   0.00105,   0.00005,  -7.76037,   1.00000
-374178959.44064,162136911.09080,-8398490.71246,  -0.00353,   0.00252,  -0.00006,476632034.42882,   0.00184,276632039.19279,  -0.00151,   0.00105,   0.00004,  -4.76397,   1.00000
-373721469.52432,162735766.85599,-8559667.54366,  -0.00353,   0.00253,  -0.00007,476642759.57638,   0.00185,276642769.11992,  -0.00151,   0.00106,   0.00004,  -9.54354,   1.00000
-373255259.50935,163344701.87928,-8724156.97948,  -0.00354,   0.00254,  -0.00007,476653524.28977,   0.00186,276653530.47507,  -0.00152,   0.00106,   0.00004,  -6.18530,   1.00000
-372782452.90808,163960759.04874,-8892197.31099,  -0.00355,   0.00254,  -0.00007,476664237.34313,   0.00187,276664246.63985,  -0.00153,   0.00107,   0.00004,  -9.29672,   1.00000
-372308715.00588,164577400.91363,-9055230.63374,  -0.00355,   0.00255,  -0.00007,476675038.59492,   0.00188,276675043.03415,  -0.00154,   0.00108,   0.00004,  -4.43923,   1.00000
-371830648.37058,165198366.27067,-9218032.29313,  -0.00356,   0.00256,  -0.00008,476685707.02764,   0.00189,276685716.17049,  -0.00155,   0.00108,   0.00004,  -9.14285,   1.00000
-371351511.04750,165819787.46293,-9379898.15653,  -0.00357,   0.00257,  -0.00008,476696468.18047,   0.00190,276696470.85971,  -0.00155,   0.00109,   0.00004,  -2.67924,   1.00000
-370875316.00597,166435880.31659,-9545429.67653,  -0.00357,   0.00258,  -0.00008,476707150.84795,   0.00191,276707154.50488,  -0.00156,   0.00109,   0.00004,  -3.65694,   1.00000
-370383218.59867,167071692.47448,-9706315.59709,  -0.00358,   0.00258,  -0.00009,476717807.43814,   0.00192,276717817.09968,  -0.00157,   0.00110,   0.00004,  -9.66154,   1.00000
-369899702.66395,167695457.44443,-9866356.43734,  -0.00359,   0.00259,  -0.00009,476728529.97614,   0.00193,276728535.00338,  -0.00158,   0.00111,   0.00004,  -5.02724,   1.00000
-369399892.35005,168338700.19104,-10029886.11927,  -0.00360,   0.00260,  -0.00009,476739228.53678,   0.00194,276739235.00501,  -0.00159,   0.00111,   0.00004,  -6.46823,   1.00000
-368903197.38453,168976692.65527,-10193038.44293,  -0.00360,   0.00261,  -0.00009,476749858.94421,   0.00195,276749862.80808,  -0.00159,   0.00112,   0.00004,  -3.86386,   1.00000
-368398127.22312,169624691.73621,-10351365.03339,  -0.00361,   0.00262,  -0.00010,476760513.49570,   0.00196,276760520.71289,  -0.00160,   0.00113,   0.00004,  -7.21719,   1.00000
-367903558.50549,170257735.25303,-10513204.06605,  -0.00362,   0.00262,  -0.00010,476771154.55570,   0.00197,276771158.23306,  -0.00161,   0.00113,   0.00004,  -3.67737,   1.00000
-367392806.43655,170910310.72490,-10674475.42938,  -0.00362,   0.00263,  -0.00010,476781774.52232,   0.00198,276781777.10755,  -0.00162,   0.00114,   0.00004,  -2.58524,   1.00000
-366883327.49053,171560475.71834,-10831031.74909,  -0.00363,   0.00264,  -0.00010,476792391.67889,   0.00199,276792399.49707,  -0.00163,   0.00114,   0.00004,  -7.81818,   1.00000
-366374728.81752,172208027.59723,-10991003.05482,  -0.00364,   0.00265,  -0.00011,476803022.78889,   0.00200,276803028.36586,  -0.00163,   0.00115,   0.00004,  -5.57697,   1.00000
-365849904.22669,172875035.17683,-11150415.72705,  -0.00364,   0.00266,  -0.00011,476813632.96927,   0.00201,276813639.20000,  -0.00164,   0.00116,   0.00004,  -6.23072,   1.00000
-365335831.78022,173527169.98854,-11309290.68246,  -0.00365,   0.00266,  -0.00011,476824225.32651,   0.00202,276824228.06487,  -0.00165,   0.00116,   0.00004,  -2.73836,   1.00000
-364805488.50801,174198734.67885,-11467614.38240,  -0.00366,   0.00267,  -0.00011,476834789.68102,   0.00203,276834799.27999,  -0.00166,   0.00117,   0.00003,  -9.59898,   1.00000
-364286134.88788,174855557.25944,-11621355.51633,  -0.00366,   0.00268,  -0.00012,476845338.45459,   0.00204,276845346.73320,  -0.00166,   0.00117,   0.00003,  -8.27861,   1.00000
-363750263.07007,175531672.82309,-11778623.85472,  -0.00367,   0.00269,  -0.00012,476855871.46839,   0.00205,276855878.46771,  -0.00167,   0.00118,   0.00003,  -6.99932,   1.00000
-363215503.87076,176205187.55521,-11935251.23293,  -0.00368,   0.00270,  -0.00012,476866414.23143,   0.00206,276866415.52544,  -0.00168,   0.00119,   0.00003,  -1.29401,   1.00000
-362681849.48804,176876105.11549,-12091239.42443,  -0.00368,   0.00270,  -0.00012,476876952.32090,   0.00207,276876957.93780,  -0.00169,   0.00119,   0.00003,  -5.61690,   1.00000
-362141536.13272,177554129.07225,-12246818.65446,  -0.00369,   0.00271,  -0.00013,476887449.71279,   0.00208,276887455.94124,  -0.00170,   0.00120,   0.00003,  -6.22845,   1.00000
-361594549.02047,178239243.50288,-12401995.00602,  -0.00370,   0.00272,  -0.00013,476897906.38915,   0.00209,276897909.71187,  -0.00170,   0.00121,   0.00003,  -3.32272,   1.00000
-361048680.15344,178921729.81352,-12556541.47079,  -0.00370,   0.00273,  -0.00013,476908365.87448,   0.00210,276908368.96485,  -0.00171,   0.00121,   0.00003,  -3.09037,   1.00000
-360503932.34613,179601597.46535,-12710460.12275,  -0.00371,   0.00274,  -0.00014,476918828.08360,   0.00211,276918833.65039,  -0.00172,   0.00122,   0.00003,  -5.56679,   1.00000
-359942757.82708,180300750.67572,-12863856.47779,  -0.00372,   0.00275,  -0.00014,476929277.20297,   0.00212,276929282.29421,  -0.00173,   0.00122,   0.00003,  -5.09124,   1.00000
-359392440.24132,180985046.43401,-13016765.20049,  -0.00372,   0.00275,  -0.00014,476939701.79604,   0.00213,276939708.54856,  -0.00173,   0.00123,   0.00003,  -6.75252,   1.00000
-358825894.72451,181688740.07050,-13165104.88619,  -0.00373,   0.00276,  -0.00014,476950108.15641,   0.00214,276950117.24870,  -0.00174,   0.00124,   0.00003,  -9.09229,   1.00000
-358262089.33677,182387183.25519,-13317280.50053,  -0.00373,   0.00277,  -0.00015,476960451.70722,   0.00215,276960456.10008,  -0.00175,   0.00124,   0.00003,  -4.39286,   1.00000
-357697604.10084,183085360.10943,-13468451.97556,  -0.00374,   0.00278,  -0.00015,476970876.80363,   0.00216,276970878.01508,  -0.00176,   0.00125,   0.00003,  -1.21145,   1.00000
-357118400.13572,183800333.75584,-13619508.41984,  -0.00375,   0.00279,  -0.00015,476981203.57971,   0.00217,276981207.52390,  -0.00176,   0.00125,   0.00003,  -3.94419,   1.00000
-356550349.35520,184500613.63272,-13766048.55360,  -0.00375,   0.00280,  -0.00015,476991507.87147,   0.00218,276991512.45673,  -0.00177,   0.00126,   0.00003,  -4.58526,   1.00000
-355973443.74434,185210176.67299,-13915901.23736,  -0.00376,   0.00280,  -0.00016,477001848.55299,   0.00219,277001853.55568,  -0.00178,   0.00127,   0.00002,  -5.00269,   1.00000
-355389713.69675,185926782.99622,-14065404.22171,  -0.00377,   0.00281,  -0.00016,477012148.90412,   0.00220,277012151.60989,  -0.00179,   0.00127,   0.00002,  -2.70577,   1.00000
-354807403.38597,186640803.11315,-14210251.54862,  -0.00377,   0.00282,  -0.00016,477022447.42768,   0.00221,277022453.55548,  -0.00179,   0.00128,   0.00002,  -6.12780,   1.00000
-354217982.08153,187361715.12450,-14358826.09022,  -0.00378,   0.00283,  -0.00016,477032711.07452,   0.00222,277032714.65298,  -0.00180,   0.00128,   0.00002,  -3.57846,   1.00000
-353621949.41335,188089808.40616,-14503014.08939,  -0.00379,   0.00284,  -0.00017,477042928.99022,   0.00223,277042931.03090,  -0.00181,   0.00129,   0.00002,  -2.04068,   1.00000
-353026821.74688,188814972.88941,-14650672.50995,  -0.00379,   0.00284,  -0.00017,477053149.29501,   0.00224,277053155.57168,  -0.00182,   0.00130,   0.00002,  -6.27667,   1.00000
-352425060.02138,189547324.54487,-14793954.09527,  -0.00380,   0.00285,  -0.00017,477063330.84417,   0.00225,277063335.51836,  -0.00182,   0.00130,   0.00002,  -4.67419,   1.00000
-351824203.81135,190276731.11706,-14940710.20659,  -0.00380,   0.00286,  -0.00017,477073514.96976,   0.00225,277073523.72987,  -0.00183,   0.00131,   0.00002,  -8.76011,   1.00000
-351226479.66951,191001336.59148,-15083263.71530,  -0.00381,   0.00287,  -0.00018,477083632.28775,   0.00226,277083638.25612,  -0.00184,   0.00131,   0.00002,  -5.96837,   1.00000
-350620124.44951,191735184.90478,-15225080.50095,  -0.00382,   0.00288,  -0.00018,477093781.57853,   0.00227,277093788.09937,  -0.00185,   0.00132,   0.00002,  -6.52084,   1.00000
-350006803.27955,192476057.90476,-15366604.50351,  -0.00382,   0.00289,  -0.00018,477103890.72562,   0.00228,277103895.86141,  -0.00185,   0.00133,   0.00002,  -5.13579,   1.00000
-349386493.42961,193223936.06050,-15507840.02982,  -0.00383,   0.00289,  -0.00019,477113952.87894,   0.00229,277113961.77309,  -0.00186,   0.00133,   0.00002,  -8.89415,   1.00000
-348767377.78548,193968989.89172,-15648510.77406,  -0.00383,   0.00290,  -0.00019,477124026.31972,   0.00230,277124033.98588,  -0.00187,   0.00134,   0.00002,  -7.66616,   1.00000
-348141244.95123,194721050.22617,-15788901.53402,  -0.00384,   0.00291,  -0.00019,477134059.69002,   0.00231,277134064.52273,  -0.00188,   0.00135,   0.00001,  -4.83271,   1.00000
-347516306.24416,195470270.90741,-15928731.34655,  -0.00385,   0.00292,  -0.00019,477144097.61352,   0.00232,277144101.46093,  -0.00188,   0.00135,   0.00001,  -3.84741,   1.00000
-346884601.42627,196226674.08182,-16064240.03974,  -0.00385,   0.00293,  -0.00020,477154089.76568,   0.00233,277154094.65127,  -0.00189,   0.00136,   0.00001,  -4.88559,   1.00000
-346253812.22147,196980048.16934,-16203256.23046,  -0.00386,   0.00293,  -0.00020,477164092.32287,   0.00234,277164096.56355,  -0.00190,   0.00136,   0.00001,  -4.24068,   1.00000
-345617782.31756,197738584.38291,-16338434.15890,  -0.00386,   0.00294,  -0.00020,477173976.14832,   0.00235,277173977.19520,  -0.00190,   0.00137,   0.00001,  -1.04688,   1.00000
-344981105.32454,198496101.51136,-16476646.34600,  -0.00387,   0.00295,  -0.00020,477183936.72941,   0.00236,277183944.39518,  -0.00191,   0.00138,   0.00001,  -7.66577,   1.00000
-344329285.00517,199270666.48053,-16610849.19873,  -0.00387,   0.00296,  -0.00021,477193820.24164,   0.00237,277193820.63419,  -0.00192,   0.00138,   0.00001,  -0.39255,   1.00000
-343688522.17192,200030494.63800,-16744707.52732,  -0.00388,   0.00297,  -0.00021,477203667.04356,   0.00238,277203673.33585,  -0.00193,   0.00139,   0.00001,  -6.29229,   1.00000
-343030732.47768,200809163.49569,-16878142.80324,  -0.00389,   0.00298,  -0.00021,477213508.94922,   0.00239,277213515.55484,  -0.00193,   0.00139,   0.00001,  -6.60562,   1.00000
-342384024.48790,201573117.83961,-17011241.66534,  -0.00389,   0.00298,  -0.00021,477223327.59788,   0.00240,277223334.04203,  -0.00194,   0.00140,   0.00001,  -6.44414,   1.00000
-341730114.06355,202344096.78008,-17144116.14388,  -0.00390,   0.00299,  -0.00022,477233106.34054,   0.00241,277233111.88326,  -0.00195,   0.00140,   0.00001,  -5.54272,   1.00000
-341059102.48642,203133849.56349,-17276571.76499,  -0.00390,   0.00300,  -0.00022,477242873.63973,   0.00241,277242879.98085,  -0.00195,   0.00141,   0.00001,  -6.34112,   1.00000
-340399500.75771,203909098.46318,-17404655.39846,  -0.00391,   0.00301,  -0.00022,477252618.59691,   0.00242,277252621.74228,  -0.00196,   0.00142,   0.00001,  -3.14538,   1.00000
-339732335.04737,204691150.89486,-17536586.90900,  -0.00391,   0.00302,  -0.00022,477262323.07788,   0.00243,277262325.77304,  -0.00197,   0.00142,   0.00000,  -2.69517,   1.00000
-339058199.10251,205480392.93903,-17664260.92167,  -0.00392,   0.00302,  -0.00023,477271981.77090,   0.00244,277271987.27786,  -0.00197,   0.00143,   0.00000,  -5.50696,   1.00000
-338395173.63154,206254999.85339,-17791637.94127,  -0.00392,   0.00303,  -0.00023,477281617.21493,   0.00245,277281624.62991,  -0.00198,   0.00143,   0.00000,  -7.41497,   1.00000
-337714925.11911,207048345.85827,-17918619.38143,  -0.00393,   0.00304,  -0.00023,477291248.13893,   0.00246,277291253.08401,  -0.00199,   0.00144,   0.00000,  -4.94508,   1.00000
-337027341.95105,207848657.27304,-18045414.42672,  -0.00393,   0.00305,  -0.00023,477300832.79533,   0.00247,277300841.95518,  -0.00200,   0.00145,   0.00000,  -9.15984,   1.00000
-336350892.79022,208634346.72665,-18171923.39565,  -0.00394,   0.00306,  -0.00024,477310400.99996,   0.00248,277310406.54605,  -0.00200,   0.00145,   0.00000,  -5.54609,   1.00000
-335657464.67119,209438920.79883,-18293993.80579,  -0.00394,   0.00307,  -0.00024,477319958.64595,   0.00249,277319960.35962,  -0.00201,   0.00146,  -0.00000,  -1.71367,   1.00000
-334966250.26803,210238592.97030,-18420163.89205,  -0.00395,   0.00307,  -0.00024,477329441.01016,   0.00250,277329446.10350,  -0.00202,   0.00146,  -0.00000,  -5.09334,   1.00000
-334267937.19787,211045472.33658,-18542116.31390,  -0.00396,   0.00308,  -0.00024,477338883.97802,   0.00251,277338890.00976,  -0.00202,   0.00147,  -0.00000,  -6.03174,   1.00000
-333570832.82588,211849390.13396,-18663591.64943,  -0.00396,   0.00309,  -0.00025,477348333.05741,   0.00251,277348341.10307,  -0.00203,   0.00148,  -0.00000,  -8.04566,   1.00000
-332866277.43587,212660296.13263,-18784915.06699,  -0.00397,   0.00310,  -0.00025,477357748.90487,   0.00252,277357753.19113,  -0.00204,   0.00148,  -0.00000,  -4.28626,   1.00000
-332164183.42897,213466599.02022,-18906313.96522,  -0.00397,   0.00311,  -0.00025,477367089.69771,   0.00253,277367094.63498,  -0.00204,   0.00149,  -0.00001,  -4.93727,   1.00000
-331453346.33212,214281515.99424,-19027014.09908,  -0.00398,   0.00311,  -0.00025,477376472.21197,   0.00254,277376475.24809,  -0.00205,   0.00149,  -0.00001,  -3.03612,   1.00000
-330736540.99772,215102038.91257,-19144082.77110,  -0.00398,   0.00312,  -0.00026,477385733.68129,   0.00255,277385736.67061,  -0.00206,   0.00150,  -0.00001,  -2.98932,   1.00000
-330020936.13887,215919578.86013,-19260696.28029,  -0.00399,   0.00313,  -0.00026,477395001.68608,   0.00256,277395005.49292,  -0.00206,   0.00150,  -0.00001,  -3.80684,   1.00000
-329306536.70154,216734144.78313,-19376855.88788,  -0.00399,   0.00314,  -0.00026,477404276.12773,   0.00257,277404281.65517,  -0.00207,   0.00151,  -0.00001,  -5.52744,   1.00000
-328575764.00778,217565676.44395,-19493226.85928,  -0.00400,   0.00315,  -0.00026,477413471.00748,   0.00258,277413473.91441,  -0.00208,   0.00152,  -0.00001,  -2.90693,   1.00000
-327856160.07457,218382715.60082,-19609383.25397,  -0.00400,   0.00315,  -0.00027,477422637.15745,   0.00258,277422641.30381,  -0.00208,   0.00152,  -0.00001,  -4.14636,   1.00000
