# sigma_xx, sigma_yy, sigma_xy, epsilon_xx, epsilon_yy, epsilon_xy, vonMises, epsPlastic, hardening, epsilonP__xx, epsilonP__yy, epsilonP__xy, yieldValue, iteration
   0.00000,   0.00000,   0.00000,   0.00000,   0.00000,   0.00000,   0.00000,   0.00000,274640135.82653,   0.00000,   0.00000,   0.00000,-474640135.82653,   0.00000
   0.00000,   0.00000,   0.00000,   0.00000,   0.00000,   0.00000,   0.00000,   0.00000,274640135.82653,   0.00000,   0.00000,   0.00000,-474640135.82653,   0.00000
-1458116.35173,-991152.87331,238059.81253,  -0.00000,  -0.00000,   0.00000,1353989.85404,   0.00000,274640135.82653,   0.00000,   0.00000,   0.00000,-473286145.97249,   0.00000
-2893342.33688,-1959415.38004,466963.47842,  -0.00001,  -0.00000,   0.00001,2682469.70269,   0.00000,274640135.82653,   0.00000,   0.00000,   0.00000,-471957666.12384,   0.00000
-4351458.68861,-2950568.25335,691289.07099,  -0.00001,  -0.00000,   0.00001,4029319.00115,   0.00000,274640135.82653,   0.00000,   0.00000,   0.00000,-470610816.82538,   0.00000
-5802707.93037,-3925697.87005,911036.59025,  -0.00002,  -0.00001,   0.00001,5365893.02313,   0.00000,274640135.82653,   0.00000,   0.00000,   0.00000,-469274242.80340,   0.00000
-7247090.06215,-4884804.23014,1126206.03619,  -0.00002,  -0.00001,   0.00001,6692236.59562,   0.00000,274640135.82653,   0.00000,   0.00000,   0.00000,-467947899.23091,   0.00000
-8682316.04729,-5853066.73686,1332219.33549,  -0.00003,  -0.00001,   0.00002,8009197.96169,   0.00000,274640135.82653,   0.00000,   0.00000,   0.00000,-466630937.86484,   0.00000
-10126698.17907,-6812173.09695,1533654.56148,  -0.00003,  -0.00001,   0.00002,9328836.28103,   0.00000,274640135.82653,   0.00000,   0.00000,   0.00000,-465311299.54550,   0.00000
-11564213.20087,-7755256.20043,1730511.71415,  -0.00004,  -0.00001,   0.00002,10638402.22678,   0.00000,274640135.82653,   0.00000,   0.00000,   0.00000,-464001733.59975,   0.00000
-12992572.07604,-8707495.45054,1922790.79349,  -0.00004,  -0.00001,   0.00002,11940938.70833,   0.00000,274640135.82653,   0.00000,   0.00000,   0.00000,-462699197.11820,   0.00000
-14430087.09784,-9650578.55402,2110491.79953,  -0.00005,  -0.00002,   0.00003,13246317.14505,   0.00000,274640135.82653,   0.00000,   0.00000,   0.00000,-461393818.68148,   0.00000
-15851578.86304,-10586794.54751,2289036.65892,  -0.00005,  -0.00002,   0.00003,14534594.21667,   0.00000,274640135.82653,   0.00000,   0.00000,   0.00000,-460105541.60986,   0.00000
-17282226.77486,-11513854.39438,2463003.44500,  -0.00006,  -0.00002,   0.00003,15825875.03194,   0.00000,274640135.82653,   0.00000,   0.00000,   0.00000,-458814260.79459,   0.00000
-18703718.54005,-12450070.38788,2627814.08444,  -0.00006,  -0.00002,   0.00003,17108095.98223,   0.00000,274640135.82653,   0.00000,   0.00000,   0.00000,-457532039.84430,   0.00000
-20134366.45188,-13377130.23474,2792624.72388,  -0.00007,  -0.00002,   0.00004,18395557.67190,   0.00000,274640135.82653,   0.00000,   0.00000,   0.00000,-456244578.15463,   0.00000
-21542123.99712,-14281299.71501,2948279.21669,  -0.00007,  -0.00002,   0.00004,19658233.63314,   0.00000,274640135.82653,   0.00000,   0.00000,   0.00000,-454981902.19339,   0.00000
-22956748.65233,-15201492.45190,3099355.63618,  -0.00007,  -0.00002,   0.00004,20926988.70290,   0.00000,274640135.82653,   0.00000,   0.00000,   0.00000,-453713147.12363,   0.00000
-24380529.45418,-16112529.04215,3245853.98235,  -0.00008,  -0.00003,   0.00004,22199065.83465,   0.00000,274640135.82653,   0.00000,   0.00000,   0.00000,-452441069.99188,   0.00000
-25788286.99942,-17016698.52243,3387774.25520,  -0.00008,  -0.00003,   0.00004,23456413.04422,   0.00000,274640135.82653,   0.00000,   0.00000,   0.00000,-451183722.78231,   0.00000
-27189177.43468,-17904844.74609,3520538.38142,  -0.00009,  -0.00003,   0.00005,24702214.59099,   0.00000,274640135.82653,   0.00000,   0.00000,   0.00000,-449937921.23554,   0.00000
-28590067.86994,-18792990.96975,3653302.50764,  -0.00009,  -0.00003,   0.00005,25948322.88857,   0.00000,274640135.82653,   0.00000,   0.00000,   0.00000,-448691812.93796,   0.00000
-29990958.30520,-19681137.19341,3776910.48722,  -0.00010,  -0.00003,   0.00005,27190875.94781,   0.00000,274640135.82653,   0.00000,   0.00000,   0.00000,-447449259.87872,   0.00000
-31391848.74046,-20569283.41707,3895940.39349,  -0.00010,  -0.00003,   0.00005,28431862.55869,   0.00000,274640135.82653,   0.00000,   0.00000,   0.00000,-446208273.26784,   0.00000
-32792739.17572,-21457429.64074,4005814.15311,  -0.00011,  -0.00003,   0.00005,29669458.65586,   0.00000,274640135.82653,   0.00000,   0.00000,   0.00000,-444970677.17067,   0.00000
-34170739.24439,-22322685.49781,4115687.91274,  -0.00011,  -0.00003,   0.00005,30886497.11358,   0.00000,274640135.82653,   0.00000,   0.00000,   0.00000,-443753638.71295,   0.00000
-35564762.56967,-23194808.46486,4216405.52573,  -0.00012,  -0.00004,   0.00005,32113359.32489,   0.00000,274640135.82653,   0.00000,   0.00000,   0.00000,-442526776.50164,   0.00000
-36942762.63834,-24060064.32193,4312545.06541,  -0.00012,  -0.00004,   0.00006,33325715.23679,   0.00000,274640135.82653,   0.00000,   0.00000,   0.00000,-441314420.58974,   0.00000
-38329918.85365,-24916164.03237,4404106.53177,  -0.00013,  -0.00004,   0.00006,34542029.86131,   0.00000,274640135.82653,   0.00000,   0.00000,   0.00000,-440098105.96522,   0.00000
-39701051.81234,-25765396.63283,4491089.92481,  -0.00013,  -0.00004,   0.00006,35743887.56285,   0.00000,274640135.82653,   0.00000,   0.00000,   0.00000,-438896248.26368,   0.00000
-41072184.77104,-26614629.23329,4573495.24453,  -0.00013,  -0.00004,   0.00006,36944450.97528,   0.00000,274640135.82653,   0.00000,   0.00000,   0.00000,-437695684.85125,   0.00000
-42443317.72973,-27463861.83375,4646744.41761,  -0.00014,  -0.00004,   0.00006,38142079.30728,   0.00000,274640135.82653,   0.00000,   0.00000,   0.00000,-436498056.51925,   0.00000
-43814450.68843,-28313094.43421,4719993.59070,  -0.00014,  -0.00004,   0.00006,39340179.76742,   0.00000,274640135.82653,   0.00000,   0.00000,   0.00000,-435299956.05910,   0.00000
-45178716.53715,-29146303.77806,4784086.61715,  -0.00015,  -0.00004,   0.00006,40527685.71795,   0.00000,274640135.82653,   0.00000,   0.00000,   0.00000,-434112450.10858,   0.00000
-46542982.38586,-29979513.12190,4843601.57028,  -0.00015,  -0.00005,   0.00006,41714097.06253,   0.00000,274640135.82653,   0.00000,   0.00000,   0.00000,-432926038.76400,   0.00000
-47907248.23458,-30812722.46575,4898538.45009,  -0.00016,  -0.00005,   0.00006,42899447.45626,   0.00000,274640135.82653,   0.00000,   0.00000,   0.00000,-431740688.37027,   0.00000
-49248623.71671,-31623041.44301,4948897.25659,  -0.00016,  -0.00005,   0.00006,44062764.00160,   0.00000,274640135.82653,   0.00000,   0.00000,   0.00000,-430577371.82493,   0.00000
-50612889.56543,-32456250.78686,4990099.91645,  -0.00017,  -0.00005,   0.00006,45244573.81882,   0.00000,274640135.82653,   0.00000,   0.00000,   0.00000,-429395562.00771,   0.00000
-51954265.04755,-33266569.76411,5031302.57631,  -0.00017,  -0.00005,   0.00007,46405949.56035,   0.00000,274640135.82653,   0.00000,   0.00000,   0.00000,-428234186.26618,   0.00000
-53295640.52968,-34076888.74137,5063349.08954,  -0.00018,  -0.00005,   0.00007,47564929.78065,   0.00000,274640135.82653,   0.00000,   0.00000,   0.00000,-427075206.04588,   0.00000
-54630148.90183,-34871184.46202,5095395.60276,  -0.00018,  -0.00005,   0.00007,48716771.69439,   0.00000,274640135.82653,   0.00000,   0.00000,   0.00000,-425923364.13214,   0.00000
-55971524.38396,-35681503.43928,5118285.96935,  -0.00019,  -0.00005,   0.00007,49874077.87153,   0.00000,274640135.82653,   0.00000,   0.00000,   0.00000,-424766057.95499,   0.00000
-57290009.49950,-36468932.04995,5136598.26262,  -0.00019,  -0.00005,   0.00007,51009574.14911,   0.00000,274640135.82653,   0.00000,   0.00000,   0.00000,-423630561.67742,   0.00000
-58624517.87165,-37263227.77059,5150332.48257,  -0.00019,  -0.00006,   0.00007,52157657.64696,   0.00000,274640135.82653,   0.00000,   0.00000,   0.00000,-422482478.17957,   0.00000
-59943002.98719,-38050656.38126,5159488.62921,  -0.00020,  -0.00006,   0.00007,53291710.59166,   0.00000,274640135.82653,   0.00000,   0.00000,   0.00000,-421348425.23487,   0.00000
-61261488.10273,-38838084.99193,5164066.70253,  -0.00020,  -0.00006,   0.00007,54425092.03906,   0.00000,274640135.82653,   0.00000,   0.00000,   0.00000,-420215043.78747,   0.00000
-62573106.10829,-39609490.34599,5164066.70253,  -0.00021,  -0.00006,   0.00007,55550150.72813,   0.00000,274640135.82653,   0.00000,   0.00000,   0.00000,-419089985.09840,   0.00000
-63884724.11386,-40380895.70004,5154910.55589,  -0.00021,  -0.00006,   0.00007,56673376.81744,   0.00000,274640135.82653,   0.00000,   0.00000,   0.00000,-417966759.00909,   0.00000
-65196342.11942,-41152301.05410,5145754.40926,  -0.00022,  -0.00006,   0.00007,57797333.62878,   0.00000,274640135.82653,   0.00000,   0.00000,   0.00000,-416842802.19775,   0.00000
-66491936.86837,-41916839.29818,5132020.18930,  -0.00022,  -0.00006,   0.00007,58907386.18026,   0.00000,274640135.82653,   0.00000,   0.00000,   0.00000,-415732749.64627,   0.00000
-67803554.87393,-42688244.65224,5109129.82271,  -0.00023,  -0.00006,   0.00007,60029185.97580,   0.00000,274640135.82653,   0.00000,   0.00000,   0.00000,-414610949.85072,   0.00000
-69092282.51290,-43436759.63971,5086239.45612,  -0.00023,  -0.00006,   0.00007,61130681.47652,   0.00000,274640135.82653,   0.00000,   0.00000,   0.00000,-413509454.35001,   0.00000
-70387877.26185,-44201297.88379,5054192.94290,  -0.00023,  -0.00006,   0.00007,62238308.69083,   0.00000,274640135.82653,   0.00000,   0.00000,   0.00000,-412401827.13570,   0.00000
-71676604.90083,-44949812.87125,5022146.42968,  -0.00024,  -0.00006,   0.00007,63339065.78104,   0.00000,274640135.82653,   0.00000,   0.00000,   0.00000,-411301070.04549,   0.00000
-72949309.28319,-45691460.74874,4980943.76981,  -0.00024,  -0.00007,   0.00006,64424996.78697,   0.00000,274640135.82653,   0.00000,   0.00000,   0.00000,-410215139.03956,   0.00000
-74231169.81218,-46423952.47960,4939741.10995,  -0.00025,  -0.00007,   0.00006,65517545.45423,   0.00000,274640135.82653,   0.00000,   0.00000,   0.00000,-409122590.37230,   0.00000
-75503874.19455,-47165600.35709,4889382.30346,  -0.00025,  -0.00007,   0.00006,66603014.17869,   0.00000,274640135.82653,   0.00000,   0.00000,   0.00000,-408037121.64784,   0.00000
-76769711.46693,-47891224.97797,4839023.49696,  -0.00026,  -0.00007,   0.00006,67681688.44275,   0.00000,274640135.82653,   0.00000,   0.00000,   0.00000,-406958447.38378,   0.00000
-78042415.84929,-48632872.85546,4779508.54383,  -0.00026,  -0.00007,   0.00006,68766846.75190,   0.00000,274640135.82653,   0.00000,   0.00000,   0.00000,-405873289.07463,   0.00000
-79292229.86506,-49351630.36636,4715415.51738,  -0.00026,  -0.00007,   0.00006,69830836.65596,   0.00000,274640135.82653,   0.00000,   0.00000,   0.00000,-404809299.17057,   0.00000
-80542043.88083,-50070387.87726,4651322.49093,  -0.00027,  -0.00007,   0.00006,70895681.10883,   0.00000,274640135.82653,   0.00000,   0.00000,   0.00000,-403744454.71770,   0.00000
-81801014.04324,-50779989.24153,4578073.31784,  -0.00027,  -0.00007,   0.00006,71965511.59216,   0.00000,274640135.82653,   0.00000,   0.00000,   0.00000,-402674624.23437,   0.00000
-83034804.80240,-51491879.64245,4504824.14476,  -0.00028,  -0.00007,   0.00006,73016810.56025,   0.00000,274640135.82653,   0.00000,   0.00000,   0.00000,-401623325.26628,   0.00000
-84284618.81817,-52210637.15335,4422418.82504,  -0.00028,  -0.00007,   0.00006,74080816.10884,   0.00000,274640135.82653,   0.00000,   0.00000,   0.00000,-400559319.71769,   0.00000
-85527565.72397,-52913371.40764,4340013.50532,  -0.00029,  -0.00007,   0.00006,75138170.54817,   0.00000,274640135.82653,   0.00000,   0.00000,   0.00000,-399501965.27836,   0.00000
-86754489.37315,-53609238.55196,4253030.11228,  -0.00029,  -0.00007,   0.00006,76182114.46045,   0.00000,274640135.82653,   0.00000,   0.00000,   0.00000,-398458021.36608,   0.00000
-87981413.02233,-54305105.69627,4156890.57260,  -0.00029,  -0.00008,   0.00005,77225467.47221,   0.00000,274640135.82653,   0.00000,   0.00000,   0.00000,-397414668.35432,   0.00000
-89192313.41490,-54994105.73060,4060751.03293,  -0.00030,  -0.00008,   0.00005,78256233.10618,   0.00000,274640135.82653,   0.00000,   0.00000,   0.00000,-396383902.72035,   0.00000
-90419237.06408,-55689972.87492,3960033.41994,  -0.00030,  -0.00008,   0.00005,79300770.76959,   0.00000,274640135.82653,   0.00000,   0.00000,   0.00000,-395339365.05694,   0.00000
-91623270.34667,-56362949.65264,3854737.73362,  -0.00031,  -0.00008,   0.00005,80324498.11851,   0.00000,274640135.82653,   0.00000,   0.00000,   0.00000,-394315637.70802,   0.00000
-92834170.73924,-57051949.68697,3744863.97400,  -0.00031,  -0.00008,   0.00005,81356067.99884,   0.00000,274640135.82653,   0.00000,   0.00000,   0.00000,-393284067.82769,   0.00000
-94038204.02184,-57724926.46470,3630412.14105,  -0.00032,  -0.00008,   0.00005,82380472.29724,   0.00000,274640135.82653,   0.00000,   0.00000,   0.00000,-392259663.52929,   0.00000
-95226214.04782,-58391036.13244,3511382.23479,  -0.00032,  -0.00008,   0.00005,83391708.53793,   0.00000,274640135.82653,   0.00000,   0.00000,   0.00000,-391248427.28860,   0.00000
-96414224.07380,-59057145.80019,3387774.25520,  -0.00032,  -0.00008,   0.00004,84403383.98839,   0.00000,274640135.82653,   0.00000,   0.00000,   0.00000,-390236751.83814,   0.00000
-97602234.09978,-59723255.46794,3264166.27562,  -0.00033,  -0.00008,   0.00004,85416067.15366,   0.00000,274640135.82653,   0.00000,   0.00000,   0.00000,-389224068.67287,   0.00000
-98790244.12576,-60389365.13568,3131402.14941,  -0.00033,  -0.00008,   0.00004,86428725.95282,   0.00000,274640135.82653,   0.00000,   0.00000,   0.00000,-388211409.87371,   0.00000
-99962230.89513,-61048607.69345,2998638.02319,  -0.00034,  -0.00008,   0.00004,87428831.50737,   0.00000,274640135.82653,   0.00000,   0.00000,   0.00000,-387211304.31916,   0.00000
-101127350.55452,-61691826.99461,2861295.82365,  -0.00034,  -0.00008,   0.00004,88422014.08387,   0.00000,274640135.82653,   0.00000,   0.00000,   0.00000,-386218121.74266,   0.00000
-102299337.32389,-62351069.55238,2719375.55080,  -0.00034,  -0.00008,   0.00004,89423275.52012,   0.00000,274640135.82653,   0.00000,   0.00000,   0.00000,-385216860.30641,   0.00000
-103464456.98328,-62994288.85354,2572877.20463,  -0.00035,  -0.00008,   0.00003,90417716.67687,   0.00000,274640135.82653,   0.00000,   0.00000,   0.00000,-384222419.14966,   0.00000
-104613553.38606,-63630641.04472,2421800.78514,  -0.00035,  -0.00009,   0.00003,91399244.66333,   0.00000,274640135.82653,   0.00000,   0.00000,   0.00000,-383240891.16320,   0.00000
-105762649.78884,-64266993.23590,2266146.29233,  -0.00036,  -0.00009,   0.00003,92381509.34253,   0.00000,274640135.82653,   0.00000,   0.00000,   0.00000,-382258626.48400,   0.00000
-106895722.93500,-64896478.31710,2110491.79953,  -0.00036,  -0.00009,   0.00003,93351245.52476,   0.00000,274640135.82653,   0.00000,   0.00000,   0.00000,-381288890.30177,   0.00000
-108044819.33778,-65532830.50828,1950259.23340,  -0.00036,  -0.00009,   0.00003,94335372.79532,   0.00000,274640135.82653,   0.00000,   0.00000,   0.00000,-380304763.03121,   0.00000
-109177892.48395,-66162315.58948,1780870.52064,  -0.00037,  -0.00009,   0.00002,95306434.89773,   0.00000,274640135.82653,   0.00000,   0.00000,   0.00000,-379333700.92880,   0.00000
-110294942.37350,-66784933.56071,1616059.88120,  -0.00037,  -0.00009,   0.00002,96265238.86640,   0.00000,274640135.82653,   0.00000,   0.00000,   0.00000,-378374896.96013,   0.00000
-111421148.40969,-67398395.38530,1442093.09512,  -0.00038,  -0.00009,   0.00002,97230901.96091,   0.00000,274640135.82653,   0.00000,   0.00000,   0.00000,-377409233.86562,   0.00000
-112538198.29925,-68021013.35653,1268126.30904,  -0.00038,  -0.00009,   0.00002,98191478.64180,   0.00000,274640135.82653,   0.00000,   0.00000,   0.00000,-376448657.18473,   0.00000
-113648381.07882,-68627608.07114,1085003.37633,  -0.00038,  -0.00009,   0.00001,99145439.90414,   0.00000,274640135.82653,   0.00000,   0.00000,   0.00000,-375494695.92238,   0.00000
-114742540.60179,-69227335.67578,901880.44362,  -0.00039,  -0.00009,   0.00001,100086934.30709,   0.00000,274640135.82653,   0.00000,   0.00000,   0.00000,-374553201.51944,   0.00000
-115843567.23473,-69843086.53703,718757.51090,  -0.00039,  -0.00009,   0.00001,101036955.38085,   0.00000,274640135.82653,   0.00000,   0.00000,   0.00000,-373603180.44568,   0.00000
-116937726.75769,-70442814.14167,526478.43155,  -0.00039,  -0.00009,   0.00001,101980542.21237,   0.00000,274640135.82653,   0.00000,   0.00000,   0.00000,-372659593.61415,   0.00000
-118015863.02405,-71035674.63633,334199.35220,  -0.00040,  -0.00009,   0.00000,102911659.28246,   0.00000,274640135.82653,   0.00000,   0.00000,   0.00000,-371728476.54407,   0.00000
-119110022.54701,-71635402.24097,137342.19954,  -0.00040,  -0.00009,   0.00000,103857549.25824,   0.00000,274640135.82653,   0.00000,   0.00000,   0.00000,-370782586.56829,   0.00000
-120172135.55675,-72221395.62565,-64093.02645,  -0.00041,  -0.00009,  -0.00000,104777312.09051,   0.00000,274640135.82653,   0.00000,   0.00000,   0.00000,-369862823.73602,   0.00000
-121243404.71313,-72798232.86370,-265528.25243,  -0.00041,  -0.00009,  -0.00000,105704549.57462,   0.00000,274640135.82653,   0.00000,   0.00000,   0.00000,-368935586.25191,   0.00000
-122305517.72287,-73384226.24838,-476119.62506,  -0.00041,  -0.00010,  -0.00001,106626772.49745,   0.00000,274640135.82653,   0.00000,   0.00000,   0.00000,-368013363.32907,   0.00000
-123367630.73261,-73970219.63307,-686710.99768,  -0.00042,  -0.00010,  -0.00001,107550219.34065,   0.00000,274640135.82653,   0.00000,   0.00000,   0.00000,-367089916.48588,   0.00000
-124406853.37576,-74533322.65116,-897302.37030,  -0.00042,  -0.00010,  -0.00001,108453864.21995,   0.00000,274640135.82653,   0.00000,   0.00000,   0.00000,-366186271.60658,   0.00000
-125452943.12888,-75112448.92587,-1112471.81624,  -0.00042,  -0.00010,  -0.00001,109366155.27940,   0.00000,274640135.82653,   0.00000,   0.00000,   0.00000,-365273980.54713,   0.00000
-126492165.77203,-75675551.94396,-1332219.33549,  -0.00043,  -0.00010,  -0.00002,110272467.67626,   0.00000,274640135.82653,   0.00000,   0.00000,   0.00000,-364367668.15027,   0.00000
-127522232.26855,-76247811.10869,-1556544.92807,  -0.00043,  -0.00010,  -0.00002,111173854.11952,   0.00000,274640135.82653,   0.00000,   0.00000,   0.00000,-363466281.70701,   0.00000
-128545431.65509,-76804047.01681,-1780870.52064,  -0.00044,  -0.00010,  -0.00002,112069151.68927,   0.00000,274640135.82653,   0.00000,   0.00000,   0.00000,-362570984.13725,   0.00000
-129552607.78501,-77353415.81495,-2009774.18653,  -0.00044,  -0.00010,  -0.00003,112952246.36578,   0.00000,274640135.82653,   0.00000,   0.00000,   0.00000,-361687889.46075,   0.00000
-130566651.02492,-77918807.86971,-2243255.92574,  -0.00044,  -0.00010,  -0.00003,113844146.86642,   0.00000,274640135.82653,   0.00000,   0.00000,   0.00000,-360795988.96011,   0.00000
-131573827.15484,-78468176.66785,-2476737.66495,  -0.00045,  -0.00010,  -0.00003,114729992.22558,   0.00000,274640135.82653,   0.00000,   0.00000,   0.00000,-359910143.60095,   0.00000
-132564980.02816,-79010678.35601,-2714797.47748,  -0.00045,  -0.00010,  -0.00004,115603730.91686,   0.00000,274640135.82653,   0.00000,   0.00000,   0.00000,-359036404.90967,   0.00000
-133556132.90147,-79553180.04418,-2957435.36333,  -0.00045,  -0.00010,  -0.00004,116479067.97277,   0.00000,274640135.82653,   0.00000,   0.00000,   0.00000,-358161067.85375,   0.00000
-134547285.77478,-80095681.73234,-3200073.24917,  -0.00046,  -0.00010,  -0.00004,117355678.04142,   0.00000,274640135.82653,   0.00000,   0.00000,   0.00000,-357284457.78511,   0.00000
-135522415.39148,-80631316.31053,-3447289.20834,  -0.00046,  -0.00010,  -0.00004,118220281.29543,   0.00000,274640135.82653,   0.00000,   0.00000,   0.00000,-356419854.53110,   0.00000
-136490677.89821,-81150927.63211,-3694505.16750,  -0.00046,  -0.00010,  -0.00005,119078886.41311,   0.00000,274640135.82653,   0.00000,   0.00000,   0.00000,-355561249.41342,   0.00000
-137449784.25829,-81679695.10032,-3946299.19998,  -0.00047,  -0.00010,  -0.00005,119932810.96780,   0.00000,274640135.82653,   0.00000,   0.00000,   0.00000,-354707324.85873,   0.00000
-138408890.61838,-82208462.56853,-4198093.23246,  -0.00047,  -0.00010,  -0.00005,120788005.10359,   0.00000,274640135.82653,   0.00000,   0.00000,   0.00000,-353852130.72294,   0.00000
-139367996.97847,-82737230.03674,-4459043.41158,  -0.00047,  -0.00010,  -0.00006,121645447.89928,   0.00000,274640135.82653,   0.00000,   0.00000,   0.00000,-352994687.92725,   0.00000
-140311080.08195,-83259130.39497,-4715415.51738,  -0.00048,  -0.00011,  -0.00006,122490035.94575,   0.00000,274640135.82653,   0.00000,   0.00000,   0.00000,-352150099.88078,   0.00000
-141247296.07545,-83765007.49660,-4976365.69650,  -0.00048,  -0.00011,  -0.00006,123329181.30569,   0.00000,274640135.82653,   0.00000,   0.00000,   0.00000,-351310954.52084,   0.00000
-142174355.92231,-84280040.74485,-5241893.94893,  -0.00048,  -0.00011,  -0.00007,124163781.33895,   0.00000,274640135.82653,   0.00000,   0.00000,   0.00000,-350476354.48757,   0.00000
-143094548.65920,-84779050.73650,-5512000.27468,  -0.00049,  -0.00011,  -0.00007,124993054.76686,   0.00000,274640135.82653,   0.00000,   0.00000,   0.00000,-349647081.05967,   0.00000
-144005585.24945,-85287216.87478,-5777528.52712,  -0.00049,  -0.00011,  -0.00008,125816620.01730,   0.00000,274640135.82653,   0.00000,   0.00000,   0.00000,-348823515.80923,   0.00000
-144909754.72972,-85779359.75645,-6052212.92619,  -0.00049,  -0.00011,  -0.00008,126635529.91474,   0.00000,274640135.82653,   0.00000,   0.00000,   0.00000,-348004605.91179,   0.00000
-145820791.31997,-86287525.89473,-6326897.32526,  -0.00050,  -0.00011,  -0.00008,127462990.26972,   0.00000,274640135.82653,   0.00000,   0.00000,   0.00000,-347177145.55681,   0.00000
-146708937.54363,-86772801.66642,-6601581.72433,  -0.00050,  -0.00011,  -0.00009,128270918.63648,   0.00000,274640135.82653,   0.00000,   0.00000,   0.00000,-346369217.19005,   0.00000
-147603950.87727,-87274100.69472,-6880844.19672,  -0.00050,  -0.00011,  -0.00009,129088074.37339,   0.00000,274640135.82653,   0.00000,   0.00000,   0.00000,-345552061.45314,   0.00000
-148476073.84432,-87752509.35644,-7164684.74243,  -0.00050,  -0.00011,  -0.00009,129886479.14899,   0.00000,274640135.82653,   0.00000,   0.00000,   0.00000,-344753656.67754,   0.00000
-149348196.81137,-88230918.01815,-7448525.28813,  -0.00051,  -0.00011,  -0.00010,130686234.40522,   0.00000,274640135.82653,   0.00000,   0.00000,   0.00000,-343953901.42131,   0.00000
-150211163.63179,-88718482.82650,-7732365.83384,  -0.00051,  -0.00011,  -0.00010,131480891.30288,   0.00000,274640135.82653,   0.00000,   0.00000,   0.00000,-343159244.52364,   0.00000
-151067263.34222,-89190024.37824,-8020784.45286,  -0.00051,  -0.00011,  -0.00010,132270497.66207,   0.00000,274640135.82653,   0.00000,   0.00000,   0.00000,-342369638.16446,   0.00000
-151907339.79605,-89654698.82000,-8309203.07189,  -0.00052,  -0.00011,  -0.00011,133047836.03473,   0.00000,274640135.82653,   0.00000,   0.00000,   0.00000,-341592299.79180,   0.00000
-152754283.35985,-90135396.51838,-8602199.76423,  -0.00052,  -0.00011,  -0.00011,133834548.64921,   0.00000,274640135.82653,   0.00000,   0.00000,   0.00000,-340805587.17732,   0.00000
-153594359.81367,-90600070.96014,-8895196.45657,  -0.00052,  -0.00011,  -0.00012,134615429.59988,   0.00000,274640135.82653,   0.00000,   0.00000,   0.00000,-340024706.22665,   0.00000
-154418413.01088,-91057878.29192,-9192771.22223,  -0.00053,  -0.00011,  -0.00012,135384975.33361,   0.00000,274640135.82653,   0.00000,   0.00000,   0.00000,-339255160.49292,   0.00000
-155226442.95148,-91508818.51373,-9490345.98789,  -0.00053,  -0.00011,  -0.00012,136142293.43404,   0.00000,274640135.82653,   0.00000,   0.00000,   0.00000,-338497842.39249,   0.00000
-156034472.89208,-91959758.73554,-9787920.75355,  -0.00053,  -0.00011,  -0.00013,136900955.63530,   0.00000,274640135.82653,   0.00000,   0.00000,   0.00000,-337739180.19123,   0.00000
-156849369.94266,-92426722.21396,-10090073.59253,  -0.00053,  -0.00011,  -0.00013,137669093.99284,   0.00000,274640135.82653,   0.00000,   0.00000,   0.00000,-336971041.83369,   0.00000
-157641376.62665,-92870795.32579,-10392226.43151,  -0.00054,  -0.00012,  -0.00014,138417857.72158,   0.00000,274640135.82653,   0.00000,   0.00000,   0.00000,-336222278.10495,   0.00000
-158433383.31063,-93314868.43762,-10698957.34380,  -0.00054,  -0.00012,  -0.00014,139169013.66238,   0.00000,274640135.82653,   0.00000,   0.00000,   0.00000,-335471122.16415,   0.00000
-159209366.73801,-93752074.43947,-11005688.25610,  -0.00054,  -0.00012,  -0.00014,139907973.46438,   0.00000,274640135.82653,   0.00000,   0.00000,   0.00000,-334732162.36215,   0.00000
-159969326.90877,-94182413.33135,-11316997.24171,  -0.00054,  -0.00012,  -0.00015,140635836.63138,   0.00000,274640135.82653,   0.00000,   0.00000,   0.00000,-334004299.19515,   0.00000
-160729287.07953,-94612752.22323,-11623728.15401,  -0.00055,  -0.00012,  -0.00015,141363961.33199,   0.00000,274640135.82653,   0.00000,   0.00000,   0.00000,-333276174.49454,   0.00000
-161489247.25029,-95043091.11510,-11939615.21294,  -0.00055,  -0.00012,  -0.00016,142095714.71357,   0.00000,274640135.82653,   0.00000,   0.00000,   0.00000,-332544421.11296,   0.00000
-162233184.16444,-95466562.89700,-12250924.19855,  -0.00055,  -0.00012,  -0.00016,142814150.65266,   0.00000,274640135.82653,   0.00000,   0.00000,   0.00000,-331825985.17386,   0.00000
-162983988.18857,-95906057.93552,-12566811.25748,  -0.00055,  -0.00012,  -0.00016,143542240.39060,   0.00000,274640135.82653,   0.00000,   0.00000,   0.00000,-331097895.43593,   0.00000
-163711901.84611,-96322662.60744,-12882698.31641,  -0.00056,  -0.00012,  -0.00017,144251057.53251,   0.00000,274640135.82653,   0.00000,   0.00000,   0.00000,-330389078.29402,   0.00000
-164423792.24703,-96732400.16939,-13203163.44866,  -0.00056,  -0.00012,  -0.00017,144948967.59058,   0.00000,274640135.82653,   0.00000,   0.00000,   0.00000,-329691168.23595,   0.00000
-165135682.64796,-97142137.73134,-13523628.58091,  -0.00056,  -0.00012,  -0.00018,145648278.28868,   0.00000,274640135.82653,   0.00000,   0.00000,   0.00000,-328991857.53784,   0.00000
-165847573.04888,-97551875.29328,-13844093.71316,  -0.00056,  -0.00012,  -0.00018,146348969.54847,   0.00000,274640135.82653,   0.00000,   0.00000,   0.00000,-328291166.27806,   0.00000
-166543440.19319,-97954745.74525,-14164558.84541,  -0.00057,  -0.00012,  -0.00018,147037524.21607,   0.00000,274640135.82653,   0.00000,   0.00000,   0.00000,-327602611.61046,   0.00000
-167223284.08089,-98350749.08725,-14489602.05098,  -0.00057,  -0.00012,  -0.00019,147715290.45236,   0.00000,274640135.82653,   0.00000,   0.00000,   0.00000,-326924845.37417,   0.00000
-167903127.96859,-98746752.42924,-14814645.25654,  -0.00057,  -0.00012,  -0.00019,148394454.17394,   0.00000,274640135.82653,   0.00000,   0.00000,   0.00000,-326245681.65259,   0.00000
-168566948.59968,-99135888.66126,-15139688.46211,  -0.00057,  -0.00012,  -0.00020,149061520.29517,   0.00000,274640135.82653,   0.00000,   0.00000,   0.00000,-325578615.53136,   0.00000
-169237636.34075,-99541048.14989,-15469309.74100,  -0.00058,  -0.00012,  -0.00020,149738454.46245,   0.00000,274640135.82653,   0.00000,   0.00000,   0.00000,-324901681.36408,   0.00000
-169885433.71522,-99923317.27193,-15798931.01988,  -0.00058,  -0.00012,  -0.00021,150396251.59672,   0.00000,274640135.82653,   0.00000,   0.00000,   0.00000,-324243884.22981,   0.00000
-170533231.08970,-100305586.39397,-16128552.29877,  -0.00058,  -0.00012,  -0.00021,151055448.16848,   0.00000,274640135.82653,   0.00000,   0.00000,   0.00000,-323584687.65805,   0.00000
-171165005.20756,-100680988.40603,-16458173.57765,  -0.00058,  -0.00012,  -0.00021,151702580.60374,   0.00000,274640135.82653,   0.00000,   0.00000,   0.00000,-322937555.22279,   0.00000
-171796779.32542,-101056390.41809,-16792372.92985,  -0.00058,  -0.00012,  -0.00022,152352605.46734,   0.00000,274640135.82653,   0.00000,   0.00000,   0.00000,-322287530.35919,   0.00000
-172412530.18667,-101424925.32018,-17121994.20874,  -0.00059,  -0.00013,  -0.00022,152989071.83253,   0.00000,274640135.82653,   0.00000,   0.00000,   0.00000,-321651063.99400,   0.00000
-173012257.79131,-101786593.11229,-17456193.56094,  -0.00059,  -0.00013,  -0.00023,153615037.27540,   0.00000,274640135.82653,   0.00000,   0.00000,   0.00000,-321025098.55113,   0.00000
-173611985.39595,-102148260.90440,-17794970.98646,  -0.00059,  -0.00013,  -0.00023,154243992.67325,   0.00000,274640135.82653,   0.00000,   0.00000,   0.00000,-320396143.15328,   0.00000
-174202556.85395,-102519084.84314,-18129170.33866,  -0.00059,  -0.00013,  -0.00024,154866417.65415,   0.00000,274640135.82653,   0.00000,   0.00000,   0.00000,-319773718.17237,   0.00000
-174786261.20197,-102873885.52528,-18467947.76418,  -0.00059,  -0.00013,  -0.00024,155484812.39533,   0.00000,274640135.82653,   0.00000,   0.00000,   0.00000,-319155323.43120,   0.00000
-175353942.29339,-103221819.09743,-18802147.11639,  -0.00060,  -0.00013,  -0.00024,156089584.26091,   0.00000,274640135.82653,   0.00000,   0.00000,   0.00000,-318550551.56562,   0.00000
-175921623.38480,-103569752.66959,-19140924.54191,  -0.00060,  -0.00013,  -0.00025,156697406.47549,   0.00000,274640135.82653,   0.00000,   0.00000,   0.00000,-317942729.35104,   0.00000
-176473281.21960,-103910819.13177,-19479701.96743,  -0.00060,  -0.00013,  -0.00025,157293262.65567,   0.00000,274640135.82653,   0.00000,   0.00000,   0.00000,-317346873.17086,   0.00000
-177015782.90776,-104261041.74058,-19823057.46627,  -0.00060,  -0.00013,  -0.00026,157885918.03807,   0.00000,274640135.82653,   0.00000,   0.00000,   0.00000,-316754217.78846,   0.00000
-177551417.48595,-104595241.09279,-20161834.89179,  -0.00060,  -0.00013,  -0.00026,158471245.81712,   0.00000,274640135.82653,   0.00000,   0.00000,   0.00000,-316168890.00941,   0.00000
-178071028.80753,-104922573.33501,-20505190.39062,  -0.00061,  -0.00013,  -0.00027,159046394.53876,   0.00000,274640135.82653,   0.00000,   0.00000,   0.00000,-315593741.28776,   0.00000
-178590640.12910,-105249905.57724,-20843967.81614,  -0.00061,  -0.00013,  -0.00027,159621190.12880,   0.00000,274640135.82653,   0.00000,   0.00000,   0.00000,-315018945.69773,   0.00000
-179101095.30404,-105586393.96610,-21187323.31498,  -0.00061,  -0.00013,  -0.00028,160192877.89755,   0.00000,274640135.82653,   0.00000,   0.00000,   0.00000,-314447257.92898,   0.00000
-179588660.11239,-105899991.98837,-21530678.81382,  -0.00061,  -0.00013,  -0.00028,160745662.04893,   0.00000,274640135.82653,   0.00000,   0.00000,   0.00000,-313894473.77760,   0.00000
-180076224.92074,-106213590.01064,-21874034.31266,  -0.00061,  -0.00013,  -0.00028,161299880.01109,   0.00000,274640135.82653,   0.00000,   0.00000,   0.00000,-313340255.81544,   0.00000
-180554633.58246,-106536344.17955,-22217389.81150,  -0.00061,  -0.00013,  -0.00029,161849235.34819,   0.00000,274640135.82653,   0.00000,   0.00000,   0.00000,-312790900.47834,   0.00000
-181026175.13419,-106843075.09185,-22565323.38365,  -0.00062,  -0.00013,  -0.00029,162394910.67633,   0.00000,274640135.82653,   0.00000,   0.00000,   0.00000,-312245225.15020,   0.00000
-181481693.42932,-107142938.89417,-22908678.88249,  -0.00062,  -0.00013,  -0.00030,162926839.77715,   0.00000,274640135.82653,   0.00000,   0.00000,   0.00000,-311713296.04938,   0.00000
-181928055.57781,-107451958.84312,-23256612.45465,  -0.00062,  -0.00013,  -0.00030,163455880.87857,   0.00000,274640135.82653,   0.00000,   0.00000,   0.00000,-311184254.94796,   0.00000
-182367550.61632,-107744955.53546,-23599967.95349,  -0.00062,  -0.00013,  -0.00031,163977409.39253,   0.00000,274640135.82653,   0.00000,   0.00000,   0.00000,-310662726.43400,   0.00000
-182797889.50820,-108047108.37444,-23947901.52564,  -0.00062,  -0.00014,  -0.00031,164496105.18448,   0.00000,274640135.82653,   0.00000,   0.00000,   0.00000,-310144030.64205,   0.00000
-183221361.29010,-108333237.95681,-24291257.02448,  -0.00062,  -0.00014,  -0.00032,165007241.81466,   0.00000,274640135.82653,   0.00000,   0.00000,   0.00000,-309632894.01187,   0.00000
-183635676.92537,-108628523.68581,-24639190.59664,  -0.00062,  -0.00014,  -0.00032,165515602.45887,   0.00000,274640135.82653,   0.00000,   0.00000,   0.00000,-309124533.36766,   0.00000
-184027102.19404,-108900919.04822,-24987124.16879,  -0.00062,  -0.00014,  -0.00032,166005220.02471,   0.00000,274640135.82653,   0.00000,   0.00000,   0.00000,-308634915.80182,   0.00000
-184425394.57269,-109189337.66724,-25330479.66763,  -0.00063,  -0.00014,  -0.00033,166501202.82349,   0.00000,274640135.82653,   0.00000,   0.00000,   0.00000,-308138933.00304,   0.00000
-184784773.32814,-109447998.80970,-25678413.23979,  -0.00063,  -0.00014,  -0.00033,166967349.99889,   0.00000,274640135.82653,   0.00000,   0.00000,   0.00000,-307672785.82764,   0.00000
-185167042.45018,-109729550.31875,-26026346.81194,  -0.00063,  -0.00014,  -0.00034,167455139.38401,   0.00000,274640135.82653,   0.00000,   0.00000,   0.00000,-307184996.44252,   0.00000
-185510397.94902,-109981344.35123,-26374280.38410,  -0.00063,  -0.00014,  -0.00034,167911074.35866,   0.00000,274640135.82653,   0.00000,   0.00000,   0.00000,-306729061.46786,   0.00000
-185860620.55784,-110249161.64032,-26722213.95626,  -0.00063,  -0.00014,  -0.00035,168375474.68161,   0.00000,274640135.82653,   0.00000,   0.00000,   0.00000,-306264661.14492,   0.00000
-186203976.05668,-110500955.67281,-27065569.45509,  -0.00063,  -0.00014,  -0.00035,168832164.43962,   0.00000,274640135.82653,   0.00000,   0.00000,   0.00000,-305807971.38691,   0.00000
-186538175.40888,-110761905.85192,-27413503.02725,  -0.00063,  -0.00014,  -0.00036,169286347.04273,   0.00000,274640135.82653,   0.00000,   0.00000,   0.00000,-305353788.78380,   0.00000
-186856351.50447,-111015988.92106,-27761436.59941,  -0.00063,  -0.00014,  -0.00036,169728887.73400,   0.00000,274640135.82653,   0.00000,   0.00000,   0.00000,-304911248.09253,   0.00000
-187151637.23347,-111247181.62361,-28109370.17156,  -0.00063,  -0.00014,  -0.00037,170152839.04250,   0.00000,274640135.82653,   0.00000,   0.00000,   0.00000,-304487296.78403,   0.00000
-187453790.07245,-111494397.58278,-28452725.67040,  -0.00064,  -0.00014,  -0.00037,170582969.54960,   0.00000,274640135.82653,   0.00000,   0.00000,   0.00000,-304057166.27693,   0.00000
-187739919.65481,-111734746.43196,-28800659.24256,  -0.00064,  -0.00014,  -0.00037,171003779.46946,   0.00000,274640135.82653,   0.00000,   0.00000,   0.00000,-303636356.35707,   0.00000
-188003158.87059,-111952204.91456,-29148592.81471,  -0.00064,  -0.00014,  -0.00038,171406059.26665,   0.00000,274640135.82653,   0.00000,   0.00000,   0.00000,-303234076.55988,   0.00000
-188273265.19634,-112185686.65377,-29491948.31355,  -0.00064,  -0.00014,  -0.00038,171814464.43492,   0.00000,274640135.82653,   0.00000,   0.00000,   0.00000,-302825671.39161,   0.00000
-188527348.26548,-112412301.28301,-29839881.88571,  -0.00064,  -0.00014,  -0.00039,172213672.81174,   0.00000,274640135.82653,   0.00000,   0.00000,   0.00000,-302426463.01479,   0.00000
-188765408.07801,-112632048.80226,-30183237.38455,  -0.00064,  -0.00014,  -0.00039,172598975.97166,   0.00000,274640135.82653,   0.00000,   0.00000,   0.00000,-302041159.85486,   0.00000
-188996600.78056,-112835773.06491,-30531170.95670,  -0.00064,  -0.00014,  -0.00040,172981231.45015,   0.00000,274640135.82653,   0.00000,   0.00000,   0.00000,-301658904.37638,   0.00000
-189218637.33648,-113048653.47419,-30874526.45554,  -0.00064,  -0.00015,  -0.00040,173356533.64166,   0.00000,274640135.82653,   0.00000,   0.00000,   0.00000,-301283602.18487,   0.00000
-189424650.63578,-113254666.77349,-31217881.95438,  -0.00064,  -0.00015,  -0.00041,173720351.68389,   0.00000,274640135.82653,   0.00000,   0.00000,   0.00000,-300919784.14264,   0.00000
-189630663.93508,-113460680.07279,-31561237.45322,  -0.00064,  -0.00015,  -0.00041,174085684.83091,   0.00000,274640135.82653,   0.00000,   0.00000,   0.00000,-300554450.99562,   0.00000
-189820653.97777,-113659826.26212,-31904592.95206,  -0.00064,  -0.00015,  -0.00041,174439569.43514,   0.00000,274640135.82653,   0.00000,   0.00000,   0.00000,-300200566.39139,   0.00000
-189994620.76385,-113852105.34147,-32247948.45089,  -0.00064,  -0.00015,  -0.00042,174782037.89360,   0.00000,274640135.82653,   0.00000,   0.00000,   0.00000,-299858097.93293,   0.00000
-190161720.43995,-114028361.16420,-32591303.94973,  -0.00064,  -0.00015,  -0.00042,175119093.79612,   0.00000,274640135.82653,   0.00000,   0.00000,   0.00000,-299521042.03041,   0.00000
-190319663.96942,-114213773.13358,-32930081.37525,  -0.00064,  -0.00015,  -0.00043,175449150.24451,   0.00000,274640135.82653,   0.00000,   0.00000,   0.00000,-299190985.58202,   0.00000
-190461584.24227,-114392317.99297,-33273436.87409,  -0.00064,  -0.00015,  -0.00043,175770418.96188,   0.00000,274640135.82653,   0.00000,   0.00000,   0.00000,-298869716.86464,   0.00000
-190587481.25851,-114563995.74239,-33612214.29961,  -0.00064,  -0.00015,  -0.00044,176077757.23197,   0.00000,274640135.82653,   0.00000,   0.00000,   0.00000,-298562378.59455,   0.00000
-190713378.27475,-114735673.49181,-33950991.72513,  -0.00064,  -0.00015,  -0.00044,176386646.43815,   0.00000,274640135.82653,   0.00000,   0.00000,   0.00000,-298253489.38838,   0.00000
-190823252.03438,-114900484.13125,-34289769.15065,  -0.00064,  -0.00015,  -0.00045,176684225.48020,   0.00000,274640135.82653,   0.00000,   0.00000,   0.00000,-297955910.34633,   0.00000
-190917102.53740,-115058427.66072,-34628546.57617,  -0.00064,  -0.00015,  -0.00045,176970531.16119,   0.00000,274640135.82653,   0.00000,   0.00000,   0.00000,-297669604.66534,   0.00000
-191010953.04041,-115216371.19018,-34967324.00169,  -0.00064,  -0.00015,  -0.00045,177258423.63133,   0.00000,274640135.82653,   0.00000,   0.00000,   0.00000,-297381712.19520,   0.00000
-191088780.28682,-115367447.60967,-35301523.35390,  -0.00064,  -0.00015,  -0.00046,177532356.83744,   0.00000,274640135.82653,   0.00000,   0.00000,   0.00000,-297107778.98909,   0.00000
-191150584.27661,-115511656.91919,-35640300.77942,  -0.00064,  -0.00015,  -0.00046,177797809.77724,   0.00000,274640135.82653,   0.00000,   0.00000,   0.00000,-296842326.04929,   0.00000
-191212388.26640,-115655866.22870,-35974500.13162,  -0.00064,  -0.00015,  -0.00047,178062113.88221,   0.00000,274640135.82653,   0.00000,   0.00000,   0.00000,-296578021.94432,   0.00000
-191242145.74296,-115786341.31826,-36308699.48382,  -0.00064,  -0.00015,  -0.00047,178302472.66213,   0.00000,274640135.82653,   0.00000,   0.00000,   0.00000,-296337663.16440,   0.00000
-191271903.21953,-115916816.40781,-36638320.76271,  -0.00064,  -0.00015,  -0.00048,178541644.56173,   0.00000,274640135.82653,   0.00000,   0.00000,   0.00000,-296098491.26480,   0.00000
-191301660.69610,-116047291.49737,-36972520.11491,  -0.00064,  -0.00015,  -0.00048,178785238.19704,   0.00000,274640135.82653,   0.00000,   0.00000,   0.00000,-295854897.62949,   0.00000
-191306238.76941,-116180055.62359,-37302141.39379,  -0.00064,  -0.00016,  -0.00048,179009111.81590,   0.00000,274640135.82653,   0.00000,   0.00000,   0.00000,-295631024.01063,   0.00000
-191303949.73275,-116296796.49320,-37631762.67268,  -0.00064,  -0.00016,  -0.00049,179227671.50492,   0.00000,274640135.82653,   0.00000,   0.00000,   0.00000,-295412464.32161,   0.00000
-191285637.43948,-116406670.25282,-37961383.95156,  -0.00064,  -0.00016,  -0.00049,179435180.11531,   0.00000,274640135.82653,   0.00000,   0.00000,   0.00000,-295204955.71122,   0.00000
-191267325.14621,-116516544.01245,-38291005.23045,  -0.00064,  -0.00016,  -0.00050,179644343.72761,   0.00000,274640135.82653,   0.00000,   0.00000,   0.00000,-294995792.09892,   0.00000
-191216966.33972,-116612683.55213,-38616048.43602,  -0.00064,  -0.00016,  -0.00050,179826917.30178,   0.00000,274640135.82653,   0.00000,   0.00000,   0.00000,-294813218.52475,   0.00000
-191166607.53322,-116708823.09180,-38941091.64158,  -0.00064,  -0.00016,  -0.00051,180011158.81604,   0.00000,274640135.82653,   0.00000,   0.00000,   0.00000,-294628977.01049,   0.00000
-191100225.47011,-116798095.52150,-39266134.84715,  -0.00064,  -0.00016,  -0.00051,180184452.55083,   0.00000,274640135.82653,   0.00000,   0.00000,   0.00000,-294455683.27570,   0.00000
-191033843.40700,-116887367.95120,-39591178.05272,  -0.00064,  -0.00016,  -0.00051,180359438.64065,   0.00000,274640135.82653,   0.00000,   0.00000,   0.00000,-294280697.18588,   0.00000
-190942281.94065,-116978929.41755,-39911643.18497,  -0.00064,  -0.00016,  -0.00052,180514872.02884,   0.00000,274640135.82653,   0.00000,   0.00000,   0.00000,-294125263.79769,   0.00000
-190843853.36431,-117054467.62730,-40232108.31721,  -0.00064,  -0.00016,  -0.00052,180665067.79644,   0.00000,274640135.82653,   0.00000,   0.00000,   0.00000,-293975068.03009,   0.00000
-190729401.53137,-117123138.72707,-40552573.44946,  -0.00064,  -0.00016,  -0.00053,180804429.47845,   0.00000,274640135.82653,   0.00000,   0.00000,   0.00000,-293835706.34808,   0.00000
-190614949.69842,-117191809.82683,-40873038.58171,  -0.00064,  -0.00016,  -0.00053,180945528.41261,   0.00000,274640135.82653,   0.00000,   0.00000,   0.00000,-293694607.41392,   0.00000
-190468451.35225,-117246746.70665,-41188925.64064,  -0.00064,  -0.00016,  -0.00054,181060230.55548,   0.00000,274640135.82653,   0.00000,   0.00000,   0.00000,-293579905.27105,   0.00000
-190321953.00608,-117301683.58646,-41504812.69958,  -0.00064,  -0.00016,  -0.00054,181176691.90288,   0.00000,274640135.82653,   0.00000,   0.00000,   0.00000,-293463443.92365,   0.00000
-190166298.51327,-117365776.61291,-41820699.75851,  -0.00064,  -0.00016,  -0.00054,181289393.19345,   0.00000,274640135.82653,   0.00000,   0.00000,   0.00000,-293350742.63307,   0.00000
-190003776.91049,-117413846.38275,-42132008.74412,  -0.00064,  -0.00016,  -0.00055,181393745.12583,   0.00000,274640135.82653,   0.00000,   0.00000,   0.00000,-293246390.70070,   0.00000
-189809208.79448,-117448181.93263,-42443317.72973,  -0.00063,  -0.00016,  -0.00055,181474985.48066,   0.00000,274640135.82653,   0.00000,   0.00000,   0.00000,-293165150.34587,   0.00000
-189614640.67847,-117482517.48252,-42754626.71535,  -0.00063,  -0.00016,  -0.00056,181558042.65279,   0.00000,274640135.82653,   0.00000,   0.00000,   0.00000,-293082093.17374,   0.00000
-189404049.30585,-117509985.92242,-43061357.62764,  -0.00063,  -0.00017,  -0.00056,181627269.64740,   0.00000,274640135.82653,   0.00000,   0.00000,   0.00000,-293012866.17913,   0.00000
-189193457.93323,-117537454.36233,-43368088.53994,  -0.00063,  -0.00017,  -0.00056,181698303.75118,   0.00000,274640135.82653,   0.00000,   0.00000,   0.00000,-292941832.07535,   0.00000
-188950820.04738,-117551188.58229,-43674819.45223,  -0.00063,  -0.00017,  -0.00057,181746445.40148,   0.00000,274640135.82653,   0.00000,   0.00000,   0.00000,-292893690.42505,   0.00000
-188715049.27151,-117580946.05885,-43976972.29121,  -0.00063,  -0.00017,  -0.00057,181800101.60741,   0.00000,274640135.82653,   0.00000,   0.00000,   0.00000,-292840034.21912,   0.00000
-188456388.12906,-117587813.16883,-44279125.13019,  -0.00063,  -0.00017,  -0.00058,181836333.66731,   0.00000,274640135.82653,   0.00000,   0.00000,   0.00000,-292803802.15922,   0.00000
-188181703.72999,-117587813.16883,-44581277.96917,  -0.00063,  -0.00017,  -0.00058,181862155.05334,   0.00000,274640135.82653,   0.00000,   0.00000,   0.00000,-292777980.77319,   0.00000
-187907019.33091,-117587813.16883,-44878852.73483,  -0.00063,  -0.00017,  -0.00058,181886504.46321,   0.00000,274640135.82653,   0.00000,   0.00000,   0.00000,-292753631.36332,   0.00000
-187616311.67523,-117580946.05885,-45176427.50049,  -0.00062,  -0.00017,  -0.00059,181900480.11203,   0.00000,274640135.82653,   0.00000,   0.00000,   0.00000,-292739655.71450,   0.00000
-187309580.76294,-117567211.83890,-45474002.26615,  -0.00062,  -0.00017,  -0.00059,181904144.62142,   0.00000,274640135.82653,   0.00000,   0.00000,   0.00000,-292735991.20510,   0.00000
-186986826.59403,-117546610.50897,-45766998.95849,  -0.00062,  -0.00017,  -0.00059,181894106.19065,   0.00000,274640135.82653,   0.00000,   0.00000,   0.00000,-292746029.63588,   0.00000
-186648049.16851,-117519142.06906,-46059995.65083,  -0.00062,  -0.00017,  -0.00060,181873840.89520,   0.00000,274640135.82653,   0.00000,   0.00000,   0.00000,-292766294.93132,   0.00000
-186309271.74299,-117491673.62915,-46348414.26985,  -0.00062,  -0.00017,  -0.00060,181852073.05901,   0.00000,274640135.82653,   0.00000,   0.00000,   0.00000,-292788062.76752,   0.00000
-185954471.06085,-117457338.07927,-46636832.88888,  -0.00062,  -0.00017,  -0.00061,181820122.50342,   0.00000,274640135.82653,   0.00000,   0.00000,   0.00000,-292820013.32311,   0.00000
-185583647.12211,-117416135.41941,-46925251.50790,  -0.00062,  -0.00017,  -0.00061,181778056.92958,   0.00000,274640135.82653,   0.00000,   0.00000,   0.00000,-292862078.89695,   0.00000
-185196799.92675,-117368065.64957,-47209092.05361,  -0.00061,  -0.00017,  -0.00061,181722377.49687,   0.00000,274640135.82653,   0.00000,   0.00000,   0.00000,-292917758.32966,   0.00000
-184793929.47478,-117313128.76976,-47492932.59932,  -0.00061,  -0.00017,  -0.00062,181656677.41315,   0.00000,274640135.82653,   0.00000,   0.00000,   0.00000,-292983458.41338,   0.00000
-184391059.02281,-117258191.88994,-47776773.14502,  -0.00061,  -0.00017,  -0.00062,181593073.07169,   0.00000,274640135.82653,   0.00000,   0.00000,   0.00000,-293047062.75484,   0.00000
-183972165.31423,-117196387.90015,-48056035.61741,  -0.00061,  -0.00017,  -0.00062,181515909.42955,   0.00000,274640135.82653,   0.00000,   0.00000,   0.00000,-293124226.39698,   0.00000
-183537248.34903,-117127716.80038,-48330720.01648,  -0.00061,  -0.00018,  -0.00063,181425191.79924,   0.00000,274640135.82653,   0.00000,   0.00000,   0.00000,-293214944.02729,   0.00000
-183086308.12722,-117052178.59064,-48609982.48887,  -0.00060,  -0.00018,  -0.00063,181328289.83026,   0.00000,274640135.82653,   0.00000,   0.00000,   0.00000,-293311845.99627,   0.00000
-182635367.90542,-116976640.38090,-48880088.81462,  -0.00060,  -0.00018,  -0.00064,181226183.26285,   0.00000,274640135.82653,   0.00000,   0.00000,   0.00000,-293413952.56368,   0.00000
-182168404.42700,-116894235.06117,-49154773.21369,  -0.00060,  -0.00018,  -0.00064,181117996.51960,   0.00000,274640135.82653,   0.00000,   0.00000,   0.00000,-293522139.30693,   0.00000
-181685417.69196,-116804962.63148,-49424879.53945,  -0.00060,  -0.00018,  -0.00064,180996375.72481,   0.00000,274640135.82653,   0.00000,   0.00000,   0.00000,-293643760.10172,   0.00000
-181186407.70032,-116708823.09180,-49690407.79188,  -0.00060,  -0.00018,  -0.00065,180861331.41016,   0.00000,274640135.82653,   0.00000,   0.00000,   0.00000,-293778804.41637,   0.00000
-180664507.34209,-116589793.18554,-49955936.04432,  -0.00059,  -0.00018,  -0.00065,180709693.09756,   0.00000,274640135.82653,   0.00000,   0.00000,   0.00000,-293930442.72897,   0.00000
-180149474.09383,-116486786.53589,-50221464.29675,  -0.00059,  -0.00018,  -0.00065,180567321.37557,   0.00000,274640135.82653,   0.00000,   0.00000,   0.00000,-294072814.45096,   0.00000
-179602394.33235,-116370045.66628,-50482414.47587,  -0.00059,  -0.00018,  -0.00066,180399809.48436,   0.00000,274640135.82653,   0.00000,   0.00000,   0.00000,-294240326.34216,   0.00000
-179055314.57086,-116253304.79668,-50743364.65498,  -0.00059,  -0.00018,  -0.00066,180234657.21518,   0.00000,274640135.82653,   0.00000,   0.00000,   0.00000,-294405478.61135,   0.00000
-178501367.69940,-116120540.67046,-50999736.76078,  -0.00059,  -0.00018,  -0.00066,180060996.21377,   0.00000,274640135.82653,   0.00000,   0.00000,   0.00000,-294579139.61276,   0.00000
-177922241.42470,-115990065.58090,-51256108.86658,  -0.00058,  -0.00018,  -0.00067,179873213.52644,   0.00000,274640135.82653,   0.00000,   0.00000,   0.00000,-294766922.30009,   0.00000
-177336248.04001,-115843567.23473,-51507902.89906,  -0.00058,  -0.00018,  -0.00067,179676947.73893,   0.00000,274640135.82653,   0.00000,   0.00000,   0.00000,-294963188.08760,   0.00000
-176725075.25208,-115699357.92522,-51759696.93155,  -0.00058,  -0.00018,  -0.00067,179466750.65467,   0.00000,274640135.82653,   0.00000,   0.00000,   0.00000,-295173385.17186,   0.00000
-176107035.35417,-115539125.35909,-52006912.89071,  -0.00058,  -0.00018,  -0.00068,179248100.46648,   0.00000,274640135.82653,   0.00000,   0.00000,   0.00000,-295392035.36005,   0.00000
-175495862.56624,-115394916.04958,-52254128.84987,  -0.00057,  -0.00018,  -0.00068,179038923.26993,   0.00000,274640135.82653,   0.00000,   0.00000,   0.00000,-295601212.55660,   0.00000
-174845776.15511,-115220949.26350,-52496766.73572,  -0.00057,  -0.00018,  -0.00068,178798064.41422,   0.00000,274640135.82653,   0.00000,   0.00000,   0.00000,-295842071.41231,   0.00000
-174202556.85395,-115063005.73404,-52739404.62157,  -0.00057,  -0.00018,  -0.00069,178566768.19707,   0.00000,274640135.82653,   0.00000,   0.00000,   0.00000,-296073367.62946,   0.00000
-173520423.92959,-114875304.72801,-52977464.43409,  -0.00057,  -0.00018,  -0.00069,178303944.97938,   0.00000,274640135.82653,   0.00000,   0.00000,   0.00000,-296336190.84715,   0.00000
-172838291.00523,-114687603.72197,-53215524.24662,  -0.00056,  -0.00018,  -0.00069,178043780.91030,   0.00000,274640135.82653,   0.00000,   0.00000,   0.00000,-296596354.91623,   0.00000
-172163025.19085,-114515925.97255,-53453584.05915,  -0.00056,  -0.00019,  -0.00069,177793287.95699,   0.00000,274640135.82653,   0.00000,   0.00000,   0.00000,-296846847.86954,   0.00000
-171448845.75326,-114314490.74657,-53687065.79836,  -0.00056,  -0.00019,  -0.00070,177511478.82747,   0.00000,274640135.82653,   0.00000,   0.00000,   0.00000,-297128656.99906,   0.00000
-170734666.31568,-114113055.52058,-53915969.46425,  -0.00055,  -0.00019,  -0.00070,177228261.16455,   0.00000,274640135.82653,   0.00000,   0.00000,   0.00000,-297411874.66198,   0.00000
-169988440.36487,-113897886.07465,-54144873.13014,  -0.00055,  -0.00019,  -0.00070,176925058.01640,   0.00000,274640135.82653,   0.00000,   0.00000,   0.00000,-297715077.81013,   0.00000
-169242214.41406,-113682716.62871,-54369198.72272,  -0.00055,  -0.00019,  -0.00071,176620502.22514,   0.00000,274640135.82653,   0.00000,   0.00000,   0.00000,-298019633.60139,   0.00000
-168495988.46326,-113467547.18277,-54593524.31529,  -0.00055,  -0.00019,  -0.00071,176318786.75375,   0.00000,274640135.82653,   0.00000,   0.00000,   0.00000,-298321349.07278,   0.00000
-167717715.99922,-113238643.51688,-54813271.83455,  -0.00054,  -0.00019,  -0.00071,175993125.71706,   0.00000,274640135.82653,   0.00000,   0.00000,   0.00000,-298647010.10947,   0.00000
-166939443.53519,-113009739.85098,-55033019.35380,  -0.00054,  -0.00019,  -0.00072,175670417.77668,   0.00000,274640135.82653,   0.00000,   0.00000,   0.00000,-298969718.04985,   0.00000
-166129124.55793,-112767101.96514,-55248188.79974,  -0.00054,  -0.00019,  -0.00072,175323964.36470,   0.00000,274640135.82653,   0.00000,   0.00000,   0.00000,-299316171.46183,   0.00000
-165311938.47069,-112508440.82268,-55463358.24568,  -0.00053,  -0.00019,  -0.00072,174973569.81625,   0.00000,274640135.82653,   0.00000,   0.00000,   0.00000,-299666566.01028,   0.00000
-164501619.49344,-112265802.93683,-55673949.61830,  -0.00053,  -0.00019,  -0.00072,174628900.60491,   0.00000,274640135.82653,   0.00000,   0.00000,   0.00000,-300011235.22162,   0.00000
-163659254.00295,-112009430.83103,-55884540.99092,  -0.00053,  -0.00019,  -0.00073,174265113.80678,   0.00000,274640135.82653,   0.00000,   0.00000,   0.00000,-300375022.01974,   0.00000
-162810021.40249,-111737035.46862,-56090554.29023,  -0.00052,  -0.00019,  -0.00073,173893098.97191,   0.00000,274640135.82653,   0.00000,   0.00000,   0.00000,-300747036.85462,   0.00000
-161935609.39878,-111466929.14287,-56291989.51621,  -0.00052,  -0.00019,  -0.00073,173504804.07302,   0.00000,274640135.82653,   0.00000,   0.00000,   0.00000,-301135331.75351,   0.00000
-161054330.28510,-111180799.56051,-56493424.74220,  -0.00052,  -0.00019,  -0.00073,173112793.86002,   0.00000,274640135.82653,   0.00000,   0.00000,   0.00000,-301527341.96651,   0.00000
-160179918.28139,-110910693.23475,-56694859.96818,  -0.00051,  -0.00019,  -0.00074,172731131.40371,   0.00000,274640135.82653,   0.00000,   0.00000,   0.00000,-301909004.42282,   0.00000
-159266592.65448,-110610829.43243,-56887139.04753,  -0.00051,  -0.00019,  -0.00074,172314923.83467,   0.00000,274640135.82653,   0.00000,   0.00000,   0.00000,-302325211.99186,   0.00000
-158353267.02757,-110310965.63011,-57083996.20020,  -0.00051,  -0.00019,  -0.00074,171906696.74743,   0.00000,274640135.82653,   0.00000,   0.00000,   0.00000,-302733439.07910,   0.00000
-157407894.88744,-109997367.60784,-57276275.27955,  -0.00050,  -0.00019,  -0.00074,171475733.86615,   0.00000,274640135.82653,   0.00000,   0.00000,   0.00000,-303164401.96038,   0.00000
-156462522.74730,-109683769.58557,-57463976.28558,  -0.00050,  -0.00019,  -0.00075,171043786.06897,   0.00000,274640135.82653,   0.00000,   0.00000,   0.00000,-303596349.75756,   0.00000
-155517150.60717,-109370171.56330,-57647099.21829,  -0.00049,  -0.00019,  -0.00075,170610800.54518,   0.00000,274640135.82653,   0.00000,   0.00000,   0.00000,-304029335.28135,   0.00000
-154539731.95381,-109042839.32107,-57830222.15101,  -0.00049,  -0.00019,  -0.00075,170159989.95504,   0.00000,274640135.82653,   0.00000,   0.00000,   0.00000,-304480145.87149,   0.00000
-153562313.30045,-108715507.07885,-58013345.08372,  -0.00049,  -0.00020,  -0.00075,169712950.03725,   0.00000,274640135.82653,   0.00000,   0.00000,   0.00000,-304927185.78928,   0.00000
-152552848.13386,-108374440.61667,-58191889.94312,  -0.00048,  -0.00020,  -0.00076,169243757.45415,   0.00000,274640135.82653,   0.00000,   0.00000,   0.00000,-305396378.37238,   0.00000
-151543382.96728,-108033374.15449,-58365856.72920,  -0.00048,  -0.00020,  -0.00076,168773764.41506,   0.00000,274640135.82653,   0.00000,   0.00000,   0.00000,-305866371.41147,   0.00000
-150527050.69072,-107676284.43570,-58539823.51527,  -0.00047,  -0.00020,  -0.00076,168300666.97931,   0.00000,274640135.82653,   0.00000,   0.00000,   0.00000,-306339468.84722,   0.00000
-149485539.01091,-107321483.75356,-58709212.22803,  -0.00047,  -0.00020,  -0.00076,167812789.15329,   0.00000,274640135.82653,   0.00000,   0.00000,   0.00000,-306827346.67324,   0.00000
-148437160.22112,-106950659.81482,-58878600.94079,  -0.00047,  -0.00020,  -0.00077,167321997.62400,   0.00000,274640135.82653,   0.00000,   0.00000,   0.00000,-307318138.20253,   0.00000
-147379625.28470,-106588992.02271,-59043411.58024,  -0.00046,  -0.00020,  -0.00077,166827140.53413,   0.00000,274640135.82653,   0.00000,   0.00000,   0.00000,-307812995.29240,   0.00000
-146299199.98169,-106204433.86401,-59203644.14636,  -0.00046,  -0.00020,  -0.00077,166314245.99075,   0.00000,274640135.82653,   0.00000,   0.00000,   0.00000,-308325889.83578,   0.00000
-145202751.42206,-105813008.59533,-59363876.71249,  -0.00045,  -0.00020,  -0.00077,165795360.00519,   0.00000,274640135.82653,   0.00000,   0.00000,   0.00000,-308844775.82134,   0.00000
-144090279.60583,-105414716.21668,-59519531.20529,  -0.00045,  -0.00020,  -0.00077,165265722.16401,   0.00000,274640135.82653,   0.00000,   0.00000,   0.00000,-309374413.66252,   0.00000
-142977807.78959,-105016423.83803,-59675185.69810,  -0.00045,  -0.00020,  -0.00078,164740608.52774,   0.00000,274640135.82653,   0.00000,   0.00000,   0.00000,-309899527.29879,   0.00000
-141849312.71674,-104611264.34940,-59826262.11759,  -0.00044,  -0.00020,  -0.00078,164204911.96516,   0.00000,274640135.82653,   0.00000,   0.00000,   0.00000,-310435223.86136,   0.00000
-140704794.38728,-104199237.75079,-59972760.46376,  -0.00044,  -0.00020,  -0.00078,163658742.45303,   0.00000,274640135.82653,   0.00000,   0.00000,   0.00000,-310981393.37350,   0.00000
-139560276.05782,-103787211.15219,-60119258.80993,  -0.00043,  -0.00020,  -0.00078,163117319.28885,   0.00000,274640135.82653,   0.00000,   0.00000,   0.00000,-311522816.53768,   0.00000
-138376844.10516,-103345427.07701,-60265757.15610,  -0.00043,  -0.00020,  -0.00078,162553679.40287,   0.00000,274640135.82653,   0.00000,   0.00000,   0.00000,-312086456.42366,   0.00000
-137200279.26247,-102919666.25846,-60403099.35564,  -0.00042,  -0.00020,  -0.00079,161991884.41244,   0.00000,274640135.82653,   0.00000,   0.00000,   0.00000,-312648251.41409,   0.00000
-136000824.05320,-102471015.07331,-60540441.55517,  -0.00042,  -0.00020,  -0.00079,161418170.51637,   0.00000,274640135.82653,   0.00000,   0.00000,   0.00000,-313221965.31016,   0.00000
-134785345.58731,-102015496.77818,-60677783.75471,  -0.00041,  -0.00020,  -0.00079,160839787.68834,   0.00000,274640135.82653,   0.00000,   0.00000,   0.00000,-313800348.13819,   0.00000
-133576734.23140,-101576001.73967,-60810547.88092,  -0.00041,  -0.00020,  -0.00079,160268542.35754,   0.00000,274640135.82653,   0.00000,   0.00000,   0.00000,-314371593.46899,   0.00000
-132329209.25229,-101106749.22459,-60938733.93382,  -0.00040,  -0.00020,  -0.00079,159670930.55880,   0.00000,274640135.82653,   0.00000,   0.00000,   0.00000,-314969205.26773,   0.00000
-131081684.27317,-100637496.70951,-61062341.91341,  -0.00040,  -0.00020,  -0.00079,159073599.08539,   0.00000,274640135.82653,   0.00000,   0.00000,   0.00000,-315566536.74114,   0.00000
-129818136.03745,-100161377.08445,-61190527.96631,  -0.00040,  -0.00020,  -0.00080,158477533.94734,   0.00000,274640135.82653,   0.00000,   0.00000,   0.00000,-316162601.87919,   0.00000
-128554587.80172,-99685257.45940,-61309557.87257,  -0.00039,  -0.00020,  -0.00080,157876600.78874,   0.00000,274640135.82653,   0.00000,   0.00000,   0.00000,-316763535.03779,   0.00000
-127252125.94280,-99179380.35778,-61428587.77883,  -0.00039,  -0.00020,  -0.00080,157255461.69975,   0.00000,274640135.82653,   0.00000,   0.00000,   0.00000,-317384674.12677,   0.00000
-125956531.19385,-98689526.51277,-61543039.61178,  -0.00038,  -0.00020,  -0.00080,156642003.12483,   0.00000,274640135.82653,   0.00000,   0.00000,   0.00000,-317998132.70170,   0.00000
-124638046.07831,-98176782.30117,-61652913.37141,  -0.00038,  -0.00020,  -0.00080,156012839.14634,   0.00000,274640135.82653,   0.00000,   0.00000,   0.00000,-318627296.68018,   0.00000
-123326428.07275,-97680061.34618,-61762787.13104,  -0.00037,  -0.00020,  -0.00080,155396894.46255,   0.00000,274640135.82653,   0.00000,   0.00000,   0.00000,-319243241.36398,   0.00000
-121975896.44398,-97153582.91463,-61872660.89066,  -0.00037,  -0.00020,  -0.00080,154761820.59791,   0.00000,274640135.82653,   0.00000,   0.00000,   0.00000,-319878315.22862,   0.00000
-120625364.81522,-96627104.48308,-61973378.50366,  -0.00036,  -0.00020,  -0.00081,154122338.28278,   0.00000,274640135.82653,   0.00000,   0.00000,   0.00000,-320517797.54375,   0.00000
-119258809.92984,-96093758.94155,-62074096.11665,  -0.00036,  -0.00020,  -0.00081,153480380.33065,   0.00000,274640135.82653,   0.00000,   0.00000,   0.00000,-321159755.49588,   0.00000
-117876231.78785,-95553546.29004,-62174813.72964,  -0.00035,  -0.00020,  -0.00081,152836241.26959,   0.00000,274640135.82653,   0.00000,   0.00000,   0.00000,-321803894.55694,   0.00000
-116493653.64586,-95013333.63854,-62270953.26932,  -0.00034,  -0.00021,  -0.00081,152193526.11544,   0.00000,274640135.82653,   0.00000,   0.00000,   0.00000,-322446609.71109,   0.00000
-115072161.88067,-94443363.51047,-62362514.73567,  -0.00034,  -0.00021,  -0.00081,151527552.17815,   0.00000,274640135.82653,   0.00000,   0.00000,   0.00000,-323112583.64838,   0.00000
-113657537.22546,-93889416.63901,-62454076.20203,  -0.00033,  -0.00021,  -0.00081,150875953.55454,   0.00000,274640135.82653,   0.00000,   0.00000,   0.00000,-323764182.27199,   0.00000
-112236045.46027,-93319446.51094,-62541059.59507,  -0.00033,  -0.00021,  -0.00081,150219159.10616,   0.00000,274640135.82653,   0.00000,   0.00000,   0.00000,-324420976.72037,   0.00000
-110782507.18185,-92735742.16291,-62623464.91479,  -0.00032,  -0.00021,  -0.00081,149546911.78232,   0.00000,274640135.82653,   0.00000,   0.00000,   0.00000,-325093224.04421,   0.00000
-109335836.01341,-92168061.07150,-62705870.23451,  -0.00032,  -0.00021,  -0.00082,148889499.27059,   0.00000,274640135.82653,   0.00000,   0.00000,   0.00000,-325750636.55594,   0.00000
-107866274.47839,-91577489.61350,-62783697.48092,  -0.00031,  -0.00021,  -0.00082,148218842.09233,   0.00000,274640135.82653,   0.00000,   0.00000,   0.00000,-326421293.73420,   0.00000
-106380689.68675,-90980051.04552,-62856946.65400,  -0.00031,  -0.00021,  -0.00082,147542154.91346,   0.00000,274640135.82653,   0.00000,   0.00000,   0.00000,-327097980.91307,   0.00000
-104888237.78513,-90366589.22093,-62930195.82709,  -0.00030,  -0.00021,  -0.00082,146866943.91715,   0.00000,274640135.82653,   0.00000,   0.00000,   0.00000,-327773191.90938,   0.00000
-103386629.73688,-89762283.54297,-62998866.92685,  -0.00030,  -0.00021,  -0.00082,146193072.62797,   0.00000,274640135.82653,   0.00000,   0.00000,   0.00000,-328447063.19856,   0.00000
-101862131.32203,-89135087.49843,-63067538.02662,  -0.00029,  -0.00021,  -0.00082,145512922.76245,   0.00000,274640135.82653,   0.00000,   0.00000,   0.00000,-329127213.06408,   0.00000
-100328476.76056,-88517047.60052,-63131631.05307,  -0.00028,  -0.00021,  -0.00082,144834729.71000,   0.00000,274640135.82653,   0.00000,   0.00000,   0.00000,-329805406.11653,   0.00000
-98787955.08910,-87882984.44600,-63191146.00620,  -0.00028,  -0.00021,  -0.00082,144152910.15448,   0.00000,274640135.82653,   0.00000,   0.00000,   0.00000,-330487225.67205,   0.00000
-97231410.16103,-87242054.18150,-63250660.95934,  -0.00027,  -0.00021,  -0.00082,143472622.89955,   0.00000,274640135.82653,   0.00000,   0.00000,   0.00000,-331167512.92698,   0.00000
-95658841.97635,-86594256.80702,-63305597.83915,  -0.00027,  -0.00021,  -0.00082,142788196.94068,   0.00000,274640135.82653,   0.00000,   0.00000,   0.00000,-331851938.88585,   0.00000
-94070250.53506,-85939592.32257,-63355956.64565,  -0.00026,  -0.00021,  -0.00082,142099958.87082,   0.00000,274640135.82653,   0.00000,   0.00000,   0.00000,-332540176.95571,   0.00000
-92474791.98379,-85268904.58151,-63406315.45214,  -0.00025,  -0.00021,  -0.00082,141415103.66564,   0.00000,274640135.82653,   0.00000,   0.00000,   0.00000,-333225032.16089,   0.00000
-90870177.28589,-84607372.98708,-63452096.18532,  -0.00025,  -0.00021,  -0.00082,140733845.36652,   0.00000,274640135.82653,   0.00000,   0.00000,   0.00000,-333906290.46001,   0.00000
-89258695.47801,-83929818.13604,-63493298.84518,  -0.00024,  -0.00021,  -0.00083,140050205.30862,   0.00000,274640135.82653,   0.00000,   0.00000,   0.00000,-334589930.51791,   0.00000
-87622034.26688,-83254552.32166,-63534501.50504,  -0.00024,  -0.00021,  -0.00083,139369676.68552,   0.00000,274640135.82653,   0.00000,   0.00000,   0.00000,-335270459.14101,   0.00000
-85978505.94577,-82563263.25066,-63575704.16490,  -0.00023,  -0.00021,  -0.00083,138693692.65816,   0.00000,274640135.82653,   0.00000,   0.00000,   0.00000,-335946443.16837,   0.00000
-84318954.36805,-81865107.06969,-63607750.67813,  -0.00022,  -0.00021,  -0.00083,138009562.83135,   0.00000,274640135.82653,   0.00000,   0.00000,   0.00000,-336630572.99518,   0.00000
-82652535.68036,-81150927.63211,-63639797.19135,  -0.00022,  -0.00021,  -0.00083,137330463.21922,   0.00000,274640135.82653,   0.00000,   0.00000,   0.00000,-337309672.60731,   0.00000
-80976960.84603,-80445904.34116,-63671843.70458,  -0.00021,  -0.00021,  -0.00083,136663301.25271,   0.00000,274640135.82653,   0.00000,   0.00000,   0.00000,-337976834.57382,   0.00000
-79285362.75508,-79734013.94023,-63694734.07117,  -0.00021,  -0.00021,  -0.00083,135988966.28861,   0.00000,274640135.82653,   0.00000,   0.00000,   0.00000,-338651169.53791,   0.00000
-77570874.29755,-78999233.17272,-63717624.43776,  -0.00020,  -0.00021,  -0.00083,135314030.26698,   0.00000,274640135.82653,   0.00000,   0.00000,   0.00000,-339326105.55955,   0.00000
-75856385.84002,-78264452.40521,-63740514.80434,  -0.00019,  -0.00021,  -0.00083,134652207.43218,   0.00000,274640135.82653,   0.00000,   0.00000,   0.00000,-339987928.39435,   0.00000
-74125874.12587,-77522804.52771,-63758827.09762,  -0.00019,  -0.00021,  -0.00083,133990853.73656,   0.00000,274640135.82653,   0.00000,   0.00000,   0.00000,-340649282.08997,   0.00000
-72379339.15512,-76774289.54025,-63772561.31757,  -0.00018,  -0.00021,  -0.00083,133330441.61377,   0.00000,274640135.82653,   0.00000,   0.00000,   0.00000,-341309694.21276,   0.00000
-70632804.18436,-76025774.55278,-63781717.46421,  -0.00017,  -0.00021,  -0.00083,132677504.59063,   0.00000,274640135.82653,   0.00000,   0.00000,   0.00000,-341962631.23590,   0.00000
-68863378.84701,-75254369.19872,-63790873.61084,  -0.00017,  -0.00021,  -0.00083,132026291.17643,   0.00000,274640135.82653,   0.00000,   0.00000,   0.00000,-342613844.65010,   0.00000
-67100820.61964,-74498987.10128,-63800029.75748,  -0.00016,  -0.00021,  -0.00083,131396375.24788,   0.00000,274640135.82653,   0.00000,   0.00000,   0.00000,-343243760.57865,   0.00000
-65299348.76907,-73713847.52727,-63800029.75748,  -0.00015,  -0.00021,  -0.00083,130750148.83093,   0.00000,274640135.82653,   0.00000,   0.00000,   0.00000,-343889986.99560,   0.00000
-63497876.91850,-72928707.95326,-63804607.83079,  -0.00015,  -0.00021,  -0.00083,130126256.52332,   0.00000,274640135.82653,   0.00000,   0.00000,   0.00000,-344513879.30321,   0.00000
-61696405.06793,-72143568.37925,-63800029.75748,  -0.00014,  -0.00021,  -0.00083,129504723.58254,   0.00000,274640135.82653,   0.00000,   0.00000,   0.00000,-345135412.24399,   0.00000
-59862886.70413,-71344694.58528,-63795451.68416,  -0.00013,  -0.00021,  -0.00083,128888751.44045,   0.00000,274640135.82653,   0.00000,   0.00000,   0.00000,-345751384.38608,   0.00000
-58022501.23036,-70529797.53471,-63786295.53752,  -0.00013,  -0.00021,  -0.00083,128276350.97819,   0.00000,274640135.82653,   0.00000,   0.00000,   0.00000,-346363784.84834,   0.00000
-56188982.86656,-69730923.74074,-63777139.39089,  -0.00012,  -0.00021,  -0.00083,127687369.65194,   0.00000,274640135.82653,   0.00000,   0.00000,   0.00000,-346952766.17459,   0.00000
-54332574.13617,-68909159.58019,-63763405.17093,  -0.00011,  -0.00021,  -0.00083,127097617.52974,   0.00000,274640135.82653,   0.00000,   0.00000,   0.00000,-347542518.29679,   0.00000
-52460142.14918,-68080528.30966,-63745092.87766,  -0.00011,  -0.00021,  -0.00083,126514114.84283,   0.00000,274640135.82653,   0.00000,   0.00000,   0.00000,-348126020.98370,   0.00000
-50571686.90557,-67245029.92915,-63726780.58439,  -0.00010,  -0.00021,  -0.00083,125944442.74389,   0.00000,274640135.82653,   0.00000,   0.00000,   0.00000,-348695693.08264,   0.00000
-48683231.66196,-66409531.54865,-63703890.21780,  -0.00009,  -0.00021,  -0.00083,125386638.85464,   0.00000,274640135.82653,   0.00000,   0.00000,   0.00000,-349253496.97189,   0.00000
-46778753.16173,-65567166.05816,-63676421.77789,  -0.00008,  -0.00021,  -0.00083,124836752.62928,   0.00000,274640135.82653,   0.00000,   0.00000,   0.00000,-349803383.19725,   0.00000
-44867407.55153,-64708777.31107,-63648953.33799,  -0.00008,  -0.00021,  -0.00083,124300292.92313,   0.00000,274640135.82653,   0.00000,   0.00000,   0.00000,-350339842.90340,   0.00000
-42940038.68472,-63843521.45400,-63616906.82476,  -0.00007,  -0.00021,  -0.00083,123772902.42513,   0.00000,274640135.82653,   0.00000,   0.00000,   0.00000,-350867233.40140,   0.00000
-40996646.56129,-62971398.48695,-63584860.31154,  -0.00006,  -0.00021,  -0.00083,123262359.50990,   0.00000,274640135.82653,   0.00000,   0.00000,   0.00000,-351377776.31663,   0.00000
-39053254.43787,-62099275.51990,-63548235.72500,  -0.00006,  -0.00021,  -0.00083,122765763.49405,   0.00000,274640135.82653,   0.00000,   0.00000,   0.00000,-351874372.33248,   0.00000
-37093839.05783,-61220285.44287,-63507033.06513,  -0.00005,  -0.00021,  -0.00083,122280049.79011,   0.00000,274640135.82653,   0.00000,   0.00000,   0.00000,-352360086.03642,   0.00000
-35118400.42118,-60334428.25587,-63465830.40527,  -0.00004,  -0.00021,  -0.00083,121813100.92730,   0.00000,274640135.82653,   0.00000,   0.00000,   0.00000,-352827034.89923,   0.00000
-33136094.67456,-59432547.81225,-63424627.74541,  -0.00003,  -0.00021,  -0.00082,121362746.31291,   0.00000,274640135.82653,   0.00000,   0.00000,   0.00000,-353277389.51362,   0.00000
-31137765.67132,-58523800.25866,-63374268.93892,  -0.00003,  -0.00021,  -0.00082,120918109.31244,   0.00000,274640135.82653,   0.00000,   0.00000,   0.00000,-353722026.51409,   0.00000
-29139436.66808,-57615052.70507,-63323910.13242,  -0.00002,  -0.00021,  -0.00082,120496820.17170,   0.00000,274640135.82653,   0.00000,   0.00000,   0.00000,-354143315.65483,   0.00000
-27125084.40823,-56699438.04150,-63268973.25261,  -0.00001,  -0.00021,  -0.00082,120089584.74788,   0.00000,274640135.82653,   0.00000,   0.00000,   0.00000,-354550551.07865,   0.00000
-25094708.89176,-55776956.26795,-63214036.37279,  -0.00001,  -0.00020,  -0.00082,119704427.52083,   0.00000,274640135.82653,   0.00000,   0.00000,   0.00000,-354935708.30570,   0.00000
-23057466.26532,-54838451.23780,-63154521.41966,   0.00000,  -0.00020,  -0.00082,119331251.03056,   0.00000,274640135.82653,   0.00000,   0.00000,   0.00000,-355308884.79597,   0.00000
-21027090.74886,-53915969.46425,-63095006.46653,   0.00001,  -0.00020,  -0.00082,118988713.11569,   0.00000,274640135.82653,   0.00000,   0.00000,   0.00000,-355651422.71084,   0.00000
-18957801.60919,-52963730.21414,-63030913.44008,   0.00002,  -0.00020,  -0.00082,118655666.60484,   0.00000,274640135.82653,   0.00000,   0.00000,   0.00000,-355984469.22169,   0.00000
-16888512.46953,-52011490.96403,-62962242.34031,   0.00002,  -0.00020,  -0.00082,118341675.72580,   0.00000,274640135.82653,   0.00000,   0.00000,   0.00000,-356298460.10073,   0.00000
-14819223.32986,-51059251.71392,-62893571.24054,   0.00003,  -0.00020,  -0.00082,118054233.39148,   0.00000,274640135.82653,   0.00000,   0.00000,   0.00000,-356585902.43505,   0.00000
-12727043.82361,-50084122.09722,-62820322.06746,   0.00004,  -0.00020,  -0.00082,117780103.19199,   0.00000,274640135.82653,   0.00000,   0.00000,   0.00000,-356860032.63454,   0.00000
-10625708.17072,-49118148.62715,-62747072.89437,   0.00005,  -0.00020,  -0.00082,117537945.17485,   0.00000,274640135.82653,   0.00000,   0.00000,   0.00000,-357102190.65168,   0.00000
-8517505.40785,-48136151.90047,-62669245.64797,   0.00006,  -0.00020,  -0.00081,117311295.85121,   0.00000,274640135.82653,   0.00000,   0.00000,   0.00000,-357328839.97532,   0.00000
-6409302.64498,-47154155.17380,-62591418.40157,   0.00006,  -0.00020,  -0.00081,117112873.89366,   0.00000,274640135.82653,   0.00000,   0.00000,   0.00000,-357527261.93287,   0.00000
-4269053.36889,-46158424.22716,-62504435.00853,   0.00007,  -0.00020,  -0.00081,116928120.46106,   0.00000,274640135.82653,   0.00000,   0.00000,   0.00000,-357712015.36547,   0.00000
-2144827.34941,-45169560.39051,-62422029.68881,   0.00008,  -0.00020,  -0.00081,116779869.55445,   0.00000,274640135.82653,   0.00000,   0.00000,   0.00000,-357860266.27208,   0.00000
18312.29327,-44150939.07729,-62330468.22245,   0.00009,  -0.00020,  -0.00081,116642085.32164,   0.00000,274640135.82653,   0.00000,   0.00000,   0.00000,-357998050.50489,   0.00000
2181451.93595,-43132317.76407,-62238906.75609,   0.00009,  -0.00020,  -0.00081,116534506.43015,   0.00000,274640135.82653,   0.00000,   0.00000,   0.00000,-358105629.39638,   0.00000
4337724.46866,-42129719.70746,-62147345.28973,   0.00010,  -0.00020,  -0.00081,116461812.76244,   0.00000,274640135.82653,   0.00000,   0.00000,   0.00000,-358178323.06409,   0.00000
6516887.36795,-41104231.28426,-62051205.75006,   0.00011,  -0.00020,  -0.00081,116408572.28388,   0.00000,274640135.82653,   0.00000,   0.00000,   0.00000,-358231563.54265,   0.00000
8702917.37722,-40062719.60445,-61950488.13707,   0.00012,  -0.00020,  -0.00081,116374454.89826,   0.00000,274640135.82653,   0.00000,   0.00000,   0.00000,-358265680.92827,   0.00000
10898103.53313,-39030364.07128,-61849770.52407,   0.00013,  -0.00020,  -0.00080,116377305.65012,   0.00000,274640135.82653,   0.00000,   0.00000,   0.00000,-358262830.17641,   0.00000
13116180.05562,-37975118.17152,-61744474.83776,   0.00013,  -0.00020,  -0.00080,116401773.12197,   0.00000,274640135.82653,   0.00000,   0.00000,   0.00000,-358238362.70456,   0.00000
15334256.57812,-36919872.27175,-61639179.15145,   0.00014,  -0.00020,  -0.00080,116458234.60369,   0.00000,274640135.82653,   0.00000,   0.00000,   0.00000,-358181901.22284,   0.00000
17552333.10061,-35864626.37199,-61529305.39183,   0.00015,  -0.00020,  -0.00080,116539392.29586,   0.00000,274640135.82653,   0.00000,   0.00000,   0.00000,-358100743.53066,   0.00000
19786432.87972,-34802513.36225,-61419431.63220,   0.00016,  -0.00020,  -0.00080,116654940.75772,   0.00000,274640135.82653,   0.00000,   0.00000,   0.00000,-357985195.06881,   0.00000
22036555.91544,-33733533.24254,-61304979.79925,   0.00017,  -0.00020,  -0.00080,116798260.25127,   0.00000,274640135.82653,   0.00000,   0.00000,   0.00000,-357841875.57526,   0.00000
24293546.06114,-32648529.86621,-61185949.89299,   0.00017,  -0.00020,  -0.00080,116963296.97689,   0.00000,274640135.82653,   0.00000,   0.00000,   0.00000,-357676838.84964,   0.00000
26543669.09686,-31579549.74649,-61066919.98672,   0.00018,  -0.00020,  -0.00079,117164745.55090,   0.00000,274640135.82653,   0.00000,   0.00000,   0.00000,-357475390.27563,   0.00000
28816682.49917,-30487679.26018,-60947890.08046,   0.00019,  -0.00019,  -0.00079,117398421.90629,   0.00000,274640135.82653,   0.00000,   0.00000,   0.00000,-357241713.92024,   0.00000
31112586.26807,-29372918.40729,-60819704.02756,   0.00020,  -0.00019,  -0.00079,117650915.89929,   0.00000,274640135.82653,   0.00000,   0.00000,   0.00000,-356989219.92724,   0.00000
33385599.67038,-28281047.92098,-60696096.04798,   0.00021,  -0.00019,  -0.00079,117943392.80945,   0.00000,274640135.82653,   0.00000,   0.00000,   0.00000,-356696743.01708,   0.00000
35690659.58591,-27175443.21472,-60563331.92176,   0.00022,  -0.00019,  -0.00079,118262373.17449,   0.00000,274640135.82653,   0.00000,   0.00000,   0.00000,-356377762.65204,   0.00000
38002586.61142,-26053815.25185,-60435145.86886,   0.00022,  -0.00019,  -0.00079,118618425.28703,   0.00000,274640135.82653,   0.00000,   0.00000,   0.00000,-356021710.53950,   0.00000
40314513.63694,-24932187.28898,-60297803.66933,   0.00023,  -0.00019,  -0.00078,118993606.37988,   0.00000,274640135.82653,   0.00000,   0.00000,   0.00000,-355646529.44665,   0.00000
42642463.91906,-23803692.21613,-60160461.46979,   0.00024,  -0.00019,  -0.00078,119406394.09784,   0.00000,274640135.82653,   0.00000,   0.00000,   0.00000,-355233741.72868,   0.00000
44977281.31116,-22659173.88667,-60023119.27026,   0.00025,  -0.00019,  -0.00078,119849349.49487,   0.00000,274640135.82653,   0.00000,   0.00000,   0.00000,-354790786.33166,   0.00000
47321254.84990,-21523811.70384,-59881198.99740,   0.00026,  -0.00019,  -0.00078,120326154.22222,   0.00000,274640135.82653,   0.00000,   0.00000,   0.00000,-354313981.60431,   0.00000
49672095.49861,-20372426.26441,-59739278.72455,   0.00027,  -0.00019,  -0.00078,120833100.57122,   0.00000,274640135.82653,   0.00000,   0.00000,   0.00000,-353807035.25531,   0.00000
52022936.14732,-19221040.82497,-59592780.37838,   0.00027,  -0.00019,  -0.00077,121365842.37331,   0.00000,274640135.82653,   0.00000,   0.00000,   0.00000,-353274293.45322,   0.00000
54389800.05265,-18062788.27555,-59441703.95889,   0.00028,  -0.00019,  -0.00077,121929875.83592,   0.00000,274640135.82653,   0.00000,   0.00000,   0.00000,-352710259.99061,   0.00000
56772687.21459,-16897668.61616,-59290627.53940,   0.00029,  -0.00019,  -0.00077,122532162.37085,   0.00000,274640135.82653,   0.00000,   0.00000,   0.00000,-352107973.45568,   0.00000
59146418.22989,-15723392.81014,-59139551.11991,   0.00030,  -0.00019,  -0.00077,123158295.53068,   0.00000,274640135.82653,   0.00000,   0.00000,   0.00000,-351481840.29585,   0.00000
61545328.64844,-14551406.04077,-58983896.62710,   0.00031,  -0.00019,  -0.00077,123824238.93259,   0.00000,274640135.82653,   0.00000,   0.00000,   0.00000,-350815896.89394,   0.00000
63935082.92035,-13370263.12476,-58823664.06098,   0.00032,  -0.00019,  -0.00076,124506859.27403,   0.00000,274640135.82653,   0.00000,   0.00000,   0.00000,-350133276.55250,   0.00000
66340860.44888,-12182253.09878,-58663431.49486,   0.00033,  -0.00018,  -0.00076,125227364.39251,   0.00000,274640135.82653,   0.00000,   0.00000,   0.00000,-349412771.43402,   0.00000
68762661.23402,-10987375.96283,-58498620.85541,   0.00033,  -0.00018,  -0.00076,125979415.57124,   0.00000,274640135.82653,   0.00000,   0.00000,   0.00000,-348660720.25529,   0.00000
71191329.12914,-9776475.57026,-58333810.21597,   0.00034,  -0.00018,  -0.00076,126760740.57346,   0.00000,274640135.82653,   0.00000,   0.00000,   0.00000,-347879395.25307,   0.00000
73619997.02425,-8565575.17769,-58168999.57653,   0.00035,  -0.00018,  -0.00076,127572599.70021,   0.00000,274640135.82653,   0.00000,   0.00000,   0.00000,-347067536.12632,   0.00000
76048664.91937,-7354674.78512,-57999610.86377,   0.00036,  -0.00018,  -0.00075,128408210.23822,   0.00000,274640135.82653,   0.00000,   0.00000,   0.00000,-346231925.58831,   0.00000
78493356.07110,-6136907.28257,-57825644.07769,   0.00037,  -0.00018,  -0.00075,129274863.62710,   0.00000,274640135.82653,   0.00000,   0.00000,   0.00000,-345365272.19943,   0.00000
80954070.47944,-4912272.67005,-57651677.29161,   0.00038,  -0.00018,  -0.00075,130178754.41687,   0.00000,274640135.82653,   0.00000,   0.00000,   0.00000,-344461381.40966,   0.00000
83414784.88778,-3687638.05752,-57477710.50553,   0.00039,  -0.00018,  -0.00075,131111746.85170,   0.00000,274640135.82653,   0.00000,   0.00000,   0.00000,-343528388.97483,   0.00000
85882366.40610,-2446980.18839,-57299165.64614,   0.00040,  -0.00018,  -0.00074,132066287.03765,   0.00000,274640135.82653,   0.00000,   0.00000,   0.00000,-342573848.78888,   0.00000
88349947.92442,-1206322.31925,-57116042.71342,   0.00040,  -0.00018,  -0.00074,133043128.46440,   0.00000,274640135.82653,   0.00000,   0.00000,   0.00000,-341597007.36213,   0.00000
90833552.69935,41202.65986,-56937497.85403,   0.00041,  -0.00018,  -0.00074,134062035.62269,   0.00000,274640135.82653,   0.00000,   0.00000,   0.00000,-340578100.20383,   0.00000
93317157.47428,1288727.63897,-56749796.84800,   0.00042,  -0.00018,  -0.00074,135096671.40550,   0.00000,274640135.82653,   0.00000,   0.00000,   0.00000,-339543464.42103,   0.00000
95823652.61580,2559142.98467,-56562095.84196,   0.00043,  -0.00018,  -0.00074,136166468.86513,   0.00000,274640135.82653,   0.00000,   0.00000,   0.00000,-338473666.96140,   0.00000
98323280.64734,3813535.07376,-56374394.83593,   0.00044,  -0.00017,  -0.00073,137263500.12677,   0.00000,274640135.82653,   0.00000,   0.00000,   0.00000,-337376635.69976,   0.00000
100829775.78886,5083950.41947,-56182115.75658,   0.00045,  -0.00017,  -0.00073,138380515.42483,   0.00000,274640135.82653,   0.00000,   0.00000,   0.00000,-336259620.40170,   0.00000
103336270.93038,6354365.76517,-55989836.67723,   0.00046,  -0.00017,  -0.00073,139523158.74149,   0.00000,274640135.82653,   0.00000,   0.00000,   0.00000,-335116977.08503,   0.00000
105865656.43849,7647671.47746,-55792979.52457,   0.00047,  -0.00017,  -0.00073,140694591.30926,   0.00000,274640135.82653,   0.00000,   0.00000,   0.00000,-333945544.51727,   0.00000
108388174.83662,8924953.93314,-55596122.37190,   0.00048,  -0.00017,  -0.00072,141891078.81816,   0.00000,274640135.82653,   0.00000,   0.00000,   0.00000,-332749057.00837,   0.00000
110933583.60134,10225126.75540,-55399265.21923,   0.00048,  -0.00017,  -0.00072,143121413.47310,   0.00000,274640135.82653,   0.00000,   0.00000,   0.00000,-331518722.35343,   0.00000
113472125.25609,11509276.32106,-55197829.99325,   0.00049,  -0.00017,  -0.00072,144370377.55422,   0.00000,274640135.82653,   0.00000,   0.00000,   0.00000,-330269758.27231,   0.00000
116024401.13078,12825472.39994,-54991816.69394,   0.00050,  -0.00017,  -0.00071,145637860.30946,   0.00000,274640135.82653,   0.00000,   0.00000,   0.00000,-329002275.51707,   0.00000
118569809.89551,14125645.22221,-54790381.46796,   0.00051,  -0.00017,  -0.00071,146933373.70102,   0.00000,274640135.82653,   0.00000,   0.00000,   0.00000,-327706762.12550,   0.00000
121131241.91684,15432685.15445,-54579790.09534,   0.00052,  -0.00017,  -0.00071,148251224.88895,   0.00000,274640135.82653,   0.00000,   0.00000,   0.00000,-326388910.93757,   0.00000
123699541.04815,16755748.34331,-54373776.79604,   0.00053,  -0.00016,  -0.00071,149596711.15127,   0.00000,274640135.82653,   0.00000,   0.00000,   0.00000,-325043424.67526,   0.00000
126267840.17946,18078811.53217,-54163185.42341,   0.00054,  -0.00016,  -0.00070,150958902.91883,   0.00000,274640135.82653,   0.00000,   0.00000,   0.00000,-323681232.90770,   0.00000
128852162.56738,19408741.83100,-53948015.97748,   0.00055,  -0.00016,  -0.00070,152347910.99269,   0.00000,274640135.82653,   0.00000,   0.00000,   0.00000,-322292224.83384,   0.00000
131436484.95531,20738672.12983,-53732846.53154,   0.00056,  -0.00016,  -0.00070,153757862.63107,   0.00000,274640135.82653,   0.00000,   0.00000,   0.00000,-320882273.19546,   0.00000
134020807.34323,22068602.42867,-53517677.08560,   0.00057,  -0.00016,  -0.00070,155188186.99107,   0.00000,274640135.82653,   0.00000,   0.00000,   0.00000,-319451948.83546,   0.00000
136611996.84113,23414555.98411,-53297929.56634,   0.00058,  -0.00016,  -0.00069,156634535.63277,   0.00000,274640135.82653,   0.00000,   0.00000,   0.00000,-318005600.19376,   0.00000
139219209.59564,24767376.64954,-53078182.04709,   0.00059,  -0.00016,  -0.00069,158111343.34354,   0.00000,274640135.82653,   0.00000,   0.00000,   0.00000,-316528792.48299,   0.00000
141826422.35015,26120197.31496,-52853856.45451,   0.00059,  -0.00016,  -0.00069,159602804.09347,   0.00000,274640135.82653,   0.00000,   0.00000,   0.00000,-315037331.73306,   0.00000
144433635.10467,27473017.98038,-52629530.86194,   0.00060,  -0.00016,  -0.00068,161113054.61861,   0.00000,274640135.82653,   0.00000,   0.00000,   0.00000,-313527081.20792,   0.00000
147047714.96916,28841861.90242,-52405205.26936,   0.00061,  -0.00016,  -0.00068,162642768.68467,   0.00000,274640135.82653,   0.00000,   0.00000,   0.00000,-311997367.14186,   0.00000
149670950.98028,30201549.67782,-52176301.60347,   0.00062,  -0.00015,  -0.00068,164196016.56549,   0.00000,274640135.82653,   0.00000,   0.00000,   0.00000,-310444119.26104,   0.00000
152301054.10138,31577260.70983,-51947397.93758,   0.00063,  -0.00015,  -0.00068,165768153.87777,   0.00000,274640135.82653,   0.00000,   0.00000,   0.00000,-308871981.94876,   0.00000
154931157.22248,32952971.74184,-51718494.27169,   0.00064,  -0.00015,  -0.00067,167357484.82881,   0.00000,274640135.82653,   0.00000,   0.00000,   0.00000,-307282650.99772,   0.00000
157561260.34358,34328682.77385,-51485012.53248,   0.00065,  -0.00015,  -0.00067,168959339.02768,   0.00000,274640135.82653,   0.00000,   0.00000,   0.00000,-305680796.79885,   0.00000
160198230.57466,35720417.06248,-51251530.79327,   0.00066,  -0.00015,  -0.00067,170579107.42975,   0.00000,274640135.82653,   0.00000,   0.00000,   0.00000,-304061028.39678,   0.00000
162844356.95238,37102995.20447,-51013470.98074,   0.00067,  -0.00015,  -0.00066,172220864.33938,   0.00000,274640135.82653,   0.00000,   0.00000,   0.00000,-302419271.48714,   0.00000
165497350.44007,38501596.60307,-50775411.16821,   0.00068,  -0.00015,  -0.00066,173880018.56467,   0.00000,274640135.82653,   0.00000,   0.00000,   0.00000,-300760117.26186,   0.00000
168150343.92776,39900198.00167,-50537351.35568,   0.00069,  -0.00015,  -0.00066,175554560.16000,   0.00000,274640135.82653,   0.00000,   0.00000,   0.00000,-299085575.66653,   0.00000
170819360.67206,41305666.51025,-50294713.46984,   0.00070,  -0.00015,  -0.00065,177252021.51144,   0.00000,274640135.82653,   0.00000,   0.00000,   0.00000,-297388114.31509,   0.00000
173479221.26973,42720291.16546,-50052075.58399,   0.00071,  -0.00014,  -0.00065,178954216.09062,   0.00000,274640135.82653,   0.00000,   0.00000,   0.00000,-295685919.73591,   0.00000
176148238.01403,44125759.67404,-49809437.69814,   0.00072,  -0.00014,  -0.00065,180680795.48215,   0.00000,274640135.82653,   0.00000,   0.00000,   0.00000,-293959340.34438,   0.00000
178824121.86831,45547251.43923,-49562221.73898,   0.00072,  -0.00014,  -0.00064,182419606.68913,   0.00000,274640135.82653,   0.00000,   0.00000,   0.00000,-292220529.13740,   0.00000
181500005.72259,46968743.20442,-49315005.77982,   0.00073,  -0.00014,  -0.00064,184172194.26479,   0.00000,274640135.82653,   0.00000,   0.00000,   0.00000,-290467941.56174,   0.00000
184175889.57687,48390234.96961,-49067789.82065,   0.00074,  -0.00014,  -0.00064,185938168.65597,   0.00000,274640135.82653,   0.00000,   0.00000,   0.00000,-288701967.17056,   0.00000
186851773.43115,49811726.73480,-48815995.78817,   0.00075,  -0.00014,  -0.00063,187713580.25187,   0.00000,274640135.82653,   0.00000,   0.00000,   0.00000,-286926555.57466,   0.00000
189550547.65202,51256108.86658,-48564201.75569,   0.00076,  -0.00014,  -0.00063,189516279.99107,   0.00000,274640135.82653,   0.00000,   0.00000,   0.00000,-285123855.83546,   0.00000
192249321.87289,52700490.99836,-48312407.72321,   0.00077,  -0.00014,  -0.00063,191331586.71608,   0.00000,274640135.82653,   0.00000,   0.00000,   0.00000,-283308549.11045,   0.00000
194941228.98378,54128849.87353,-48060613.69073,   0.00078,  -0.00013,  -0.00062,193156771.54452,   0.00000,274640135.82653,   0.00000,   0.00000,   0.00000,-281483364.28201,   0.00000
197646870.31463,55589255.26192,-47804241.58493,   0.00079,  -0.00013,  -0.00062,194995243.17437,   0.00000,274640135.82653,   0.00000,   0.00000,   0.00000,-279644892.65216,   0.00000
200345644.53550,57033637.39370,-47547869.47913,   0.00080,  -0.00013,  -0.00062,196843013.36565,   0.00000,274640135.82653,   0.00000,   0.00000,   0.00000,-277797122.46088,   0.00000
203044418.75637,58478019.52548,-47286919.30001,   0.00081,  -0.00013,  -0.00061,198698861.29975,   0.00000,274640135.82653,   0.00000,   0.00000,   0.00000,-275941274.52678,   0.00000
205750060.08721,59938424.91387,-47025969.12090,   0.00082,  -0.00013,  -0.00061,200568424.22167,   0.00000,274640135.82653,   0.00000,   0.00000,   0.00000,-274071711.60486,   0.00000
208471724.67467,61405697.41224,-46765018.94178,   0.00083,  -0.00013,  -0.00061,202461524.76214,   0.00000,274640135.82653,   0.00000,   0.00000,   0.00000,-272178611.06439,   0.00000
211193389.26213,62872969.91061,-46504068.76266,   0.00084,  -0.00013,  -0.00060,204365328.85853,   0.00000,274640135.82653,   0.00000,   0.00000,   0.00000,-270274806.96800,   0.00000
213915053.84959,64340242.40898,-46238540.51023,   0.00085,  -0.00012,  -0.00060,206276461.38775,   0.00000,274640135.82653,   0.00000,   0.00000,   0.00000,-268363674.43878,   0.00000
216627562.29041,65816671.05399,-45973012.25779,   0.00086,  -0.00012,  -0.00060,208187856.25532,   0.00000,274640135.82653,   0.00000,   0.00000,   0.00000,-266452279.57121,   0.00000
219349226.87787,67283943.55236,-45707484.00536,   0.00087,  -0.00012,  -0.00059,210119141.61892,   0.00000,274640135.82653,   0.00000,   0.00000,   0.00000,-264520994.20761,   0.00000
222077758.57530,68767239.30734,-45441955.75292,   0.00088,  -0.00012,  -0.00059,212062971.10752,   0.00000,274640135.82653,   0.00000,   0.00000,   0.00000,-262577164.71901,   0.00000
224822313.52935,70257402.17230,-45171849.42717,   0.00089,  -0.00012,  -0.00059,214026240.12902,   0.00000,274640135.82653,   0.00000,   0.00000,   0.00000,-260613895.69751,   0.00000
227550845.22679,71740697.92728,-44901743.10142,   0.00090,  -0.00012,  -0.00058,215986013.55792,   0.00000,274640135.82653,   0.00000,   0.00000,   0.00000,-258654122.26861,   0.00000
230279376.92422,73223993.68226,-44631636.77566,   0.00090,  -0.00012,  -0.00058,217954853.23837,   0.00000,274640135.82653,   0.00000,   0.00000,   0.00000,-256685282.58816,   0.00000
233030798.98825,74730179.80383,-44356952.37659,   0.00091,  -0.00011,  -0.00058,219945759.71091,   0.00000,274640135.82653,   0.00000,   0.00000,   0.00000,-254694376.11562,   0.00000
235766197.79566,76229498.81542,-44082267.97752,   0.00092,  -0.00011,  -0.00057,221932504.30529,   0.00000,274640135.82653,   0.00000,   0.00000,   0.00000,-252707631.52124,   0.00000
238517619.85968,77735684.93699,-43812161.65177,   0.00093,  -0.00011,  -0.00057,223943469.81464,   0.00000,274640135.82653,   0.00000,   0.00000,   0.00000,-250696666.01189,   0.00000
241269041.92371,79241871.05856,-43532899.17938,   0.00094,  -0.00011,  -0.00057,225957417.09886,   0.00000,274640135.82653,   0.00000,   0.00000,   0.00000,-248682718.72767,   0.00000
244004440.73112,80741190.07016,-43258214.78031,   0.00095,  -0.00011,  -0.00056,227969114.97252,   0.00000,274640135.82653,   0.00000,   0.00000,   0.00000,-246671020.85401,   0.00000
246755862.79514,82247376.19173,-42978952.30792,   0.00096,  -0.00011,  -0.00056,229999207.52870,   0.00000,274640135.82653,   0.00000,   0.00000,   0.00000,-244640928.29783,   0.00000
249514151.96914,83769585.56991,-42699689.83553,   0.00097,  -0.00011,  -0.00056,232040403.66131,   0.00000,274640135.82653,   0.00000,   0.00000,   0.00000,-242599732.16522,   0.00000
252272441.14314,85291794.94810,-42420427.36314,   0.00098,  -0.00010,  -0.00055,234089263.95238,   0.00000,274640135.82653,   0.00000,   0.00000,   0.00000,-240550871.87415,   0.00000
255030730.31715,86814004.32628,-42141164.89076,   0.00099,  -0.00010,  -0.00055,236145588.91333,   0.00000,274640135.82653,   0.00000,   0.00000,   0.00000,-238494546.91320,   0.00000
257789019.49115,88336213.70446,-41861902.41837,   0.00100,  -0.00010,  -0.00054,238209185.22943,   0.00000,274640135.82653,   0.00000,   0.00000,   0.00000,-236430950.59710,   0.00000
260547308.66515,89858423.08265,-41578061.87266,   0.00101,  -0.00010,  -0.00054,240277488.84100,   0.00000,274640135.82653,   0.00000,   0.00000,   0.00000,-234362646.98553,   0.00000
263312464.94913,91396655.71744,-41294221.32695,   0.00102,  -0.00010,  -0.00054,242356271.45558,   0.00000,274640135.82653,   0.00000,   0.00000,   0.00000,-232283864.37095,   0.00000
266077621.23310,92934888.35224,-41010380.78125,   0.00103,  -0.00010,  -0.00053,244441923.50587,   0.00000,274640135.82653,   0.00000,   0.00000,   0.00000,-230198212.32066,   0.00000
268835910.40711,94457097.73042,-40726540.23554,   0.00104,  -0.00009,  -0.00053,246530694.66493,   0.00000,274640135.82653,   0.00000,   0.00000,   0.00000,-228109441.16160,   0.00000
271601066.69108,95995330.36522,-40438121.61652,   0.00105,  -0.00009,  -0.00053,248627298.97323,   0.00000,274640135.82653,   0.00000,   0.00000,   0.00000,-226012836.85330,   0.00000
274373090.08504,97549586.25662,-40154281.07081,   0.00106,  -0.00009,  -0.00052,250736179.65672,   0.00000,274640135.82653,   0.00000,   0.00000,   0.00000,-223903956.16981,   0.00000
277138246.36902,99087818.89142,-39865862.45179,   0.00107,  -0.00009,  -0.00052,252845486.52513,   0.00000,274640135.82653,   0.00000,   0.00000,   0.00000,-221794649.30140,   0.00000
279910269.76297,100642074.78283,-39577443.83276,   0.00108,  -0.00009,  -0.00051,254964621.49563,   0.00000,274640135.82653,   0.00000,   0.00000,   0.00000,-219675514.33090,   0.00000
282675426.04695,102180307.41762,-39289025.21374,   0.00109,  -0.00009,  -0.00051,257086040.63355,   0.00000,274640135.82653,   0.00000,   0.00000,   0.00000,-217554095.19298,   0.00000
285447449.44090,103734563.30903,-38996028.52140,   0.00110,  -0.00008,  -0.00051,259214988.42298,   0.00000,274640135.82653,   0.00000,   0.00000,   0.00000,-215425147.40354,   0.00000
288219472.83486,105288819.20044,-38707609.90237,   0.00111,  -0.00008,  -0.00050,261351772.89916,   0.00000,274640135.82653,   0.00000,   0.00000,   0.00000,-213288362.92737,   0.00000
290998363.33879,106859098.34846,-38414613.21003,   0.00112,  -0.00008,  -0.00050,263495994.58563,   0.00000,274640135.82653,   0.00000,   0.00000,   0.00000,-211144141.24090,   0.00000
293770386.73274,108413354.23987,-38126194.59101,   0.00113,  -0.00008,  -0.00050,265643901.94126,   0.00000,274640135.82653,   0.00000,   0.00000,   0.00000,-208996233.88527,   0.00000
296549277.23667,109983633.38789,-37833197.89866,   0.00113,  -0.00008,  -0.00049,267799102.02141,   0.00000,274640135.82653,   0.00000,   0.00000,   0.00000,-206841033.80512,   0.00000
299328167.74061,111553912.53591,-37540201.20632,   0.00114,  -0.00008,  -0.00049,269959625.27975,   0.00000,274640135.82653,   0.00000,   0.00000,   0.00000,-204680510.54678,   0.00000
302100191.13456,113108168.42732,-37247204.51398,   0.00115,  -0.00007,  -0.00048,272121382.25444,   0.00000,274640135.82653,   0.00000,   0.00000,   0.00000,-202518753.57209,   0.00000
304885948.74847,114694470.83195,-36954207.82164,   0.00116,  -0.00007,  -0.00048,274296137.87847,   0.00000,274640135.82653,   0.00000,   0.00000,   0.00000,-200343997.94806,   0.00000
307664839.25240,116264749.97997,-36656633.05598,   0.00117,  -0.00007,  -0.00048,276470063.52914,   0.00000,274640135.82653,   0.00000,   0.00000,   0.00000,-198170072.29739,   0.00000
310443729.75633,117835029.12799,-36363636.36364,   0.00118,  -0.00007,  -0.00047,278650676.73512,   0.00000,274640135.82653,   0.00000,   0.00000,   0.00000,-195989459.09141,   0.00000
313229487.37024,119421331.53262,-36066061.59798,   0.00119,  -0.00007,  -0.00047,280838327.37677,   0.00000,274640135.82653,   0.00000,   0.00000,   0.00000,-193801808.44976,   0.00000
315999221.72754,121000766.82728,-35773064.90563,   0.00120,  -0.00007,  -0.00047,283018872.29931,   0.00000,274640135.82653,   0.00000,   0.00000,   0.00000,-191621263.52722,   0.00000
318784979.34144,122587069.23191,-35475490.13997,   0.00121,  -0.00006,  -0.00046,285215826.11416,   0.00000,274640135.82653,   0.00000,   0.00000,   0.00000,-189424309.71236,   0.00000
321554713.69874,124166504.52657,-35177915.37431,   0.00122,  -0.00006,  -0.00046,287403700.61024,   0.00000,274640135.82653,   0.00000,   0.00000,   0.00000,-187236435.21629,   0.00000
324340471.31265,125752806.93120,-34880340.60865,   0.00123,  -0.00006,  -0.00045,289609564.06231,   0.00000,274640135.82653,   0.00000,   0.00000,   0.00000,-185030571.76422,   0.00000
327117072.77992,127348265.48247,-34582765.84299,   0.00124,  -0.00006,  -0.00045,291810334.42516,   0.00000,274640135.82653,   0.00000,   0.00000,   0.00000,-182829801.40137,   0.00000
329902830.39383,128934567.88710,-34285191.07734,   0.00125,  -0.00006,  -0.00045,294024734.33057,   0.00000,274640135.82653,   0.00000,   0.00000,   0.00000,-180615401.49596,   0.00000
332679431.86110,130530026.43837,-33987616.31168,   0.00126,  -0.00005,  -0.00044,296233879.45464,   0.00000,274640135.82653,   0.00000,   0.00000,   0.00000,-178406256.37189,   0.00000
335456033.32837,132125484.98964,-33690041.54602,   0.00127,  -0.00005,  -0.00044,298447080.20361,   0.00000,274640135.82653,   0.00000,   0.00000,   0.00000,-176193055.62292,   0.00000
338232634.79565,133720943.54091,-33387888.70704,   0.00128,  -0.00005,  -0.00043,300662721.76313,   0.00000,274640135.82653,   0.00000,   0.00000,   0.00000,-173977414.06340,   0.00000
341009236.26292,135316402.09218,-33090313.94138,   0.00129,  -0.00005,  -0.00043,302883792.22188,   0.00000,274640135.82653,   0.00000,   0.00000,   0.00000,-171756343.60465,   0.00000
343792704.84017,136927883.90006,-32792739.17572,   0.00130,  -0.00005,  -0.00043,305113016.67508,   0.00000,274640135.82653,   0.00000,   0.00000,   0.00000,-169527119.15145,   0.00000
346569306.30744,138523342.45133,-32490586.33674,   0.00131,  -0.00005,  -0.00042,307340163.95369,   0.00000,274640135.82653,   0.00000,   0.00000,   0.00000,-167299971.87284,   0.00000
349352774.88469,140134824.25921,-32193011.57108,   0.00132,  -0.00004,  -0.00042,309576824.97065,   0.00000,274640135.82653,   0.00000,   0.00000,   0.00000,-165063310.85588,   0.00000
352120220.20533,141739438.95711,-31890858.73210,   0.00133,  -0.00004,  -0.00041,311801982.33491,   0.00000,274640135.82653,   0.00000,   0.00000,   0.00000,-162838153.49162,   0.00000
354903688.78258,143350920.76500,-31593283.96644,   0.00134,  -0.00004,  -0.00041,314045778.51187,   0.00000,274640135.82653,   0.00000,   0.00000,   0.00000,-160594357.31466,   0.00000
357671134.10321,144955535.46290,-31291131.12747,   0.00134,  -0.00004,  -0.00041,316277949.48458,   0.00000,274640135.82653,   0.00000,   0.00000,   0.00000,-158362186.34195,   0.00000
360438579.42385,146560150.16080,-30988978.28849,   0.00135,  -0.00004,  -0.00040,318513524.28779,   0.00000,274640135.82653,   0.00000,   0.00000,   0.00000,-156126611.53874,   0.00000
363212891.85446,148180788.11532,-30691403.52283,   0.00136,  -0.00003,  -0.00040,320758265.61092,   0.00000,274640135.82653,   0.00000,   0.00000,   0.00000,-153881870.21561,   0.00000
365987204.28508,149801426.06984,-30389250.68385,   0.00137,  -0.00003,  -0.00040,323004977.51447,   0.00000,274640135.82653,   0.00000,   0.00000,   0.00000,-151635158.31206,   0.00000
368754649.60571,151406040.76774,-30091675.91819,   0.00138,  -0.00003,  -0.00039,325251635.12886,   0.00000,274640135.82653,   0.00000,   0.00000,   0.00000,-149388500.69767,   0.00000
371528962.03633,153026678.72226,-29789523.07921,   0.00139,  -0.00003,  -0.00039,327504714.43762,   0.00000,274640135.82653,   0.00000,   0.00000,   0.00000,-147135421.38891,   0.00000
374294118.32030,154656472.82341,-29487370.24023,   0.00140,  -0.00003,  -0.00038,329751752.79055,   0.00000,274640135.82653,   0.00000,   0.00000,   0.00000,-144888383.03598,   0.00000
377068430.75092,156277110.77793,-29189795.47457,   0.00141,  -0.00002,  -0.00038,332012205.16463,   0.00000,274640135.82653,   0.00000,   0.00000,   0.00000,-142627930.66190,   0.00000
379826719.92492,157890881.62247,-28887642.63560,   0.00142,  -0.00002,  -0.00038,334260646.33285,   0.00000,274640135.82653,   0.00000,   0.00000,   0.00000,-140379489.49368,   0.00000
382591876.20890,159520675.72362,-28590067.86994,   0.00143,  -0.00002,  -0.00037,336517831.69332,   0.00000,274640135.82653,   0.00000,   0.00000,   0.00000,-138122304.13321,   0.00000
385357032.49287,161150469.82477,-28287915.03096,   0.00144,  -0.00002,  -0.00037,338776722.91695,   0.00000,274640135.82653,   0.00000,   0.00000,   0.00000,-135863412.90958,   0.00000
388115321.66688,162764240.66931,-27990340.26530,   0.00145,  -0.00002,  -0.00036,341034870.32048,   0.00000,274640135.82653,   0.00000,   0.00000,   0.00000,-133605265.50605,   0.00000
390864454.69424,164387167.66049,-27688187.42632,   0.00146,  -0.00001,  -0.00036,343285550.75532,   0.00000,274640135.82653,   0.00000,   0.00000,   0.00000,-131354585.07121,   0.00000
393636478.08820,166032985.01825,-27390612.66066,   0.00147,  -0.00001,  -0.00036,345558571.75372,   0.00000,274640135.82653,   0.00000,   0.00000,   0.00000,-129081564.07280,   0.00000
396385611.11556,167655912.00943,-27088459.82168,   0.00148,  -0.00001,  -0.00035,347814635.05538,   0.00000,274640135.82653,   0.00000,   0.00000,   0.00000,-126825500.77115,   0.00000
399134744.14293,169278839.00061,-26790885.05602,   0.00149,  -0.00001,  -0.00035,350074360.36986,   0.00000,274640135.82653,   0.00000,   0.00000,   0.00000,-124565775.45667,   0.00000
401890744.28027,170917789.24839,-26493310.29036,   0.00150,  -0.00001,  -0.00034,352341411.07505,   0.00000,274640135.82653,   0.00000,   0.00000,   0.00000,-122298724.75148,   0.00000
404646744.41761,172556739.49618,-26191157.45139,   0.00150,  -0.00000,  -0.00034,354609959.58208,   0.00000,274640135.82653,   0.00000,   0.00000,   0.00000,-120030176.24445,   0.00000
407402744.55495,174195689.74397,-25893582.68573,   0.00151,  -0.00000,  -0.00034,356882004.83893,   0.00000,274640135.82653,   0.00000,   0.00000,   0.00000,-117758130.98760,   0.00000
410142721.43568,175827772.88178,-25596007.92007,   0.00152,   0.00000,  -0.00033,359142650.28517,   0.00000,274640135.82653,   0.00000,   0.00000,   0.00000,-115497485.54136,   0.00000
412882698.31641,177459856.01959,-25298433.15441,   0.00153,   0.00000,  -0.00033,361405659.93289,   0.00000,274640135.82653,   0.00000,   0.00000,   0.00000,-113234475.89364,   0.00000
415622675.19714,179091939.15741,-25000858.38875,   0.00154,   0.00000,  -0.00033,363670989.64705,   0.00000,274640135.82653,   0.00000,   0.00000,   0.00000,-110969146.17948,   0.00000
418369519.18785,180740045.55183,-24703283.62309,   0.00155,   0.00001,  -0.00032,365943505.69634,   0.00000,274640135.82653,   0.00000,   0.00000,   0.00000,-108696630.13019,   0.00000
421109496.06858,182372128.68964,-24410286.93075,   0.00156,   0.00001,  -0.00032,368214274.73225,   0.00000,274640135.82653,   0.00000,   0.00000,   0.00000,-106425861.09428,   0.00000
423840316.80267,184013367.97409,-24112712.16509,   0.00157,   0.00001,  -0.00031,370477419.32048,   0.00000,274640135.82653,   0.00000,   0.00000,   0.00000,-104162716.50605,   0.00000
426587160.79338,185661474.36851,-23815137.39943,   0.00158,   0.00001,  -0.00031,372756582.64735,   0.00000,274640135.82653,   0.00000,   0.00000,   0.00000,-101883553.17918,   0.00000
429317981.52747,187302713.65296,-23522140.70708,   0.00159,   0.00002,  -0.00031,375024914.04547,   0.00000,274640135.82653,   0.00000,   0.00000,   0.00000,-99615221.78106,   0.00000
432032779.00495,188937085.82743,-23229144.01474,   0.00160,   0.00002,  -0.00030,377281472.75417,   0.00000,274640135.82653,   0.00000,   0.00000,   0.00000,-97358663.07236,   0.00000
434763599.73905,190578325.11188,-22931569.24908,   0.00161,   0.00002,  -0.00030,379553076.13995,   0.00000,274640135.82653,   0.00000,   0.00000,   0.00000,-95087059.68657,   0.00000
437501287.58312,192235587.65294,-22638572.55674,   0.00162,   0.00002,  -0.00029,381832549.13891,   0.00000,274640135.82653,   0.00000,   0.00000,   0.00000,-92807586.68762,   0.00000
440222952.17058,193885983.08402,-22345575.86440,   0.00162,   0.00002,  -0.00029,384100164.64280,   0.00000,274640135.82653,   0.00000,   0.00000,   0.00000,-90539971.18373,   0.00000
442937749.64806,195520355.25849,-22057157.24537,   0.00163,   0.00003,  -0.00029,386365458.82409,   0.00000,274640135.82653,   0.00000,   0.00000,   0.00000,-88274677.00244,   0.00000
445659414.23552,197170750.68957,-21764160.55303,   0.00164,   0.00003,  -0.00028,388636916.95627,   0.00000,274640135.82653,   0.00000,   0.00000,   0.00000,-86003218.87026,   0.00000
448365055.56636,198814279.01068,-21471163.86069,   0.00165,   0.00003,  -0.00028,390896403.11488,   0.00000,274640135.82653,   0.00000,   0.00000,   0.00000,-83743732.71165,   0.00000
451070696.89721,200457807.33178,-21182745.24167,   0.00166,   0.00003,  -0.00028,393158478.67735,   0.00000,274640135.82653,   0.00000,   0.00000,   0.00000,-81481657.14918,   0.00000
453792361.48467,202108202.76287,-20894326.62264,   0.00167,   0.00003,  -0.00027,395436205.99754,   0.00000,274640135.82653,   0.00000,   0.00000,   0.00000,-79203929.82899,   0.00000
456488846.66888,203760887.23061,-20605908.00362,   0.00168,   0.00004,  -0.00027,397693103.06305,   0.00000,274640135.82653,   0.00000,   0.00000,   0.00000,-76947032.76348,   0.00000
459194487.99972,205404415.55171,-20317489.38459,   0.00169,   0.00004,  -0.00026,399960469.83420,   0.00000,274640135.82653,   0.00000,   0.00000,   0.00000,-74679665.99233,   0.00000
461906996.44055,207063967.12943,-20029070.76557,   0.00170,   0.00004,  -0.00026,402234702.31133,   0.00000,274640135.82653,   0.00000,   0.00000,   0.00000,-72405433.51520,   0.00000
464603481.62476,208716651.59718,-19740652.14654,   0.00171,   0.00004,  -0.00026,404496764.91684,   0.00000,274640135.82653,   0.00000,   0.00000,   0.00000,-70143370.90969,   0.00000
467299966.80897,210369336.06492,-19456811.60084,   0.00172,   0.00005,  -0.00025,406761152.67846,   0.00000,274640135.82653,   0.00000,   0.00000,   0.00000,-67878983.14807,   0.00000
469980428.73657,212015153.42268,-19172971.05513,   0.00172,   0.00005,  -0.00025,409013281.48271,   0.00000,274640135.82653,   0.00000,   0.00000,   0.00000,-65626854.34382,   0.00000
472676913.92078,213667837.89042,-18889130.50943,   0.00173,   0.00005,  -0.00025,411280869.28336,   0.00000,274640135.82653,   0.00000,   0.00000,   0.00000,-63359266.54317,   0.00000
475357375.84837,215313655.24819,-18605289.96372,   0.00174,   0.00005,  -0.00024,413536142.56869,   0.00000,274640135.82653,   0.00000,   0.00000,   0.00000,-61103993.25784,   0.00000
478044704.88595,216975495.86257,-18321449.41801,   0.00175,   0.00006,  -0.00024,415798202.63383,   0.00000,274640135.82653,   0.00000,   0.00000,   0.00000,-58841933.19270,   0.00000
480725166.81355,218621313.22033,-18042186.94562,   0.00176,   0.00006,  -0.00023,418057123.92518,   0.00000,274640135.82653,   0.00000,   0.00000,   0.00000,-56583011.90135,   0.00000
483396472.59451,220276286.72473,-17762924.47324,   0.00177,   0.00006,  -0.00023,420308906.24471,   0.00000,274640135.82653,   0.00000,   0.00000,   0.00000,-54331229.58182,   0.00000
486067778.37547,221931260.22913,-17483662.00085,   0.00178,   0.00006,  -0.00023,422562149.44194,   0.00000,274640135.82653,   0.00000,   0.00000,   0.00000,-52077986.38459,   0.00000
488739084.15643,223586233.73353,-17204399.52846,   0.00179,   0.00006,  -0.00022,424816830.27124,   0.00000,274640135.82653,   0.00000,   0.00000,   0.00000,-49823305.55529,   0.00000
491410389.93739,225241207.23793,-16925137.05607,   0.00180,   0.00007,  -0.00022,427072925.96319,   0.00000,274640135.82653,   0.00000,   0.00000,   0.00000,-47567209.86334,   0.00000
494065672.46174,226889313.63236,-16650452.65700,   0.00181,   0.00007,  -0.00022,429317063.19751,   0.00000,274640135.82653,   0.00000,   0.00000,   0.00000,-45323072.62902,   0.00000
496736978.24271,228544287.13676,-16375768.25793,   0.00181,   0.00007,  -0.00021,431576430.66751,   0.00000,274640135.82653,   0.00000,   0.00000,   0.00000,-43063705.15902,   0.00000
499383104.62042,230201549.67782,-16101083.85886,   0.00182,   0.00007,  -0.00021,433814717.12258,   0.00000,274640135.82653,   0.00000,   0.00000,   0.00000,-40825418.70395,   0.00000
502038387.14477,231849656.07224,-15826399.45979,   0.00183,   0.00008,  -0.00021,436062842.43529,   0.00000,274640135.82653,   0.00000,   0.00000,   0.00000,-38577293.39124,   0.00000
504684513.52248,233506918.61330,-15556293.13403,   0.00184,   0.00008,  -0.00020,438304241.79265,   0.00000,274640135.82653,   0.00000,   0.00000,   0.00000,-36335894.03388,   0.00000
507346663.15681,235171048.26434,-15286186.80828,   0.00185,   0.00008,  -0.00020,440560795.43181,   0.00000,274640135.82653,   0.00000,   0.00000,   0.00000,-34079340.39472,   0.00000
509976766.27791,236821443.69542,-15016080.48253,   0.00186,   0.00008,  -0.00020,442790822.30256,   0.00000,274640135.82653,   0.00000,   0.00000,   0.00000,-31849313.52397,   0.00000
512622892.65563,238478706.23648,-14745974.15678,   0.00187,   0.00009,  -0.00019,445035965.32935,   0.00000,274640135.82653,   0.00000,   0.00000,   0.00000,-29604170.49718,   0.00000
515252995.77673,240129101.66756,-14480445.90434,   0.00188,   0.00009,  -0.00019,447268874.45690,   0.00000,274640135.82653,   0.00000,   0.00000,   0.00000,-27371261.36963,   0.00000
517883098.89783,241779497.09865,-14214917.65191,   0.00188,   0.00009,  -0.00018,449502954.14540,   0.00000,274640135.82653,   0.00000,   0.00000,   0.00000,-25137181.68113,   0.00000
520520069.12891,243445915.78634,-13949389.39947,   0.00189,   0.00009,  -0.00018,451743652.70429,   0.00000,274640135.82653,   0.00000,   0.00000,   0.00000,-22896483.12224,   0.00000
523150172.25001,245096311.21742,-13688439.22035,   0.00190,   0.00010,  -0.00018,453980448.00545,   0.00000,274640135.82653,   0.00000,   0.00000,   0.00000,-20659687.82108,   0.00000
525771119.22447,246755862.79514,-13422910.96792,   0.00191,   0.00010,  -0.00017,456209538.58275,   0.00000,274640135.82653,   0.00000,   0.00000,   0.00000,-18430597.24378,   0.00000
528392066.19894,248415414.37286,-13161960.78880,   0.00192,   0.00010,  -0.00017,458440150.16063,   0.00000,274640135.82653,   0.00000,   0.00000,   0.00000,-16199985.66590,   0.00000
530996989.91679,250068098.84060,-12905588.68300,   0.00193,   0.00010,  -0.00017,460658346.56244,   0.00000,274640135.82653,   0.00000,   0.00000,   0.00000,-13981789.26409,   0.00000
533617936.89126,251727650.41832,-12644638.50389,   0.00194,   0.00010,  -0.00016,462891114.33596,   0.00000,274640135.82653,   0.00000,   0.00000,   0.00000,-11749021.49057,   0.00000
536222860.60911,253380334.88606,-12388266.39809,   0.00195,   0.00011,  -0.00016,465111416.52849,   0.00000,274640135.82653,   0.00000,   0.00000,   0.00000,-9528719.29803,   0.00000
538811761.07035,255026152.24383,-12136472.36560,   0.00195,   0.00011,  -0.00016,467319209.82448,   0.00000,274640135.82653,   0.00000,   0.00000,   0.00000,-7320926.00205,   0.00000
541423551.89818,256694859.96818,-11880100.25981,   0.00196,   0.00011,  -0.00015,469547102.20882,   0.00000,274640135.82653,   0.00000,   0.00000,   0.00000,-5093033.61771,   0.00000
544012452.35942,258340677.32595,-11628306.22732,   0.00197,   0.00011,  -0.00015,471756887.58534,   0.00000,274640135.82653,   0.00000,   0.00000,   0.00000,-2883248.24119,   0.00000
546608219.93064,260002517.94032,-11376512.19484,   0.00198,   0.00012,  -0.00015,473973223.93925,   0.00000,274640135.82653,   0.00000,   0.00000,   0.00000,-666911.88728,   0.00000
547388868.07006,260498792.04487,-11301967.54493,   0.00198,   0.00012,  -0.00015,474640135.30669,   0.00000,274640135.82653,   0.00000,   0.00000,   0.00000,  -0.51984,   0.00000
547426465.15901,260934826.17996,-11088380.42283,   0.00199,   0.00012,  -0.00014,474640135.30669,   0.00001,274646126.37067,   0.00001,  -0.00000,  -0.00000,  -0.00000,   2.00000
547479093.54453,261568696.25327,-10784358.62858,   0.00200,   0.00012,  -0.00014,476850925.89588,   0.00001,274654669.39313,   0.00002,  -0.00000,  -0.00000,  -0.00000,   2.00000
547529941.71782,262198813.54670,-10481890.43717,   0.00201,   0.00012,  -0.00014,476860580.95697,   0.00002,274663211.00810,   0.00003,  -0.00000,  -0.00000,   0.00000,   2.00000
547578697.64090,262825061.36240,-10185517.24921,   0.00201,   0.00013,  -0.00014,476870517.57598,   0.00003,274671752.33728,   0.00004,  -0.00000,  -0.00000,   0.00000,   2.00000
547625648.39189,263447226.42391,-9890990.22027,   0.00202,   0.00013,  -0.00013,476866240.86279,   0.00004,274680238.43664,   0.00004,  -0.00000,  -0.00000,  -0.00000,   2.00000
547671261.21807,264079022.32859,-9597835.68830,   0.00203,   0.00013,  -0.00013,476881464.90624,   0.00004,274688744.89288,   0.00005,  -0.00000,  -0.00000,   0.00000,   2.00000
547714538.41671,264693680.61558,-9310856.49871,   0.00204,   0.00013,  -0.00013,476885622.46085,   0.00005,274697228.97536,   0.00006,  -0.00000,  -0.00000,   0.00000,   2.00000
547756504.56948,265317985.19479,-9025222.70792,   0.00205,   0.00014,  -0.00012,476900837.92135,   0.00006,274705733.40867,   0.00007,  -0.00000,  -0.00001,  -0.00000,   2.00000
547796462.51595,265925058.00217,-8741464.08186,   0.00206,   0.00014,  -0.00012,476890765.56822,   0.00007,274714160.66238,   0.00008,  -0.00000,  -0.00001,   0.00000,   2.00000
547834838.34127,266541690.16277,-8463585.53668,   0.00206,   0.00014,  -0.00012,476906179.36432,   0.00008,274722609.31423,   0.00009,  -0.00000,  -0.00001,  -0.00000,   2.00000
547871645.54834,267154703.74460,-8187128.81411,   0.00207,   0.00014,  -0.00011,476915627.48365,   0.00008,274731056.29065,   0.00010,  -0.00000,  -0.00001,   0.00000,   2.00000
547906825.88188,267763877.46800,-7912350.44016,   0.00208,   0.00015,  -0.00011,476911178.38307,   0.00009,274739448.12265,   0.00011,  -0.00000,  -0.00001,   0.00000,   2.00000
547940230.63466,268369386.37219,-7643523.23468,   0.00209,   0.00015,  -0.00011,476920769.81582,   0.00010,274747839.13991,   0.00012,  -0.00000,  -0.00001,  -0.00000,   2.00000
547972152.45978,268971362.31280,-7376068.47527,   0.00210,   0.00015,  -0.00010,476930113.40811,   0.00011,274756228.41378,   0.00013,  -0.00000,  -0.00001,   0.00000,   2.00000
548002376.80693,269569725.49756,-7114531.77868,   0.00211,   0.00016,  -0.00010,476939650.98275,   0.00011,274764616.72107,   0.00014,  -0.00000,  -0.00001,   0.00000,   2.00000
548031256.29242,270177573.27615,-6854465.20072,   0.00211,   0.00016,  -0.00010,476940913.51514,   0.00012,274772972.21918,   0.00015,  -0.00000,  -0.00001,   0.00000,   2.00000
548058562.25003,270768762.00223,-6595818.37736,   0.00212,   0.00016,  -0.00010,476944349.82325,   0.00013,274781303.53545,   0.00016,  -0.00000,  -0.00001,   0.00000,   2.00000
548084319.91290,271369410.31262,-6343163.18128,   0.00213,   0.00016,  -0.00009,476945753.02271,   0.00014,274789602.92837,   0.00017,  -0.00000,  -0.00001,   0.00000,   2.00000
548108566.10612,271966606.59247,-6096142.66418,   0.00214,   0.00017,  -0.00009,476969008.59106,   0.00014,274797954.33250,   0.00018,  -0.00000,  -0.00001,  -0.00000,   2.00000
548131590.52183,272560328.64321,-5846029.63056,   0.00215,   0.00017,  -0.00009,476964190.27935,   0.00015,274806249.97261,   0.00019,  -0.00000,  -0.00001,   0.00000,   2.00000
548153018.40900,273150464.48297,-5601929.44980,   0.00216,   0.00017,  -0.00008,476959654.10636,   0.00016,274814491.24124,   0.00019,  -0.00000,  -0.00001,  -0.00000,   2.00000
548173032.17248,273737182.97650,-5363442.00111,   0.00216,   0.00017,  -0.00008,476982785.44928,   0.00017,274822784.27303,   0.00020,  -0.00000,  -0.00001,   0.00000,   2.00000
548191707.41299,274320481.59676,-5126343.11484,   0.00217,   0.00018,  -0.00008,476978040.53882,   0.00017,274831022.25545,   0.00021,  -0.00000,  -0.00001,   0.00000,   2.00000
548209130.76541,274900429.96093,-4890449.49716,   0.00218,   0.00018,  -0.00008,476987106.56145,   0.00018,274839258.25505,   0.00022,  -0.00000,  -0.00001,   0.00000,   2.00000
548225084.48863,275489978.95042,-4660397.23776,   0.00219,   0.00018,  -0.00007,476988402.87889,   0.00019,274847462.54566,   0.00023,  -0.00000,  -0.00001,   0.00000,   2.00000
548239901.65588,276063148.87382,-4431429.15475,   0.00220,   0.00018,  -0.00007,477005308.72818,   0.00020,274855694.96158,   0.00024,  -0.00000,  -0.00001,   0.00000,   2.00000
548253213.88448,276646013.17475,-4208400.79900,   0.00220,   0.00019,  -0.00007,476992721.57094,   0.00020,274863842.82299,   0.00025,  -0.00000,  -0.00001,   0.00000,   2.00000
548265475.91051,277212552.92516,-3986424.88595,   0.00221,   0.00019,  -0.00007,477009509.20668,   0.00021,274872018.61859,   0.00026,  -0.00000,  -0.00001,   0.00000,   2.00000
548276327.58358,277788817.29168,-3770200.60930,   0.00222,   0.00019,  -0.00006,477010726.08195,   0.00022,274880162.83088,   0.00027,  -0.00000,  -0.00001,   0.00000,   2.00000
548286042.63857,278361805.41055,-3555071.49965,   0.00223,   0.00019,  -0.00006,477019636.71772,   0.00023,274888304.92392,   0.00028,  -0.00000,  -0.00001,  -0.00000,   2.00000
548294637.50335,278931534.62364,-3341033.23503,   0.00224,   0.00020,  -0.00006,477028537.10374,   0.00023,274896444.88766,   0.00029,  -0.00000,  -0.00001,   0.00000,   2.00000
548301959.41693,279498106.45095,-3132739.33965,   0.00224,   0.00020,  -0.00006,477023655.54801,   0.00024,274904530.36063,   0.00030,  -0.00000,  -0.00001,   0.00000,   2.00000
548308176.20508,280061286.85606,-2929954.03647,   0.00225,   0.00020,  -0.00005,477046418.31463,   0.00025,274912666.66524,   0.00030,  -0.00000,  -0.00001,   0.00000,   2.00000
548313131.97305,280634497.99889,-2723786.90924,   0.00226,   0.00021,  -0.00005,477033580.77565,   0.00026,274920718.29844,   0.00031,  -0.00000,  -0.00002,   0.00000,   2.00000
548317103.17506,281191375.28846,-2527720.91549,   0.00227,   0.00021,  -0.00005,477050251.44854,   0.00026,274928797.77289,   0.00032,  -0.00000,  -0.00002,   0.00000,   2.00000
548319796.89570,281758138.84563,-2332690.84453,   0.00228,   0.00021,  -0.00005,477051302.92119,   0.00027,274936845.64127,   0.00033,  -0.00000,  -0.00002,   0.00000,   2.00000
548321700.09029,282308901.88556,-2138677.25605,   0.00228,   0.00021,  -0.00004,477053898.21992,   0.00028,274944868.02411,   0.00034,  -0.00000,  -0.00002,   0.00000,   2.00000
548322321.81772,282869340.58746,-1950167.50356,   0.00229,   0.00022,  -0.00004,477068821.69092,   0.00029,274952911.67217,   0.00035,  -0.00000,  -0.00002,   0.00000,   2.00000
548321898.90433,283426879.41083,-1762670.11887,   0.00230,   0.00022,  -0.00004,477063692.99126,   0.00029,274960900.59013,   0.00036,  -0.00000,  -0.00002,  -0.00000,   2.00000
548320460.48532,283981274.72520,-1580671.01685,   0.00231,   0.00022,  -0.00004,477072401.56835,   0.00030,274968887.42047,   0.00037,  -0.00000,  -0.00002,  -0.00000,   2.00000
548318085.58003,284532571.85860,-1399588.64201,   0.00232,   0.00022,  -0.00003,477081044.71392,   0.00031,274976871.94331,   0.00038,  -0.00000,  -0.00002,   0.00000,   2.00000
548314677.88913,285081073.18964,-1224014.69433,   0.00232,   0.00023,  -0.00003,477075867.00945,   0.00031,274984801.96451,   0.00038,  -0.00000,  -0.00002,   0.00000,   2.00000
548310005.17361,285639229.69673,-1053860.16255,   0.00233,   0.00023,  -0.00003,477090706.73540,   0.00032,274992753.27751,   0.00039,  -0.00000,  -0.00002,  -0.00000,   2.00000
548304805.73698,286181590.56784,-880020.26182,   0.00234,   0.00023,  -0.00003,477093015.23200,   0.00033,275000678.58835,   0.00040,  -0.00000,  -0.00002,  -0.00000,   2.00000
548298688.18042,286720917.13077,-716163.54386,   0.00235,   0.00024,  -0.00003,477101602.49206,   0.00034,275008601.72702,   0.00041,  -0.00000,  -0.00002,   0.00000,   2.00000
548291278.92374,287270298.57499,-553140.59529,   0.00236,   0.00024,  -0.00002,477102568.47388,   0.00034,275016493.90128,   0.00042,   0.00000,  -0.00002,  -0.00000,   2.00000
548283013.74267,287816639.18757,-390934.99201,   0.00236,   0.00024,  -0.00002,477111075.69960,   0.00035,275024383.69355,   0.00043,   0.00000,  -0.00002,   0.00000,   2.00000
548274239.22678,288347718.84487,-234109.78658,   0.00237,   0.00024,  -0.00002,477099427.26051,   0.00036,275032195.33256,   0.00044,   0.00000,  -0.00002,  -0.00000,   2.00000
548264318.39487,288888092.93933,-78060.96397,   0.00238,   0.00025,  -0.00002,477127975.47789,   0.00037,275040080.39310,   0.00045,   0.00000,  -0.00002,   0.00000,   2.00000
548253515.04752,289425918.67618,72650.71565,   0.00239,   0.00025,  -0.00002,477122612.13499,   0.00037,275047910.99196,   0.00046,   0.00000,  -0.00002,   0.00000,   2.00000
548241932.64051,289960793.28422,218053.84920,   0.00239,   0.00025,  -0.00001,477131010.35159,   0.00038,275055739.13989,   0.00046,   0.00000,  -0.00002,   0.00000,   2.00000
548229021.98587,290505782.64441,362736.01627,   0.00240,   0.00025,  -0.00001,477131942.04407,   0.00039,275063536.72881,   0.00047,   0.00000,  -0.00002,   0.00000,   2.00000
548215842.39253,291035229.72493,502148.72519,   0.00241,   0.00026,  -0.00001,477133917.38022,   0.00039,275071307.93352,   0.00048,   0.00000,  -0.00002,   0.00000,   2.00000
548201929.35492,291561790.93146,640867.35461,   0.00242,   0.00026,  -0.00001,477142230.26140,   0.00040,275079076.67852,   0.00049,   0.00000,  -0.00002,   0.00000,   2.00000
548186761.88274,292098011.61181,778882.76281,   0.00242,   0.00026,  -0.00001,477156950.46164,   0.00041,275086866.92885,   0.00050,   0.00000,  -0.00002,  -0.00000,   2.00000
548171376.55369,292619345.06524,907141.53033,   0.00243,   0.00027,  -0.00000,477144990.77925,   0.00042,275094578.69544,   0.00051,   0.00000,  -0.00002,  -0.00000,   2.00000
548154707.65028,293150342.56774,1039303.59525,   0.00244,   0.00027,  -0.00000,477159687.50312,   0.00042,275102312.13375,   0.00052,   0.00000,  -0.00002,   0.00000,   2.00000
548137404.45256,293678484.75939,1161697.20311,   0.00245,   0.00027,  -0.00000,477167890.91308,   0.00043,275110042.84498,   0.00053,   0.00000,  -0.00002,   0.00000,   2.00000
548119326.05975,294204345.43679,1283523.54958,   0.00245,   0.00027,   0.00000,477162322.80414,   0.00044,275117719.33651,   0.00053,   0.00000,  -0.00002,   0.00000,   2.00000
548100664.96200,294726761.79989,1404699.72250,   0.00246,   0.00028,   0.00000,477184327.49057,   0.00044,275125444.98496,   0.00054,   0.00001,  -0.00002,   0.00000,   2.00000
548081297.43441,295246982.26299,1520766.44946,   0.00247,   0.00028,   0.00000,477178703.32997,   0.00045,275133116.31824,   0.00055,   0.00001,  -0.00002,   0.00000,   2.00000
548061241.06230,295765055.43868,1631756.11429,   0.00248,   0.00028,   0.00001,477173014.00386,   0.00046,275140733.37366,   0.00056,   0.00001,  -0.00002,   0.00000,   2.00000
548040651.31745,296279699.57488,1742140.30609,   0.00248,   0.00029,   0.00001,477194926.50016,   0.00046,275148399.45855,   0.00057,   0.00001,  -0.00002,  -0.00000,   2.00000
548019403.99349,296792263.94942,1847481.95577,   0.00249,   0.00029,   0.00001,477189212.80512,   0.00047,275156011.28776,   0.00058,   0.00001,  -0.00002,   0.00000,   2.00000
547996756.98705,297315141.53479,1952336.99747,   0.00250,   0.00029,   0.00001,477190045.02523,   0.00048,275163593.45937,   0.00059,   0.00001,  -0.00002,  -0.00000,   2.00000
547974364.97467,297822190.48655,2052084.02372,   0.00251,   0.00029,   0.00001,477205294.75228,   0.00049,275171199.94260,   0.00059,   0.00001,  -0.00002,   0.00000,   2.00000
547950635.38434,298339618.91992,2146819.22732,   0.00251,   0.00030,   0.00001,477206074.77503,   0.00049,275178776.65809,   0.00060,   0.00001,  -0.00001,   0.00000,   2.00000
547926311.98417,298854280.35333,2241086.41613,   0.00252,   0.00030,   0.00001,477214122.05429,   0.00050,275186350.81447,   0.00061,   0.00001,  -0.00001,  -0.00000,   2.00000
547901481.93388,299366226.05156,2330332.29379,   0.00253,   0.00030,   0.00002,477222094.37159,   0.00051,275193922.15904,   0.00062,   0.00001,  -0.00001,  -0.00000,   2.00000
547875970.83117,299876197.48477,2419216.82960,   0.00254,   0.00031,   0.00002,477216327.66928,   0.00051,275201439.64028,   0.00063,   0.00001,  -0.00001,   0.00000,   2.00000
547849980.61533,300383498.39677,2503108.73428,   0.00254,   0.00031,   0.00002,477224226.12199,   0.00052,275208954.30902,   0.00064,   0.00001,  -0.00001,   0.00000,   2.00000
547823528.53391,300888146.64967,2582032.13112,   0.00255,   0.00031,   0.00002,477232109.74127,   0.00053,275216466.13700,   0.00064,   0.00001,  -0.00001,   0.00000,   2.00000
547796542.96081,301390117.18878,2660566.32988,   0.00256,   0.00032,   0.00002,477240055.89156,   0.00053,275223975.38414,   0.00065,   0.00001,  -0.00001,   0.00000,   2.00000
547768911.67959,301890246.94776,2738803.96007,   0.00257,   0.00032,   0.00002,477234209.96438,   0.00054,275231430.91441,   0.00066,   0.00001,  -0.00001,   0.00000,   2.00000
547740099.64288,302400050.10534,2807501.82424,   0.00257,   0.00032,   0.00002,477248618.67186,   0.00055,275238908.00656,   0.00067,   0.00001,  -0.00001,   0.00000,   2.00000
547711623.41227,302894944.37103,2875907.20879,   0.00258,   0.00032,   0.00002,477249832.60798,   0.00055,275246357.76451,   0.00068,   0.00001,  -0.00001,   0.00000,   2.00000
547681775.68835,303399422.31796,2943928.43812,   0.00259,   0.00033,   0.00002,477264407.15324,   0.00056,275253829.72685,   0.00069,   0.00001,  -0.00001,  -0.00000,   2.00000
547651486.19464,303902207.64760,3002602.94895,   0.00259,   0.00033,   0.00003,477258358.02181,   0.00057,275261247.46465,   0.00069,   0.00002,  -0.00001,   0.00000,   2.00000
547621608.59601,304390185.08453,3061038.48905,   0.00260,   0.00033,   0.00003,477259455.13786,   0.00057,275268637.77251,   0.00070,   0.00002,  -0.00001,   0.00000,   2.00000
547590343.65722,304887754.48162,3119136.54734,   0.00261,   0.00034,   0.00003,477273992.22201,   0.00058,275276050.40062,   0.00071,   0.00002,  -0.00001,  -0.00000,   2.00000
547558565.00253,305383685.18347,3172498.43185,   0.00262,   0.00034,   0.00003,477267955.02592,   0.00059,275283409.22919,   0.00072,   0.00002,  -0.00001,  -0.00000,   2.00000
547526561.30367,305876128.35701,3220936.21308,   0.00262,   0.00034,   0.00003,477289394.78073,   0.00060,275290816.00402,   0.00073,   0.00002,  -0.00001,   0.00000,   2.00000
547493956.11570,306366940.84354,3269242.80383,   0.00263,   0.00034,   0.00003,477283433.25197,   0.00060,275298169.36854,   0.00074,   0.00002,  -0.00001,   0.00000,   2.00000
547459876.82815,306868299.38661,3312811.97379,   0.00264,   0.00035,   0.00003,477284129.56993,   0.00061,275305494.06670,   0.00074,   0.00002,  -0.00001,  -0.00000,   2.00000
547426584.68886,307354031.66853,3351555.19836,   0.00264,   0.00035,   0.00003,477298712.92347,   0.00062,275312841.53397,   0.00075,   0.00002,  -0.00001,  -0.00000,   2.00000
547392708.51685,307838229.69986,3390219.21244,   0.00265,   0.00035,   0.00003,477292684.42586,   0.00062,275320135.71975,   0.00076,   0.00002,  -0.00001,   0.00000,   2.00000
547357488.53424,308332006.13830,3424080.94567,   0.00266,   0.00036,   0.00003,477307105.45462,   0.00063,275327452.12134,   0.00077,   0.00002,  -0.00001,   0.00000,   2.00000
547321938.96190,308823258.30764,3453219.24601,   0.00267,   0.00036,   0.00003,477314719.29377,   0.00064,275334765.58818,   0.00078,   0.00002,  -0.00001,  -0.00000,   2.00000
547286853.72091,309300984.38974,3482385.53664,   0.00267,   0.00036,   0.00003,477301802.34772,   0.00064,275342000.69826,   0.00079,   0.00002,  -0.00001,   0.00000,   2.00000
547250568.52542,309787230.46213,3506677.50574,   0.00268,   0.00037,   0.00003,477329936.49508,   0.00065,275349308.69610,   0.00079,   0.00002,  -0.00001,  -0.00000,   2.00000
547213700.11998,310272013.73481,3530964.41957,   0.00269,   0.00037,   0.00004,477323879.75157,   0.00066,275356563.59805,   0.00080,   0.00002,  -0.00001,   0.00000,   2.00000
547176367.34995,310755429.76757,3550692.35397,   0.00269,   0.00037,   0.00004,477317668.81161,   0.00066,275363765.10038,   0.00081,   0.00002,  -0.00001,   0.00000,   2.00000
547138914.52049,311235300.53279,3565647.21770,   0.00270,   0.00037,   0.00004,477338887.86982,   0.00067,275371014.16332,   0.00082,   0.00003,  -0.00001,   0.00000,   2.00000
547101008.95041,311713860.11373,3576088.49328,   0.00271,   0.00038,   0.00004,477332664.83493,   0.00068,275378209.88792,   0.00083,   0.00003,  -0.00001,  -0.00000,   2.00000
547062709.69938,312189947.96632,3586474.64884,   0.00271,   0.00038,   0.00004,477340229.91998,   0.00068,275385403.10015,   0.00083,   0.00003,  -0.00001,  -0.00000,   2.00000
547022983.15634,312675537.45639,3592189.98216,   0.00272,   0.00038,   0.00004,477354644.44442,   0.00069,275392618.84478,   0.00084,   0.00003,  -0.00001,  -0.00000,   2.00000
546984028.08641,313146717.63590,3597933.02606,   0.00273,   0.00039,   0.00004,477355270.87843,   0.00070,275399806.60432,   0.00085,   0.00003,  -0.00001,   0.00000,   2.00000
546943565.16587,313628634.52603,3594590.97800,   0.00274,   0.00039,   0.00004,477355863.05644,   0.00070,275406966.31217,   0.00086,   0.00003,  -0.00001,  -0.00000,   2.00000
546903792.96520,314096144.72427,3595875.44620,   0.00274,   0.00039,   0.00004,477356507.52160,   0.00071,275414098.38750,   0.00087,   0.00003,  -0.00001,   0.00000,   2.00000
546862679.95373,314573214.39639,3587976.33125,   0.00275,   0.00040,   0.00004,477370794.84919,   0.00072,275421252.78309,   0.00087,   0.00003,  -0.00001,   0.00000,   2.00000
546821187.18440,315047817.10068,3580108.95964,   0.00276,   0.00040,   0.00004,477378320.38045,   0.00072,275428404.69128,   0.00088,   0.00003,  -0.00001,   0.00000,   2.00000
546779241.86606,315521262.56811,3567836.19525,   0.00276,   0.00040,   0.00004,477372016.34785,   0.00073,275435503.61109,   0.00089,   0.00003,  -0.00001,  -0.00000,   2.00000
546736925.87988,315992272.91745,3555615.60147,   0.00277,   0.00041,   0.00004,477379482.76246,   0.00073,275442600.08370,   0.00090,   0.00003,  -0.00001,   0.00000,   2.00000
546694481.03814,316460981.17316,3534335.68818,   0.00278,   0.00041,   0.00004,477386738.39701,   0.00074,275449693.36159,   0.00091,   0.00003,  -0.00001,   0.00000,   2.00000
546651676.38638,316927277.28447,3513150.48202,   0.00278,   0.00041,   0.00004,477394193.49593,   0.00075,275456784.19998,   0.00091,   0.00004,  -0.00001,   0.00000,   2.00000
546608518.93359,317391173.38202,3492059.64753,   0.00279,   0.00041,   0.00004,477401642.46244,   0.00075,275463872.60063,   0.00092,   0.00004,  -0.00001,  -0.00000,   2.00000
546564916.03066,317854047.70834,3466622.24084,   0.00280,   0.00042,   0.00004,477395277.30032,   0.00076,275470908.25175,   0.00093,   0.00004,  -0.00001,   0.00000,   2.00000
546521081.83397,318314611.17008,3436742.73436,   0.00280,   0.00042,   0.00004,477402569.13926,   0.00077,275477941.14445,   0.00094,   0.00004,  -0.00001,  -0.00000,   2.00000
546475676.20936,318784576.11912,3402383.24331,   0.00281,   0.00042,   0.00004,477416978.68088,   0.00077,275484997.12958,   0.00095,   0.00004,  -0.00001,  -0.00000,   2.00000
546431269.00152,319240430.01647,3368238.07761,   0.00282,   0.00043,   0.00004,477417273.67973,   0.00078,275492024.84633,   0.00095,   0.00004,  -0.00001,  -0.00000,   2.00000
546385043.45165,319707038.59650,3329744.67733,   0.00282,   0.00043,   0.00004,477418001.34379,   0.00079,275499025.92887,   0.00096,   0.00004,  -0.00001,   0.00000,   2.00000
546338574.60613,320171308.98969,3286869.77682,   0.00283,   0.00043,   0.00004,477425278.52299,   0.00079,275506024.31348,   0.00097,   0.00004,  -0.00001,   0.00000,   2.00000
546293263.32422,320621609.96108,3239690.31261,   0.00284,   0.00044,   0.00004,477425382.32845,   0.00080,275512994.04908,   0.00098,   0.00004,  -0.00001,   0.00000,   2.00000
546246216.61480,321081237.73343,3192669.90065,   0.00284,   0.00044,   0.00004,477439882.10800,   0.00081,275519987.46195,   0.00098,   0.00004,  -0.00001,   0.00000,   2.00000
546198935.86334,321538557.54686,3141308.21341,   0.00285,   0.00044,   0.00004,477447149.55304,   0.00081,275526978.21292,   0.00099,   0.00005,  -0.00001,   0.00000,   2.00000
546151074.62015,321994955.01912,3090284.22793,   0.00286,   0.00045,   0.00004,477440819.22338,   0.00082,275533917.01369,   0.00100,   0.00005,  -0.00001,   0.00000,   2.00000
546102981.30089,322449070.76929,3034936.12642,   0.00286,   0.00045,   0.00003,477448034.20974,   0.00083,275540853.21112,   0.00101,   0.00005,  -0.00000,   0.00000,   2.00000
546054656.72937,322900913.59554,2975284.12137,   0.00287,   0.00045,   0.00003,477455247.67395,   0.00083,275547786.82322,   0.00102,   0.00005,  -0.00000,   0.00000,   2.00000
546004621.59494,323362041.74034,2911297.14240,   0.00288,   0.00046,   0.00003,477469702.95159,   0.00084,275554744.01594,   0.00102,   0.00005,  -0.00000,   0.00000,   2.00000
545955473.66183,323810738.97683,2847748.49730,   0.00288,   0.00046,   0.00003,477456114.05505,   0.00084,275561623.28100,   0.00103,   0.00005,  -0.00000,   0.00000,   2.00000
545906358.53699,324255698.90638,2779840.05943,   0.00289,   0.00046,   0.00003,477476947.82892,   0.00085,275568549.49818,   0.00104,   0.00005,  -0.00000,   0.00000,   2.00000
545855229.98930,324711436.73941,2707728.68130,   0.00290,   0.00047,   0.00003,477477764.12305,   0.00086,275575450.01643,   0.00105,   0.00005,  -0.00000,   0.00000,   2.00000
545805294.63987,325153340.46964,2635993.82081,   0.00290,   0.00047,   0.00003,477477757.83944,   0.00086,275582322.07220,   0.00105,   0.00005,  -0.00000,   0.00000,   2.00000
545753585.55212,325604504.53550,2559984.30533,   0.00291,   0.00047,   0.00003,477492217.89357,   0.00087,275589217.97446,   0.00106,   0.00005,  -0.00000,   0.00000,   2.00000
545701348.83221,326054938.95777,2479848.97664,   0.00292,   0.00047,   0.00003,477485761.16732,   0.00088,275596062.12229,   0.00107,   0.00006,  -0.00000,   0.00000,   2.00000
545650711.70603,326490098.07817,2395485.32544,   0.00292,   0.00048,   0.00003,477499253.93469,   0.00088,275602926.81700,   0.00108,   0.00006,  -0.00000,  -0.00000,   2.00000
545597894.17441,326936029.69988,2311543.33788,   0.00293,   0.00048,   0.00003,477500162.00426,   0.00089,275609766.51798,   0.00109,   0.00006,  -0.00000,   0.00000,   2.00000
545544823.59525,327379710.53130,2223427.82575,   0.00294,   0.00048,   0.00003,477507319.81823,   0.00090,275616603.87602,   0.00109,   0.00006,  -0.00000,  -0.00000,   2.00000
545491497.78588,327821147.44152,2131158.24706,   0.00294,   0.00049,   0.00002,477514479.09808,   0.00090,275623438.91909,   0.00110,   0.00006,  -0.00000,   0.00000,   2.00000
545437548.96045,328261926.50190,2039378.28460,   0.00295,   0.00049,   0.00002,477508050.74352,   0.00091,275630222.74647,   0.00111,   0.00006,  -0.00000,   0.00000,   2.00000
545383707.33367,328698888.70100,1938837.34095,   0.00296,   0.00049,   0.00002,477528752.99443,   0.00091,275637053.23785,   0.00112,   0.00006,  -0.00000,   0.00000,   2.00000
545327523.98660,329146554.86434,1843341.75625,   0.00296,   0.00050,   0.00002,477529778.55554,   0.00092,275643859.34228,   0.00112,   0.00006,  -0.00000,   0.00000,   2.00000
545272784.10553,329580634.36320,1739200.09354,   0.00297,   0.00050,   0.00002,477529478.92727,   0.00093,275650636.49474,   0.00113,   0.00006,  -0.00000,  -0.00000,   2.00000
545217721.51488,330012479.83261,1635532.90726,   0.00298,   0.00050,   0.00002,477536646.57536,   0.00093,275657411.67042,   0.00114,   0.00007,  -0.00000,   0.00000,   2.00000
545162075.96652,330443810.23640,1527832.06715,   0.00298,   0.00051,   0.00002,477530129.43468,   0.00094,275664135.74011,   0.00115,   0.00007,  -0.00000,   0.00000,   2.00000
545104776.91397,330882555.30625,1415989.42419,   0.00299,   0.00051,   0.00002,477558280.17473,   0.00095,275670933.31802,   0.00115,   0.00007,  -0.00000,  -0.00000,   2.00000
545048530.38518,331309447.30295,1304726.35976,   0.00300,   0.00051,   0.00001,477544405.69106,   0.00095,275677653.37953,   0.00116,   0.00007,  -0.00000,  -0.00000,   2.00000
544990321.48911,331745452.92524,1184832.27764,   0.00300,   0.00052,   0.00001,477558914.12968,   0.00096,275684397.99270,   0.00117,   0.00007,  -0.00000,   0.00000,   2.00000
544931770.78459,332179196.29484,1065484.68397,   0.00301,   0.00052,   0.00001,477566079.64252,   0.00096,275691140.74114,   0.00118,   0.00007,  -0.00000,  -0.00000,   2.00000
544874637.10878,332599456.08486,946698.73219,   0.00301,   0.00052,   0.00001,477565750.77909,   0.00097,275697854.87326,   0.00118,   0.00007,  -0.00000,  -0.00000,   2.00000
544815142.01578,333030552.61297,819350.74686,   0.00302,   0.00053,   0.00001,477566691.88115,   0.00098,275704544.99919,   0.00119,   0.00007,  -0.00000,   0.00000,   2.00000
544755652.11086,333457647.66204,692557.36426,   0.00303,   0.00053,   0.00001,477587424.71102,   0.00098,275711282.07627,   0.00120,   0.00007,  -0.00000,  -0.00000,   2.00000
544695481.32488,333884297.75429,566362.36225,   0.00303,   0.00053,   0.00001,477580968.15031,   0.00099,275717968.64266,   0.00121,   0.00008,  -0.00000,  -0.00000,   2.00000
544635011.93397,334308753.11338,431626.00609,   0.00304,   0.00054,   0.00000,477588048.71300,   0.00100,275724653.33849,   0.00121,   0.00008,  -0.00000,   0.00000,   2.00000
544574204.96602,334730999.59970,297502.02677,   0.00305,   0.00054,   0.00000,477595163.56138,   0.00100,275731336.30787,   0.00122,   0.00008,  -0.00000,   0.00000,   2.00000
544513073.05728,335151051.59263,159430.83304,   0.00305,   0.00054,   0.00000,477602267.95174,   0.00101,275738017.53425,   0.00123,   0.00008,  -0.00000,   0.00000,   2.00000
544451240.81772,335570742.09537,17431.40751,   0.00306,   0.00055,  -0.00000,477595777.06482,   0.00101,275744648.49750,   0.00124,   0.00008,  -0.00000,   0.00000,   2.00000
544389442.75553,335986409.07001,-123921.83922,   0.00307,   0.00055,  -0.00000,477616444.62756,   0.00102,275751326.35259,   0.00124,   0.00008,  -0.00000,  -0.00000,   2.00000
544326931.38565,336401750.89807,-269196.94842,   0.00307,   0.00055,  -0.00001,477609964.17388,   0.00103,275757954.07002,   0.00125,   0.00008,  -0.00000,   0.00000,   2.00000
544262198.67494,336826004.40882,-418363.84488,   0.00308,   0.00056,  -0.00001,477624642.58275,   0.00103,275764607.24498,   0.00126,   0.00008,  -0.00000,   0.00000,   2.00000
544198979.61023,337236947.72450,-571419.89951,   0.00308,   0.00056,  -0.00001,477624162.25232,   0.00104,275771231.83618,   0.00127,   0.00009,  -0.00000,  -0.00000,   2.00000
544135030.29148,337647626.96228,-723805.89949,   0.00309,   0.00056,  -0.00001,477617646.66662,   0.00104,275777806.48486,   0.00127,   0.00009,  -0.00000,   0.00000,   2.00000
544069202.38039,338065289.18853,-880017.38599,   0.00310,   0.00057,  -0.00001,477645911.46820,   0.00105,275784455.17215,   0.00128,   0.00009,  -0.00000,   0.00000,   2.00000
544004510.12136,338471612.53227,-1040127.58881,   0.00310,   0.00057,  -0.00002,477631830.79039,   0.00106,275791026.97841,   0.00129,   0.00009,  -0.00000,  -0.00000,   2.00000
543937543.23073,338886817.86446,-1199493.15458,   0.00311,   0.00057,  -0.00002,477646514.61625,   0.00106,275797624.48670,   0.00130,   0.00009,  -0.00000,  -0.00000,   2.00000
543872125.24592,339288813.61035,-1362719.01698,   0.00312,   0.00058,  -0.00002,477645956.40376,   0.00107,275804193.48673,   0.00130,   0.00009,  -0.00000,   0.00000,   2.00000
543804363.59420,339699650.11281,-1529736.19931,   0.00312,   0.00058,  -0.00002,477660703.97692,   0.00107,275810788.43024,   0.00131,   0.00009,  -0.00000,   0.00000,   2.00000
543738157.13287,340097310.52847,-1700584.24999,   0.00313,   0.00058,  -0.00002,477660141.50659,   0.00108,275817354.91544,   0.00132,   0.00010,  -0.00000,  -0.00000,   2.00000
543669203.58648,340505792.24472,-1870686.20692,   0.00313,   0.00059,  -0.00003,477661307.90140,   0.00109,275823899.14227,   0.00132,   0.00010,  -0.00000,  -0.00000,   2.00000
543599825.53793,340912076.14823,-2044577.65161,   0.00314,   0.00059,  -0.00003,477668397.95786,   0.00109,275830442.24170,   0.00133,   0.00010,  -0.00000,  -0.00000,   2.00000
543530014.02053,341316163.91625,-2222240.85764,   0.00315,   0.00059,  -0.00003,477675497.45334,   0.00110,275836984.26680,   0.00134,   0.00010,  -0.00000,   0.00000,   2.00000
543461772.91500,341707148.09986,-2403703.50162,   0.00315,   0.00060,  -0.00003,477674875.93787,   0.00111,275843497.93808,   0.00135,   0.00010,  -0.00000,   0.00000,   2.00000
543391155.68104,342106951.59582,-2584300.11717,   0.00316,   0.00060,  -0.00004,477689616.09539,   0.00111,275850037.75315,   0.00135,   0.00010,  -0.00000,   0.00000,   2.00000
543320088.23467,342504569.40773,-2768636.22127,   0.00317,   0.00060,  -0.00004,477696734.96911,   0.00112,275856576.62020,   0.00136,   0.00010,  -0.00000,   0.00000,   2.00000
543248106.27720,342902041.29051,-2956791.92571,   0.00317,   0.00061,  -0.00004,477690315.69867,   0.00112,275863066.62819,   0.00137,   0.00010,  -0.00000,   0.00000,   2.00000
543176211.99545,343295339.74704,-3143996.99740,   0.00318,   0.00061,  -0.00004,477710867.13627,   0.00113,275869603.44367,   0.00138,   0.00011,  -0.00000,   0.00000,   2.00000
543103385.00136,343688523.10328,-3335019.72691,   0.00318,   0.00061,  -0.00005,477704464.27543,   0.00114,275876091.53967,   0.00138,   0.00011,  -0.00000,  -0.00000,   2.00000
543030073.91734,344079531.48739,-3529738.26096,   0.00319,   0.00062,  -0.00005,477711571.78871,   0.00114,275882578.90659,   0.00139,   0.00011,  -0.00000,   0.00000,   2.00000
542956268.27661,344468365.26264,-3728135.17923,   0.00320,   0.00062,  -0.00005,477718690.74502,   0.00115,275889065.60350,   0.00140,   0.00011,  -0.00000,   0.00000,   2.00000
542881606.52153,344857193.03609,-3925766.29978,   0.00320,   0.00062,  -0.00006,477712174.78155,   0.00115,275895503.48298,   0.00140,   0.00011,  -0.00000,   0.00000,   2.00000
542806921.01064,345241749.46995,-4126931.39858,   0.00321,   0.00063,  -0.00006,477732792.54827,   0.00116,275901988.57361,   0.00141,   0.00011,  -0.00000,   0.00000,   2.00000
542731230.15658,345626254.03294,-4331886.44966,   0.00321,   0.00063,  -0.00006,477726408.16670,   0.00117,275908425.39195,   0.00142,   0.00011,  -0.00000,  -0.00000,   2.00000
542655157.39306,346008677.97975,-4535921.02786,   0.00322,   0.00063,  -0.00006,477733389.29875,   0.00117,275914861.30696,   0.00143,   0.00012,  -0.00001,   0.00000,   2.00000
542576410.64458,346399679.31955,-4743503.60548,   0.00323,   0.00064,  -0.00007,477748357.19534,   0.00118,275921324.42913,   0.00143,   0.00012,  -0.00001,   0.00000,   2.00000
542499264.24429,346777728.86418,-4954799.33158,   0.00323,   0.00064,  -0.00007,477747661.77576,   0.00118,275927759.52440,   0.00144,   0.00012,  -0.00001,  -0.00000,   2.00000
542421565.20212,347153617.32757,-5169699.68788,   0.00324,   0.00064,  -0.00007,477754799.77142,   0.00119,275934194.32536,   0.00145,   0.00012,  -0.00001,   0.00000,   2.00000
542342960.93538,347529615.23431,-5383809.57917,   0.00324,   0.00065,  -0.00008,477748284.32567,   0.00120,275940580.76498,   0.00145,   0.00012,  -0.00001,   0.00000,   2.00000
542264311.42790,347901279.31687,-5601331.88539,   0.00325,   0.00065,  -0.00008,477768901.61499,   0.00120,275947014.57380,   0.00146,   0.00012,  -0.00001,   0.00000,   2.00000
542182361.68326,348283643.52966,-5822507.50873,   0.00326,   0.00065,  -0.00008,477770467.98848,   0.00121,275953428.46463,   0.00147,   0.00013,  -0.00001,   0.00000,   2.00000
542102211.69676,348653245.43390,-6042803.92144,   0.00326,   0.00066,  -0.00009,477769559.55186,   0.00121,275959813.90327,   0.00148,   0.00013,  -0.00001,   0.00000,   2.00000
542020929.16013,349022905.00031,-6266873.65245,   0.00327,   0.00066,  -0.00009,477763198.50495,   0.00122,275966151.85553,   0.00148,   0.00013,  -0.00001,   0.00000,   2.00000
541939582.77125,349388191.70278,-6494285.27683,   0.00327,   0.00066,  -0.00009,477783803.15096,   0.00122,275972537.29893,   0.00149,   0.00013,  -0.00001,   0.00000,   2.00000
541855383.51433,349761936.56608,-6725098.75374,   0.00328,   0.00067,  -0.00010,477798914.93763,   0.00123,275978950.68682,   0.00150,   0.00013,  -0.00001,   0.00000,   2.00000
541772460.38587,350125233.97228,-6955233.84371,   0.00329,   0.00067,  -0.00010,477784496.27690,   0.00124,275985288.29978,   0.00150,   0.00013,  -0.00001,   0.00000,   2.00000
541688902.95176,350486380.40699,-7188894.72076,   0.00329,   0.00067,  -0.00010,477791636.18326,   0.00124,275991626.13600,   0.00151,   0.00013,  -0.00001,   0.00000,   2.00000
541604698.27593,350845373.74696,-7426064.47053,   0.00330,   0.00068,  -0.00011,477798791.38598,   0.00125,275997964.26564,   0.00152,   0.00014,  -0.00001,   0.00000,   2.00000
541517809.98797,351212919.26846,-7662022.80265,   0.00330,   0.00068,  -0.00011,477813725.10431,   0.00125,276004329.91076,   0.00153,   0.00014,  -0.00001,  -0.00000,   2.00000
541431954.84322,351569983.43364,-7901887.25095,   0.00331,   0.00068,  -0.00011,477799472.18339,   0.00126,276010620.73087,   0.00153,   0.00014,  -0.00001,   0.00000,   2.00000
541346008.91508,351922606.97254,-8144968.86148,   0.00332,   0.00069,  -0.00012,477820090.08849,   0.00127,276016959.24444,   0.00154,   0.00014,  -0.00001,   0.00000,   2.00000
541256755.04228,352286055.59176,-8387071.26215,   0.00332,   0.00069,  -0.00012,477821595.74723,   0.00127,276023278.25447,   0.00155,   0.00014,  -0.00001,   0.00000,   2.00000
541169113.29212,352636784.92604,-8632810.99003,   0.00333,   0.00069,  -0.00012,477820780.96630,   0.00128,276029569.80477,   0.00155,   0.00014,  -0.00001,   0.00000,   2.00000
541080767.04507,352985361.89994,-8882006.28130,   0.00333,   0.00070,  -0.00013,477827960.60427,   0.00128,276035862.00617,   0.00156,   0.00014,  -0.00001,   0.00000,   2.00000
540991702.51710,353331783.47673,-9134640.34555,   0.00334,   0.00070,  -0.00013,477835157.07197,   0.00129,276042154.93320,   0.00157,   0.00015,  -0.00001,   0.00000,   2.00000
540899253.93857,353689029.91168,-9386268.66500,   0.00335,   0.00070,  -0.00014,477836694.79787,   0.00130,276048428.73812,   0.00157,   0.00015,  -0.00001,  -0.00000,   2.00000
540809033.53650,354031261.65828,-9641197.91554,   0.00335,   0.00071,  -0.00014,477849304.57668,   0.00130,276054722.29425,   0.00158,   0.00015,  -0.00001,   0.00000,   2.00000
540717436.50159,354373690.23712,-9899861.95221,   0.00336,   0.00071,  -0.00014,477843088.49598,   0.00131,276060969.75127,   0.00159,   0.00015,  -0.00001,  -0.00000,   2.00000
540625407.13689,354714157.18884,-10157374.52164,   0.00336,   0.00071,  -0.00015,477850003.87647,   0.00131,276067217.18283,   0.00160,   0.00015,  -0.00002,  -0.00000,   2.00000
540532612.87052,355052467.98231,-10418290.20061,   0.00337,   0.00072,  -0.00015,477857214.22288,   0.00132,276073465.63789,   0.00160,   0.00015,  -0.00002,   0.00000,   2.00000
540438739.04947,355391209.14582,-10678393.50618,   0.00338,   0.00072,  -0.00016,477850696.18492,   0.00132,276079667.20612,   0.00161,   0.00016,  -0.00002,   0.00000,   2.00000
540344378.21377,355725188.35771,-10946083.77757,   0.00338,   0.00072,  -0.00016,477871635.64677,   0.00133,276085917.90918,   0.00162,   0.00016,  -0.00002,   0.00000,   2.00000
540246509.39270,356069992.35479,-11212723.61556,   0.00339,   0.00073,  -0.00016,477873260.35826,   0.00134,276092150.12433,   0.00162,   0.00016,  -0.00002,   0.00000,   2.00000
540150229.43105,356402206.26822,-11482950.94455,   0.00339,   0.00073,  -0.00017,477872406.80728,   0.00134,276098355.37307,   0.00163,   0.00016,  -0.00002,   0.00000,   2.00000
540053506.13956,356732484.20256,-11751977.21578,   0.00340,   0.00073,  -0.00017,477879312.39818,   0.00135,276104560.82349,   0.00164,   0.00016,  -0.00002,   0.00000,   2.00000
539955270.31851,357063020.24205,-12024749.81258,   0.00340,   0.00074,  -0.00018,477873138.87626,   0.00135,276110720.92292,   0.00164,   0.00016,  -0.00002,  -0.00000,   2.00000
539859312.88343,357378630.22294,-12300705.65021,   0.00341,   0.00074,  -0.00018,477885631.21084,   0.00136,276116900.95405,   0.00165,   0.00017,  -0.00002,   0.00000,   2.00000
539759774.60117,357705130.12576,-12575599.14855,   0.00342,   0.00074,  -0.00018,477887255.55650,   0.00136,276123062.94409,   0.00166,   0.00017,  -0.00002,   0.00000,   2.00000
539659372.03004,358029458.25459,-12853821.64383,   0.00342,   0.00075,  -0.00019,477894502.70522,   0.00137,276129226.55573,   0.00166,   0.00017,  -0.00002,   0.00000,   2.00000
539558090.02120,358351609.83603,-13135356.51834,   0.00343,   0.00075,  -0.00019,477901769.67592,   0.00138,276135391.87172,   0.00167,   0.00017,  -0.00002,   0.00000,   2.00000
539456353.23317,358671848.61779,-13415641.67232,   0.00343,   0.00075,  -0.00020,477908669.47159,   0.00138,276141557.62359,   0.00168,   0.00017,  -0.00002,   0.00000,   2.00000
539355474.44484,358982120.70195,-13699951.32404,   0.00344,   0.00076,  -0.00020,477894367.15460,   0.00139,276147650.17557,   0.00168,   0.00017,  -0.00002,  -0.00000,   2.00000
539251200.81774,359300517.98004,-13987275.36477,   0.00344,   0.00076,  -0.00021,477909794.81141,   0.00139,276153773.10835,   0.00169,   0.00018,  -0.00003,   0.00000,   2.00000
539146462.65979,359617010.72441,-14273329.24885,   0.00345,   0.00076,  -0.00021,477916672.99705,   0.00140,276159896.61049,   0.00170,   0.00018,  -0.00003,  -0.00000,   2.00000
539043294.31310,359921092.66621,-14562954.27826,   0.00346,   0.00077,  -0.00022,477915747.52472,   0.00140,276165993.66012,   0.00170,   0.00018,  -0.00003,   0.00000,   2.00000
538936677.68015,360233257.62208,-14855546.11567,   0.00346,   0.00077,  -0.00022,477931244.86498,   0.00141,276172121.34308,   0.00171,   0.00018,  -0.00003,   0.00000,   2.00000
538831348.30139,360535838.79535,-15147642.88572,   0.00347,   0.00077,  -0.00023,477916527.57365,   0.00142,276178174.73512,   0.00172,   0.00018,  -0.00003,   0.00000,   2.00000
538725056.03144,360836283.58097,-15443000.82956,   0.00347,   0.00078,  -0.00023,477923782.57294,   0.00142,276184230.39632,   0.00172,   0.00018,  -0.00003,   0.00000,   2.00000
538615254.38902,361144763.64877,-15741284.90030,   0.00348,   0.00078,  -0.00023,477939310.26053,   0.00143,276190316.97261,   0.00173,   0.00019,  -0.00003,  -0.00000,   2.00000
538507514.20478,361441193.24682,-16038576.27170,   0.00348,   0.00078,  -0.00024,477937929.46887,   0.00143,276196375.78483,   0.00174,   0.00019,  -0.00003,   0.00000,   2.00000
538397987.95696,361738017.32573,-16339634.97990,   0.00349,   0.00079,  -0.00024,477931865.77614,   0.00144,276202390.72580,   0.00174,   0.00019,  -0.00003,  -0.00000,   2.00000
538287443.14823,362032685.50932,-16643916.59346,   0.00349,   0.00079,  -0.00025,477939149.94003,   0.00144,276208408.24996,   0.00175,   0.00019,  -0.00003,   0.00000,   2.00000
538176417.68682,362325535.01545,-16946866.31740,   0.00350,   0.00079,  -0.00025,477945967.62749,   0.00145,276214426.74631,   0.00176,   0.00019,  -0.00003,   0.00000,   2.00000
538064358.32435,362616226.96272,-17253026.37423,   0.00351,   0.00080,  -0.00026,477953277.60967,   0.00146,276220447.93792,   0.00176,   0.00019,  -0.00003,  -0.00000,   2.00000
537951822.64553,362905111.57514,-17557843.44889,   0.00351,   0.00080,  -0.00026,477960103.73925,   0.00146,276226470.15418,   0.00177,   0.00020,  -0.00004,   0.00000,   2.00000
537837407.23282,363194409.13107,-17866442.86689,   0.00352,   0.00080,  -0.00027,477954093.60499,   0.00147,276232448.97489,   0.00178,   0.00020,  -0.00004,  -0.00000,   2.00000
537724503.07761,363471447.54824,-18178601.64532,   0.00352,   0.00081,  -0.00027,477953099.30230,   0.00147,276238402.01147,   0.00178,   0.00020,  -0.00004,  -0.00000,   2.00000
537608524.64283,363756816.97856,-18489025.99168,   0.00353,   0.00081,  -0.00028,477968188.90480,   0.00148,276244384.96297,   0.00179,   0.00020,  -0.00004,   0.00000,   2.00000
537493200.54453,364032538.69845,-18803625.39721,   0.00353,   0.00081,  -0.00028,477953871.85431,   0.00148,276250296.08358,   0.00180,   0.00020,  -0.00004,  -0.00000,   2.00000
537374160.76057,364316182.73395,-19121006.10444,   0.00354,   0.00081,  -0.00029,477969498.26336,   0.00149,276256239.15089,   0.00180,   0.00021,  -0.00004,   0.00000,   2.00000
537257234.26696,364587985.12665,-19437402.98965,   0.00354,   0.00082,  -0.00029,477967948.47796,   0.00149,276262154.74225,   0.00181,   0.00021,  -0.00004,   0.00000,   2.00000
537139180.62632,364857653.25684,-19756959.71915,   0.00355,   0.00082,  -0.00030,477975266.09312,   0.00150,276268073.63124,   0.00182,   0.00021,  -0.00004,   0.00000,   2.00000
537020637.81018,365125590.62738,-20075129.41526,   0.00355,   0.00082,  -0.00031,477982028.89046,   0.00151,276273993.90333,   0.00182,   0.00021,  -0.00004,  -0.00000,   2.00000
536899391.63204,365393594.51510,-20401641.96106,   0.00356,   0.00083,  -0.00031,477976648.59088,   0.00151,276279873.63549,   0.00183,   0.00021,  -0.00005,   0.00000,   2.00000
536778309.63382,365660283.60134,-20722215.01712,   0.00357,   0.00083,  -0.00032,477982805.45375,   0.00152,276285752.83190,   0.00184,   0.00021,  -0.00005,  -0.00000,   2.00000
536655147.84574,365927457.78036,-21046616.94012,   0.00357,   0.00083,  -0.00032,477976834.41418,   0.00152,276291589.64322,   0.00184,   0.00022,  -0.00005,   0.00000,   2.00000
536534357.03609,366179848.32344,-21373894.17541,   0.00358,   0.00084,  -0.00033,477989071.49207,   0.00153,276297447.16425,   0.00185,   0.00022,  -0.00005,   0.00000,   2.00000
536408786.59622,366442744.55181,-21704546.81670,   0.00358,   0.00084,  -0.00033,477991512.77056,   0.00153,276303291.47280,   0.00185,   0.00022,  -0.00005,  -0.00000,   2.00000
536285361.37363,366693954.32319,-22034228.79480,   0.00359,   0.00084,  -0.00034,477989848.60181,   0.00154,276309108.53020,   0.00186,   0.00022,  -0.00005,   0.00000,   2.00000
536160493.40670,366946159.39635,-22363225.47603,   0.00359,   0.00085,  -0.00034,477983249.54655,   0.00154,276314881.42959,   0.00187,   0.00022,  -0.00005,  -0.00000,   2.00000
536033651.91400,367195770.42961,-22699865.38940,   0.00360,   0.00085,  -0.00035,477991206.87147,   0.00155,276320660.56490,   0.00187,   0.00022,  -0.00005,   0.00000,   2.00000
535906289.57765,367443709.89519,-23035067.20030,   0.00360,   0.00085,  -0.00035,477997892.91761,   0.00155,276326441.54468,   0.00188,   0.00023,  -0.00005,   0.00000,   2.00000
535778417.94419,367689988.83532,-23368835.73090,   0.00361,   0.00086,  -0.00036,478004573.77174,   0.00156,276332224.35885,   0.00189,   0.00023,  -0.00006,  -0.00000,   2.00000
535648297.38946,367936804.34986,-23706467.41961,   0.00361,   0.00086,  -0.00037,477998659.35165,   0.00156,276337965.61585,   0.00189,   0.00023,  -0.00006,   0.00000,   2.00000
535520349.90058,368172059.86649,-24043160.83564,   0.00362,   0.00086,  -0.00037,477996871.71139,   0.00157,276343679.76238,   0.00190,   0.00023,  -0.00006,  -0.00000,   2.00000
535387623.66291,368414601.68439,-24386957.12032,   0.00362,   0.00087,  -0.00038,478013336.20518,   0.00158,276349429.74662,   0.00191,   0.00023,  -0.00006,  -0.00000,   2.00000
535256863.06819,368648802.32668,-24726087.76588,   0.00363,   0.00087,  -0.00038,477997595.29271,   0.00158,276355104.58049,   0.00191,   0.00024,  -0.00006,   0.00000,   2.00000
535123966.83795,368880368.36603,-25072819.29384,   0.00363,   0.00087,  -0.00039,478005625.01542,   0.00159,276360786.42515,   0.00192,   0.00024,  -0.00006,   0.00000,   2.00000
534991364.25615,369110852.79449,-25413572.18336,   0.00364,   0.00088,  -0.00039,478011515.32056,   0.00159,276366467.89464,   0.00192,   0.00024,  -0.00006,   0.00000,   2.00000
534855552.98525,369341385.08231,-25762748.08791,   0.00364,   0.00088,  -0.00040,478006348.63356,   0.00160,276372110.96186,   0.00193,   0.00024,  -0.00007,   0.00000,   2.00000
534721918.34934,369560462.74758,-26110999.70760,   0.00365,   0.00088,  -0.00041,478004467.22430,   0.00160,276377727.14532,   0.00194,   0.00024,  -0.00007,   0.00000,   2.00000
534585040.53463,369787829.79684,-26457242.65451,   0.00365,   0.00088,  -0.00041,478019507.64102,   0.00161,276383374.72539,   0.00194,   0.00024,  -0.00007,   0.00000,   2.00000
534448439.69935,370005939.70706,-26807965.88962,   0.00366,   0.00089,  -0.00042,478005141.61422,   0.00161,276388952.50106,   0.00195,   0.00025,  -0.00007,   0.00000,   2.00000
534310427.02508,370221935.68970,-27161736.20955,   0.00366,   0.00089,  -0.00042,478012455.20116,   0.00162,276394535.32013,   0.00195,   0.00025,  -0.00007,  -0.00000,   2.00000
534171876.34139,370436381.32314,-27514030.67818,   0.00367,   0.00089,  -0.00043,478019003.86865,   0.00162,276400120.54768,   0.00196,   0.00025,  -0.00007,  -0.00000,   2.00000
534030806.35633,370651433.27891,-27870263.48724,   0.00367,   0.00090,  -0.00044,478013128.80229,   0.00163,276405665.47721,   0.00197,   0.00025,  -0.00007,   0.00000,   2.00000
533891929.73002,370855140.10525,-28225607.53563,   0.00368,   0.00090,  -0.00044,478011138.29047,   0.00163,276411183.67908,   0.00197,   0.00025,  -0.00007,   0.00000,   2.00000
533747745.58811,371069278.06320,-28584314.36980,   0.00368,   0.00090,  -0.00045,478013751.85924,   0.00164,276416691.04206,   0.00198,   0.00025,  -0.00008,   0.00000,   2.00000
533606874.35780,371269347.42412,-28941206.52328,   0.00369,   0.00091,  -0.00045,478024936.48688,   0.00164,276422217.13503,   0.00198,   0.00026,  -0.00008,   0.00000,   2.00000
533462270.44371,371472803.30406,-29303018.79331,   0.00369,   0.00091,  -0.00046,478005867.50618,   0.00165,276427657.94406,   0.00199,   0.00026,  -0.00008,   0.00000,   2.00000
533317288.06343,371671386.68358,-29666888.12246,   0.00370,   0.00091,  -0.00047,478026365.06368,   0.00165,276433149.75176,   0.00200,   0.00026,  -0.00008,   0.00000,   2.00000
533173358.32414,371861466.13404,-30030858.37693,   0.00370,   0.00091,  -0.00047,478011123.20926,   0.00166,276438569.65672,   0.00200,   0.00026,  -0.00008,   0.00000,   2.00000
533024962.08605,372062590.60767,-30393690.65824,   0.00371,   0.00092,  -0.00048,478012898.60297,   0.00166,276443976.32851,   0.00201,   0.00026,  -0.00008,   0.00000,   2.00000
532877780.06297,372251833.29168,-30760184.41529,   0.00371,   0.00092,  -0.00049,478011646.21093,   0.00167,276449359.49249,   0.00201,   0.00027,  -0.00009,   0.00000,   2.00000
532729032.53596,372438968.65585,-31129682.74037,   0.00372,   0.00092,  -0.00049,478018940.82519,   0.00167,276454748.60889,   0.00202,   0.00027,  -0.00009,   0.00000,   2.00000
532579718.30913,372624646.97450,-31497678.58089,   0.00372,   0.00093,  -0.00050,478025357.87443,   0.00168,276460140.65643,   0.00202,   0.00027,  -0.00009,   0.00000,   2.00000
532431418.55278,372801925.22482,-31865877.85725,   0.00373,   0.00093,  -0.00050,478010027.14685,   0.00168,276465461.01647,   0.00203,   0.00027,  -0.00009,   0.00000,   2.00000
532280314.11296,372979888.87903,-32238126.49068,   0.00373,   0.00093,  -0.00051,478004121.89223,   0.00169,276470742.32207,   0.00204,   0.00027,  -0.00009,   0.00000,   2.00000
532127582.38260,373155751.17399,-32613372.76904,   0.00374,   0.00093,  -0.00052,478011380.54106,   0.00169,276476029.92419,   0.00204,   0.00027,  -0.00009,  -0.00000,   2.00000
531974268.57152,373330194.79276,-32987116.06738,   0.00374,   0.00094,  -0.00052,478017719.55330,   0.00170,276481320.65695,   0.00205,   0.00028,  -0.00010,   0.00000,   2.00000
531819146.15189,373506000.01471,-33360438.26546,   0.00374,   0.00094,  -0.00053,478010899.11105,   0.00170,276486569.35330,   0.00205,   0.00028,  -0.00010,   0.00000,   2.00000
531665144.07909,373670004.53345,-33737466.15715,   0.00375,   0.00094,  -0.00054,478009572.03595,   0.00171,276491795.08830,   0.00206,   0.00028,  -0.00010,  -0.00000,   2.00000
531508202.72561,373834695.81144,-34118578.01208,   0.00375,   0.00095,  -0.00054,478003688.49928,   0.00171,276496982.32678,   0.00206,   0.00028,  -0.00010,  -0.00000,   2.00000
531350662.43490,373998003.58871,-34498186.30017,   0.00376,   0.00095,  -0.00055,478009952.21229,   0.00172,276502172.89763,   0.00207,   0.00028,  -0.00010,  -0.00000,   2.00000
531191254.64364,374162715.22415,-34877420.16184,   0.00376,   0.00095,  -0.00056,478003075.41007,   0.00172,276507321.71126,   0.00208,   0.00028,  -0.00010,  -0.00000,   2.00000
531032909.28445,374315652.94665,-35260385.49348,   0.00377,   0.00095,  -0.00056,478001699.30722,   0.00173,276512447.85888,   0.00208,   0.00029,  -0.00010,   0.00000,   2.00000
530873966.10671,374467255.70977,-35641854.31147,   0.00377,   0.00096,  -0.00057,478007904.29617,   0.00173,276517577.43992,   0.00209,   0.00029,  -0.00011,   0.00000,   2.00000
530711965.04998,374619553.08493,-36027460.96549,   0.00378,   0.00096,  -0.00058,478002022.00011,   0.00174,276522668.99674,   0.00209,   0.00029,  -0.00011,  -0.00000,   2.00000
530548035.05957,374773291.45613,-36412740.11241,   0.00378,   0.00096,  -0.00058,477995091.96324,   0.00174,276527719.07524,   0.00210,   0.00029,  -0.00011,  -0.00000,   2.00000
530385105.75392,374915277.20678,-36801776.33365,   0.00378,   0.00097,  -0.00059,477993671.38547,   0.00175,276532746.78923,   0.00210,   0.00029,  -0.00011,  -0.00000,   2.00000
530220213.60892,375058742.22538,-37190511.87567,   0.00379,   0.00097,  -0.00060,477986697.99414,   0.00175,276537733.17678,   0.00211,   0.00030,  -0.00011,   0.00000,   2.00000
530053496.84704,375200102.59749,-37582223.16795,   0.00379,   0.00097,  -0.00060,477993876.58258,   0.00176,276542726.94535,   0.00211,   0.00030,  -0.00012,   0.00000,   2.00000
529888946.30933,375330537.39896,-37973239.35983,   0.00380,   0.00097,  -0.00061,477991353.07702,   0.00176,276547694.85057,   0.00212,   0.00030,  -0.00012,   0.00000,   2.00000
529721167.04590,375461684.16961,-38368455.75611,   0.00380,   0.00098,  -0.00062,477985445.01576,   0.00177,276552625.39192,   0.00212,   0.00030,  -0.00012,  -0.00000,   2.00000
529551359.49354,375594339.02320,-38763419.15361,   0.00381,   0.00098,  -0.00062,477978423.39319,   0.00177,276557514.88499,   0.00213,   0.00030,  -0.00012,   0.00000,   2.00000
529380913.77251,375725711.14800,-39156895.33189,   0.00381,   0.00098,  -0.00063,477984451.06606,   0.00177,276562408.23740,   0.00213,   0.00030,  -0.00012,  -0.00000,   2.00000
529209953.36668,375848166.66665,-39555450.37681,   0.00381,   0.00098,  -0.00064,477969881.06136,   0.00178,276567234.85566,   0.00214,   0.00031,  -0.00012,   0.00000,   2.00000
529037059.84298,375968522.97851,-39956970.09927,   0.00382,   0.00099,  -0.00065,477977010.76940,   0.00178,276572069.41493,   0.00214,   0.00031,  -0.00013,   0.00000,   2.00000
528862069.85055,376090411.55561,-40358284.80701,   0.00382,   0.00099,  -0.00065,477969944.19853,   0.00179,276576863.20480,   0.00215,   0.00031,  -0.00013,   0.00000,   2.00000
528689211.70579,376201462.85674,-40758978.48774,   0.00383,   0.00099,  -0.00066,477967240.75897,   0.00179,276581631.38274,   0.00215,   0.00031,  -0.00013,   0.00000,   2.00000
528514239.70733,376314090.78342,-41159512.98248,   0.00383,   0.00099,  -0.00067,477960107.95757,   0.00180,276586358.84893,   0.00216,   0.00031,  -0.00013,   0.00000,   2.00000
528337282.08033,376424619.34063,-41563020.41010,   0.00383,   0.00100,  -0.00067,477967193.51388,   0.00180,276591094.53288,   0.00216,   0.00031,  -0.00013,   0.00000,   2.00000
528158143.96015,376529043.48401,-41973065.98691,   0.00384,   0.00100,  -0.00068,477939542.86286,   0.00181,276595719.31547,   0.00217,   0.00032,  -0.00014,   0.00000,   2.00000
527979795.64988,376629465.73271,-42380278.66861,   0.00384,   0.00100,  -0.00069,477958418.90403,   0.00181,276600393.18008,   0.00217,   0.00032,  -0.00014,   0.00000,   2.00000
527799261.36997,376731480.75629,-42787380.43167,   0.00385,   0.00100,  -0.00070,477951245.77963,   0.00181,276605026.61023,   0.00218,   0.00032,  -0.00014,   0.00000,   2.00000
527617936.93544,376824610.45417,-43199746.85824,   0.00385,   0.00101,  -0.00070,477936600.24404,   0.00182,276609594.16641,   0.00218,   0.00032,  -0.00014,   0.00000,   2.00000
527434372.57382,376919343.41805,-43612037.23052,   0.00385,   0.00101,  -0.00071,477929356.95001,   0.00182,276614121.46787,   0.00219,   0.00032,  -0.00014,   0.00000,   2.00000
527250097.74003,377012890.90892,-44022867.94486,   0.00386,   0.00101,  -0.00072,477935103.81409,   0.00183,276618653.22673,   0.00219,   0.00032,  -0.00014,   0.00000,   2.00000
527064937.15663,377097554.47513,-44439033.92259,   0.00386,   0.00101,  -0.00072,477920418.26725,   0.00183,276623119.38010,   0.00220,   0.00032,  -0.00015,  -0.00000,   2.00000
526879048.38346,377181056.99812,-44853742.51527,   0.00386,   0.00102,  -0.00073,477926120.59849,   0.00184,276627590.11320,   0.00220,   0.00033,  -0.00015,   0.00000,   2.00000
526689420.44026,377265220.42971,-45272860.37206,   0.00387,   0.00102,  -0.00074,477920118.81463,   0.00184,276632025.26476,   0.00221,   0.00033,  -0.00015,  -0.00000,   2.00000
526500242.70354,377341456.00347,-45692950.11310,   0.00387,   0.00102,  -0.00075,477904108.26745,   0.00184,276636390.64583,   0.00221,   0.00033,  -0.00015,  -0.00000,   2.00000
526308847.59712,377415563.70733,-46116008.70722,   0.00388,   0.00102,  -0.00075,477911059.89675,   0.00185,276640765.31993,   0.00222,   0.00033,  -0.00015,  -0.00000,   2.00000
526119336.97883,377482760.96785,-46535674.63176,   0.00388,   0.00102,  -0.00076,477893671.20117,   0.00185,276645065.73540,   0.00222,   0.00033,  -0.00016,   0.00000,   2.00000
525924460.72300,377549616.97852,-46964228.21997,   0.00388,   0.00103,  -0.00077,477888944.34168,   0.00186,276649335.63228,   0.00223,   0.00033,  -0.00016,   0.00000,   2.00000
525730300.84341,377616340.13238,-47386926.62586,   0.00389,   0.00103,  -0.00078,477893151.95024,   0.00186,276653605.78079,   0.00223,   0.00034,  -0.00016,   0.00000,   2.00000
525534978.28295,377674169.86345,-47815142.45226,   0.00389,   0.00103,  -0.00078,477878385.66020,   0.00186,276657811.08346,   0.00223,   0.00034,  -0.00016,   0.00000,   2.00000
525337197.11431,377733654.03175,-48243462.96395,   0.00389,   0.00103,  -0.00079,477870920.25645,   0.00187,276661976.82590,   0.00224,   0.00034,  -0.00016,   0.00000,   2.00000
525137077.20763,377790981.99663,-48674760.69221,   0.00390,   0.00104,  -0.00080,477877790.90530,   0.00187,276666152.39638,   0.00224,   0.00034,  -0.00016,  -0.00000,   2.00000
524937223.75866,377840433.55415,-49107234.88635,   0.00390,   0.00104,  -0.00081,477861611.09128,   0.00188,276670258.62404,   0.00225,   0.00034,  -0.00017,   0.00000,   2.00000
524734848.61299,377891542.59056,-49539864.91609,   0.00390,   0.00104,  -0.00081,477854087.30600,   0.00188,276674325.47254,   0.00225,   0.00034,  -0.00017,   0.00000,   2.00000
524532829.05872,377930968.89613,-49976544.81098,   0.00391,   0.00104,  -0.00082,477852199.93938,   0.00188,276678372.49119,   0.00226,   0.00034,  -0.00017,   0.00000,   2.00000
524328103.00172,377975890.57842,-50410622.98358,   0.00391,   0.00104,  -0.00083,477830255.21100,   0.00189,276682330.80044,   0.00226,   0.00035,  -0.00017,  -0.00000,   2.00000
524122072.85356,378008042.18212,-50853173.18979,   0.00391,   0.00105,  -0.00084,477829754.31136,   0.00189,276686274.45446,   0.00226,   0.00035,  -0.00017,   0.00000,   2.00000
523916793.48368,378040205.66025,-51289937.63708,   0.00392,   0.00105,  -0.00084,477833596.19192,   0.00189,276690218.42375,   0.00227,   0.00035,  -0.00018,   0.00000,   2.00000
523705486.21637,378075683.84509,-51732969.80653,   0.00392,   0.00105,  -0.00085,477814527.01913,   0.00190,276694083.94524,   0.00227,   0.00035,  -0.00018,   0.00000,   2.00000
523494387.22771,378099444.24872,-52180105.57123,   0.00392,   0.00105,  -0.00086,477812554.69467,   0.00190,276697930.11325,   0.00228,   0.00035,  -0.00018,  -0.00000,   2.00000
523282248.43631,378125983.40895,-52623142.58784,   0.00392,   0.00105,  -0.00087,477803375.91290,   0.00191,276701732.19171,   0.00228,   0.00035,  -0.00018,   0.00000,   2.00000
523068465.23604,378143544.70866,-53071993.71206,   0.00393,   0.00105,  -0.00087,477788454.23282,   0.00191,276705470.60974,   0.00228,   0.00035,  -0.00018,  -0.00000,   2.00000
522851931.36038,378162762.67746,-53521169.11889,   0.00393,   0.00106,  -0.00088,477780705.62152,   0.00191,276709170.24974,   0.00229,   0.00036,  -0.00019,   0.00000,   2.00000
522635493.41648,378170249.48728,-53974501.83544,   0.00393,   0.00106,  -0.00089,477778648.26218,   0.00192,276712850.87030,   0.00229,   0.00036,  -0.00019,   0.00000,   2.00000
522416250.67642,378179393.63547,-54428187.35960,   0.00394,   0.00106,  -0.00090,477770878.32646,   0.00192,276716492.86859,   0.00230,   0.00036,  -0.00019,  -0.00000,   2.00000
522194184.46575,378190182.54490,-54882248.71906,   0.00394,   0.00106,  -0.00090,477763080.92921,   0.00192,276720096.27201,   0.00230,   0.00036,  -0.00019,   0.00000,   2.00000
521971986.88442,378193103.69029,-55337893.59071,   0.00394,   0.00106,  -0.00091,477746523.05467,   0.00193,276723631.06199,   0.00230,   0.00036,  -0.00019,   0.00000,   2.00000
521747863.97552,378186974.38451,-55799508.62693,   0.00394,   0.00107,  -0.00092,477731516.24551,   0.00193,276727102.83522,   0.00231,   0.00036,  -0.00019,   0.00000,   2.00000
521520813.35693,378182481.31245,-56261566.25887,   0.00395,   0.00107,  -0.00093,477723611.42709,   0.00193,276730536.25545,   0.00231,   0.00036,  -0.00020,   0.00000,   2.00000
521292746.89277,378176917.63598,-56722302.40067,   0.00395,   0.00107,  -0.00094,477728538.91162,   0.00194,276733975.67056,   0.00231,   0.00036,  -0.00020,   0.00000,   2.00000
521062621.76266,378162254.81864,-57189079.15545,   0.00395,   0.00107,  -0.00094,477713526.55641,   0.00194,276737352.36937,   0.00232,   0.00037,  -0.00020,   0.00000,   2.00000
520832175.74543,378139705.36502,-57657584.31257,   0.00395,   0.00107,  -0.00095,477696844.09877,   0.00194,276740660.81104,   0.00232,   0.00037,  -0.00020,   0.00000,   2.00000
520596010.25523,378128282.49194,-58125369.94494,   0.00396,   0.00107,  -0.00096,477697576.10726,   0.00194,276743961.23885,   0.00232,   0.00037,  -0.00020,   0.00000,   2.00000
520362145.37101,378099437.55356,-58596203.60200,   0.00396,   0.00108,  -0.00097,477672107.77210,   0.00195,276747163.34154,   0.00233,   0.00037,  -0.00021,   0.00000,   2.00000
520123331.31353,378070942.81504,-59071936.30005,   0.00396,   0.00108,  -0.00097,477665728.50806,   0.00195,276750333.30103,   0.00233,   0.00037,  -0.00021,   0.00000,   2.00000
519883399.07228,378041368.62891,-59546384.25234,   0.00396,   0.00108,  -0.00098,477670476.78236,   0.00195,276753509.63115,   0.00233,   0.00037,  -0.00021,   0.00000,   2.00000
519640940.99831,378006520.84857,-60024598.78585,   0.00396,   0.00108,  -0.00099,477640861.52291,   0.00196,276756573.67949,   0.00234,   0.00037,  -0.00021,   0.00000,   2.00000
519399988.25781,377961082.03771,-60502847.86667,   0.00397,   0.00108,  -0.00100,477636786.96068,   0.00196,276759614.02469,   0.00234,   0.00037,  -0.00021,   0.00000,   2.00000
519151840.59206,377918567.52963,-60987973.80022,   0.00397,   0.00108,  -0.00101,477617571.04792,   0.00196,276762578.43041,   0.00234,   0.00038,  -0.00021,   0.00000,   2.00000
518902495.62196,377874953.52127,-61471850.18830,   0.00397,   0.00108,  -0.00101,477622174.84274,   0.00196,276765549.45057,   0.00235,   0.00038,  -0.00022,  -0.00000,   2.00000
518652494.07475,377823357.96762,-61957740.90616,   0.00397,   0.00108,  -0.00102,477605259.06473,   0.00197,276768452.69047,   0.00235,   0.00038,  -0.00022,   0.00000,   2.00000
518399673.90277,377766398.35089,-62447639.88913,   0.00397,   0.00109,  -0.00103,477575511.30817,   0.00197,276771243.98619,   0.00235,   0.00038,  -0.00022,   0.00000,   2.00000
518143638.52226,377706997.16301,-62940620.40187,   0.00398,   0.00109,  -0.00104,477581784.66280,   0.00197,276774048.29892,   0.00235,   0.00038,  -0.00022,  -0.00000,   2.00000
517886799.38098,377639568.35161,-63435714.41490,   0.00398,   0.00109,  -0.00105,477564783.24464,   0.00198,276776785.06259,   0.00236,   0.00038,  -0.00022,   0.00000,   2.00000
517626508.49881,377573633.78388,-63931597.26113,   0.00398,   0.00109,  -0.00105,477556460.61423,   0.00198,276779484.51853,   0.00236,   0.00038,  -0.00022,   0.00000,   2.00000
517365333.88896,377499643.70165,-64429667.37455,   0.00398,   0.00109,  -0.00106,477539390.36598,   0.00198,276782116.49791,   0.00236,   0.00038,  -0.00023,   0.00000,   2.00000
517101203.40794,377416204.35924,-64934238.16253,   0.00398,   0.00109,  -0.00107,477524144.41688,   0.00198,276784687.54387,   0.00237,   0.00038,  -0.00023,  -0.00000,   2.00000
516835526.15689,377335605.82855,-65435398.76349,   0.00398,   0.00109,  -0.00108,477513854.04784,   0.00199,276787214.99402,   0.00237,   0.00038,  -0.00023,   0.00000,   2.00000
516564210.84988,377255046.67392,-65941718.42195,   0.00398,   0.00109,  -0.00109,477507291.82597,   0.00199,276789711.90974,   0.00237,   0.00038,  -0.00023,   0.00000,   2.00000
516289750.46996,377164932.48302,-66454618.07293,   0.00399,   0.00110,  -0.00110,477492040.24161,   0.00199,276792148.26508,   0.00237,   0.00039,  -0.00023,  -0.00000,   2.00000
516013946.23742,377070624.38913,-66967693.47900,   0.00399,   0.00110,  -0.00110,477460216.39996,   0.00199,276794466.72248,   0.00237,   0.00039,  -0.00023,   0.00000,   2.00000
515736680.45822,376975143.78152,-67479646.29667,   0.00399,   0.00110,  -0.00111,477464361.60072,   0.00199,276796792.48396,   0.00238,   0.00039,  -0.00023,   0.00000,   2.00000
515456084.38232,376870024.85690,-67998280.51512,   0.00399,   0.00110,  -0.00112,477449048.55054,   0.00200,276799057.97687,   0.00238,   0.00039,  -0.00024,   0.00000,   2.00000
515174187.56576,376756679.19567,-68519378.07635,   0.00399,   0.00110,  -0.00113,477431771.03254,   0.00200,276801256.55654,   0.00238,   0.00039,  -0.00024,  -0.00000,   2.00000
514886078.03434,376647171.45768,-69043651.99983,   0.00399,   0.00110,  -0.00114,477410469.27652,   0.00200,276803374.41183,   0.00238,   0.00039,  -0.00024,   0.00000,   2.00000
514598907.89215,376526867.78620,-69568318.01315,   0.00399,   0.00110,  -0.00114,477405789.20304,   0.00200,276805469.58627,   0.00239,   0.00039,  -0.00024,   0.00000,   2.00000
514305618.27057,376406361.05304,-70098298.41830,   0.00399,   0.00110,  -0.00115,477399136.49115,   0.00200,276807535.28749,   0.00239,   0.00039,  -0.00024,   0.00000,   2.00000
514008411.84892,376280001.13131,-70633063.75613,   0.00399,   0.00110,  -0.00116,477369113.95129,   0.00201,276809490.25533,   0.00239,   0.00039,  -0.00024,   0.00000,   2.00000
513711800.54055,376146771.18323,-71166264.55583,   0.00400,   0.00110,  -0.00117,477349643.36083,   0.00201,276811371.53661,   0.00239,   0.00039,  -0.00024,   0.00000,   2.00000
513408870.91979,376013228.97630,-71704859.29260,   0.00400,   0.00110,  -0.00118,477342908.02839,   0.00201,276813223.70841,   0.00239,   0.00039,  -0.00024,   0.00000,   2.00000
513104455.30181,375867264.42684,-72248154.88113,   0.00400,   0.00110,  -0.00118,477340163.06435,   0.00201,276815060.78348,   0.00240,   0.00039,  -0.00025,   0.00000,   2.00000
512798039.61492,375716826.03761,-72792240.59084,   0.00400,   0.00110,  -0.00119,477307985.82209,   0.00201,276816780.14617,   0.00240,   0.00039,  -0.00025,   0.00000,   2.00000
512484864.67467,375569945.23526,-73339842.17640,   0.00400,   0.00110,  -0.00120,477286497.44742,   0.00201,276818419.39699,   0.00240,   0.00040,  -0.00025,   0.00000,   2.00000
512170019.27417,375410535.72262,-73892211.15012,   0.00400,   0.00111,  -0.00121,477283664.56376,   0.00202,276820043.89920,   0.00240,   0.00040,  -0.00025,  -0.00000,   2.00000
511850788.94344,375252182.26387,-74445875.95105,   0.00400,   0.00111,  -0.00122,477274791.92037,   0.00202,276821632.58845,   0.00240,   0.00040,  -0.00025,   0.97033,   1.00000
511526985.67410,375087623.91051,-75004753.31046,   0.00400,   0.00111,  -0.00123,477244624.35606,   0.00202,276823111.13610,   0.00240,   0.00040,  -0.00025,   0.84417,   1.00000
511201066.57151,374914408.06085,-75566590.01596,   0.00400,   0.00111,  -0.00123,477227002.40775,   0.00202,276824523.70193,   0.00240,   0.00040,  -0.00025,   0.77395,   1.00000
510872962.88299,374732499.96216,-76131428.28827,   0.00400,   0.00111,  -0.00124,477209349.08082,   0.00202,276825870.34925,   0.00241,   0.00040,  -0.00025,   0.70658,   1.00000
510540239.94984,374551519.55394,-76697689.84839,   0.00400,   0.00111,  -0.00125,477200328.58434,   0.00202,276827181.46535,   0.00241,   0.00040,  -0.00025,   0.67279,   1.00000
510202843.46890,374360144.79065,-77271183.64273,   0.00400,   0.00111,  -0.00126,477184861.61577,   0.00202,276828434.56918,   0.00241,   0.00040,  -0.00025,   0.61737,   1.00000
509860428.38643,374173599.06842,-77844377.30434,   0.00400,   0.00111,  -0.00127,477161029.21014,   0.00203,276829600.46963,   0.00241,   0.00040,  -0.00026,   0.53684,   1.00000
509513154.03602,373976540.48672,-78424878.84191,   0.00400,   0.00111,  -0.00128,477145532.87797,   0.00203,276830708.62808,   0.00241,   0.00040,  -0.00026,   0.48720,   1.00000
509163313.74812,373770559.06412,-79008575.51569,   0.00400,   0.00111,  -0.00128,477127791.42839,   0.00203,276831751.30995,   0.00241,   0.00040,  -0.00026,   0.43332,   1.00000
508810831.41043,373555611.63788,-79595509.92982,   0.00400,   0.00111,  -0.00129,477110023.92532,   0.00203,276832728.58465,   0.00241,   0.00040,  -0.00026,   0.38243,   1.00000
508450601.93740,373343645.55177,-80186484.77005,   0.00400,   0.00111,  -0.00130,477088339.37668,   0.00203,276833626.83842,   0.00241,   0.00040,  -0.00026,   0.32457,   1.00000
508090327.55899,373120334.57294,-80778322.90264,   0.00400,   0.00111,  -0.00131,477083036.48754,   0.00203,276834503.86394,   0.00241,   0.00040,  -0.00026,   0.31085,   1.00000
507724411.26650,372890184.63001,-81375996.43454,   0.00400,   0.00111,  -0.00132,477052705.22028,   0.00203,276835271.65036,   0.00242,   0.00040,  -0.00026,   0.23935,   1.00000
507353030.68406,372649144.76625,-81981186.22953,   0.00400,   0.00111,  -0.00133,477037198.91303,   0.00203,276835982.65070,   0.00242,   0.00040,  -0.00026,   0.20623,   1.00000
506976014.02123,372412566.26764,-82586499.61909,   0.00400,   0.00111,  -0.00133,477013098.13998,   0.00203,276836606.70600,   0.00242,   0.00040,  -0.00026,   0.15962,   1.00000
506593322.70744,372164958.13777,-83199404.96444,   0.00400,   0.00111,  -0.00134,476997580.00720,   0.00203,276837174.27646,   0.00242,   0.00040,  -0.00026,   0.13266,   1.00000
506207364.10501,371907986.07653,-83815842.10059,   0.00400,   0.00111,  -0.00135,476979689.91060,   0.00203,276837677.12038,   0.00242,   0.00040,  -0.00026,   0.10462,   1.00000
505818425.66750,371653135.14899,-84430010.79131,   0.00399,   0.00111,  -0.00136,476967948.36959,   0.00203,276838137.08443,   0.00242,   0.00040,  -0.00026,   0.08795,   1.00000
505420599.12764,371389234.70552,-85054445.48600,   0.00399,   0.00111,  -0.00137,476939993.75675,   0.00203,276838496.98034,   0.00242,   0.00040,  -0.00026,   0.05410,   1.00000
505019226.44306,371115786.69076,-85682544.48869,   0.00399,   0.00111,  -0.00138,476922047.72973,   0.00203,276838792.41114,   0.00242,   0.00040,  -0.00026,   0.03663,   1.00000
504611239.85841,370834866.59900,-86316959.50393,   0.00399,   0.00111,  -0.00138,476891654.39280,   0.00203,276838979.46752,   0.00242,   0.00040,  -0.00026,   0.01476,   1.00000
504200364.29410,370551950.38530,-86950701.48570,   0.00399,   0.00111,  -0.00139,476894654.47245,   0.00203,276839176.62599,   0.00242,   0.00040,  -0.00026,   0.01647,   1.00000
503784763.46234,370251586.52092,-87592691.76295,   0.00399,   0.00111,  -0.00140,476855705.73297,   0.00203,276839235.20460,   0.00242,   0.00040,  -0.00026,   0.00146,   1.00000
503354424.57046,369949433.68195,-88238200.10077,   0.00399,   0.00110,  -0.00141,476833845.04057,   0.00203,276839235.20460,   0.00242,   0.00040,  -0.00026,-5390.16403,   0.00000
502908062.42197,369640413.73299,-88888286.51190,   0.00399,   0.00110,  -0.00142,476821552.45696,   0.00203,276839235.20460,   0.00242,   0.00040,  -0.00026,-17682.74764,   0.00000
502431942.79691,369292480.16084,-89533794.84972,   0.00398,   0.00110,  -0.00143,476780196.77740,   0.00203,276839235.20460,   0.00242,   0.00040,  -0.00026,-59038.42720,   0.00000
501939799.91524,368937679.47870,-90179303.18754,   0.00398,   0.00110,  -0.00143,476729471.74422,   0.00203,276839235.20460,   0.00242,   0.00040,  -0.00026,-109763.46039,   0.00000
501401876.30040,368537098.06339,-90829389.59867,   0.00398,   0.00110,  -0.00144,476642608.03652,   0.00203,276839235.20460,   0.00242,   0.00040,  -0.00026,-196627.16808,   0.00000
500838773.28230,368138805.68474,-91474897.93649,   0.00398,   0.00110,  -0.00145,476540071.86660,   0.00203,276839235.20460,   0.00242,   0.00040,  -0.00026,-299163.33800,   0.00000
500261936.04425,367708466.79286,-92124984.34762,   0.00398,   0.00110,  -0.00146,476426290.13457,   0.00203,276839235.20460,   0.00242,   0.00040,  -0.00026,-412945.07003,   0.00000
499646185.18300,367248370.42442,-92770492.68544,   0.00398,   0.00110,  -0.00147,476279877.37189,   0.00203,276839235.20460,   0.00242,   0.00040,  -0.00026,-559357.83272,   0.00000
498998387.80853,366774539.83602,-93420579.09657,   0.00397,   0.00110,  -0.00148,476114759.10358,   0.00203,276839235.20460,   0.00242,   0.00040,  -0.00026,-724476.10102,   0.00000
498327700.06747,366277818.88104,-94070665.50770,   0.00397,   0.00110,  -0.00149,475932163.77678,   0.00203,276839235.20460,   0.00242,   0.00040,  -0.00026,-907071.42782,   0.00000
497618098.70320,365751340.44948,-94716173.84552,   0.00397,   0.00110,  -0.00149,475717131.63262,   0.00203,276839235.20460,   0.00242,   0.00040,  -0.00026,-1122103.57198,   0.00000
496901630.22896,365208838.76132,-95366260.25665,   0.00397,   0.00110,  -0.00150,475499768.10203,   0.00203,276839235.20460,   0.00242,   0.00040,  -0.00026,-1339467.10258,   0.00000
496130224.87490,364629712.48661,-96016346.66779,   0.00397,   0.00109,  -0.00151,475240594.32326,   0.00203,276839235.20460,   0.00242,   0.00040,  -0.00026,-1598640.88135,   0.00000
495342796.26423,364043719.10193,-96661855.00560,   0.00396,   0.00109,  -0.00152,474969919.13744,   0.00203,276839235.20460,   0.00242,   0.00040,  -0.00026,-1869316.06717,   0.00000
494525610.17700,363418812.09404,-97311941.41674,   0.00396,   0.00109,  -0.00153,474676462.58378,   0.00203,276839235.20460,   0.00242,   0.00040,  -0.00026,-2162772.62082,   0.00000
493676377.57654,362780170.86620,-97962027.82787,   0.00396,   0.00109,  -0.00154,474362197.30226,   0.00203,276839235.20460,   0.00242,   0.00040,  -0.00026,-2477037.90235,   0.00000
492804254.60949,362118639.27177,-98612114.23901,   0.00396,   0.00109,  -0.00154,474030994.12041,   0.00203,276839235.20460,   0.00242,   0.00040,  -0.00026,-2808241.08419,   0.00000
491893218.01924,361427350.20078,-99262200.65014,   0.00395,   0.00109,  -0.00155,473670727.90048,   0.00203,276839235.20460,   0.00242,   0.00040,  -0.00026,-3168507.30412,   0.00000
490966158.17237,360729194.01981,-99907708.98796,   0.00395,   0.00109,  -0.00156,473299212.23879,   0.00203,276839235.20460,   0.00242,   0.00040,  -0.00026,-3540022.96581,   0.00000
489993317.59233,359985257.10566,-100557795.39909,   0.00395,   0.00109,  -0.00157,472893303.87690,   0.00203,276839235.20460,   0.00242,   0.00040,  -0.00026,-3945931.32770,   0.00000
489004453.75568,359234453.08153,-101207881.81022,   0.00394,   0.00108,  -0.00158,472479212.87170,   0.00203,276839235.20460,   0.00242,   0.00040,  -0.00026,-4360022.33291,   0.00000
487969809.18584,358437868.32423,-101857968.22136,   0.00394,   0.00108,  -0.00159,472028091.30928,   0.00203,276839235.20460,   0.00242,   0.00040,  -0.00026,-4811143.89533,   0.00000
