# sigma_xx, sigma_yy, sigma_xy, epsilon_xx, epsilon_yy, epsilon_xy, vonMises, epsPlastic, hardening, epsilonP__xx, epsilonP__yy, epsilonP__xy, yieldValue, iteration
   0.00000,   0.00000,   0.00000,   0.00000,   0.00000,   0.00000,1181185.37500,   0.00000,274640576.00000,   0.00000,   0.00000,   0.00000,-473459392.00000,   0.00000
   0.00000,   0.00000,   0.00000,   0.00000,   0.00000,   0.00000,1181185.37500,   0.00000,274640576.00000,   0.00000,   0.00000,   0.00000,-473459392.00000,   0.00000
1007095.06730,3230408.76778,484286.15258,  -0.00000,   0.00001,   0.00001,4158189.75000,   0.00000,274640576.00000,   0.00000,   0.00000,   0.00000,-470482400.00000,   0.00000
1994928.75353,6452562.65796,979578.80863,  -0.00000,   0.00003,   0.00001,6687388.00000,   0.00000,274640576.00000,   0.00000,   0.00000,   0.00000,-467953184.00000,   0.00000
2974507.56216,9655455.16707,1469368.21294,  -0.00001,   0.00004,   0.00002,9532439.00000,   0.00000,274640576.00000,   0.00000,   0.00000,   0.00000,-465108144.00000,   0.00000
3954086.37078,12858347.67618,1970164.12072,  -0.00001,   0.00005,   0.00003,12598900.00000,   0.00000,274640576.00000,   0.00000,   0.00000,   0.00000,-462041680.00000,   0.00000
4925410.30181,16041978.80423,2470960.02851,  -0.00001,   0.00006,   0.00003,15611127.00000,   0.00000,274640576.00000,   0.00000,   0.00000,   0.00000,-459029456.00000,   0.00000
5869217.97417,19198093.67360,2977259.18802,  -0.00001,   0.00008,   0.00004,18537380.00000,   0.00000,274640576.00000,   0.00000,   0.00000,   0.00000,-456103200.00000,   0.00000
6821280.52413,22373469.92404,3489061.59927,  -0.00001,   0.00009,   0.00005,21453160.00000,   0.00000,274640576.00000,   0.00000,   0.00000,   0.00000,-453187424.00000,   0.00000
7745826.81542,25521329.91581,4000864.01052,  -0.00001,   0.00010,   0.00005,24349996.00000,   0.00000,274640576.00000,   0.00000,   0.00000,   0.00000,-450290576.00000,   0.00000
8662118.22911,28649928.52652,4518169.67351,  -0.00002,   0.00011,   0.00006,27242324.00000,   0.00000,274640576.00000,   0.00000,   0.00000,   0.00000,-447398256.00000,   0.00000
9578409.64280,31778527.13722,5040978.58822,  -0.00002,   0.00013,   0.00007,30146432.00000,   0.00000,274640576.00000,   0.00000,   0.00000,   0.00000,-444494144.00000,   0.00000
10486446.17889,34887864.36686,5563787.50294,  -0.00002,   0.00014,   0.00007,33041508.00000,   0.00000,274640576.00000,   0.00000,   0.00000,   0.00000,-441599072.00000,   0.00000
11375221.33391,37988946.71889,6092099.66939,  -0.00002,   0.00015,   0.00008,35939460.00000,   0.00000,274640576.00000,   0.00000,   0.00000,   0.00000,-438701120.00000,   0.00000
12255741.61132,41070767.68986,6625915.08758,  -0.00002,   0.00016,   0.00009,38825184.00000,   0.00000,274640576.00000,   0.00000,   0.00000,   0.00000,-435815392.00000,   0.00000
13136261.88874,44152588.66082,7159730.50576,  -0.00003,   0.00018,   0.00009,41709976.00000,   0.00000,274640576.00000,   0.00000,   0.00000,   0.00000,-432930592.00000,   0.00000
13997520.78509,47226154.75419,7699049.17568,  -0.00003,   0.00019,   0.00010,44593252.00000,   0.00000,274640576.00000,   0.00000,   0.00000,   0.00000,-430047328.00000,   0.00000
14850524.80384,50280459.46649,8243871.09733,  -0.00003,   0.00020,   0.00011,47463392.00000,   0.00000,274640576.00000,   0.00000,   0.00000,   0.00000,-427177184.00000,   0.00000
15695273.94499,53315502.79772,8788693.01899,  -0.00003,   0.00021,   0.00011,50319112.00000,   0.00000,274640576.00000,   0.00000,   0.00000,   0.00000,-424321472.00000,   0.00000
16520761.70507,56342291.25134,9339018.19237,  -0.00003,   0.00022,   0.00012,53177052.00000,   0.00000,274640576.00000,   0.00000,   0.00000,   0.00000,-421463520.00000,   0.00000
17337994.58755,59349818.32390,9894846.61750,  -0.00004,   0.00024,   0.00013,56025880.00000,   0.00000,274640576.00000,   0.00000,   0.00000,   0.00000,-418614688.00000,   0.00000
18155227.47003,62357345.39646,10450675.04262,  -0.00004,   0.00025,   0.00014,58878756.00000,   0.00000,274640576.00000,   0.00000,   0.00000,   0.00000,-415761824.00000,   0.00000
18953198.97144,65356617.59142,11012006.71947,  -0.00004,   0.00026,   0.00014,61735292.00000,   0.00000,274640576.00000,   0.00000,   0.00000,   0.00000,-412905280.00000,   0.00000
19734660.71765,68317367.02424,11573338.39632,  -0.00004,   0.00027,   0.00015,64563688.00000,   0.00000,274640576.00000,   0.00000,   0.00000,   0.00000,-410076896.00000,   0.00000
20524377.34146,71297377.83813,12145676.57665,  -0.00005,   0.00028,   0.00016,67416128.00000,   0.00000,274640576.00000,   0.00000,   0.00000,   0.00000,-407224448.00000,   0.00000
21286577.70660,74249872.39335,12718014.75697,  -0.00005,   0.00030,   0.00017,70251408.00000,   0.00000,274640576.00000,   0.00000,   0.00000,   0.00000,-404389168.00000,   0.00000
22040523.19414,77183105.56750,13290352.93729,  -0.00005,   0.00031,   0.00017,73071784.00000,   0.00000,274640576.00000,   0.00000,   0.00000,   0.00000,-401568800.00000,   0.00000
22775207.30061,80108083.86405,13868194.36935,  -0.00005,   0.00032,   0.00018,75892136.00000,   0.00000,274640576.00000,   0.00000,   0.00000,   0.00000,-398748448.00000,   0.00000
23520897.91055,83022055.65714,14451539.05314,  -0.00005,   0.00033,   0.00019,78702552.00000,   0.00000,274640576.00000,   0.00000,   0.00000,   0.00000,-395938016.00000,   0.00000
24228065.75835,85919517.69502,15034883.73693,  -0.00006,   0.00034,   0.00020,81506088.00000,   0.00000,274640576.00000,   0.00000,   0.00000,   0.00000,-393134496.00000,   0.00000
24946240.10962,88805973.22943,15623731.67245,  -0.00006,   0.00036,   0.00020,84299304.00000,   0.00000,274640576.00000,   0.00000,   0.00000,   0.00000,-390341280.00000,   0.00000
25645153.07983,91684173.88625,16218082.85971,  -0.00006,   0.00037,   0.00021,87091720.00000,   0.00000,274640576.00000,   0.00000,   0.00000,   0.00000,-387548864.00000,   0.00000
26316549.79136,94534858.28439,16812434.04697,  -0.00006,   0.00038,   0.00022,89864968.00000,   0.00000,274640576.00000,   0.00000,   0.00000,   0.00000,-384775616.00000,   0.00000
27007207.88396,97393797.56013,17412288.48596,  -0.00007,   0.00039,   0.00023,92643744.00000,   0.00000,274640576.00000,   0.00000,   0.00000,   0.00000,-381996832.00000,   0.00000
27670349.71789,100225220.57721,18017646.17668,  -0.00007,   0.00040,   0.00023,95406936.00000,   0.00000,274640576.00000,   0.00000,   0.00000,   0.00000,-379233632.00000,   0.00000
28305975.29315,103029127.33561,18623003.86741,  -0.00007,   0.00041,   0.00024,98151632.00000,   0.00000,274640576.00000,   0.00000,   0.00000,   0.00000,-376488944.00000,   0.00000
28941600.86841,105833034.09402,19233864.80987,  -0.00007,   0.00043,   0.00025,100899696.00000,   0.00000,274640576.00000,   0.00000,   0.00000,   0.00000,-373740880.00000,   0.00000
29577226.44367,108636940.85243,19844725.75233,  -0.00008,   0.00044,   0.00026,103648016.00000,   0.00000,274640576.00000,   0.00000,   0.00000,   0.00000,-370992560.00000,   0.00000
30177080.88267,111394069.97109,20461089.94652,  -0.00008,   0.00045,   0.00027,106366088.00000,   0.00000,274640576.00000,   0.00000,   0.00000,   0.00000,-368274496.00000,   0.00000
30785190.19926,114170460.47083,21077454.14072,  -0.00008,   0.00046,   0.00027,109099880.00000,   0.00000,274640576.00000,   0.00000,   0.00000,   0.00000,-365540704.00000,   0.00000
31385044.63825,116927589.58950,21699321.58664,  -0.00009,   0.00047,   0.00028,111821864.00000,   0.00000,274640576.00000,   0.00000,   0.00000,   0.00000,-362818720.00000,   0.00000
31957382.81857,119657202.44950,22326692.28430,  -0.00009,   0.00048,   0.00029,114528800.00000,   0.00000,274640576.00000,   0.00000,   0.00000,   0.00000,-360111776.00000,   0.00000
32529720.99890,122386815.30950,22954062.98196,  -0.00009,   0.00049,   0.00030,117235696.00000,   0.00000,274640576.00000,   0.00000,   0.00000,   0.00000,-357404880.00000,   0.00000
33074542.92055,125088911.91083,23586936.93136,  -0.00009,   0.00050,   0.00031,119927568.00000,   0.00000,274640576.00000,   0.00000,   0.00000,   0.00000,-354713008.00000,   0.00000
33611109.96460,127771747.13109,24225314.13249,  -0.00010,   0.00052,   0.00031,122606872.00000,   0.00000,274640576.00000,   0.00000,   0.00000,   0.00000,-352033696.00000,   0.00000
34147677.00865,130454582.35135,24863691.33362,  -0.00010,   0.00053,   0.00032,125285936.00000,   0.00000,274640576.00000,   0.00000,   0.00000,   0.00000,-349354640.00000,   0.00000
34664982.67164,133129162.69401,25502068.53475,  -0.00010,   0.00054,   0.00033,127961544.00000,   0.00000,274640576.00000,   0.00000,   0.00000,   0.00000,-346679040.00000,   0.00000
35154772.07595,135776226.77800,26151452.23934,  -0.00010,   0.00055,   0.00034,130625208.00000,   0.00000,274640576.00000,   0.00000,   0.00000,   0.00000,-344015360.00000,   0.00000
35655567.98373,138412284.35852,26795332.69220,  -0.00011,   0.00056,   0.00035,133272448.00000,   0.00000,274640576.00000,   0.00000,   0.00000,   0.00000,-341368128.00000,   0.00000
36137102.51045,141040087.06144,27450219.64853,  -0.00011,   0.00057,   0.00036,135923280.00000,   0.00000,274640576.00000,   0.00000,   0.00000,   0.00000,-338717296.00000,   0.00000
36591120.77849,143640373.50570,28105106.60487,  -0.00011,   0.00058,   0.00037,138556208.00000,   0.00000,274640576.00000,   0.00000,   0.00000,   0.00000,-336084368.00000,   0.00000
37036884.16893,146221398.56888,28759993.56120,  -0.00012,   0.00059,   0.00037,141173856.00000,   0.00000,274640576.00000,   0.00000,   0.00000,   0.00000,-333466720.00000,   0.00000
37482647.55938,148802423.63206,29420383.76926,  -0.00012,   0.00060,   0.00038,143795584.00000,   0.00000,274640576.00000,   0.00000,   0.00000,   0.00000,-330844992.00000,   0.00000
37909149.56875,151375193.81765,30080773.97732,  -0.00012,   0.00061,   0.00039,146415568.00000,   0.00000,274640576.00000,   0.00000,   0.00000,   0.00000,-328225008.00000,   0.00000
38327396.70053,153928702.62216,30746667.43712,  -0.00013,   0.00063,   0.00040,149025024.00000,   0.00000,274640576.00000,   0.00000,   0.00000,   0.00000,-325615552.00000,   0.00000
38718127.57363,156454695.16801,31418064.14865,  -0.00013,   0.00064,   0.00041,151622144.00000,   0.00000,274640576.00000,   0.00000,   0.00000,   0.00000,-323018432.00000,   0.00000
39108858.44673,158980687.71385,32089460.86019,  -0.00013,   0.00065,   0.00042,154221520.00000,   0.00000,274640576.00000,   0.00000,   0.00000,   0.00000,-320419056.00000,   0.00000
39491334.44224,161487418.87863,32766360.82345,  -0.00014,   0.00066,   0.00043,156811632.00000,   0.00000,274640576.00000,   0.00000,   0.00000,   0.00000,-317828944.00000,   0.00000
39846294.17907,163966633.78474,33443260.78672,  -0.00014,   0.00067,   0.00043,159387344.00000,   0.00000,274640576.00000,   0.00000,   0.00000,   0.00000,-315253232.00000,   0.00000
40201253.91591,166445848.69085,34125664.00172,  -0.00014,   0.00068,   0.00044,161969648.00000,   0.00000,274640576.00000,   0.00000,   0.00000,   0.00000,-312670928.00000,   0.00000
40528697.39407,168897547.33828,34808067.21672,  -0.00014,   0.00069,   0.00045,164537744.00000,   0.00000,274640576.00000,   0.00000,   0.00000,   0.00000,-310102832.00000,   0.00000
40856140.87224,171349245.98572,35495973.68345,  -0.00015,   0.00070,   0.00046,167112864.00000,   0.00000,274640576.00000,   0.00000,   0.00000,   0.00000,-307527712.00000,   0.00000
41156068.09173,173773428.37449,36183880.15018,  -0.00015,   0.00071,   0.00047,169673520.00000,   0.00000,274640576.00000,   0.00000,   0.00000,   0.00000,-304967056.00000,   0.00000
41455995.31123,176197610.76326,36877289.86865,  -0.00015,   0.00072,   0.00048,172240496.00000,   0.00000,274640576.00000,   0.00000,   0.00000,   0.00000,-302400080.00000,   0.00000
41747667.65312,178602531.77096,37570699.58712,  -0.00016,   0.00073,   0.00049,174794560.00000,   0.00000,274640576.00000,   0.00000,   0.00000,   0.00000,-299846016.00000,   0.00000
42011823.73635,180979936.51999,38269612.55732,  -0.00016,   0.00074,   0.00050,177336320.00000,   0.00000,274640576.00000,   0.00000,   0.00000,   0.00000,-297304256.00000,   0.00000
42256718.43851,183349086.39142,38968525.52752,  -0.00017,   0.00075,   0.00051,179876448.00000,   0.00000,274640576.00000,   0.00000,   0.00000,   0.00000,-294764128.00000,   0.00000
42512619.64413,185707229.75938,39672941.74946,  -0.00017,   0.00076,   0.00052,182406832.00000,   0.00000,274640576.00000,   0.00000,   0.00000,   0.00000,-292233744.00000,   0.00000
42721743.21002,188029601.99108,40377357.97139,  -0.00017,   0.00077,   0.00052,184916336.00000,   0.00000,274640576.00000,   0.00000,   0.00000,   0.00000,-289724240.00000,   0.00000
42950128.15697,190360229.10037,41087277.44506,  -0.00018,   0.00078,   0.00053,187428480.00000,   0.00000,274640576.00000,   0.00000,   0.00000,   0.00000,-287212096.00000,   0.00000
43150996.84526,192663339.95099,41797196.91873,  -0.00018,   0.00079,   0.00054,189919088.00000,   0.00000,274640576.00000,   0.00000,   0.00000,   0.00000,-284721488.00000,   0.00000
43332604.15248,194958195.92402,42512619.64413,  -0.00018,   0.00080,   0.00055,192405056.00000,   0.00000,274640576.00000,   0.00000,   0.00000,   0.00000,-282235520.00000,   0.00000
43505956.58210,197233790.51597,43228042.36954,  -0.00019,   0.00081,   0.00056,194868320.00000,   0.00000,274640576.00000,   0.00000,   0.00000,   0.00000,-279772256.00000,   0.00000
43671054.13411,199490123.72686,43948968.34667,  -0.00019,   0.00082,   0.00057,197310736.00000,   0.00000,274640576.00000,   0.00000,   0.00000,   0.00000,-277329840.00000,   0.00000
43816890.30506,201738202.06014,44669894.32381,  -0.00019,   0.00083,   0.00058,199739824.00000,   0.00000,274640576.00000,   0.00000,   0.00000,   0.00000,-274900752.00000,   0.00000
43954471.59841,203967019.01236,45396323.55268,  -0.00020,   0.00084,   0.00059,202145440.00000,   0.00000,274640576.00000,   0.00000,   0.00000,   0.00000,-272495136.00000,   0.00000
44072791.51068,206187581.08697,46122752.78155,  -0.00020,   0.00085,   0.00060,204536368.00000,   0.00000,274640576.00000,   0.00000,   0.00000,   0.00000,-270104208.00000,   0.00000
44182856.54536,208388881.78052,46849182.01042,  -0.00021,   0.00086,   0.00061,206900400.00000,   0.00000,274640576.00000,   0.00000,   0.00000,   0.00000,-267740176.00000,   0.00000
44265405.32137,210562666.21540,47581114.49102,  -0.00021,   0.00087,   0.00062,209241024.00000,   0.00000,274640576.00000,   0.00000,   0.00000,   0.00000,-265399552.00000,   0.00000
44347954.09738,212736450.65028,48318550.22336,  -0.00021,   0.00088,   0.00063,211575792.00000,   0.00000,274640576.00000,   0.00000,   0.00000,   0.00000,-263064784.00000,   0.00000
44422247.99578,214890973.70409,49055985.95570,  -0.00022,   0.00089,   0.00064,213889152.00000,   0.00000,274640576.00000,   0.00000,   0.00000,   0.00000,-260751424.00000,   0.00000
44469025.63552,217017980.49923,49793421.68804,  -0.00022,   0.00090,   0.00065,216183472.00000,   0.00000,274640576.00000,   0.00000,   0.00000,   0.00000,-258457104.00000,   0.00000
44496541.89419,219136732.41677,50536360.67211,  -0.00022,   0.00091,   0.00066,218484032.00000,   0.00000,274640576.00000,   0.00000,   0.00000,   0.00000,-256156544.00000,   0.00000
44515803.27526,221236222.95324,51279299.65618,  -0.00023,   0.00092,   0.00067,220781456.00000,   0.00000,274640576.00000,   0.00000,   0.00000,   0.00000,-253859120.00000,   0.00000
44535064.65633,223335713.48971,52022238.64026,  -0.00023,   0.00093,   0.00068,223090064.00000,   0.00000,274640576.00000,   0.00000,   0.00000,   0.00000,-251550512.00000,   0.00000
44526809.77873,225407687.76751,52770680.87606,  -0.00024,   0.00094,   0.00069,225394704.00000,   0.00000,274640576.00000,   0.00000,   0.00000,   0.00000,-249245872.00000,   0.00000
44510300.02353,227460400.66424,53524626.36360,  -0.00024,   0.00095,   0.00070,227696400.00000,   0.00000,274640576.00000,   0.00000,   0.00000,   0.00000,-246944176.00000,   0.00000
44474528.88726,229504858.68337,54273068.59941,  -0.00025,   0.00096,   0.00071,230000336.00000,   0.00000,274640576.00000,   0.00000,   0.00000,   0.00000,-244640240.00000,   0.00000
44430502.87339,231530055.32144,55032517.33868,  -0.00025,   0.00097,   0.00072,232307488.00000,   0.00000,274640576.00000,   0.00000,   0.00000,   0.00000,-242333088.00000,   0.00000
44378221.98191,233535990.57843,55786462.82622,  -0.00025,   0.00098,   0.00073,234608352.00000,   0.00000,274640576.00000,   0.00000,   0.00000,   0.00000,-240032224.00000,   0.00000
44306679.70937,235533670.95783,56545911.56550,  -0.00026,   0.00099,   0.00074,236925264.00000,   0.00000,274640576.00000,   0.00000,   0.00000,   0.00000,-237715312.00000,   0.00000
44207621.17816,237503835.07855,57310863.55650,  -0.00026,   0.00099,   0.00075,239245072.00000,   0.00000,274640576.00000,   0.00000,   0.00000,   0.00000,-235395504.00000,   0.00000
44100307.76935,239454737.81821,58070312.29578,  -0.00027,   0.00100,   0.00075,241560928.00000,   0.00000,274640576.00000,   0.00000,   0.00000,   0.00000,-233079648.00000,   0.00000
43992994.36054,241405640.55786,58840767.53852,  -0.00027,   0.00101,   0.00076,243898960.00000,   0.00000,274640576.00000,   0.00000,   0.00000,   0.00000,-230741616.00000,   0.00000
43858164.69306,243329027.03885,59605719.52953,  -0.00027,   0.00102,   0.00077,246229344.00000,   0.00000,274640576.00000,   0.00000,   0.00000,   0.00000,-228411232.00000,   0.00000
43723335.02558,245252413.51984,60376174.77227,  -0.00028,   0.00103,   0.00078,248578064.00000,   0.00000,274640576.00000,   0.00000,   0.00000,   0.00000,-226062512.00000,   0.00000
43552734.22183,247129022.36109,61146630.01501,  -0.00028,   0.00104,   0.00079,250911152.00000,   0.00000,274640576.00000,   0.00000,   0.00000,   0.00000,-223729424.00000,   0.00000
43390388.29568,249024892.58341,61922588.50949,  -0.00029,   0.00105,   0.00080,253282032.00000,   0.00000,274640576.00000,   0.00000,   0.00000,   0.00000,-221358544.00000,   0.00000
43211532.61433,250882240.04359,62698547.00396,  -0.00029,   0.00106,   0.00082,255641680.00000,   0.00000,274640576.00000,   0.00000,   0.00000,   0.00000,-218998896.00000,   0.00000
43013415.55191,252731332.62617,63480008.75017,  -0.00030,   0.00107,   0.00083,258021888.00000,   0.00000,274640576.00000,   0.00000,   0.00000,   0.00000,-216618688.00000,   0.00000
42787782.23083,254552908.95008,64255967.24465,  -0.00030,   0.00107,   0.00084,260396080.00000,   0.00000,274640576.00000,   0.00000,   0.00000,   0.00000,-214244496.00000,   0.00000
42562148.90974,256374485.27399,65037428.99085,  -0.00031,   0.00108,   0.00085,262786352.00000,   0.00000,274640576.00000,   0.00000,   0.00000,   0.00000,-211854224.00000,   0.00000
42328260.71105,258176800.21683,65824393.98880,  -0.00031,   0.00109,   0.00086,265173184.00000,   0.00000,274640576.00000,   0.00000,   0.00000,   0.00000,-209467392.00000,   0.00000
42066856.25369,259951598.90100,66611358.98674,  -0.00032,   0.00110,   0.00087,267546096.00000,   0.00000,274640576.00000,   0.00000,   0.00000,   0.00000,-207094480.00000,   0.00000
41805451.79633,261726397.58517,67398323.98468,  -0.00032,   0.00111,   0.00088,269918272.00000,   0.00000,274640576.00000,   0.00000,   0.00000,   0.00000,-204722304.00000,   0.00000
41508276.20270,263454418.62961,68185288.98263,  -0.00032,   0.00112,   0.00089,272253824.00000,   0.00000,274640576.00000,   0.00000,   0.00000,   0.00000,-202386752.00000,   0.00000
41219355.48667,265201701.05511,68977757.23230,  -0.00033,   0.00113,   0.00090,274602048.00000,   0.00000,274640576.00000,   0.00000,   0.00000,   0.00000,-200038528.00000,   0.00000
40913925.01544,266910460.71848,69770225.48198,  -0.00033,   0.00113,   0.00091,276910720.00000,   0.00000,274640576.00000,   0.00000,   0.00000,   0.00000,-197729856.00000,   0.00000
40589233.16315,268610965.50424,70562693.73166,  -0.00034,   0.00114,   0.00092,279207104.00000,   0.00000,274640576.00000,   0.00000,   0.00000,   0.00000,-195433472.00000,   0.00000
40245279.92978,270303215.41241,71360665.23307,  -0.00034,   0.00115,   0.00093,281495168.00000,   0.00000,274640576.00000,   0.00000,   0.00000,   0.00000,-193145408.00000,   0.00000
39884816.94121,271956942.55843,72158636.73448,  -0.00035,   0.00116,   0.00094,283742272.00000,   0.00000,274640576.00000,   0.00000,   0.00000,   0.00000,-190898304.00000,   0.00000
39524353.95264,273610669.70446,72956608.23589,  -0.00035,   0.00117,   0.00095,285978400.00000,   0.00000,274640576.00000,   0.00000,   0.00000,   0.00000,-188662176.00000,   0.00000
39136374.70540,275236880.59182,73760082.98904,  -0.00036,   0.00118,   0.00096,288193664.00000,   0.00000,274640576.00000,   0.00000,   0.00000,   0.00000,-186446912.00000,   0.00000
38748395.45817,276863091.47918,74563557.74218,  -0.00036,   0.00118,   0.00097,290400352.00000,   0.00000,274640576.00000,   0.00000,   0.00000,   0.00000,-184240224.00000,   0.00000
38332899.95226,278461786.10787,75367032.49533,  -0.00037,   0.00119,   0.00098,292585536.00000,   0.00000,274640576.00000,   0.00000,   0.00000,   0.00000,-182055040.00000,   0.00000
37909149.56875,280041219.35549,76176010.50020,  -0.00037,   0.00120,   0.00099,294756384.00000,   0.00000,274640576.00000,   0.00000,   0.00000,   0.00000,-179884192.00000,   0.00000
37485399.18524,281620652.60311,76979485.25335,  -0.00038,   0.00121,   0.00100,296920320.00000,   0.00000,274640576.00000,   0.00000,   0.00000,   0.00000,-177720256.00000,   0.00000
37034132.54307,283172569.59206,77788463.25823,  -0.00038,   0.00122,   0.00101,299073600.00000,   0.00000,274640576.00000,   0.00000,   0.00000,   0.00000,-175566976.00000,   0.00000
36574611.02329,284705225.19994,78602944.51484,  -0.00039,   0.00122,   0.00102,301218272.00000,   0.00000,274640576.00000,   0.00000,   0.00000,   0.00000,-173422304.00000,   0.00000
36095828.12244,286229625.93022,79411922.51972,  -0.00039,   0.00123,   0.00103,303361120.00000,   0.00000,274640576.00000,   0.00000,   0.00000,   0.00000,-171279456.00000,   0.00000
35600535.46639,287715503.89837,80226403.77633,  -0.00040,   0.00124,   0.00104,305484224.00000,   0.00000,274640576.00000,   0.00000,   0.00000,   0.00000,-169156352.00000,   0.00000
35094236.30688,289212388.36998,81040885.03294,  -0.00040,   0.00125,   0.00105,307625344.00000,   0.00000,274640576.00000,   0.00000,   0.00000,   0.00000,-167015232.00000,   0.00000
34571427.39216,290670750.07945,81855366.28956,  -0.00041,   0.00126,   0.00106,309743136.00000,   0.00000,274640576.00000,   0.00000,   0.00000,   0.00000,-164897440.00000,   0.00000
34048618.47744,292129111.78893,82675350.79790,  -0.00041,   0.00126,   0.00107,311870080.00000,   0.00000,274640576.00000,   0.00000,   0.00000,   0.00000,-162770496.00000,   0.00000
33498293.30406,293559957.23973,83495335.30625,  -0.00042,   0.00127,   0.00109,313987264.00000,   0.00000,274640576.00000,   0.00000,   0.00000,   0.00000,-160653312.00000,   0.00000
32928706.74960,294982547.81294,84315319.81460,  -0.00043,   0.00128,   0.00110,316108096.00000,   0.00000,274640576.00000,   0.00000,   0.00000,   0.00000,-158532480.00000,   0.00000
32370126.69861,296394131.88268,85135304.32294,  -0.00043,   0.00129,   0.00111,318218848.00000,   0.00000,274640576.00000,   0.00000,   0.00000,   0.00000,-156421728.00000,   0.00000
31784030.38896,297778199.69374,85960792.08302,  -0.00044,   0.00129,   0.00112,320322816.00000,   0.00000,274640576.00000,   0.00000,   0.00000,   0.00000,-154317760.00000,   0.00000
31170417.82063,299134751.24614,86780776.59137,  -0.00044,   0.00130,   0.00113,322410848.00000,   0.00000,274640576.00000,   0.00000,   0.00000,   0.00000,-152229728.00000,   0.00000
30556805.25230,300491302.79854,87606264.35145,  -0.00045,   0.00131,   0.00114,324505760.00000,   0.00000,274640576.00000,   0.00000,   0.00000,   0.00000,-150134816.00000,   0.00000
29934937.80638,301828592.96987,88431752.11153,  -0.00045,   0.00131,   0.00115,326588896.00000,   0.00000,274640576.00000,   0.00000,   0.00000,   0.00000,-148051680.00000,   0.00000
29293808.97938,303157628.26360,89262743.12334,  -0.00046,   0.00132,   0.00116,328678560.00000,   0.00000,274640576.00000,   0.00000,   0.00000,   0.00000,-145962016.00000,   0.00000
28636170.39718,304448140.79519,90088230.88342,  -0.00046,   0.00133,   0.00117,330737952.00000,   0.00000,274640576.00000,   0.00000,   0.00000,   0.00000,-143902624.00000,   0.00000
27959270.43392,305730398.44918,90919221.89524,  -0.00047,   0.00134,   0.00118,332803648.00000,   0.00000,274640576.00000,   0.00000,   0.00000,   0.00000,-141836928.00000,   0.00000
27282370.47065,307012656.10317,91750212.90705,  -0.00047,   0.00134,   0.00119,334871168.00000,   0.00000,274640576.00000,   0.00000,   0.00000,   0.00000,-139769408.00000,   0.00000
26588960.75218,308256390.99503,92581203.91887,  -0.00048,   0.00135,   0.00120,336912960.00000,   0.00000,274640576.00000,   0.00000,   0.00000,   0.00000,-137727616.00000,   0.00000
25876289.65265,309491871.00928,93412194.93068,  -0.00049,   0.00136,   0.00121,338956800.00000,   0.00000,274640576.00000,   0.00000,   0.00000,   0.00000,-135683776.00000,   0.00000
25163618.55311,310727351.02354,94248689.19423,  -0.00049,   0.00136,   0.00123,341006944.00000,   0.00000,274640576.00000,   0.00000,   0.00000,   0.00000,-133633632.00000,   0.00000
24415176.31731,311916053.39805,95085183.45778,  -0.00050,   0.00137,   0.00124,343031584.00000,   0.00000,274640576.00000,   0.00000,   0.00000,   0.00000,-131608992.00000,   0.00000
23666734.08150,313104755.77257,95916174.46959,  -0.00050,   0.00138,   0.00125,345053536.00000,   0.00000,274640576.00000,   0.00000,   0.00000,   0.00000,-129587040.00000,   0.00000
22918291.84569,314293458.14708,96752668.73314,  -0.00051,   0.00139,   0.00126,347081760.00000,   0.00000,274640576.00000,   0.00000,   0.00000,   0.00000,-127558816.00000,   0.00000
22134078.47362,315435382.88186,97594666.24842,  -0.00051,   0.00139,   0.00127,349089472.00000,   0.00000,274640576.00000,   0.00000,   0.00000,   0.00000,-125551104.00000,   0.00000
21349865.10154,316577307.61664,98431160.51197,  -0.00052,   0.00140,   0.00128,351094656.00000,   0.00000,274640576.00000,   0.00000,   0.00000,   0.00000,-123545920.00000,   0.00000
20538135.47080,317691716.09275,99267654.77552,  -0.00053,   0.00141,   0.00129,353088256.00000,   0.00000,274640576.00000,   0.00000,   0.00000,   0.00000,-121552320.00000,   0.00000
19726405.84005,318806124.56885,100109652.29080,  -0.00053,   0.00141,   0.00130,355088928.00000,   0.00000,274640576.00000,   0.00000,   0.00000,   0.00000,-119551648.00000,   0.00000
18906421.33170,319901271.66389,100951649.80608,  -0.00054,   0.00142,   0.00131,357077984.00000,   0.00000,274640576.00000,   0.00000,   0.00000,   0.00000,-117562592.00000,   0.00000
18058920.56469,320968902.50026,101788144.06963,  -0.00054,   0.00143,   0.00132,359051776.00000,   0.00000,274640576.00000,   0.00000,   0.00000,   0.00000,-115588800.00000,   0.00000
17203164.92007,322017271.95557,102630141.58491,  -0.00055,   0.00143,   0.00133,361019392.00000,   0.00000,274640576.00000,   0.00000,   0.00000,   0.00000,-113621184.00000,   0.00000
16347409.27546,323065641.41087,103477642.35192,  -0.00056,   0.00144,   0.00135,362994336.00000,   0.00000,274640576.00000,   0.00000,   0.00000,   0.00000,-111646240.00000,   0.00000
15464137.37217,324086494.60750,104319639.86721,  -0.00056,   0.00144,   0.00136,364954464.00000,   0.00000,274640576.00000,   0.00000,   0.00000,   0.00000,-109686112.00000,   0.00000
14572610.59128,325088086.42307,105161637.38249,  -0.00057,   0.00145,   0.00137,366904192.00000,   0.00000,274640576.00000,   0.00000,   0.00000,   0.00000,-107736384.00000,   0.00000
13661822.42933,326081423.36103,106009138.14950,  -0.00057,   0.00146,   0.00138,368862592.00000,   0.00000,274640576.00000,   0.00000,   0.00000,   0.00000,-105777984.00000,   0.00000
12742779.38977,327055498.91792,106851135.66479,  -0.00058,   0.00146,   0.00139,370806144.00000,   0.00000,274640576.00000,   0.00000,   0.00000,   0.00000,-103834432.00000,   0.00000
11815481.47262,328010313.09375,107698636.43180,  -0.00059,   0.00147,   0.00140,372744640.00000,   0.00000,274640576.00000,   0.00000,   0.00000,   0.00000,-101895936.00000,   0.00000
10888183.55546,328965127.26958,108540633.94708,  -0.00059,   0.00148,   0.00141,374681888.00000,   0.00000,274640576.00000,   0.00000,   0.00000,   0.00000,-99958688.00000,   0.00000
9933369.37963,329892425.18673,109388134.71410,  -0.00060,   0.00148,   0.00142,376614848.00000,   0.00000,274640576.00000,   0.00000,   0.00000,   0.00000,-98025728.00000,   0.00000
8951038.94514,330792206.84522,110235635.48111,  -0.00060,   0.00149,   0.00143,378539168.00000,   0.00000,274640576.00000,   0.00000,   0.00000,   0.00000,-96101408.00000,   0.00000
7979715.01411,331680982.00024,111083136.24813,  -0.00061,   0.00149,   0.00144,380452704.00000,   0.00000,274640576.00000,   0.00000,   0.00000,   0.00000,-94187872.00000,   0.00000
6989129.70201,332561502.27766,111930637.01515,  -0.00062,   0.00150,   0.00146,382370464.00000,   0.00000,274640576.00000,   0.00000,   0.00000,   0.00000,-92270112.00000,   0.00000
5971028.13125,333414506.29641,112778137.78216,  -0.00062,   0.00151,   0.00147,384279424.00000,   0.00000,274640576.00000,   0.00000,   0.00000,   0.00000,-90361152.00000,   0.00000
4963933.06395,334256503.81169,113631141.80091,  -0.00063,   0.00151,   0.00148,386181920.00000,   0.00000,274640576.00000,   0.00000,   0.00000,   0.00000,-88458656.00000,   0.00000
3937576.61558,335090246.44937,114478642.56793,  -0.00064,   0.00152,   0.00149,388083168.00000,   0.00000,274640576.00000,   0.00000,   0.00000,   0.00000,-86557408.00000,   0.00000
2883703.90855,335896472.82838,115326143.33494,  -0.00064,   0.00152,   0.00150,389974528.00000,   0.00000,274640576.00000,   0.00000,   0.00000,   0.00000,-84666048.00000,   0.00000
1829831.20151,336702699.20739,116173644.10196,  -0.00065,   0.00153,   0.00151,391867712.00000,   0.00000,274640576.00000,   0.00000,   0.00000,   0.00000,-82772864.00000,   0.00000
759448.73927,337470402.82427,117026648.12071,  -0.00065,   0.00153,   0.00152,393741024.00000,   0.00000,274640576.00000,   0.00000,   0.00000,   0.00000,-80899552.00000,   0.00000
-310933.72296,338238106.44114,117874148.88772,  -0.00066,   0.00154,   0.00153,395609952.00000,   0.00000,274640576.00000,   0.00000,   0.00000,   0.00000,-79030624.00000,   0.00000
-1408832.44387,338978293.79935,118727152.90647,  -0.00067,   0.00155,   0.00154,397472224.00000,   0.00000,274640576.00000,   0.00000,   0.00000,   0.00000,-77168352.00000,   0.00000
-2506731.16478,339718481.15755,119574653.67349,  -0.00067,   0.00155,   0.00155,399329056.00000,   0.00000,274640576.00000,   0.00000,   0.00000,   0.00000,-75311520.00000,   0.00000
-3612884.76328,340439407.13469,120427657.69224,  -0.00068,   0.00156,   0.00157,401176800.00000,   0.00000,274640576.00000,   0.00000,   0.00000,   0.00000,-73463776.00000,   0.00000
-4746554.62046,341132816.85316,121275158.45925,  -0.00069,   0.00156,   0.00158,403006304.00000,   0.00000,274640576.00000,   0.00000,   0.00000,   0.00000,-71634272.00000,   0.00000
-5888479.35524,341806965.19056,122128162.47800,  -0.00069,   0.00157,   0.00159,404825792.00000,   0.00000,274640576.00000,   0.00000,   0.00000,   0.00000,-69814784.00000,   0.00000
-7030404.09002,342481113.52796,122975663.24502,  -0.00070,   0.00157,   0.00160,406638368.00000,   0.00000,274640576.00000,   0.00000,   0.00000,   0.00000,-68002208.00000,   0.00000
-8180583.70240,343136000.48429,123828667.26377,  -0.00071,   0.00158,   0.00161,408440256.00000,   0.00000,274640576.00000,   0.00000,   0.00000,   0.00000,-66200320.00000,   0.00000
-9358279.57344,343763371.18195,124681671.28252,  -0.00071,   0.00158,   0.00162,410227936.00000,   0.00000,274640576.00000,   0.00000,   0.00000,   0.00000,-64412640.00000,   0.00000
-10535975.44449,344390741.87961,125529172.04953,  -0.00072,   0.00159,   0.00163,412008608.00000,   0.00000,274640576.00000,   0.00000,   0.00000,   0.00000,-62631968.00000,   0.00000
-11741187.57421,344990596.31860,126382176.06828,  -0.00073,   0.00159,   0.00164,413780096.00000,   0.00000,274640576.00000,   0.00000,   0.00000,   0.00000,-60860480.00000,   0.00000
-12954654.58153,345571189.37652,127229676.83530,  -0.00073,   0.00160,   0.00165,415532416.00000,   0.00000,274640576.00000,   0.00000,   0.00000,   0.00000,-59108160.00000,   0.00000
-14168121.58884,346151782.43445,128082680.85405,  -0.00074,   0.00160,   0.00167,417288576.00000,   0.00000,274640576.00000,   0.00000,   0.00000,   0.00000,-57352000.00000,   0.00000
-15389843.47376,346713114.11130,128930181.62107,  -0.00075,   0.00161,   0.00168,419027200.00000,   0.00000,274640576.00000,   0.00000,   0.00000,   0.00000,-55613376.00000,   0.00000
-16639081.61735,347246929.52949,129783185.63981,  -0.00075,   0.00161,   0.00169,420759264.00000,   0.00000,274640576.00000,   0.00000,   0.00000,   0.00000,-53881312.00000,   0.00000
-17877313.25747,347769738.44420,130630686.40683,  -0.00076,   0.00162,   0.00170,422474624.00000,   0.00000,274640576.00000,   0.00000,   0.00000,   0.00000,-52165952.00000,   0.00000
-19154067.65973,348276037.60372,131483690.42558,  -0.00077,   0.00162,   0.00171,424199776.00000,   0.00000,274640576.00000,   0.00000,   0.00000,   0.00000,-50440800.00000,   0.00000
-20419815.55852,348771330.25977,132331191.19260,  -0.00077,   0.00163,   0.00172,425910432.00000,   0.00000,274640576.00000,   0.00000,   0.00000,   0.00000,-48730144.00000,   0.00000
-21713079.71598,349239106.65715,133178691.95961,  -0.00078,   0.00163,   0.00173,427614464.00000,   0.00000,274640576.00000,   0.00000,   0.00000,   0.00000,-47026112.00000,   0.00000
-23006343.87344,349706883.05452,134026192.72663,  -0.00079,   0.00164,   0.00174,429325120.00000,   0.00000,274640576.00000,   0.00000,   0.00000,   0.00000,-45315456.00000,   0.00000
-24307862.90850,350155398.07084,134879196.74538,  -0.00079,   0.00164,   0.00175,431035520.00000,   0.00000,274640576.00000,   0.00000,   0.00000,   0.00000,-43605056.00000,   0.00000
-25617636.82116,350584651.70608,135726697.51239,  -0.00080,   0.00165,   0.00176,432736480.00000,   0.00000,274640576.00000,   0.00000,   0.00000,   0.00000,-41904096.00000,   0.00000
-26946672.11489,351005650.46372,136574198.27941,  -0.00081,   0.00165,   0.00178,434448544.00000,   0.00000,274640576.00000,   0.00000,   0.00000,   0.00000,-40192032.00000,   0.00000
-28283962.28622,351407387.84029,137421699.04642,  -0.00081,   0.00165,   0.00179,436158304.00000,   0.00000,274640576.00000,   0.00000,   0.00000,   0.00000,-38482272.00000,   0.00000
-29629507.33515,351789863.83579,138269199.81344,  -0.00082,   0.00166,   0.00180,437865824.00000,   0.00000,274640576.00000,   0.00000,   0.00000,   0.00000,-36774752.00000,   0.00000
-30994313.76515,352164084.95370,139111197.32872,  -0.00083,   0.00166,   0.00181,439582464.00000,   0.00000,274640576.00000,   0.00000,   0.00000,   0.00000,-35058112.00000,   0.00000
-32356368.56928,352508038.18706,139958698.09574,  -0.00083,   0.00167,   0.00182,441288832.00000,   0.00000,274640576.00000,   0.00000,   0.00000,   0.00000,-33351744.00000,   0.00000
-33737684.75448,352843736.54283,140806198.86275,  -0.00084,   0.00167,   0.00183,443010656.00000,   0.00000,274640576.00000,   0.00000,   0.00000,   0.00000,-31629920.00000,   0.00000
-35119000.93968,353179434.89860,141648196.37803,  -0.00085,   0.00168,   0.00184,444742528.00000,   0.00000,274640576.00000,   0.00000,   0.00000,   0.00000,-29898048.00000,   0.00000
-36527833.38355,353487616.99569,142495697.14505,  -0.00086,   0.00168,   0.00185,446482944.00000,   0.00000,274640576.00000,   0.00000,   0.00000,   0.00000,-28157632.00000,   0.00000
-37925659.32395,353784792.58932,143337694.66033,  -0.00086,   0.00168,   0.00186,448218304.00000,   0.00000,274640576.00000,   0.00000,   0.00000,   0.00000,-26422272.00000,   0.00000
-39351001.52302,354054451.92428,144179692.17561,  -0.00087,   0.00169,   0.00187,449956160.00000,   0.00000,274640576.00000,   0.00000,   0.00000,   0.00000,-24684416.00000,   0.00000
-40776343.72210,354324111.25924,145021689.69090,  -0.00088,   0.00169,   0.00189,451706848.00000,   0.00000,274640576.00000,   0.00000,   0.00000,   0.00000,-22933728.00000,   0.00000
-42218195.67637,354555247.83206,145863687.20618,  -0.00088,   0.00170,   0.00190,453440928.00000,   0.00000,274640576.00000,   0.00000,   0.00000,   0.00000,-21199648.00000,   0.00000
-43671054.13411,354797390.90835,146705684.72146,  -0.00089,   0.00170,   0.00191,455198656.00000,   0.00000,274640576.00000,   0.00000,   0.00000,   0.00000,-19441920.00000,   0.00000
-45121160.96599,355009266.10011,147547682.23674,  -0.00090,   0.00170,   0.00192,456933376.00000,   0.00000,274640576.00000,   0.00000,   0.00000,   0.00000,-17707200.00000,   0.00000
-46590529.17893,355212886.41426,148384176.50029,  -0.00090,   0.00171,   0.00193,458668448.00000,   0.00000,274640576.00000,   0.00000,   0.00000,   0.00000,-15972128.00000,   0.00000
-48068152.26947,355397245.34734,149226174.01557,  -0.00091,   0.00171,   0.00194,460397120.00000,   0.00000,274640576.00000,   0.00000,   0.00000,   0.00000,-14243456.00000,   0.00000
-49565036.74108,355573349.40283,150062668.27912,  -0.00092,   0.00171,   0.00195,462122304.00000,   0.00000,274640576.00000,   0.00000,   0.00000,   0.00000,-12518272.00000,   0.00000
-51050914.70923,355738446.95484,150899162.54267,  -0.00093,   0.00172,   0.00196,463829984.00000,   0.00000,274640576.00000,   0.00000,   0.00000,   0.00000,-10810592.00000,   0.00000
-52545047.55497,355884283.12579,151735656.80622,  -0.00093,   0.00172,   0.00197,465521024.00000,   0.00000,274640576.00000,   0.00000,   0.00000,   0.00000,-9119552.00000,   0.00000
-54066696.65939,356002603.03807,152572151.06976,  -0.00094,   0.00173,   0.00198,467195808.00000,   0.00000,274640576.00000,   0.00000,   0.00000,   0.00000,-7444768.00000,   0.00000
-55588345.76380,356120922.95035,153408645.33331,  -0.00095,   0.00173,   0.00199,468860640.00000,   0.00000,274640576.00000,   0.00000,   0.00000,   0.00000,-5779936.00000,   0.00000
-57118249.74582,356219981.48156,154239636.34513,  -0.00095,   0.00173,   0.00201,470495072.00000,   0.00000,274640576.00000,   0.00000,   0.00000,   0.00000,-4145504.00000,   0.00000
-58675669.98650,356291523.75410,155070627.35694,  -0.00096,   0.00174,   0.00202,472103200.00000,   0.00000,274640576.00000,   0.00000,   0.00000,   0.00000,-2537376.00000,   0.00000
-60213828.84612,356371320.90424,155901618.36875,  -0.00097,   0.00174,   0.00203,473683968.00000,   0.00000,274640576.00000,   0.00000,   0.00000,   0.00000,-956608.00000,   0.00000
-61180143.95819,356403588.01694,156414495.63386,  -0.00097,   0.00174,   0.00203,474640736.00000,   0.00000,274640576.00000,   0.00000,   0.00000,   0.00000, 160.00000,   0.00000
-61644297.17579,355987174.25786,156506389.61968,  -0.00098,   0.00174,   0.00204,474640736.00000,   0.00000,274643616.00000,  -0.00000,   0.00000,   0.00000,  64.00000,   2.00000
-62844495.72964,354903885.49633,156750304.95662,  -0.00098,   0.00175,   0.00205,476156768.00000,   0.00001,274651520.00000,  -0.00001,   0.00001,   0.00001, 160.00000,   2.00000
-64077316.87496,353794426.11453,157000141.83048,  -0.00099,   0.00175,   0.00206,476164416.00000,   0.00002,274659360.00000,  -0.00001,   0.00001,   0.00002, -32.00000,   2.00000
-65315507.45771,352685042.65438,157250422.06391,  -0.00100,   0.00175,   0.00207,476171712.00000,   0.00002,274667136.00000,  -0.00001,   0.00002,   0.00003, 160.00000,   2.00000
-66569101.56433,351559840.13699,157509052.36261,  -0.00100,   0.00175,   0.00208,476172352.00000,   0.00003,274674880.00000,  -0.00002,   0.00003,   0.00003, 256.00000,   2.00000
-67846909.44245,350419698.90966,157771589.65859,  -0.00101,   0.00176,   0.00209,476183712.00000,   0.00004,274682592.00000,  -0.00002,   0.00003,   0.00004, 224.00000,   2.00000
-69123495.36008,349273386.57894,158044833.20116,  -0.00102,   0.00176,   0.00210,476176768.00000,   0.00005,274690176.00000,  -0.00002,   0.00004,   0.00005,  32.00000,   2.00000
-70439188.49765,348103117.54066,158324154.31558,  -0.00103,   0.00176,   0.00211,476166912.00000,   0.00005,274697696.00000,  -0.00003,   0.00004,   0.00005, 160.00000,   2.00000
-71757700.97557,346921212.35506,158620658.75443,  -0.00103,   0.00177,   0.00212,476156512.00000,   0.00006,274705120.00000,  -0.00003,   0.00005,   0.00006, 256.00000,   2.00000
-73112448.06560,345724521.98745,158923436.53588,  -0.00104,   0.00177,   0.00213,476145984.00000,   0.00007,274712448.00000,  -0.00003,   0.00005,   0.00007,  96.00000,   2.00000
-74500185.15203,344512725.03911,159240251.58175,  -0.00105,   0.00177,   0.00214,476114400.00000,   0.00007,274719584.00000,  -0.00004,   0.00006,   0.00007, 128.00000,   2.00000
-75913302.78498,343291214.48816,159577341.01794,  -0.00106,   0.00178,   0.00216,476094784.00000,   0.00008,274726624.00000,  -0.00004,   0.00007,   0.00008,  32.00000,   2.00000
-77371783.02382,342054458.90034,159934404.42706,  -0.00106,   0.00178,   0.00217,476039840.00000,   0.00008,274733344.00000,  -0.00004,   0.00007,   0.00009, 128.00000,   2.00000
-78841269.43512,340829334.48517,160300427.58672,  -0.00107,   0.00178,   0.00218,476018592.00000,   0.00009,274739968.00000,  -0.00005,   0.00008,   0.00009, 160.00000,   2.00000
-80312416.84571,339614574.83121,160658622.69934,  -0.00108,   0.00178,   0.00219,476026560.00000,   0.00010,274746624.00000,  -0.00005,   0.00008,   0.00010,  32.00000,   2.00000
-81736184.73614,338409883.72046,160999554.96725,  -0.00109,   0.00179,   0.00220,476049600.00000,   0.00010,274753344.00000,  -0.00005,   0.00009,   0.00010, 128.00000,   2.00000
-83097019.16152,337223001.27410,161301434.65650,  -0.00109,   0.00179,   0.00221,476122592.00000,   0.00011,274760320.00000,  -0.00006,   0.00009,   0.00011,  64.00000,   2.00000
-84417819.27051,336032478.92568,161569909.36218,  -0.00110,   0.00179,   0.00222,476208224.00000,   0.00012,274767648.00000,  -0.00006,   0.00010,   0.00012,  96.00000,   2.00000
-85718192.76902,334817800.22686,161822799.75901,  -0.00111,   0.00179,   0.00223,476256864.00000,   0.00012,274775104.00000,  -0.00006,   0.00010,   0.00013, 128.00000,   2.00000
-86975808.47317,333615386.36681,162059722.27626,  -0.00111,   0.00180,   0.00224,476296160.00000,   0.00013,274782688.00000,  -0.00007,   0.00011,   0.00013, 224.00000,   2.00000
-88245392.62907,332383802.88628,162294602.98796,  -0.00112,   0.00180,   0.00225,476328768.00000,   0.00014,274790336.00000,  -0.00007,   0.00011,   0.00014,   0.00000,   2.00000
-89507225.47996,331154929.18329,162522184.98175,  -0.00113,   0.00180,   0.00226,476346048.00000,   0.00014,274798016.00000,  -0.00008,   0.00012,   0.00015, 256.00000,   2.00000
-90775357.01653,329916248.27099,162747710.04280,  -0.00114,   0.00180,   0.00227,476348992.00000,   0.00015,274805632.00000,  -0.00008,   0.00012,   0.00016, 128.00000,   2.00000
-92047990.44795,328661400.79437,162978826.97604,  -0.00114,   0.00180,   0.00228,476360288.00000,   0.00016,274813248.00000,  -0.00008,   0.00013,   0.00016, 160.00000,   2.00000
-93318027.23674,327410824.76314,163205347.71018,  -0.00115,   0.00181,   0.00229,476369408.00000,   0.00016,274820864.00000,  -0.00009,   0.00013,   0.00017, 224.00000,   2.00000
-94597044.00350,326151178.65898,163430841.53977,  -0.00116,   0.00181,   0.00230,476368640.00000,   0.00017,274828448.00000,  -0.00009,   0.00014,   0.00018,  96.00000,   2.00000
-95882189.28737,324875468.64637,163662238.26173,  -0.00117,   0.00181,   0.00231,476378464.00000,   0.00018,274835968.00000,  -0.00010,   0.00015,   0.00018,  96.00000,   2.00000
-97177362.47825,323590449.65176,163892710.02590,  -0.00117,   0.00181,   0.00232,476377344.00000,   0.00018,274843456.00000,  -0.00010,   0.00015,   0.00019, 256.00000,   2.00000
-98470206.64554,322305639.38478,164122183.33976,  -0.00118,   0.00181,   0.00233,476390496.00000,   0.00019,274850976.00000,  -0.00010,   0.00016,   0.00020,  96.00000,   2.00000
-99774265.74408,321011092.78347,164350947.46414,  -0.00119,   0.00182,   0.00234,476388096.00000,   0.00020,274858400.00000,  -0.00011,   0.00016,   0.00021, 160.00000,   2.00000
-101075553.41217,319713064.78125,164582489.30380,  -0.00120,   0.00182,   0.00235,476405632.00000,   0.00021,274865856.00000,  -0.00011,   0.00017,   0.00021, 128.00000,   2.00000
-102391002.68018,318408467.49078,164810215.49036,  -0.00120,   0.00182,   0.00236,476396192.00000,   0.00021,274873216.00000,  -0.00012,   0.00017,   0.00022,  64.00000,   2.00000
-103733758.46440,317075463.54488,165042770.40181,  -0.00121,   0.00182,   0.00237,476407584.00000,   0.00022,274880576.00000,  -0.00012,   0.00018,   0.00023, -32.00000,   2.00000
-105061035.84266,315756759.89947,165273487.98678,  -0.00122,   0.00182,   0.00238,476407008.00000,   0.00023,274887904.00000,  -0.00012,   0.00018,   0.00024, -64.00000,   2.00000
-106411698.84487,314410880.41996,165511187.31855,  -0.00123,   0.00182,   0.00239,476397056.00000,   0.00023,274895136.00000,  -0.00013,   0.00019,   0.00024, 192.00000,   2.00000
-107752520.28460,313077770.78454,165745415.48468,  -0.00123,   0.00183,   0.00240,476415104.00000,   0.00024,274902400.00000,  -0.00013,   0.00019,   0.00025,  64.00000,   2.00000
-109118974.41432,311720982.66546,165983426.74498,  -0.00124,   0.00183,   0.00241,476397952.00000,   0.00025,274909536.00000,  -0.00014,   0.00020,   0.00026, 128.00000,   2.00000
-110506649.81583,310356058.59057,166216559.92080,  -0.00125,   0.00183,   0.00242,476404352.00000,   0.00025,274916672.00000,  -0.00014,   0.00020,   0.00026,  64.00000,   2.00000
-111887562.78168,308985132.19492,166458621.11531,  -0.00125,   0.00183,   0.00243,476402656.00000,   0.00026,274923744.00000,  -0.00014,   0.00021,   0.00027, 128.00000,   2.00000
-113271541.48056,307617458.62751,166697453.48881,  -0.00126,   0.00183,   0.00244,476403872.00000,   0.00026,274930816.00000,  -0.00015,   0.00021,   0.00028,  96.00000,   2.00000
-114667652.04937,306236496.51495,166939941.48505,  -0.00127,   0.00183,   0.00245,476400992.00000,   0.00027,274937824.00000,  -0.00015,   0.00022,   0.00028,   0.00000,   2.00000
-116076949.65810,304845876.74522,167182428.98070,  -0.00128,   0.00183,   0.00246,476392896.00000,   0.00028,274944736.00000,  -0.00015,   0.00022,   0.00029, 128.00000,   2.00000
-117497047.40790,303442310.53773,167428123.54442,  -0.00128,   0.00184,   0.00247,476390784.00000,   0.00028,274951616.00000,  -0.00016,   0.00023,   0.00030,  64.00000,   2.00000
-118916072.34356,302039329.43130,167673280.24640,  -0.00129,   0.00184,   0.00248,476399104.00000,   0.00029,274958496.00000,  -0.00016,   0.00023,   0.00030, 160.00000,   2.00000
-120334918.27388,300640452.12692,167914147.29872,  -0.00130,   0.00184,   0.00249,476402240.00000,   0.00030,274965376.00000,  -0.00017,   0.00024,   0.00031, 192.00000,   2.00000
-121773485.85657,299215515.20128,168160883.94989,  -0.00131,   0.00184,   0.00250,476392736.00000,   0.00030,274972160.00000,  -0.00017,   0.00024,   0.00032, 160.00000,   2.00000
-123192868.31384,297805725.63795,168404549.81829,  -0.00131,   0.00184,   0.00251,476392320.00000,   0.00031,274978912.00000,  -0.00017,   0.00025,   0.00032, 128.00000,   2.00000
-124637899.54672,296372111.36008,168648650.83731,  -0.00132,   0.00184,   0.00252,476397568.00000,   0.00031,274985632.00000,  -0.00018,   0.00025,   0.00033, 192.00000,   2.00000
-126079208.52351,294938823.95004,168891168.36879,  -0.00133,   0.00184,   0.00253,476408064.00000,   0.00032,274992384.00000,  -0.00018,   0.00025,   0.00034,  32.00000,   2.00000
-127511917.24225,293507120.26755,169133966.11580,  -0.00134,   0.00184,   0.00254,476398080.00000,   0.00033,274999072.00000,  -0.00018,   0.00026,   0.00034,  32.00000,   2.00000
-128971526.85574,292054661.25123,169373582.43443,  -0.00134,   0.00184,   0.00255,476397888.00000,   0.00033,275005696.00000,  -0.00019,   0.00026,   0.00035, 128.00000,   2.00000
-130407670.94862,290610250.65426,169616847.49356,  -0.00135,   0.00185,   0.00256,476408544.00000,   0.00034,275012384.00000,  -0.00019,   0.00027,   0.00036,  96.00000,   2.00000
-131870492.99803,289145002.58740,169856843.47234,  -0.00136,   0.00185,   0.00257,476408000.00000,   0.00035,275019008.00000,  -0.00019,   0.00027,   0.00036,  96.00000,   2.00000
-133324389.37417,287681215.28223,170097007.21302,  -0.00136,   0.00185,   0.00258,476397728.00000,   0.00035,275025568.00000,  -0.00020,   0.00028,   0.00037,  96.00000,   2.00000
-134773918.88152,286218079.73771,170335550.22123,  -0.00137,   0.00185,   0.00259,476407360.00000,   0.00036,275032128.00000,  -0.00020,   0.00028,   0.00038, 160.00000,   2.00000
-136229945.17131,284741919.85088,170575661.58143,  -0.00138,   0.00185,   0.00260,476407808.00000,   0.00036,275038688.00000,  -0.00020,   0.00029,   0.00038, 160.00000,   2.00000
-137682774.47092,283270021.75223,170810401.57304,  -0.00139,   0.00185,   0.00261,476412256.00000,   0.00037,275045248.00000,  -0.00021,   0.00029,   0.00039, 128.00000,   2.00000
-139152617.50389,281771538.41177,171049688.40267,  -0.00139,   0.00185,   0.00262,476404288.00000,   0.00038,275051712.00000,  -0.00021,   0.00030,   0.00040, 192.00000,   2.00000
-140618404.46959,280277501.26165,171283120.05859,  -0.00140,   0.00185,   0.00263,476409504.00000,   0.00038,275058208.00000,  -0.00022,   0.00030,   0.00040, 192.00000,   2.00000
-142060350.92759,278795912.75849,171515786.43120,  -0.00141,   0.00185,   0.00264,476415776.00000,   0.00039,275064672.00000,  -0.00022,   0.00030,   0.00041, 128.00000,   2.00000
-143524473.58980,277290508.27716,171747070.82378,  -0.00142,   0.00185,   0.00265,476423904.00000,   0.00039,275071168.00000,  -0.00022,   0.00031,   0.00042, 224.00000,   2.00000
-144977444.94941,275786873.18297,171977081.50441,  -0.00142,   0.00185,   0.00266,476416512.00000,   0.00040,275077600.00000,  -0.00023,   0.00031,   0.00042, 160.00000,   2.00000
-146425572.67267,274287814.16063,172200611.22555,  -0.00143,   0.00185,   0.00267,476423104.00000,   0.00040,275084032.00000,  -0.00023,   0.00032,   0.00043,  64.00000,   2.00000
-147878340.52202,272775703.97097,172424276.68447,  -0.00144,   0.00185,   0.00268,476426752.00000,   0.00041,275090464.00000,  -0.00023,   0.00032,   0.00044,   0.00000,   2.00000
-149336153.89050,271250453.94341,172648204.65837,  -0.00144,   0.00185,   0.00269,476429952.00000,   0.00042,275096864.00000,  -0.00024,   0.00033,   0.00044, 160.00000,   2.00000
-150790198.07179,269729402.04419,172865918.59332,  -0.00145,   0.00185,   0.00270,476435840.00000,   0.00042,275103296.00000,  -0.00024,   0.00033,   0.00045, 160.00000,   2.00000
-152235018.07358,268209328.76305,173082835.41468,  -0.00146,   0.00185,   0.00270,476426848.00000,   0.00043,275109632.00000,  -0.00024,   0.00034,   0.00045, 128.00000,   2.00000
-153701560.14536,266661215.57158,173301919.40404,  -0.00147,   0.00185,   0.00271,476439744.00000,   0.00043,275116000.00000,  -0.00025,   0.00034,   0.00046,  64.00000,   2.00000
-155150535.27665,265131894.96391,173514199.41840,  -0.00147,   0.00185,   0.00272,476432672.00000,   0.00044,275122304.00000,  -0.00025,   0.00034,   0.00047, 384.00000,   2.00000
-156606337.76278,263588921.71836,173727483.30077,  -0.00148,   0.00185,   0.00273,476434112.00000,   0.00045,275128608.00000,  -0.00025,   0.00035,   0.00047,  64.00000,   2.00000
-158057777.42776,262047242.89903,173938883.42793,  -0.00149,   0.00185,   0.00274,476444000.00000,   0.00045,275134912.00000,  -0.00026,   0.00035,   0.00048,  96.00000,   2.00000
-159518082.66066,260495319.47031,174148056.43473,  -0.00150,   0.00185,   0.00275,476440384.00000,   0.00046,275141184.00000,  -0.00026,   0.00036,   0.00049, 192.00000,   2.00000
-160967761.43994,258941215.28631,174360380.87880,  -0.00150,   0.00185,   0.00276,476437312.00000,   0.00046,275147392.00000,  -0.00026,   0.00036,   0.00049,  32.00000,   2.00000
-162414667.45104,257391428.85494,174567243.05189,  -0.00151,   0.00185,   0.00277,476442784.00000,   0.00047,275153600.00000,  -0.00027,   0.00036,   0.00050, 128.00000,   2.00000
-163867870.04700,255828014.99977,174775012.29094,  -0.00152,   0.00185,   0.00278,476446112.00000,   0.00047,275159808.00000,  -0.00027,   0.00037,   0.00050,   0.00000,   2.00000
-165329528.40792,254254044.96612,174980296.37108,  -0.00152,   0.00185,   0.00279,476443712.00000,   0.00048,275165952.00000,  -0.00028,   0.00037,   0.00051,   0.00000,   2.00000
-166788231.15948,252684232.17298,175179933.34198,  -0.00153,   0.00185,   0.00279,476449952.00000,   0.00049,275172096.00000,  -0.00028,   0.00038,   0.00052, 128.00000,   2.00000
-168250746.82057,251097338.49914,175383508.07884,  -0.00154,   0.00185,   0.00280,476459456.00000,   0.00049,275178240.00000,  -0.00028,   0.00038,   0.00052,  64.00000,   2.00000
-169695642.99094,249529097.53235,175580343.49667,  -0.00154,   0.00185,   0.00281,476453632.00000,   0.00050,275184352.00000,  -0.00029,   0.00038,   0.00053, 288.00000,   2.00000
-171146679.60672,247946898.07577,175777811.92093,  -0.00155,   0.00185,   0.00282,476457152.00000,   0.00050,275190432.00000,  -0.00029,   0.00039,   0.00054,  96.00000,   2.00000
-172603764.34267,246350716.24395,175975853.87299,  -0.00156,   0.00185,   0.00283,476460704.00000,   0.00051,275196512.00000,  -0.00029,   0.00039,   0.00054, 224.00000,   2.00000
-174040924.50142,244770034.16957,176170410.42023,  -0.00157,   0.00185,   0.00284,476460288.00000,   0.00051,275202528.00000,  -0.00030,   0.00040,   0.00055, 128.00000,   2.00000
-175486532.15420,243178452.96709,176362279.57161,  -0.00157,   0.00185,   0.00285,476457632.00000,   0.00052,275208512.00000,  -0.00030,   0.00040,   0.00055, 192.00000,   2.00000
-176954894.16537,241561399.71002,176552290.37325,  -0.00158,   0.00185,   0.00286,476467456.00000,   0.00052,275214528.00000,  -0.00030,   0.00040,   0.00056,  96.00000,   2.00000
-178386672.70763,239971235.12220,176741193.31193,  -0.00159,   0.00185,   0.00286,476460608.00000,   0.00053,275220480.00000,  -0.00031,   0.00041,   0.00057, 256.00000,   2.00000
-179829830.01894,238370714.44665,176925243.49584,  -0.00159,   0.00185,   0.00287,476477984.00000,   0.00054,275226496.00000,  -0.00031,   0.00041,   0.00057,   0.00000,   2.00000
-181276378.80731,236755177.86354,177111974.11899,  -0.00160,   0.00185,   0.00288,476461056.00000,   0.00054,275232384.00000,  -0.00031,   0.00042,   0.00058, 224.00000,   2.00000
-182706299.17825,235155918.69751,177293309.44719,  -0.00161,   0.00185,   0.00289,476479776.00000,   0.00055,275238336.00000,  -0.00032,   0.00042,   0.00058, 160.00000,   2.00000
-184156534.98011,233529877.11141,177474943.54796,  -0.00161,   0.00184,   0.00290,476469056.00000,   0.00055,275244192.00000,  -0.00032,   0.00042,   0.00059,  96.00000,   2.00000
-185587784.40565,231919142.40964,177653502.00878,  -0.00162,   0.00184,   0.00291,476467072.00000,   0.00056,275250048.00000,  -0.00032,   0.00043,   0.00060,  96.00000,   2.00000
-187042415.81555,230282526.60440,177830405.24048,  -0.00163,   0.00184,   0.00291,476475904.00000,   0.00056,275255872.00000,  -0.00033,   0.00043,   0.00060, 320.00000,   2.00000
-188475856.15253,228658105.36629,178007621.10075,  -0.00163,   0.00184,   0.00292,476479552.00000,   0.00057,275261728.00000,  -0.00033,   0.00043,   0.00061, 192.00000,   2.00000
-189904880.30559,227036110.89398,178181804.15892,  -0.00164,   0.00184,   0.00293,476463008.00000,   0.00057,275267456.00000,  -0.00033,   0.00044,   0.00061,  64.00000,   2.00000
-191327362.47192,225411799.84264,178357604.12209,  -0.00165,   0.00184,   0.00294,476477792.00000,   0.00058,275273248.00000,  -0.00034,   0.00044,   0.00062, -64.00000,   2.00000
-192779291.95960,223766531.42242,178526187.41578,  -0.00165,   0.00184,   0.00295,476473376.00000,   0.00058,275279008.00000,  -0.00034,   0.00044,   0.00063,  96.00000,   2.00000
-194206857.30016,222127881.56728,178702223.70171,  -0.00166,   0.00184,   0.00295,476459936.00000,   0.00059,275284640.00000,  -0.00034,   0.00045,   0.00063,  64.00000,   2.00000
-195649436.80309,220476199.43161,178876870.22565,  -0.00167,   0.00184,   0.00296,476471488.00000,   0.00059,275290336.00000,  -0.00035,   0.00045,   0.00064, 160.00000,   2.00000
-197092638.68877,218823430.96938,179053474.03205,  -0.00167,   0.00184,   0.00297,476447296.00000,   0.00060,275295872.00000,  -0.00035,   0.00046,   0.00064, 128.00000,   2.00000
-198519162.17375,217176707.13267,179240675.81173,  -0.00168,   0.00183,   0.00298,476444736.00000,   0.00060,275301408.00000,  -0.00035,   0.00046,   0.00065,  96.00000,   2.00000
-199979693.23275,215509615.09055,179425086.99524,  -0.00169,   0.00183,   0.00299,476430688.00000,   0.00061,275306848.00000,  -0.00036,   0.00046,   0.00065, 320.00000,   2.00000
-201429445.92954,213844908.57839,179611480.16521,  -0.00169,   0.00183,   0.00299,476424544.00000,   0.00061,275312224.00000,  -0.00036,   0.00047,   0.00066,  64.00000,   2.00000
-202864286.30857,212189608.93002,179786348.76600,  -0.00170,   0.00183,   0.00300,476447136.00000,   0.00062,275317696.00000,  -0.00036,   0.00047,   0.00067,  64.00000,   2.00000
-204281313.50685,210541529.56845,179945946.06855,  -0.00171,   0.00183,   0.00301,476452608.00000,   0.00062,275323136.00000,  -0.00037,   0.00047,   0.00067,  96.00000,   2.00000
-205682824.15279,208890990.33417,180099153.82370,  -0.00171,   0.00183,   0.00302,476484512.00000,   0.00063,275328704.00000,  -0.00037,   0.00048,   0.00068,   0.00000,   2.00000
-207098400.90064,207225339.73496,180247099.86835,  -0.00172,   0.00183,   0.00303,476477696.00000,   0.00063,275334208.00000,  -0.00037,   0.00048,   0.00068,  32.00000,   2.00000
-208502502.22922,205566365.72742,180401939.86704,  -0.00173,   0.00182,   0.00303,476470656.00000,   0.00064,275339648.00000,  -0.00038,   0.00048,   0.00069, 128.00000,   2.00000
-209925646.72219,203892871.49159,180561225.78640,  -0.00173,   0.00182,   0.00304,476453632.00000,   0.00064,275344992.00000,  -0.00038,   0.00049,   0.00069,   0.00000,   2.00000
-211359096.13065,202206639.48823,180724265.99486,  -0.00174,   0.00182,   0.00305,476448512.00000,   0.00065,275350272.00000,  -0.00038,   0.00049,   0.00070, 128.00000,   2.00000
-212770230.57324,200539876.91482,180882296.54592,  -0.00175,   0.00182,   0.00306,476448352.00000,   0.00065,275355552.00000,  -0.00039,   0.00049,   0.00070, -32.00000,   2.00000
-214170927.38942,198880765.52794,181029398.13103,  -0.00175,   0.00182,   0.00306,476462688.00000,   0.00066,275360864.00000,  -0.00039,   0.00049,   0.00071,  96.00000,   2.00000
-215565264.49596,197203731.20346,181176581.21826,  -0.00176,   0.00182,   0.00307,476463840.00000,   0.00066,275366144.00000,  -0.00039,   0.00050,   0.00072,  32.00000,   2.00000
-216956192.87394,195535827.52054,181308932.96742,  -0.00177,   0.00181,   0.00308,476490624.00000,   0.00067,275371520.00000,  -0.00040,   0.00050,   0.00072, -32.00000,   2.00000
-218333487.40376,193860926.49885,181445119.20976,  -0.00177,   0.00181,   0.00309,476471104.00000,   0.00067,275376768.00000,  -0.00040,   0.00050,   0.00073, 192.00000,   2.00000
-219720889.26877,192175150.35036,181576132.90212,  -0.00178,   0.00181,   0.00309,476489248.00000,   0.00068,275382080.00000,  -0.00040,   0.00051,   0.00073, 224.00000,   2.00000
-221090752.37530,190503850.49832,181705368.92334,  -0.00178,   0.00181,   0.00310,476484928.00000,   0.00068,275387360.00000,  -0.00041,   0.00051,   0.00074,  96.00000,   2.00000
-222451995.60139,188828271.59499,181838783.02225,  -0.00179,   0.00181,   0.00311,476479520.00000,   0.00069,275392608.00000,  -0.00041,   0.00051,   0.00074, 128.00000,   2.00000
-223826047.07767,187142098.65217,181966904.96845,  -0.00180,   0.00180,   0.00311,476470048.00000,   0.00069,275397760.00000,  -0.00041,   0.00052,   0.00075,   0.00000,   2.00000
-225192946.89486,185454669.91933,182096532.87883,  -0.00180,   0.00180,   0.00312,476485344.00000,   0.00070,275402944.00000,  -0.00042,   0.00052,   0.00075, 160.00000,   2.00000
-226545935.78336,183784520.41543,182220881.43362,  -0.00181,   0.00180,   0.00313,476475360.00000,   0.00070,275408096.00000,  -0.00042,   0.00052,   0.00076, -96.00000,   2.00000
-227917868.68645,182082185.52901,182348341.46371,  -0.00181,   0.00180,   0.00314,476472160.00000,   0.00071,275413152.00000,  -0.00042,   0.00053,   0.00077,  96.00000,   2.00000
-229262205.53432,180411244.57389,182471132.38138,  -0.00182,   0.00180,   0.00314,476474528.00000,   0.00071,275418240.00000,  -0.00043,   0.00053,   0.00077,  32.00000,   2.00000
-230628882.32805,178710271.20727,182593817.29933,  -0.00183,   0.00179,   0.00315,476465088.00000,   0.00072,275423232.00000,  -0.00043,   0.00053,   0.00078, 160.00000,   2.00000
-231980882.15094,177027008.19814,182712030.38353,  -0.00183,   0.00179,   0.00316,476480672.00000,   0.00072,275428256.00000,  -0.00043,   0.00053,   0.00078, 160.00000,   2.00000
-233339735.67757,175324811.91816,182833061.31346,  -0.00184,   0.00179,   0.00316,476463552.00000,   0.00073,275433216.00000,  -0.00043,   0.00054,   0.00079,  32.00000,   2.00000
-234682679.71953,173637297.12112,182951995.42408,  -0.00184,   0.00179,   0.00317,476458880.00000,   0.00073,275438080.00000,  -0.00044,   0.00054,   0.00079, 128.00000,   2.00000
-236021926.92703,171950965.93831,183068871.20846,  -0.00185,   0.00179,   0.00318,476468128.00000,   0.00073,275442976.00000,  -0.00044,   0.00054,   0.00080, 128.00000,   2.00000
-237371180.92790,170251262.04077,183182706.44832,  -0.00186,   0.00178,   0.00318,476465504.00000,   0.00074,275447872.00000,  -0.00044,   0.00055,   0.00080,   0.00000,   2.00000
-238703606.90500,168566642.68558,183294255.78682,  -0.00186,   0.00178,   0.00319,476461184.00000,   0.00074,275452672.00000,  -0.00045,   0.00055,   0.00081, 128.00000,   2.00000
-240044968.30150,166868812.27494,183402384.50317,  -0.00187,   0.00178,   0.00320,476459520.00000,   0.00075,275457472.00000,  -0.00045,   0.00055,   0.00081, 128.00000,   2.00000
-241376340.23866,165166843.79559,183513146.06965,  -0.00187,   0.00178,   0.00320,476456352.00000,   0.00075,275462208.00000,  -0.00045,   0.00055,   0.00082,  96.00000,   2.00000
-242704259.58191,163469017.29497,183617787.14612,  -0.00188,   0.00177,   0.00321,476461344.00000,   0.00076,275466976.00000,  -0.00046,   0.00056,   0.00082,  96.00000,   2.00000
-244009753.54476,161784338.49677,183722305.83746,  -0.00188,   0.00177,   0.00322,476465280.00000,   0.00076,275471712.00000,  -0.00046,   0.00056,   0.00083,  64.00000,   2.00000
-245325090.50525,160089164.22120,183819595.42484,  -0.00189,   0.00177,   0.00322,476459488.00000,   0.00077,275476416.00000,  -0.00046,   0.00056,   0.00083,   0.00000,   2.00000
-246628174.52557,158390114.45962,183918677.23021,  -0.00190,   0.00177,   0.00323,476458624.00000,   0.00077,275481088.00000,  -0.00047,   0.00056,   0.00084,   0.00000,   2.00000
-247925906.65683,156695684.19235,184011040.17887,  -0.00190,   0.00176,   0.00323,476465632.00000,   0.00077,275485760.00000,  -0.00047,   0.00057,   0.00084, 160.00000,   2.00000
-249225774.17599,154986385.68939,184101753.86940,  -0.00191,   0.00176,   0.00324,476473856.00000,   0.00078,275490464.00000,  -0.00047,   0.00057,   0.00085, 128.00000,   2.00000
-250493609.51755,153305814.29708,184189256.57327,  -0.00191,   0.00176,   0.00325,476458656.00000,   0.00078,275495072.00000,  -0.00047,   0.00057,   0.00085,-160.00000,   2.00000
-251764506.03777,151614718.79827,184273028.52893,  -0.00192,   0.00175,   0.00325,476486752.00000,   0.00079,275499776.00000,  -0.00048,   0.00057,   0.00086, 288.00000,   2.00000
-253015457.28172,149934297.89527,184356096.42802,  -0.00192,   0.00175,   0.00326,476465984.00000,   0.00079,275504352.00000,  -0.00048,   0.00058,   0.00086,  64.00000,   2.00000
-254288298.26067,148229338.70676,184431868.54956,  -0.00193,   0.00175,   0.00326,476476032.00000,   0.00080,275508960.00000,  -0.00048,   0.00058,   0.00087, 128.00000,   2.00000
-255525782.20991,146547810.58649,184511907.90257,  -0.00193,   0.00175,   0.00327,476471104.00000,   0.00080,275513472.00000,  -0.00049,   0.00058,   0.00087,  32.00000,   2.00000
-256762161.74139,144869354.43522,184587083.04599,  -0.00194,   0.00174,   0.00328,476475872.00000,   0.00080,275518016.00000,  -0.00049,   0.00058,   0.00088,  96.00000,   2.00000
-258009997.93937,143175701.40346,184659980.14347,  -0.00194,   0.00174,   0.00328,476474368.00000,   0.00081,275522528.00000,  -0.00049,   0.00059,   0.00088,   0.00000,   2.00000
-259252859.35650,141475267.96619,184737639.13626,  -0.00195,   0.00174,   0.00329,476469248.00000,   0.00081,275526944.00000,  -0.00049,   0.00059,   0.00089,   0.00000,   2.00000
-260499047.60295,139776452.17449,184812145.46780,  -0.00196,   0.00173,   0.00329,476469888.00000,   0.00082,275531360.00000,  -0.00050,   0.00059,   0.00089, -32.00000,   2.00000
-261734655.55884,138090086.29415,184887151.74711,  -0.00196,   0.00173,   0.00330,476460800.00000,   0.00082,275535680.00000,  -0.00050,   0.00059,   0.00090,  64.00000,   2.00000
-262970500.90037,136398681.13688,184964550.36292,  -0.00197,   0.00173,   0.00331,476445952.00000,   0.00082,275539936.00000,  -0.00050,   0.00059,   0.00090,  64.00000,   2.00000
-264220045.62845,134691605.98927,185040353.83228,  -0.00197,   0.00172,   0.00331,476439904.00000,   0.00083,275544128.00000,  -0.00051,   0.00060,   0.00091, 128.00000,   2.00000
-265453106.06050,132996009.63188,185118480.35672,  -0.00198,   0.00172,   0.00332,476437152.00000,   0.00083,275548288.00000,  -0.00051,   0.00060,   0.00091,  32.00000,   2.00000
-266686655.43343,131303327.64288,185192055.45962,  -0.00198,   0.00172,   0.00332,476437024.00000,   0.00084,275552416.00000,  -0.00051,   0.00060,   0.00091,  64.00000,   2.00000
-267916309.32158,129606904.28499,185266110.54521,  -0.00199,   0.00172,   0.00333,476423968.00000,   0.00084,275556512.00000,  -0.00051,   0.00060,   0.00092,  32.00000,   2.00000
-269141665.74528,127911752.13495,185338039.40654,  -0.00199,   0.00171,   0.00333,476431200.00000,   0.00084,275560576.00000,  -0.00052,   0.00061,   0.00092,   0.00000,   2.00000
-270366057.45548,126214805.76628,185407230.67539,  -0.00200,   0.00171,   0.00334,476412608.00000,   0.00085,275564576.00000,  -0.00052,   0.00061,   0.00093,  32.00000,   2.00000
-271571595.43962,124530007.52831,185477777.70422,  -0.00200,   0.00171,   0.00334,476411552.00000,   0.00085,275568544.00000,  -0.00052,   0.00061,   0.00093,   0.00000,   2.00000
-272787130.75089,122830457.42406,185545109.50773,  -0.00200,   0.00170,   0.00335,476408480.00000,   0.00085,275572480.00000,  -0.00052,   0.00061,   0.00094, -64.00000,   2.00000
-273987678.40276,121144781.79544,185610979.21492,  -0.00201,   0.00170,   0.00335,476401152.00000,   0.00086,275576352.00000,  -0.00053,   0.00061,   0.00094,  96.00000,   2.00000
-275194905.72452,119442353.08684,185676699.42126,  -0.00201,   0.00170,   0.00336,476404544.00000,   0.00086,275580256.00000,  -0.00053,   0.00062,   0.00094,  96.00000,   2.00000
-276376662.89226,117766165.72283,185741577.49622,  -0.00202,   0.00169,   0.00336,476381984.00000,   0.00086,275584000.00000,  -0.00053,   0.00062,   0.00095,-128.00000,   2.00000
-277579472.18563,116062426.24759,185802780.92708,  -0.00202,   0.00169,   0.00337,476394304.00000,   0.00087,275587808.00000,  -0.00053,   0.00062,   0.00095,  96.00000,   2.00000
-278756846.34385,114390375.70896,185860806.73465,  -0.00203,   0.00168,   0.00337,476391680.00000,   0.00087,275591584.00000,  -0.00054,   0.00062,   0.00096,  64.00000,   2.00000
-279937510.19894,112694187.69258,185923957.79984,  -0.00203,   0.00168,   0.00338,476381952.00000,   0.00088,275595264.00000,  -0.00054,   0.00062,   0.00096, 128.00000,   2.00000
-281107071.77496,111013303.81548,185982659.21824,  -0.00204,   0.00168,   0.00338,476368640.00000,   0.00088,275598880.00000,  -0.00054,   0.00062,   0.00096,  32.00000,   2.00000
-282272505.51431,109333673.91219,186039317.06693,  -0.00204,   0.00167,   0.00339,476377120.00000,   0.00088,275602528.00000,  -0.00054,   0.00063,   0.00097, 160.00000,   2.00000
-283433810.16236,107649394.95983,186096108.58223,  -0.00205,   0.00167,   0.00339,476365920.00000,   0.00089,275606112.00000,  -0.00055,   0.00063,   0.00097, -32.00000,   2.00000
-284594582.63763,105968036.14547,186147866.72884,  -0.00205,   0.00167,   0.00340,476367936.00000,   0.00089,275609664.00000,  -0.00055,   0.00063,   0.00098, -32.00000,   2.00000
-285740780.04118,104300136.15738,186198213.10564,  -0.00205,   0.00166,   0.00340,476360928.00000,   0.00089,275613184.00000,  -0.00055,   0.00063,   0.00098, -96.00000,   2.00000
-286883117.29307,102627439.64902,186248850.77292,  -0.00206,   0.00166,   0.00341,476349632.00000,   0.00089,275616608.00000,  -0.00055,   0.00063,   0.00098,   0.00000,   2.00000
-288031666.64528,100937691.53806,186298970.26108,  -0.00206,   0.00166,   0.00341,476354304.00000,   0.00090,275620064.00000,  -0.00056,   0.00063,   0.00099,   0.00000,   2.00000
-289165614.70329,99261227.76532,186347677.64935,  -0.00207,   0.00165,   0.00341,476347104.00000,   0.00090,275623456.00000,  -0.00056,   0.00064,   0.00099,  32.00000,   2.00000
-290285096.69719,97598003.85849,186395047.26063,  -0.00207,   0.00165,   0.00342,476339840.00000,   0.00090,275626784.00000,  -0.00056,   0.00064,   0.00100,   0.00000,   2.00000
-291414558.39581,95919191.60560,186438970.93710,  -0.00208,   0.00164,   0.00342,476337792.00000,   0.00091,275630112.00000,  -0.00056,   0.00064,   0.00100,  32.00000,   2.00000
-292529649.58256,94253479.03856,186481573.59067,  -0.00208,   0.00164,   0.00343,476330304.00000,   0.00091,275633376.00000,  -0.00056,   0.00064,   0.00100, -32.00000,   2.00000
-293630619.71068,92600806.64296,186522976.41893,  -0.00208,   0.00164,   0.00343,476322496.00000,   0.00091,275636576.00000,  -0.00057,   0.00064,   0.00101,  96.00000,   2.00000
-294737911.64755,90930802.82671,186563871.89805,  -0.00209,   0.00163,   0.00344,476326816.00000,   0.00092,275639776.00000,  -0.00057,   0.00064,   0.00101, -32.00000,   2.00000
-295831442.52795,89273706.04131,186603722.34389,  -0.00209,   0.00163,   0.00344,476318496.00000,   0.00092,275642944.00000,  -0.00057,   0.00065,   0.00101,  32.00000,   2.00000
-296921874.13299,87610983.37217,186644085.76993,  -0.00209,   0.00162,   0.00344,476306336.00000,   0.00092,275646016.00000,  -0.00057,   0.00065,   0.00102, 160.00000,   2.00000
-297998855.08143,85960906.61694,186683488.16615,  -0.00210,   0.00162,   0.00345,476297760.00000,   0.00092,275649056.00000,  -0.00058,   0.00065,   0.00102,  32.00000,   2.00000
-299086616.35552,84294627.91177,186719688.81285,  -0.00210,   0.00162,   0.00345,476294656.00000,   0.00093,275652032.00000,  -0.00058,   0.00065,   0.00102, -64.00000,   2.00000
-300151105.76878,82659391.24938,186753782.66313,  -0.00211,   0.00161,   0.00345,476288736.00000,   0.00093,275655008.00000,  -0.00058,   0.00065,   0.00103,  64.00000,   2.00000
-301233042.24429,80987933.35288,186789048.59676,  -0.00211,   0.00161,   0.00346,476288544.00000,   0.00093,275657952.00000,  -0.00058,   0.00065,   0.00103,  32.00000,   2.00000
-302292022.81345,79347473.61074,186822353.78270,  -0.00211,   0.00160,   0.00346,476282368.00000,   0.00094,275660832.00000,  -0.00058,   0.00065,   0.00103,   0.00000,   2.00000
-303352502.92441,77702162.91710,186853428.54289,  -0.00212,   0.00160,   0.00347,476262880.00000,   0.00094,275663616.00000,  -0.00058,   0.00066,   0.00104,  32.00000,   2.00000
-304406817.14207,76049329.38606,186888178.54445,  -0.00212,   0.00160,   0.00347,476256000.00000,   0.00094,275666368.00000,  -0.00059,   0.00066,   0.00104,-128.00000,   2.00000
-305451675.09423,74417217.16208,186917114.69120,  -0.00212,   0.00159,   0.00347,476259296.00000,   0.00094,275669120.00000,  -0.00059,   0.00066,   0.00104, -32.00000,   2.00000
-306476881.82937,72787743.17819,186953495.10058,  -0.00213,   0.00159,   0.00348,476242944.00000,   0.00095,275671776.00000,  -0.00059,   0.00066,   0.00105, -32.00000,   2.00000
-307530036.49086,71132875.14492,186979653.17488,  -0.00213,   0.00158,   0.00348,476243296.00000,   0.00095,275674432.00000,  -0.00059,   0.00066,   0.00105, -32.00000,   2.00000
-308557076.14621,69500453.11681,187008919.67628,  -0.00213,   0.00158,   0.00348,476223872.00000,   0.00095,275676992.00000,  -0.00059,   0.00066,   0.00105, -64.00000,   2.00000
-309580463.10495,67868937.52207,187036305.57931,  -0.00214,   0.00157,   0.00349,476230848.00000,   0.00095,275679552.00000,  -0.00060,   0.00066,   0.00105,-128.00000,   2.00000
-310601088.92657,66231023.66944,187064076.53271,  -0.00214,   0.00157,   0.00349,476218400.00000,   0.00096,275682048.00000,  -0.00060,   0.00066,   0.00106,  32.00000,   2.00000
-311608624.89326,64605269.62198,187090872.92875,  -0.00214,   0.00157,   0.00349,476209216.00000,   0.00096,275684480.00000,  -0.00060,   0.00066,   0.00106,  96.00000,   2.00000
-312603247.93084,62991635.01660,187116798.64684,  -0.00215,   0.00156,   0.00349,476199808.00000,   0.00096,275686848.00000,  -0.00060,   0.00067,   0.00106, -32.00000,   2.00000
-313597968.33644,61379986.08248,187137823.98488,  -0.00215,   0.00156,   0.00350,476200224.00000,   0.00096,275689248.00000,  -0.00060,   0.00067,   0.00106, -32.00000,   2.00000
-314590017.81243,59761556.24579,187159258.66900,  -0.00215,   0.00155,   0.00350,476187616.00000,   0.00096,275691552.00000,  -0.00060,   0.00067,   0.00107, -32.00000,   2.00000
-315575383.45161,58135099.54038,187183994.93075,  -0.00215,   0.00155,   0.00350,476181568.00000,   0.00097,275693792.00000,  -0.00061,   0.00067,   0.00107,   0.00000,   2.00000
-316555323.18551,56530349.10198,187200083.32493,  -0.00216,   0.00154,   0.00351,476177824.00000,   0.00097,275696032.00000,  -0.00061,   0.00067,   0.00107, -64.00000,   2.00000
-317515933.43556,54927309.00318,187223664.45934,  -0.00216,   0.00154,   0.00351,476161152.00000,   0.00097,275698176.00000,  -0.00061,   0.00067,   0.00107, -32.00000,   2.00000
-318491306.10383,53308201.76730,187240902.73524,  -0.00216,   0.00153,   0.00351,476151520.00000,   0.00097,275700288.00000,  -0.00061,   0.00067,   0.00108, -32.00000,   2.00000
-319440691.09415,51718450.70332,187259601.90967,  -0.00217,   0.00153,   0.00351,476149984.00000,   0.00097,275702368.00000,  -0.00061,   0.00067,   0.00108,  64.00000,   2.00000
-320388038.79830,50121357.35158,187278955.35353,  -0.00217,   0.00153,   0.00352,476136640.00000,   0.00098,275704352.00000,  -0.00061,   0.00067,   0.00108, -32.00000,   2.00000
-321336178.83509,48525906.38856,187293780.99313,  -0.00217,   0.00152,   0.00352,476136160.00000,   0.00098,275706336.00000,  -0.00061,   0.00067,   0.00108, -32.00000,   2.00000
-322282191.44043,46923024.09292,187309152.94527,  -0.00217,   0.00152,   0.00352,476123136.00000,   0.00098,275708256.00000,  -0.00062,   0.00067,   0.00109, 128.00000,   2.00000
-323216072.01970,45331503.96897,187323927.91334,  -0.00218,   0.00151,   0.00352,476112576.00000,   0.00098,275710144.00000,  -0.00062,   0.00068,   0.00109, -64.00000,   2.00000
-324133882.64078,43750406.78750,187341092.92342,  -0.00218,   0.00151,   0.00353,476108416.00000,   0.00098,275711968.00000,  -0.00062,   0.00068,   0.00109,-128.00000,   2.00000
-325053619.66616,42162570.02928,187355708.76408,  -0.00218,   0.00150,   0.00353,476088928.00000,   0.00098,275713696.00000,  -0.00062,   0.00068,   0.00109, -32.00000,   2.00000
-325960199.29776,40594322.53343,187367619.71907,  -0.00218,   0.00150,   0.00353,476097440.00000,   0.00099,275715456.00000,  -0.00062,   0.00068,   0.00109,  96.00000,   2.00000
-326868745.69435,39019118.39982,187376938.46043,  -0.00218,   0.00149,   0.00353,476078048.00000,   0.00099,275717120.00000,  -0.00062,   0.00068,   0.00110,  96.00000,   2.00000
-327758560.96347,37444748.84439,187393706.89142,  -0.00219,   0.00149,   0.00353,476061088.00000,   0.00099,275718720.00000,  -0.00062,   0.00068,   0.00110,   0.00000,   2.00000
-328661762.31881,35862158.21370,187401632.50811,  -0.00219,   0.00148,   0.00354,476070816.00000,   0.00099,275720320.00000,  -0.00062,   0.00068,   0.00110,  96.00000,   2.00000
-329541067.72937,34300010.00341,187413367.23765,  -0.00219,   0.00148,   0.00354,476049056.00000,   0.00099,275721824.00000,  -0.00062,   0.00068,   0.00110,  32.00000,   2.00000
-330413413.53738,32749426.53104,187421936.76130,  -0.00219,   0.00147,   0.00354,476031008.00000,   0.00099,275723232.00000,  -0.00063,   0.00068,   0.00110, 128.00000,   2.00000
-331278602.82681,31198486.89745,187431845.13179,  -0.00219,   0.00147,   0.00354,476042656.00000,   0.00099,275724704.00000,  -0.00063,   0.00068,   0.00110,   0.00000,   2.00000
-332146651.87549,29639923.26363,187439507.66216,  -0.00220,   0.00146,   0.00354,476022208.00000,   0.00100,275726080.00000,  -0.00063,   0.00068,   0.00111, -32.00000,   2.00000
-333003910.86291,28091915.28267,187447084.47063,  -0.00220,   0.00146,   0.00354,476009920.00000,   0.00100,275727360.00000,  -0.00063,   0.00068,   0.00111,  32.00000,   2.00000
-333859917.32860,26535328.02735,187455337.72835,  -0.00220,   0.00145,   0.00355,475995680.00000,   0.00100,275728608.00000,  -0.00063,   0.00068,   0.00111, -32.00000,   2.00000
-334696113.93409,25008239.86823,187462990.75735,  -0.00220,   0.00145,   0.00355,475984640.00000,   0.00100,275729760.00000,  -0.00063,   0.00068,   0.00111,  64.00000,   2.00000
-335539054.91042,23462342.37022,187469920.15673,  -0.00220,   0.00144,   0.00355,475987456.00000,   0.00100,275730944.00000,  -0.00063,   0.00068,   0.00111, -96.00000,   2.00000
-336376001.48946,21927447.95766,187474104.75612,  -0.00221,   0.00144,   0.00355,475968032.00000,   0.00100,275732032.00000,  -0.00063,   0.00068,   0.00111,   0.00000,   2.00000
-337195445.39425,20392365.22999,187486202.79877,  -0.00221,   0.00143,   0.00355,475949312.00000,   0.00100,275733024.00000,  -0.00063,   0.00068,   0.00111, -64.00000,   2.00000
-338011868.63373,18877891.72733,187490627.81431,  -0.00221,   0.00143,   0.00355,475942048.00000,   0.00100,275733984.00000,  -0.00063,   0.00068,   0.00112,  64.00000,   2.00000
-338822271.29326,17353689.30777,187498221.75624,  -0.00221,   0.00142,   0.00355,475933888.00000,   0.00100,275734912.00000,  -0.00063,   0.00069,   0.00112,-992.00000,   1.00000
-339635980.14180,15830495.98348,187502459.11073,  -0.00221,   0.00142,   0.00355,475930496.00000,   0.00101,275735808.00000,  -0.00063,   0.00069,   0.00112,   0.00000,   2.00000
-340435393.01412,14307244.67510,187510946.89251,  -0.00221,   0.00141,   0.00356,475906112.00000,   0.00101,275736576.00000,  -0.00064,   0.00069,   0.00112,-832.00000,   1.00000
-341228005.69152,12803921.72942,187514934.83498,  -0.00221,   0.00141,   0.00356,475904352.00000,   0.00101,275737344.00000,  -0.00064,   0.00069,   0.00112,-896.00000,   1.00000
-342007913.70689,11300541.34689,187524064.59639,  -0.00221,   0.00140,   0.00356,475878688.00000,   0.00101,275737984.00000,  -0.00064,   0.00069,   0.00112,-704.00000,   1.00000
-342789498.76706,9797774.64366,187528801.16227,  -0.00222,   0.00140,   0.00356,475876544.00000,   0.00101,275738624.00000,  -0.00064,   0.00069,   0.00112,-768.00000,   1.00000
-343561123.07342,8304761.29414,187533687.94256,  -0.00222,   0.00139,   0.00356,475863136.00000,   0.00101,275739200.00000,  -0.00064,   0.00069,   0.00112,-640.00000,   1.00000
-344331729.83320,6802243.84235,187539113.14064,  -0.00222,   0.00139,   0.00356,475848704.00000,   0.00101,275739712.00000,  -0.00064,   0.00069,   0.00112,-640.00000,   1.00000
-345092389.87138,5309323.79760,187544651.93683,  -0.00222,   0.00138,   0.00356,475835264.00000,   0.00101,275740128.00000,  -0.00064,   0.00069,   0.00112,-448.00000,   1.00000
-345833952.81387,3845084.38297,187549750.49399,  -0.00222,   0.00138,   0.00356,475823104.00000,   0.00101,275740512.00000,  -0.00064,   0.00069,   0.00112,-384.00000,   1.00000
-346595262.67906,2342903.70157,187551325.57653,  -0.00222,   0.00137,   0.00356,475818560.00000,   0.00101,275740864.00000,  -0.00064,   0.00069,   0.00112,-416.00000,   1.00000
-347321595.08103,877856.78218,187559926.51800,  -0.00222,   0.00137,   0.00356,475801472.00000,   0.00101,275741152.00000,  -0.00064,   0.00069,   0.00112,-256.00000,   1.00000
-348054145.37162,-586438.65943,187561231.05728,  -0.00222,   0.00136,   0.00356,475792544.00000,   0.00101,275741376.00000,  -0.00064,   0.00069,   0.00112,-224.00000,   1.00000
-348774079.14912,-2051807.45640,187567451.32980,  -0.00222,   0.00136,   0.00356,475766912.00000,   0.00101,275741504.00000,  -0.00064,   0.00069,   0.00112,-128.00000,   1.00000
-349491272.83842,-3517318.20589,187572082.07332,  -0.00222,   0.00135,   0.00356,475770976.00000,   0.00101,275741632.00000,  -0.00064,   0.00069,   0.00112,-192.00000,   1.00000
-350203324.57878,-4973397.88212,187573999.31941,  -0.00222,   0.00135,   0.00356,475750528.00000,   0.00101,275741664.00000,  -0.00064,   0.00069,   0.00112,   0.00000,   1.00000
-350901067.86918,-6420837.43489,187578818.72971,  -0.00222,   0.00134,   0.00356,475743360.00000,   0.00101,275741696.00000,  -0.00064,   0.00069,   0.00112, -32.00000,   1.00000
-351588974.33591,-7879199.14436,187578818.72971,  -0.00222,   0.00134,   0.00356,475728640.00000,   0.00101,275741696.00000,  -0.00064,   0.00069,   0.00112,-13056.00000,   0.00000
-352257619.42158,-9329305.97624,187567812.22624,  -0.00222,   0.00133,   0.00356,475695264.00000,   0.00101,275741696.00000,  -0.00064,   0.00069,   0.00112,-46432.00000,   0.00000
-352918009.62964,-10760151.42704,187556805.72278,  -0.00222,   0.00133,   0.00356,475666112.00000,   0.00101,275741696.00000,  -0.00064,   0.00069,   0.00112,-75584.00000,   0.00000
-353548131.95317,-12193748.50372,187540295.96758,  -0.00222,   0.00132,   0.00356,475611104.00000,   0.00101,275741696.00000,  -0.00064,   0.00069,   0.00112,-130592.00000,   0.00000
-354158992.89563,-13619090.70279,187512779.70891,  -0.00222,   0.00132,   0.00356,475535552.00000,   0.00101,275741696.00000,  -0.00064,   0.00069,   0.00112,-206144.00000,   0.00000
-354778108.71569,-15063694.28293,187485263.45024,  -0.00222,   0.00131,   0.00356,475462976.00000,   0.00101,275741696.00000,  -0.00064,   0.00069,   0.00112,-278720.00000,   0.00000
-355350446.89601,-16472526.72680,187452243.93983,  -0.00222,   0.00131,   0.00356,475365344.00000,   0.00101,275741696.00000,  -0.00064,   0.00069,   0.00112,-376352.00000,   0.00000
-355931039.95393,-17900620.55174,187413721.17770,  -0.00222,   0.00130,   0.00356,475264448.00000,   0.00101,275741696.00000,  -0.00064,   0.00069,   0.00112,-477248.00000,   0.00000
-356484116.75319,-19301198.11801,187369695.16383,  -0.00222,   0.00129,   0.00356,475149376.00000,   0.00101,275741696.00000,  -0.00064,   0.00069,   0.00112,-592320.00000,   0.00000
-357026187.04897,-20712782.18774,187314662.64649,  -0.00222,   0.00129,   0.00356,475013184.00000,   0.00101,275741696.00000,  -0.00064,   0.00069,   0.00112,-728512.00000,   0.00000
-357529734.58262,-22107856.50228,187259630.12915,  -0.00222,   0.00128,   0.00356,474857504.00000,   0.00101,275741696.00000,  -0.00064,   0.00069,   0.00112,-884192.00000,   0.00000
-358041536.99387,-23522192.19788,187199094.36008,  -0.00222,   0.00128,   0.00356,474698432.00000,   0.00101,275741696.00000,  -0.00064,   0.00069,   0.00112,-1043264.00000,   0.00000
-358525823.14645,-24909011.63482,187133055.33927,  -0.00222,   0.00127,   0.00356,474524832.00000,   0.00101,275741696.00000,  -0.00064,   0.00069,   0.00112,-1216864.00000,   0.00000
-358990847.91796,-26287576.19415,187061513.06673,  -0.00222,   0.00127,   0.00356,474336576.00000,   0.00101,275741696.00000,  -0.00064,   0.00069,   0.00112,-1405120.00000,   0.00000
-359444866.18601,-27677147.25695,186984467.54245,  -0.00222,   0.00126,   0.00355,474133312.00000,   0.00101,275741696.00000,  -0.00064,   0.00069,   0.00112,-1608384.00000,   0.00000
-359890629.57645,-29047456.93869,186901918.76645,  -0.00222,   0.00126,   0.00355,473926720.00000,   0.00101,275741696.00000,  -0.00064,   0.00069,   0.00112,-1814976.00000,   0.00000
-360306125.08236,-30420518.24629,186813866.73870,  -0.00222,   0.00125,   0.00355,473693664.00000,   0.00101,275741696.00000,  -0.00064,   0.00069,   0.00112,-2048032.00000,   0.00000
-360702359.20720,-31785324.67629,186725814.71096,  -0.00222,   0.00125,   0.00355,473451936.00000,   0.00101,275741696.00000,  -0.00064,   0.00069,   0.00112,-2289760.00000,   0.00000
-361079331.95097,-33141876.22869,186626756.17975,  -0.00222,   0.00124,   0.00355,473188640.00000,   0.00101,275741696.00000,  -0.00064,   0.00069,   0.00112,-2553056.00000,   0.00000
-361456304.69474,-34498427.78108,186522194.39681,  -0.00222,   0.00124,   0.00355,472921728.00000,   0.00101,275741696.00000,  -0.00064,   0.00069,   0.00112,-2819968.00000,   0.00000
-361794754.67637,-35838469.57828,186412129.36213,  -0.00222,   0.00123,   0.00355,472628000.00000,   0.00101,275741696.00000,  -0.00064,   0.00069,   0.00112,-3113696.00000,   0.00000
-362113943.27693,-37170256.49788,186296561.07572,  -0.00221,   0.00122,   0.00355,472318880.00000,   0.00101,275741696.00000,  -0.00064,   0.00069,   0.00112,-3422816.00000,   0.00000
-362441386.75510,-38521304.79854,186175489.53758,  -0.00221,   0.00122,   0.00354,472006208.00000,   0.00101,275741696.00000,  -0.00064,   0.00069,   0.00112,-3735488.00000,   0.00000
-362722052.59353,-39836581.96294,186054417.99943,  -0.00221,   0.00121,   0.00354,471672704.00000,   0.00101,275741696.00000,  -0.00064,   0.00069,   0.00112,-4068992.00000,   0.00000
-363002718.43195,-41151859.12733,185922339.95782,  -0.00221,   0.00121,   0.00354,471328896.00000,   0.00101,275741696.00000,  -0.00064,   0.00069,   0.00112,-4412800.00000,   0.00000
-363253116.38585,-42469887.91759,185784758.66447,  -0.00221,   0.00120,   0.00354,470958208.00000,   0.00101,275741696.00000,  -0.00064,   0.00069,   0.00112,-4783488.00000,   0.00000
-363503514.33974,-43787916.70785,185641674.11939,  -0.00221,   0.00120,   0.00354,470583584.00000,   0.00101,275741696.00000,  -0.00064,   0.00069,   0.00112,-5158112.00000,   0.00000
-363707134.65389,-45070174.36184,185498589.57431,  -0.00221,   0.00119,   0.00354,470187744.00000,   0.00101,275741696.00000,  -0.00064,   0.00069,   0.00112,-5553952.00000,   0.00000
-363919009.84564,-46371693.39690,185344498.52576,  -0.00220,   0.00119,   0.00353,469781920.00000,   0.00101,275741696.00000,  -0.00064,   0.00069,   0.00112,-5959776.00000,   0.00000
-364111623.65633,-47664957.55436,185184904.22548,  -0.00220,   0.00118,   0.00353,469360544.00000,   0.00101,275741696.00000,  -0.00064,   0.00069,   0.00112,-6381152.00000,   0.00000
-364265714.70488,-48941711.95662,185019806.67346,  -0.00220,   0.00118,   0.00353,468911712.00000,   0.00101,275741696.00000,  -0.00064,   0.00069,   0.00112,-6829984.00000,   0.00000
-364419805.75343,-50218466.35888,184854709.12145,  -0.00220,   0.00117,   0.00353,468465536.00000,   0.00101,275741696.00000,  -0.00064,   0.00069,   0.00112,-7276160.00000,   0.00000
-364554635.42091,-51486965.88354,184678605.06596,  -0.00220,   0.00116,   0.00352,467997152.00000,   0.00101,275741696.00000,  -0.00064,   0.00069,   0.00112,-7744544.00000,   0.00000
-364642687.44865,-52719694.27192,184496997.75875,  -0.00220,   0.00116,   0.00352,467500768.00000,   0.00101,275741696.00000,  -0.00064,   0.00069,   0.00112,-8240928.00000,   0.00000
-364738994.35399,-53971684.04138,184315390.45153,  -0.00219,   0.00115,   0.00352,467007680.00000,   0.00101,275741696.00000,  -0.00064,   0.00069,   0.00112,-8734016.00000,   0.00000
-364816039.87826,-55215418.93323,184122776.64084,  -0.00219,   0.00115,   0.00352,466492256.00000,   0.00101,275741696.00000,  -0.00064,   0.00069,   0.00112,-9249440.00000,   0.00000
-364862817.51800,-56461905.45095,183930162.83016,  -0.00219,   0.00114,   0.00352,465956864.00000,   0.00101,275741696.00000,  -0.00064,   0.00069,   0.00112,-9784832.00000,   0.00000
-364901340.28014,-57689130.58760,183726542.51600,  -0.00219,   0.00114,   0.00351,465410464.00000,   0.00101,275741696.00000,  -0.00064,   0.00069,   0.00112,-10331232.00000,   0.00000
-364920601.66121,-58908100.84666,183517418.95012,  -0.00218,   0.00113,   0.00351,464848480.00000,   0.00101,275741696.00000,  -0.00064,   0.00069,   0.00112,-10893216.00000,   0.00000
-364901340.28014,-60110561.35051,183308295.38423,  -0.00218,   0.00113,   0.00351,464265632.00000,   0.00101,275741696.00000,  -0.00064,   0.00069,   0.00112,-11476064.00000,   0.00000
-364882078.89907,-61313021.85436,183088165.31488,  -0.00218,   0.00112,   0.00350,463672672.00000,   0.00101,275741696.00000,  -0.00064,   0.00069,   0.00112,-12069024.00000,   0.00000
-364843556.13693,-62507227.48061,182868035.24552,  -0.00218,   0.00111,   0.00350,463070592.00000,   0.00101,275741696.00000,  -0.00064,   0.00069,   0.00112,-12671104.00000,   0.00000
-364785771.99373,-63693178.22925,182636898.67270,  -0.00217,   0.00111,   0.00350,462446816.00000,   0.00101,275741696.00000,  -0.00064,   0.00069,   0.00112,-13294880.00000,   0.00000
-364689465.08838,-64862619.22270,182400258.84814,  -0.00217,   0.00110,   0.00350,461795744.00000,   0.00101,275741696.00000,  -0.00064,   0.00069,   0.00112,-13945952.00000,   0.00000
-364593158.18304,-66032060.21615,182163619.02359,  -0.00217,   0.00110,   0.00349,461147648.00000,   0.00101,275741696.00000,  -0.00064,   0.00069,   0.00112,-14594048.00000,   0.00000
-364477589.89663,-67193246.33200,181915972.69556,  -0.00217,   0.00109,   0.00349,460477568.00000,   0.00101,275741696.00000,  -0.00064,   0.00069,   0.00112,-15264128.00000,   0.00000
-364323498.84808,-68337922.69264,181668326.36754,  -0.00216,   0.00109,   0.00349,459787008.00000,   0.00101,275741696.00000,  -0.00064,   0.00069,   0.00112,-15954688.00000,   0.00000
-364169407.79953,-69482599.05328,181409673.53605,  -0.00216,   0.00108,   0.00348,459086432.00000,   0.00101,275741696.00000,  -0.00064,   0.00069,   0.00112,-16655264.00000,   0.00000
-363996055.36992,-70619020.53633,181151020.70455,  -0.00216,   0.00108,   0.00348,458377248.00000,   0.00101,275741696.00000,  -0.00064,   0.00069,   0.00112,-17364448.00000,   0.00000
-363784180.17816,-71738932.26417,180881361.36959,  -0.00215,   0.00107,   0.00348,457634272.00000,   0.00101,275741696.00000,  -0.00064,   0.00069,   0.00112,-18107424.00000,   0.00000
-363572304.98641,-72858843.99201,180611702.03464,  -0.00215,   0.00107,   0.00347,456894528.00000,   0.00101,275741696.00000,  -0.00064,   0.00069,   0.00112,-18847168.00000,   0.00000
-363321907.03252,-73962245.96465,180331036.19621,  -0.00215,   0.00106,   0.00347,456121088.00000,   0.00101,275741696.00000,  -0.00064,   0.00069,   0.00112,-19620608.00000,   0.00000
-363071509.07863,-75065647.93729,180044867.10605,  -0.00214,   0.00105,   0.00346,455344160.00000,   0.00101,275741696.00000,  -0.00064,   0.00069,   0.00112,-20397536.00000,   0.00000
-362793594.86607,-76141533.65126,179758698.01589,  -0.00214,   0.00105,   0.00346,454557184.00000,   0.00101,275741696.00000,  -0.00064,   0.00069,   0.00112,-21184512.00000,   0.00000
-362485412.76897,-77220170.99110,179461522.42226,  -0.00214,   0.00104,   0.00346,453737664.00000,   0.00101,275741696.00000,  -0.00064,   0.00069,   0.00112,-22004032.00000,   0.00000
-362177230.67187,-78298808.33094,179164346.82863,  -0.00213,   0.00104,   0.00345,452921536.00000,   0.00101,275741696.00000,  -0.00064,   0.00069,   0.00112,-22820160.00000,   0.00000
-361822270.93504,-79341674.53451,178856164.73153,  -0.00213,   0.00103,   0.00345,452069600.00000,   0.00101,275741696.00000,  -0.00064,   0.00069,   0.00112,-23672096.00000,   0.00000
-361475566.07581,-80403802.11915,178547982.63443,  -0.00213,   0.00103,   0.00345,451222464.00000,   0.00101,275741696.00000,  -0.00064,   0.00069,   0.00112,-24519232.00000,   0.00000
-361082083.57683,-81430158.56751,178228794.03387,  -0.00212,   0.00102,   0.00344,450339552.00000,   0.00101,275741696.00000,  -0.00064,   0.00069,   0.00112,-25402144.00000,   0.00000
-360669339.69679,-82448260.13828,177909605.43331,  -0.00212,   0.00102,   0.00344,449447488.00000,   0.00101,275741696.00000,  -0.00064,   0.00069,   0.00112,-26294208.00000,   0.00000
-360264850.69435,-83485623.09011,177579410.32927,  -0.00212,   0.00101,   0.00343,448547136.00000,   0.00101,275741696.00000,  -0.00064,   0.00069,   0.00112,-27194560.00000,   0.00000
-359813584.05218,-84487214.90568,177249215.22524,  -0.00211,   0.00100,   0.00343,447623616.00000,   0.00101,275741696.00000,  -0.00064,   0.00069,   0.00112,-28118080.00000,   0.00000
-359362317.41000,-85488806.72124,176908013.61774,  -0.00211,   0.00100,   0.00342,446689952.00000,   0.00101,275741696.00000,  -0.00064,   0.00069,   0.00112,-29051744.00000,   0.00000
-358872528.00569,-86473888.78160,176566812.01024,  -0.00210,   0.00099,   0.00342,445734816.00000,   0.00101,275741696.00000,  -0.00064,   0.00069,   0.00112,-30006880.00000,   0.00000
-358355222.34270,-87431454.58330,176214603.89927,  -0.00210,   0.00099,   0.00341,444755104.00000,   0.00101,275741696.00000,  -0.00064,   0.00069,   0.00112,-30986592.00000,   0.00000
-357826910.17625,-88400026.88846,175862395.78831,  -0.00209,   0.00098,   0.00341,443768032.00000,   0.00101,275741696.00000,  -0.00064,   0.00069,   0.00112,-31973664.00000,   0.00000
-357298598.00980,-89368599.19362,175499181.17387,  -0.00209,   0.00098,   0.00341,442770368.00000,   0.00101,275741696.00000,  -0.00064,   0.00069,   0.00112,-32971328.00000,   0.00000
-356723508.20361,-90301400.36251,175135966.55944,  -0.00209,   0.00097,   0.00340,441749024.00000,   0.00101,275741696.00000,  -0.00064,   0.00069,   0.00112,-33992672.00000,   0.00000
-356137411.89395,-91245208.03487,174767248.69327,  -0.00208,   0.00097,   0.00340,440713504.00000,   0.00101,275741696.00000,  -0.00064,   0.00069,   0.00112,-35028192.00000,   0.00000
-355523799.32563,-92161499.44856,174387524.32363,  -0.00208,   0.00096,   0.00339,439653312.00000,   0.00101,275741696.00000,  -0.00064,   0.00069,   0.00112,-36088384.00000,   0.00000
-354890925.37623,-93069535.98464,174007799.95399,  -0.00207,   0.00096,   0.00339,438583328.00000,   0.00101,275741696.00000,  -0.00064,   0.00069,   0.00112,-37158368.00000,   0.00000
-354238790.04577,-93969317.64313,173617069.08089,  -0.00207,   0.00095,   0.00338,437490528.00000,   0.00101,275741696.00000,  -0.00064,   0.00069,   0.00112,-38251168.00000,   0.00000
-353567393.33424,-94860844.42402,173226338.20778,  -0.00206,   0.00095,   0.00338,436387968.00000,   0.00101,275741696.00000,  -0.00064,   0.00069,   0.00112,-39353728.00000,   0.00000
-352868480.36404,-95724854.94623,172824600.83121,  -0.00206,   0.00094,   0.00337,435260352.00000,   0.00101,275741696.00000,  -0.00064,   0.00069,   0.00112,-40481344.00000,   0.00000
-352158560.89037,-96599871.97192,172422863.45464,  -0.00205,   0.00093,   0.00337,434125280.00000,   0.00101,275741696.00000,  -0.00064,   0.00069,   0.00112,-41616416.00000,   0.00000
-351421125.15803,-97447372.73894,172015622.82633,  -0.00205,   0.00093,   0.00336,432971744.00000,   0.00101,275741696.00000,  -0.00064,   0.00069,   0.00112,-42769952.00000,   0.00000
-350645166.66355,-98278363.75075,171597375.69456,  -0.00204,   0.00092,   0.00335,431783360.00000,   0.00101,275741696.00000,  -0.00064,   0.00069,   0.00112,-43958336.00000,   0.00000
-349869208.16908,-99109354.76256,171179128.56279,  -0.00204,   0.00092,   0.00335,430597408.00000,   0.00101,275741696.00000,  -0.00064,   0.00069,   0.00112,-45144288.00000,   0.00000
-349073988.29353,-99932090.89678,170749874.92754,  -0.00203,   0.00091,   0.00334,429388800.00000,   0.00101,275741696.00000,  -0.00064,   0.00069,   0.00112,-46352896.00000,   0.00000
-348259507.03692,-100746572.15339,170320621.29230,  -0.00203,   0.00091,   0.00334,428170720.00000,   0.00101,275741696.00000,  -0.00064,   0.00069,   0.00112,-47570976.00000,   0.00000
-347398248.14057,-101525282.27373,169885864.40533,  -0.00202,   0.00090,   0.00333,426922048.00000,   0.00101,275741696.00000,  -0.00064,   0.00069,   0.00112,-48819648.00000,   0.00000
-346545244.12182,-102323253.77514,169440101.01488,  -0.00202,   0.00090,   0.00333,425665152.00000,   0.00101,275741696.00000,  -0.00064,   0.00069,   0.00112,-50076544.00000,   0.00000
-345645462.46333,-103085454.14028,168994337.62444,  -0.00201,   0.00089,   0.00332,424384480.00000,   0.00101,275741696.00000,  -0.00064,   0.00069,   0.00112,-51357216.00000,   0.00000
-344745680.80485,-103847654.50542,168543070.98226,  -0.00200,   0.00089,   0.00332,423099808.00000,   0.00101,275741696.00000,  -0.00064,   0.00069,   0.00112,-52641888.00000,   0.00000
-343799121.50662,-104574083.73430,168086301.08835,  -0.00200,   0.00088,   0.00331,421784416.00000,   0.00101,275741696.00000,  -0.00064,   0.00069,   0.00112,-53957280.00000,   0.00000
-342860817.08600,-105319774.34423,167618524.69097,  -0.00199,   0.00088,   0.00330,420461120.00000,   0.00101,275741696.00000,  -0.00064,   0.00069,   0.00112,-55280576.00000,   0.00000
-341875735.02563,-106029693.81790,167150748.29359,  -0.00199,   0.00087,   0.00330,419113760.00000,   0.00101,275741696.00000,  -0.00064,   0.00069,   0.00112,-56627936.00000,   0.00000
-340890652.96527,-106739613.29157,166677468.64448,  -0.00198,   0.00087,   0.00329,417762144.00000,   0.00101,275741696.00000,  -0.00064,   0.00069,   0.00112,-57979552.00000,   0.00000
-339867048.14277,-107433023.01004,166198685.74363,  -0.00198,   0.00086,   0.00328,416382368.00000,   0.00101,275741696.00000,  -0.00064,   0.00069,   0.00112,-59359328.00000,   0.00000
-338824181.93920,-108118177.85091,165708896.33932,  -0.00197,   0.00086,   0.00328,414979904.00000,   0.00101,275741696.00000,  -0.00064,   0.00069,   0.00112,-60761792.00000,   0.00000
-337773060.85804,-108784071.31070,165219106.93501,  -0.00196,   0.00085,   0.00327,413576672.00000,   0.00101,275741696.00000,  -0.00064,   0.00069,   0.00112,-62165024.00000,   0.00000
-336683417.01473,-109433455.01530,164723814.27896,  -0.00196,   0.00085,   0.00327,412144896.00000,   0.00101,275741696.00000,  -0.00064,   0.00069,   0.00112,-63596800.00000,   0.00000
-335574511.79035,-110074583.84230,164223018.37118,  -0.00195,   0.00084,   0.00326,410696448.00000,   0.00101,275741696.00000,  -0.00064,   0.00069,   0.00112,-65045248.00000,   0.00000
-334446345.18491,-110707457.79169,163716719.21166,  -0.00194,   0.00084,   0.00325,409231360.00000,   0.00101,275741696.00000,  -0.00064,   0.00069,   0.00112,-66510336.00000,   0.00000
-333298917.19840,-111332076.86349,163204916.80041,  -0.00194,   0.00083,   0.00325,407749440.00000,   0.00101,275741696.00000,  -0.00064,   0.00069,   0.00112,-67992256.00000,   0.00000
-332123972.95322,-111929179.67661,162687611.13743,  -0.00193,   0.00083,   0.00324,406247488.00000,   0.00101,275741696.00000,  -0.00064,   0.00069,   0.00112,-69494208.00000,   0.00000
-330929767.32697,-112518027.61213,162164802.22271,  -0.00193,   0.00082,   0.00323,404728800.00000,   0.00101,275741696.00000,  -0.00064,   0.00069,   0.00112,-71012896.00000,   0.00000
-329708045.44205,-113079359.28899,161636490.05626,  -0.00192,   0.00082,   0.00323,403190016.00000,   0.00101,275741696.00000,  -0.00064,   0.00069,   0.00112,-72551680.00000,   0.00000
-328475317.05366,-113651697.46931,161102674.63807,  -0.00191,   0.00081,   0.00322,401637696.00000,   0.00101,275741696.00000,  -0.00064,   0.00069,   0.00112,-74104000.00000,   0.00000
-327215072.40661,-114196519.39096,160563355.96815,  -0.00190,   0.00081,   0.00321,400065824.00000,   0.00101,275741696.00000,  -0.00064,   0.00069,   0.00112,-75675872.00000,   0.00000
-325916304.99742,-114724831.55742,160018534.04650,  -0.00190,   0.00080,   0.00320,398465920.00000,   0.00101,275741696.00000,  -0.00064,   0.00069,   0.00112,-77275776.00000,   0.00000
-324617537.58822,-115253143.72387,159468208.87311,  -0.00189,   0.00080,   0.00320,396862464.00000,   0.00101,275741696.00000,  -0.00064,   0.00069,   0.00112,-78879232.00000,   0.00000
-323291253.92036,-115753939.63165,158912380.44799,  -0.00188,   0.00079,   0.00319,395240896.00000,   0.00101,275741696.00000,  -0.00064,   0.00069,   0.00112,-80500800.00000,   0.00000
-321945708.87143,-116246480.66183,158356552.02287,  -0.00188,   0.00079,   0.00318,393611456.00000,   0.00101,275741696.00000,  -0.00064,   0.00069,   0.00112,-82130240.00000,   0.00000
-320561641.06036,-116722511.93681,157789717.09428,  -0.00187,   0.00078,   0.00318,391949376.00000,   0.00101,275741696.00000,  -0.00064,   0.00069,   0.00112,-83792320.00000,   0.00000
-319169318.37169,-117179281.83072,157217378.91396,  -0.00186,   0.00078,   0.00317,390281600.00000,   0.00101,275741696.00000,  -0.00064,   0.00069,   0.00112,-85460096.00000,   0.00000
-317757734.30196,-117627796.84703,156639537.48191,  -0.00186,   0.00077,   0.00316,388598848.00000,   0.00101,275741696.00000,  -0.00064,   0.00069,   0.00112,-87142848.00000,   0.00000
-316307627.47008,-118059802.10814,156061696.04985,  -0.00185,   0.00077,   0.00315,386894464.00000,   0.00101,275741696.00000,  -0.00064,   0.00069,   0.00112,-88847232.00000,   0.00000
-314857520.63821,-118491807.36925,155472848.11433,  -0.00184,   0.00076,   0.00315,385177664.00000,   0.00101,275741696.00000,  -0.00064,   0.00069,   0.00112,-90564032.00000,   0.00000
-313360636.16660,-118888041.49409,154884000.17880,  -0.00183,   0.00076,   0.00314,383432352.00000,   0.00101,275741696.00000,  -0.00064,   0.00069,   0.00112,-92309344.00000,   0.00000
-311863751.69498,-119284275.61892,154284145.73981,  -0.00183,   0.00075,   0.00313,381672128.00000,   0.00101,275741696.00000,  -0.00064,   0.00069,   0.00112,-94069568.00000,   0.00000
-310320089.58363,-119644738.60749,153684291.30082,  -0.00182,   0.00075,   0.00312,379883008.00000,   0.00101,275741696.00000,  -0.00064,   0.00069,   0.00112,-95858688.00000,   0.00000
-308765420.96882,-120016208.09953,153073430.35836,  -0.00181,   0.00074,   0.00311,378072480.00000,   0.00101,275741696.00000,  -0.00064,   0.00069,   0.00112,-97669216.00000,   0.00000
-307202497.47640,-120368416.21050,152462569.41590,  -0.00180,   0.00074,   0.00311,376261248.00000,   0.00101,275741696.00000,  -0.00064,   0.00069,   0.00112,-99480448.00000,   0.00000
-305592796.34424,-120684853.18519,151846205.22171,  -0.00179,   0.00073,   0.00310,374421248.00000,   0.00101,275741696.00000,  -0.00064,   0.00069,   0.00112,-101320448.00000,   0.00000
-303963833.83102,-120993035.28229,151218834.52405,  -0.00179,   0.00073,   0.00309,372563296.00000,   0.00101,275741696.00000,  -0.00064,   0.00069,   0.00112,-103178400.00000,   0.00000
-302334871.31779,-121301217.37939,150591463.82638,  -0.00178,   0.00073,   0.00308,370712736.00000,   0.00101,275741696.00000,  -0.00064,   0.00069,   0.00112,-105028960.00000,   0.00000
-300667386.04243,-121592889.72128,149958589.87699,  -0.00177,   0.00072,   0.00307,368836576.00000,   0.00101,275741696.00000,  -0.00064,   0.00069,   0.00112,-106905120.00000,   0.00000
-298972384.50840,-121857045.80451,149320212.67586,  -0.00176,   0.00072,   0.00307,366939520.00000,   0.00101,275741696.00000,  -0.00064,   0.00069,   0.00112,-108802176.00000,   0.00000
-297258121.59330,-122112947.01013,148676332.22300,  -0.00175,   0.00071,   0.00306,365023552.00000,   0.00101,275741696.00000,  -0.00064,   0.00069,   0.00112,-110718144.00000,   0.00000
-295543858.67820,-122368848.21576,148026948.51840,  -0.00174,   0.00071,   0.00305,363100544.00000,   0.00101,275741696.00000,  -0.00064,   0.00069,   0.00112,-112641152.00000,   0.00000
-293782818.12336,-122588978.28511,147372061.56207,  -0.00174,   0.00070,   0.00304,361144672.00000,   0.00101,275741696.00000,  -0.00064,   0.00069,   0.00112,-114597024.00000,   0.00000
-291994261.30985,-122781592.09580,146711671.35401,  -0.00173,   0.00070,   0.00303,359169088.00000,   0.00101,275741696.00000,  -0.00064,   0.00069,   0.00112,-116572608.00000,   0.00000
-290194697.99288,-122985212.40995,146045777.89421,  -0.00172,   0.00069,   0.00302,357182336.00000,   0.00101,275741696.00000,  -0.00064,   0.00069,   0.00112,-118559360.00000,   0.00000
-288367618.41723,-123161316.46544,145379884.43441,  -0.00171,   0.00069,   0.00301,355183200.00000,   0.00101,275741696.00000,  -0.00064,   0.00069,   0.00112,-120558496.00000,   0.00000
-286513022.58292,-123309904.26225,144702984.47115,  -0.00170,   0.00069,   0.00301,353157440.00000,   0.00101,275741696.00000,  -0.00064,   0.00069,   0.00112,-122584256.00000,   0.00000
-284647420.24514,-123469498.56253,144020581.25615,  -0.00169,   0.00068,   0.00300,351119872.00000,   0.00101,275741696.00000,  -0.00064,   0.00069,   0.00112,-124621824.00000,   0.00000
-282754301.64869,-123601576.60414,143338178.04115,  -0.00168,   0.00068,   0.00299,349068224.00000,   0.00101,275741696.00000,  -0.00064,   0.00069,   0.00112,-126673472.00000,   0.00000
-280833666.79357,-123706138.38709,142644768.32268,  -0.00168,   0.00067,   0.00298,346988704.00000,   0.00101,275741696.00000,  -0.00064,   0.00069,   0.00112,-128752992.00000,   0.00000
-278913031.93845,-123810700.17003,141951358.60421,  -0.00167,   0.00067,   0.00297,344910944.00000,   0.00101,275741696.00000,  -0.00064,   0.00069,   0.00112,-130830752.00000,   0.00000
-276953874.32119,-123898752.19777,141252445.63401,  -0.00166,   0.00066,   0.00296,342804448.00000,   0.00101,275741696.00000,  -0.00064,   0.00069,   0.00112,-132937248.00000,   0.00000
-274967200.44526,-123959287.96685,140548029.41207,  -0.00165,   0.00066,   0.00295,340676800.00000,   0.00101,275741696.00000,  -0.00064,   0.00069,   0.00112,-135064896.00000,   0.00000
-272961265.18827,-124011568.85832,139838109.93841,  -0.00164,   0.00066,   0.00294,338532832.00000,   0.00101,275741696.00000,  -0.00064,   0.00069,   0.00112,-137208864.00000,   0.00000
-270927813.67260,-124036333.49112,139122687.21300,  -0.00163,   0.00065,   0.00293,336368672.00000,   0.00101,275741696.00000,  -0.00064,   0.00069,   0.00112,-139373024.00000,   0.00000
-268875100.77587,-124052843.24632,138401761.23587,  -0.00162,   0.00065,   0.00292,334189728.00000,   0.00101,275741696.00000,  -0.00064,   0.00069,   0.00112,-141551968.00000,   0.00000
-266803126.49807,-124061098.12392,137675332.00700,  -0.00161,   0.00064,   0.00291,331997344.00000,   0.00101,275741696.00000,  -0.00064,   0.00069,   0.00112,-143744352.00000,   0.00000
-264703635.96160,-124041836.74285,136943399.52639,  -0.00160,   0.00064,   0.00290,329788000.00000,   0.00101,275741696.00000,  -0.00064,   0.00069,   0.00112,-145953696.00000,   0.00000
-262576629.16646,-123995059.10312,136211467.04579,  -0.00159,   0.00064,   0.00289,327569888.00000,   0.00101,275741696.00000,  -0.00064,   0.00069,   0.00112,-148171808.00000,   0.00000
-260438615.86785,-123959287.96685,135468528.06171,  -0.00158,   0.00063,   0.00289,325339360.00000,   0.00101,275741696.00000,  -0.00064,   0.00069,   0.00112,-150402336.00000,   0.00000
-258273086.31057,-123896000.57191,134725589.07764,  -0.00157,   0.00063,   0.00288,323100864.00000,   0.00101,275741696.00000,  -0.00064,   0.00069,   0.00112,-152640832.00000,   0.00000
-256080040.49463,-123805196.91830,133971643.59010,  -0.00156,   0.00062,   0.00287,320840224.00000,   0.00101,275741696.00000,  -0.00064,   0.00069,   0.00112,-154901472.00000,   0.00000
-253867733.29761,-123706138.38709,133217698.10256,  -0.00155,   0.00062,   0.00286,318573216.00000,   0.00101,275741696.00000,  -0.00064,   0.00069,   0.00112,-157168480.00000,   0.00000
-251627909.84193,-123579563.59721,132458249.36329,  -0.00154,   0.00062,   0.00285,316283392.00000,   0.00101,275741696.00000,  -0.00064,   0.00069,   0.00112,-159458304.00000,   0.00000
-249388086.38624,-123452988.80733,131693297.37228,  -0.00153,   0.00061,   0.00284,313980736.00000,   0.00101,275741696.00000,  -0.00064,   0.00069,   0.00112,-161760960.00000,   0.00000
-247109740.16842,-123309904.26225,130922842.12954,  -0.00152,   0.00061,   0.00283,311644800.00000,   0.00101,275741696.00000,  -0.00064,   0.00069,   0.00112,-164096896.00000,   0.00000
-244803877.69193,-123139303.45850,130146883.63506,  -0.00151,   0.00060,   0.00282,309308512.00000,   0.00101,275741696.00000,  -0.00064,   0.00069,   0.00112,-166433184.00000,   0.00000
-242478753.83437,-122960447.77715,129370925.14059,  -0.00150,   0.00060,   0.00281,307000608.00000,   0.00101,275741696.00000,  -0.00064,   0.00069,   0.00112,-168741088.00000,   0.00000
-240145375.09921,-122762330.71473,128583960.14265,  -0.00149,   0.00060,   0.00280,304677376.00000,   0.00101,275741696.00000,  -0.00064,   0.00069,   0.00112,-171064320.00000,   0.00000
-237765218.72431,-122528442.51604,127796995.14470,  -0.00148,   0.00059,   0.00279,302312448.00000,   0.00101,275741696.00000,  -0.00064,   0.00069,   0.00112,-173429248.00000,   0.00000
-235374055.84595,-122305560.82082,127004526.89502,  -0.00147,   0.00059,   0.00278,299936512.00000,   0.00101,275741696.00000,  -0.00064,   0.00069,   0.00112,-175805184.00000,   0.00000
-232966383.21238,-122044156.36346,126201052.14188,  -0.00146,   0.00059,   0.00276,297544512.00000,   0.00101,275741696.00000,  -0.00064,   0.00069,   0.00112,-178197184.00000,   0.00000
-230528442.69428,-121785503.53197,125397577.38874,  -0.00145,   0.00058,   0.00275,295137984.00000,   0.00101,275741696.00000,  -0.00064,   0.00069,   0.00112,-180603712.00000,   0.00000
-228054731.03990,-121480073.06074,124588599.38386,  -0.00144,   0.00058,   0.00274,292699968.00000,   0.00101,275741696.00000,  -0.00064,   0.00069,   0.00112,-183041728.00000,   0.00000
-225589274.26313,-121193903.97058,123779621.37898,  -0.00143,   0.00058,   0.00273,290260224.00000,   0.00101,275741696.00000,  -0.00064,   0.00069,   0.00112,-185481472.00000,   0.00000
-223068784.96902,-120852702.36308,122959636.87063,  -0.00142,   0.00057,   0.00272,287764544.00000,   0.00101,275741696.00000,  -0.00064,   0.00069,   0.00112,-187977152.00000,   0.00000
-220556550.55251,-120530762.13665,122139652.36229,  -0.00141,   0.00057,   0.00271,285264768.00000,   0.00101,275741696.00000,  -0.00064,   0.00069,   0.00112,-190476928.00000,   0.00000
-218008544.99973,-120162044.27048,121308661.35047,  -0.00140,   0.00057,   0.00270,282719488.00000,   0.00101,275741696.00000,  -0.00064,   0.00069,   0.00112,-193022208.00000,   0.00000
-215430271.56241,-119796078.03017,120477670.33866,  -0.00139,   0.00056,   0.00269,280149344.00000,   0.00101,275741696.00000,  -0.00064,   0.00069,   0.00112,-195592352.00000,   0.00000
-212835488.36989,-119391589.02774,119641176.07511,  -0.00137,   0.00056,   0.00268,277555168.00000,   0.00101,275741696.00000,  -0.00064,   0.00069,   0.00112,-198186528.00000,   0.00000
-210229698.67390,-118998106.52876,118799178.55983,  -0.00136,   0.00056,   0.00267,274945248.00000,   0.00101,275741696.00000,  -0.00064,   0.00069,   0.00112,-200796448.00000,   0.00000
-207588137.84165,-118557846.39005,117951677.79281,  -0.00135,   0.00055,   0.00266,272305664.00000,   0.00101,275741696.00000,  -0.00064,   0.00069,   0.00112,-203436032.00000,   0.00000
-204927315.62832,-118109331.37374,117104177.02580,  -0.00134,   0.00055,   0.00265,269659008.00000,   0.00101,275741696.00000,  -0.00064,   0.00069,   0.00112,-206082688.00000,   0.00000
-202247232.03393,-117652561.47983,116245669.75531,  -0.00133,   0.00055,   0.00264,266994368.00000,   0.00101,275741696.00000,  -0.00064,   0.00069,   0.00112,-208747328.00000,   0.00000
-199539632.18087,-117168275.32725,115387162.48483,  -0.00132,   0.00054,   0.00262,264324064.00000,   0.00101,275741696.00000,  -0.00064,   0.00069,   0.00112,-211417632.00000,   0.00000
-196812770.94673,-116675734.29707,114523151.96261,  -0.00131,   0.00054,   0.00261,261649888.00000,   0.00101,275741696.00000,  -0.00064,   0.00069,   0.00112,-214091808.00000,   0.00000
-194077654.83500,-116163931.88582,113653638.18866,  -0.00130,   0.00054,   0.00260,258979552.00000,   0.00101,275741696.00000,  -0.00064,   0.00069,   0.00112,-216762144.00000,   0.00000
-191295761.08353,-115616358.33830,112778621.16298,  -0.00128,   0.00053,   0.00259,256292992.00000,   0.00101,275741696.00000,  -0.00064,   0.00069,   0.00112,-219448704.00000,   0.00000
-188513867.33206,-115068784.79078,111903604.13729,  -0.00127,   0.00053,   0.00258,253626752.00000,   0.00101,275741696.00000,  -0.00064,   0.00069,   0.00112,-222114944.00000,   0.00000
-185693450.81845,-114504701.48806,111017580.60814,  -0.00126,   0.00053,   0.00257,250944256.00000,   0.00101,275741696.00000,  -0.00064,   0.00069,   0.00112,-224797440.00000,   0.00000
-182864779.42724,-113921356.80427,110131557.07898,  -0.00125,   0.00053,   0.00256,248273904.00000,   0.00101,275741696.00000,  -0.00064,   0.00069,   0.00112,-227467792.00000,   0.00000
-180008591.77737,-113310495.86181,109240030.29810,  -0.00124,   0.00052,   0.00254,245593536.00000,   0.00101,275741696.00000,  -0.00064,   0.00069,   0.00112,-230148160.00000,   0.00000
-177113881.36535,-112683125.16415,108343000.26548,  -0.00122,   0.00052,   0.00253,242893184.00000,   0.00101,275741696.00000,  -0.00064,   0.00069,   0.00112,-232848512.00000,   0.00000
-174210916.07574,-112036493.08542,107445970.23286,  -0.00121,   0.00052,   0.00252,240187792.00000,   0.00101,275741696.00000,  -0.00064,   0.00069,   0.00112,-235553904.00000,   0.00000
-171288689.40505,-111381606.12909,106537933.69677,  -0.00120,   0.00051,   0.00251,237452976.00000,   0.00101,275741696.00000,  -0.00064,   0.00069,   0.00112,-238288720.00000,   0.00000
-168358207.85677,-110707457.79169,105629897.16068,  -0.00119,   0.00051,   0.00250,234708496.00000,   0.00101,275741696.00000,  -0.00064,   0.00069,   0.00112,-241033200.00000,   0.00000
-165380948.66875,-109997538.31802,104716357.37286,  -0.00118,   0.00051,   0.00249,231936656.00000,   0.00101,275741696.00000,  -0.00064,   0.00069,   0.00112,-243805040.00000,   0.00000
-162384428.09965,-109279363.96675,103797314.33330,  -0.00116,   0.00051,   0.00247,229168832.00000,   0.00101,275741696.00000,  -0.00064,   0.00069,   0.00112,-246572864.00000,   0.00000
-159387907.53056,-108561189.61548,102872768.04201,  -0.00115,   0.00050,   0.00246,226422944.00000,   0.00101,275741696.00000,  -0.00064,   0.00069,   0.00112,-249318752.00000,   0.00000
-156363870.70280,-107815499.00554,101948221.75072,  -0.00114,   0.00050,   0.00245,223686432.00000,   0.00101,275741696.00000,  -0.00064,   0.00069,   0.00112,-252055264.00000,   0.00000
-153293056.23530,-107034037.25933,101018172.20770,  -0.00113,   0.00050,   0.00244,220933088.00000,   0.00101,275741696.00000,  -0.00064,   0.00069,   0.00112,-254808608.00000,   0.00000
-150213986.89020,-106233314.13206,100082619.41294,  -0.00112,   0.00050,   0.00243,218175984.00000,   0.00101,275741696.00000,  -0.00064,   0.00069,   0.00112,-257565712.00000,   0.00000
-147143172.42271,-105451852.38585,99141563.36645,  -0.00110,   0.00049,   0.00241,215426704.00000,   0.00101,275741696.00000,  -0.00064,   0.00069,   0.00112,-260314992.00000,   0.00000
-144017325.43787,-104615358.12230,98195004.06822,  -0.00109,   0.00049,   0.00240,212649568.00000,   0.00101,275741696.00000,  -0.00064,   0.00069,   0.00112,-263092128.00000,   0.00000
-140872217.07196,-103770608.98115,97248444.77000,  -0.00108,   0.00049,   0.00239,209876688.00000,   0.00101,275741696.00000,  -0.00064,   0.00069,   0.00112,-265865008.00000,   0.00000
-137718853.82846,-102906598.45893,96296382.22004,  -0.00106,   0.00049,   0.00238,207099120.00000,   0.00101,275741696.00000,  -0.00064,   0.00069,   0.00112,-268642576.00000,   0.00000
-134526967.82281,-102026078.18151,95338816.41835,  -0.00105,   0.00049,   0.00236,204298032.00000,   0.00101,275741696.00000,  -0.00064,   0.00069,   0.00112,-271443664.00000,   0.00000
-131326826.93957,-101126296.52303,94375747.36492,  -0.00104,   0.00048,   0.00235,201484160.00000,   0.00101,275741696.00000,  -0.00064,   0.00069,   0.00112,-274257536.00000,   0.00000
-128107424.67526,-100218259.98694,93412678.31149,  -0.00103,   0.00048,   0.00234,198671296.00000,   0.00101,275741696.00000,  -0.00064,   0.00069,   0.00112,-277070400.00000,   0.00000
-124879767.53334,-99290962.06978,92444106.00633,  -0.00101,   0.00048,   0.00233,195868000.00000,   0.00101,275741696.00000,  -0.00064,   0.00069,   0.00112,-279873696.00000,   0.00000
-121605332.75169,-98327893.01635,91470030.44944,  -0.00100,   0.00048,   0.00231,193063744.00000,   0.00101,275741696.00000,  -0.00064,   0.00069,   0.00112,-282677952.00000,   0.00000
-118330897.97004,-97364823.96293,90490451.64081,  -0.00099,   0.00048,   0.00230,190283856.00000,   0.00101,275741696.00000,  -0.00064,   0.00069,   0.00112,-285457840.00000,   0.00000
-115009685.54865,-96365983.77323,89510872.83218,  -0.00097,   0.00047,   0.00229,187509408.00000,   0.00101,275741696.00000,  -0.00064,   0.00069,   0.00112,-288232288.00000,   0.00000
-111680218.24966,-95347882.20247,88525790.77182,  -0.00096,   0.00047,   0.00227,184745376.00000,   0.00101,275741696.00000,  -0.00064,   0.00069,   0.00112,-290996320.00000,   0.00000
-108331489.56960,-94321525.75410,87535205.45972,  -0.00095,   0.00047,   0.00226,181985040.00000,   0.00101,275741696.00000,  -0.00064,   0.00069,   0.00112,-293756656.00000,   0.00000
-104974506.01194,-93275907.92466,86539116.89589,  -0.00093,   0.00047,   0.00225,179224912.00000,   0.00101,275741696.00000,  -0.00064,   0.00069,   0.00112,-296516784.00000,   0.00000
-101578999.69214,-92213780.34003,85543028.33206,  -0.00092,   0.00047,   0.00224,176463440.00000,   0.00101,275741696.00000,  -0.00064,   0.00069,   0.00112,-299278256.00000,   0.00000
-98175238.49475,-91132391.37432,84541436.51650,  -0.00091,   0.00046,   0.00222,173706256.00000,   0.00101,275741696.00000,  -0.00064,   0.00069,   0.00112,-302035440.00000,   0.00000
-94743961.03868,-90023486.14995,83534341.44920,  -0.00089,   0.00046,   0.00221,170950816.00000,   0.00101,275741696.00000,  -0.00064,   0.00069,   0.00112,-304790880.00000,   0.00000
-91293422.20154,-88906326.04797,82527246.38190,  -0.00088,   0.00046,   0.00220,168215872.00000,   0.00101,275741696.00000,  -0.00064,   0.00069,   0.00112,-307525824.00000,   0.00000
-87815367.10574,-87761649.68733,81509144.81114,  -0.00087,   0.00046,   0.00218,165480048.00000,   0.00101,275741696.00000,  -0.00064,   0.00069,   0.00112,-310261648.00000,   0.00000
-84337312.00993,-86616973.32668,80491043.24037,  -0.00085,   0.00046,   0.00217,162775872.00000,   0.00101,275741696.00000,  -0.00064,   0.00069,   0.00112,-312965824.00000,   0.00000
-80831740.65546,-85444780.70737,79472941.66960,  -0.00084,   0.00046,   0.00216,160090496.00000,   0.00101,275741696.00000,  -0.00064,   0.00069,   0.00112,-315651200.00000,   0.00000
-77298653.04232,-84245071.82939,78443833.59537,  -0.00083,   0.00046,   0.00214,157408272.00000,   0.00101,275741696.00000,  -0.00064,   0.00069,   0.00112,-318333424.00000,   0.00000
-73746304.04811,-83037108.07380,77414725.52114,  -0.00081,   0.00045,   0.00213,154751792.00000,   0.00101,275741696.00000,  -0.00064,   0.00069,   0.00112,-320989904.00000,   0.00000
-70185700.17629,-81809882.93715,76385617.44690,  -0.00080,   0.00045,   0.00212,152117008.00000,   0.00101,275741696.00000,  -0.00064,   0.00069,   0.00112,-323624688.00000,   0.00000
-66597580.04581,-80555141.54183,75345502.86920,  -0.00078,   0.00045,   0.00210,149479264.00000,   0.00101,275741696.00000,  -0.00064,   0.00069,   0.00112,-326262432.00000,   0.00000
-62990198.53426,-79292145.26890,74305388.29150,  -0.00077,   0.00045,   0.00209,146868160.00000,   0.00101,275741696.00000,  -0.00064,   0.00069,   0.00112,-328873536.00000,   0.00000
-59355300.76404,-78001632.73731,73259770.46207,  -0.00076,   0.00045,   0.00208,144289824.00000,   0.00101,275741696.00000,  -0.00064,   0.00069,   0.00112,-331451872.00000,   0.00000
-55692886.73515,-76683603.94705,72214152.63263,  -0.00074,   0.00045,   0.00206,141788256.00000,   0.00101,275741696.00000,  -0.00064,   0.00069,   0.00112,-333953440.00000,   0.00000
-52030472.70626,-75365575.15679,71163031.55146,  -0.00073,   0.00045,   0.00205,139383776.00000,   0.00101,275741696.00000,  -0.00064,   0.00069,   0.00112,-336357920.00000,   0.00000
-48340542.41870,-74020030.10786,70106407.21856,  -0.00071,   0.00045,   0.00204,137041376.00000,   0.00101,275741696.00000,  -0.00064,   0.00069,   0.00112,-338700320.00000,   0.00000
-44650612.13114,-72674485.05893,69044279.63392,  -0.00070,   0.00044,   0.00202,134737152.00000,   0.00101,275741696.00000,  -0.00064,   0.00069,   0.00112,-341004544.00000,   0.00000
-40924910.70731,-71282162.37026,67982152.04929,  -0.00069,   0.00044,   0.00201,132443880.00000,   0.00101,275741696.00000,  -0.00064,   0.00069,   0.00112,-343297824.00000,   0.00000
-37188202.78002,-69900846.18506,66914521.21292,  -0.00067,   0.00044,   0.00199,130178088.00000,   0.00101,275741696.00000,  -0.00064,   0.00069,   0.00112,-345563616.00000,   0.00000
-33415723.71645,-68472752.36012,65846890.37655,  -0.00066,   0.00044,   0.00198,127940368.00000,   0.00101,275741696.00000,  -0.00064,   0.00069,   0.00112,-347801328.00000,   0.00000
-29623983.27182,-67036403.65758,64773756.28844,  -0.00064,   0.00044,   0.00197,125757304.00000,   0.00101,275741696.00000,  -0.00064,   0.00069,   0.00112,-349984384.00000,   0.00000
-25823987.94958,-65580793.57397,63695118.94860,  -0.00063,   0.00044,   0.00195,123645224.00000,   0.00101,275741696.00000,  -0.00064,   0.00069,   0.00112,-352096480.00000,   0.00000
-22004731.24628,-64116928.61276,62610978.35703,  -0.00061,   0.00044,   0.00194,121629152.00000,   0.00101,275741696.00000,  -0.00064,   0.00069,   0.00112,-354112544.00000,   0.00000
-18177219.66537,-62633802.27049,61526837.76546,  -0.00060,   0.00044,   0.00192,119728464.00000,   0.00101,275741696.00000,  -0.00064,   0.00069,   0.00112,-356013232.00000,   0.00000
-14322191.82580,-61123159.66954,60442697.17389,  -0.00058,   0.00044,   0.00191,117954848.00000,   0.00101,275741696.00000,  -0.00064,   0.00069,   0.00112,-357786848.00000,   0.00000
-10439647.72755,-59585000.80992,59347550.07885,  -0.00057,   0.00044,   0.00190,116303416.00000,   0.00101,275741696.00000,  -0.00064,   0.00069,   0.00112,-359438272.00000,   0.00000
-6537842.24824,-58038587.07271,58252402.98381,  -0.00056,   0.00044,   0.00188,114811744.00000,   0.00101,275741696.00000,  -0.00064,   0.00069,   0.00112,-360929952.00000,   0.00000
-2636036.76893,-56492173.33549,57157255.88877,  -0.00054,   0.00044,   0.00187,113679456.00000,   0.00101,275741696.00000,  -0.00064,   0.00069,   0.00112,-362062240.00000,   0.00000
1282278.46559,-54907236.83613,56051102.29026,  -0.00053,   0.00044,   0.00185,113127040.00000,   0.00101,275741696.00000,  -0.00064,   0.00069,   0.00112,-362614656.00000,   0.00000
5239116.46224,-53305790.58158,54950451.94349,  -0.00051,   0.00043,   0.00184,112021016.00000,   0.00101,275741696.00000,  -0.00064,   0.00069,   0.00112,-363720672.00000,   0.00000
9204209.33649,-51685082.94595,53838795.09325,  -0.00050,   0.00043,   0.00182,110972688.00000,   0.00101,275741696.00000,  -0.00064,   0.00069,   0.00112,-364769008.00000,   0.00000
13188563.59181,-50056120.43273,52727138.24301,  -0.00048,   0.00043,   0.00181,110060424.00000,   0.00101,275741696.00000,  -0.00064,   0.00069,   0.00112,-365681280.00000,   0.00000
17181172.72473,-48407896.53844,51615481.39276,  -0.00047,   0.00043,   0.00180,109337208.00000,   0.00101,275741696.00000,  -0.00064,   0.00069,   0.00112,-366404480.00000,   0.00000
21201298.11632,-46732156.38547,50492818.03905,  -0.00045,   0.00043,   0.00178,108911224.00000,   0.00101,275741696.00000,  -0.00064,   0.00069,   0.00112,-366830464.00000,   0.00000
25240684.88898,-45048161.35491,49370154.68535,  -0.00044,   0.00043,   0.00177,108397368.00000,   0.00101,275741696.00000,  -0.00064,   0.00069,   0.00112,-367344320.00000,   0.00000
29288326.53924,-43344904.94328,48247491.33164,  -0.00042,   0.00043,   0.00175,107800456.00000,   0.00101,275741696.00000,  -0.00064,   0.00069,   0.00112,-367941248.00000,   0.00000
33363484.44817,-41614132.27298,47119324.72619,  -0.00041,   0.00043,   0.00174,107259128.00000,   0.00101,275741696.00000,  -0.00064,   0.00069,   0.00112,-368482560.00000,   0.00000
37438642.35710,-39883359.60267,45985654.86902,  -0.00039,   0.00043,   0.00172,106812632.00000,   0.00101,275741696.00000,  -0.00064,   0.00069,   0.00112,-368929056.00000,   0.00000
41549571.40230,-38105809.29263,44851985.01184,  -0.00038,   0.00043,   0.00171,106460832.00000,   0.00101,275741696.00000,  -0.00064,   0.00069,   0.00112,-369280864.00000,   0.00000
45671506.95097,-36339265.48606,43718315.15466,  -0.00036,   0.00043,   0.00169,106221304.00000,   0.00101,275741696.00000,  -0.00064,   0.00069,   0.00112,-369520384.00000,   0.00000
49809952.25484,-34534198.91735,42573638.79402,  -0.00034,   0.00043,   0.00168,106063016.00000,   0.00101,275741696.00000,  -0.00064,   0.00069,   0.00112,-369678688.00000,   0.00000
53967658.93978,-32720877.47104,41428962.43337,  -0.00033,   0.00043,   0.00166,106054040.00000,   0.00101,275741696.00000,  -0.00064,   0.00069,   0.00112,-369687648.00000,   0.00000
58133620.50231,-30888294.64367,40284286.07273,  -0.00031,   0.00043,   0.00165,106245536.00000,   0.00101,275741696.00000,  -0.00064,   0.00069,   0.00112,-369496160.00000,   0.00000
62318843.44592,-29047456.93869,39134106.46035,  -0.00030,   0.00043,   0.00163,106762192.00000,   0.00101,275741696.00000,  -0.00064,   0.00069,   0.00112,-368979504.00000,   0.00000
66531582.64820,-27179102.97504,37978423.59624,  -0.00028,   0.00043,   0.00162,107736080.00000,   0.00101,275741696.00000,  -0.00064,   0.00069,   0.00112,-368005616.00000,   0.00000
70752576.72807,-25291487.63032,36822740.73213,  -0.00027,   0.00043,   0.00160,109046920.00000,   0.00101,275741696.00000,  -0.00064,   0.00069,   0.00112,-366694784.00000,   0.00000
74981825.68555,-23384610.90454,35667057.86801,  -0.00025,   0.00044,   0.00159,110010240.00000,   0.00101,275741696.00000,  -0.00064,   0.00069,   0.00112,-365731456.00000,   0.00000
79230336.02410,-21469479.30115,34505871.75217,  -0.00024,   0.00044,   0.00157,110324200.00000,   0.00101,275741696.00000,  -0.00064,   0.00069,   0.00112,-365417504.00000,   0.00000
83506362.62131,-19526831.43910,33339182.38459,  -0.00022,   0.00044,   0.00156,111110936.00000,   0.00101,275741696.00000,  -0.00064,   0.00069,   0.00112,-364630752.00000,   0.00000
87782389.21853,-17584183.57704,32172493.01701,  -0.00021,   0.00044,   0.00154,112513936.00000,   0.00101,275741696.00000,  -0.00064,   0.00069,   0.00112,-363227760.00000,   0.00000
92085932.07441,-15614019.45631,31000300.39769,  -0.00019,   0.00044,   0.00153,114367344.00000,   0.00101,275741696.00000,  -0.00064,   0.00069,   0.00112,-361374352.00000,   0.00000
96397729.80790,-13624593.95452,29828107.77838,  -0.00017,   0.00044,   0.00151,116555576.00000,   0.00101,275741696.00000,  -0.00064,   0.00069,   0.00112,-359186112.00000,   0.00000
100737043.80005,-11607652.19406,28650411.90733,  -0.00016,   0.00044,   0.00150,118985592.00000,   0.00101,275741696.00000,  -0.00064,   0.00069,   0.00112,-356756096.00000,   0.00000
105076357.79221,-9590710.43360,27472716.03628,  -0.00014,   0.00044,   0.00148,121593656.00000,   0.00101,275741696.00000,  -0.00064,   0.00069,   0.00112,-354148032.00000,   0.00000
109443188.04303,-7546252.41446,26289516.91350,  -0.00013,   0.00044,   0.00147,124307400.00000,   0.00101,275741696.00000,  -0.00064,   0.00069,   0.00112,-351434304.00000,   0.00000
113818273.17146,-5482533.01426,25106317.79072,  -0.00011,   0.00044,   0.00145,126990840.00000,   0.00101,275741696.00000,  -0.00064,   0.00069,   0.00112,-348750848.00000,   0.00000
118212619.68095,-3410558.73646,23917615.41620,  -0.00009,   0.00044,   0.00143,129413496.00000,   0.00101,275741696.00000,  -0.00064,   0.00069,   0.00112,-346328192.00000,   0.00000
122615221.06805,-1319323.07759,22728913.04169,  -0.00008,   0.00044,   0.00142,131727248.00000,   0.00101,275741696.00000,  -0.00064,   0.00069,   0.00112,-344014448.00000,   0.00000
127037083.83621,780167.45888,21534707.41544,  -0.00006,   0.00044,   0.00140,134319600.00000,   0.00101,275741696.00000,  -0.00064,   0.00069,   0.00112,-341422096.00000,   0.00000
131475456.35958,2918180.75749,20340501.78919,  -0.00005,   0.00044,   0.00139,136781072.00000,   0.00101,275741696.00000,  -0.00064,   0.00069,   0.00112,-338960624.00000,   0.00000
135913828.88294,5056194.05609,19140792.91121,  -0.00003,   0.00045,   0.00137,139212656.00000,   0.00101,275741696.00000,  -0.00064,   0.00069,   0.00112,-336529040.00000,   0.00000
140371462.78737,7202462.23230,17941084.03322,  -0.00001,   0.00045,   0.00136,141760064.00000,   0.00101,275741696.00000,  -0.00064,   0.00069,   0.00112,-333981632.00000,   0.00000
144864867.82808,9395508.04825,16735871.90351,   0.00000,   0.00045,   0.00134,144498352.00000,   0.00101,275741696.00000,  -0.00064,   0.00069,   0.00112,-331243344.00000,   0.00000
149358272.86878,11588553.86420,15530659.77379,   0.00002,   0.00045,   0.00133,147429184.00000,   0.00101,275741696.00000,  -0.00064,   0.00069,   0.00112,-328312512.00000,   0.00000
153851677.90948,13781599.68014,14325447.64407,   0.00003,   0.00045,   0.00131,150516704.00000,   0.00101,275741696.00000,  -0.00064,   0.00069,   0.00112,-325224992.00000,   0.00000
158380854.08646,16021423.13583,13114732.26262,   0.00005,   0.00045,   0.00129,153730144.00000,   0.00101,275741696.00000,  -0.00064,   0.00069,   0.00112,-322011552.00000,   0.00000
162910030.26343,18261246.59151,11898513.62944,   0.00007,   0.00045,   0.00128,157017792.00000,   0.00101,275741696.00000,  -0.00064,   0.00069,   0.00112,-318723904.00000,   0.00000
167439206.44040,20501070.04720,10687798.24799,   0.00008,   0.00045,   0.00126,160355760.00000,   0.00101,275741696.00000,  -0.00064,   0.00069,   0.00112,-315385936.00000,   0.00000
172004153.75365,22787671.14262,9466076.36307,   0.00010,   0.00046,   0.00125,163740016.00000,   0.00101,275741696.00000,  -0.00064,   0.00069,   0.00112,-312001680.00000,   0.00000
176588362.44796,25082527.11564,8249857.72988,   0.00012,   0.00046,   0.00123,167160576.00000,   0.00101,275741696.00000,  -0.00064,   0.00069,   0.00112,-308581120.00000,   0.00000
181153309.76120,27369128.21106,7022632.59323,   0.00013,   0.00046,   0.00122,170575248.00000,   0.00101,275741696.00000,  -0.00064,   0.00069,   0.00112,-305166448.00000,   0.00000
185773289.59179,29710761.82382,5800910.70831,   0.00015,   0.00046,   0.00120,174030016.00000,   0.00101,275741696.00000,  -0.00064,   0.00069,   0.00112,-301711680.00000,   0.00000
190374008.04130,32044140.55898,4573685.57166,   0.00016,   0.00046,   0.00118,177474256.00000,   0.00101,275741696.00000,  -0.00064,   0.00069,   0.00112,-298267440.00000,   0.00000
194993987.87188,34385774.17175,3346460.43501,   0.00018,   0.00046,   0.00117,180942064.00000,   0.00101,275741696.00000,  -0.00064,   0.00069,   0.00112,-294799632.00000,   0.00000
199630477.45767,36765930.54664,2113732.04662,   0.00020,   0.00047,   0.00115,184425904.00000,   0.00101,275741696.00000,  -0.00064,   0.00069,   0.00112,-291315792.00000,   0.00000
204286228.42452,39154341.79914,875500.40650,   0.00021,   0.00047,   0.00114,187950080.00000,   0.00101,275741696.00000,  -0.00064,   0.00069,   0.00112,-287791616.00000,   0.00000
208941979.39137,41542753.05164,-357227.98189,   0.00023,   0.00047,   0.00112,191512672.00000,   0.00101,275741696.00000,  -0.00064,   0.00069,   0.00112,-284229024.00000,   0.00000
213614240.11343,43969687.06628,-1595459.62201,   0.00025,   0.00047,   0.00110,195130352.00000,   0.00101,275741696.00000,  -0.00064,   0.00069,   0.00112,-280611344.00000,   0.00000
218286500.83548,46396621.08091,-2839194.51386,   0.00026,   0.00047,   0.00109,198813232.00000,   0.00101,275741696.00000,  -0.00064,   0.00069,   0.00112,-276928464.00000,   0.00000
222978022.93860,48831809.97315,-4077426.15398,   0.00028,   0.00048,   0.00107,202585824.00000,   0.00101,275741696.00000,  -0.00064,   0.00069,   0.00112,-273155872.00000,   0.00000
227705316.17800,51313776.50512,-5321161.04584,   0.00030,   0.00048,   0.00105,206457056.00000,   0.00101,275741696.00000,  -0.00064,   0.00069,   0.00112,-269284640.00000,   0.00000
232413348.03632,53787488.15950,-6570399.18943,   0.00031,   0.00048,   0.00104,210389584.00000,   0.00101,275741696.00000,  -0.00064,   0.00069,   0.00112,-265352112.00000,   0.00000
237140641.27571,56269454.69147,-7819637.33301,   0.00033,   0.00048,   0.00102,214384640.00000,   0.00101,275741696.00000,  -0.00064,   0.00069,   0.00112,-261357056.00000,   0.00000
241884444.27031,58789943.98558,-9068875.47660,   0.00035,   0.00048,   0.00101,218793728.00000,   0.00101,275741696.00000,  -0.00064,   0.00069,   0.00112,-256947968.00000,   0.00000
246628247.26490,61310433.27970,-10323616.87192,   0.00036,   0.00049,   0.00099,223161440.00000,   0.00101,275741696.00000,  -0.00064,   0.00069,   0.00112,-252580256.00000,   0.00000
251391311.64056,63839177.45141,-11578358.26725,   0.00038,   0.00049,   0.00097,227244288.00000,   0.00101,275741696.00000,  -0.00064,   0.00069,   0.00112,-248497408.00000,   0.00000
256162630.89383,66387183.00419,-12833099.66257,   0.00040,   0.00049,   0.00096,231323120.00000,   0.00101,275741696.00000,  -0.00064,   0.00069,   0.00112,-244418576.00000,   0.00000
260942205.02469,68954449.93804,-14093344.30962,   0.00041,   0.00049,   0.00094,235603584.00000,   0.00101,275741696.00000,  -0.00064,   0.00069,   0.00112,-240138112.00000,   0.00000
265749295.41423,71549233.13056,-15353588.95668,   0.00043,   0.00050,   0.00092,240037264.00000,   0.00101,275741696.00000,  -0.00064,   0.00069,   0.00112,-235704432.00000,   0.00000
270556385.80376,74144016.32308,-16613833.60373,   0.00045,   0.00050,   0.00091,244385968.00000,   0.00101,275741696.00000,  -0.00064,   0.00069,   0.00112,-231355728.00000,   0.00000
275371731.07090,76758060.89666,-17874078.25079,   0.00046,   0.00050,   0.00089,248625520.00000,   0.00101,275741696.00000,  -0.00064,   0.00069,   0.00112,-227116176.00000,   0.00000
280187076.33803,79372105.47025,-19139826.14958,   0.00048,   0.00050,   0.00088,252837440.00000,   0.00101,275741696.00000,  -0.00064,   0.00069,   0.00112,-222904256.00000,   0.00000
285010676.48277,82005411.42491,-20411077.30010,   0.00050,   0.00051,   0.00086,257063472.00000,   0.00101,275741696.00000,  -0.00064,   0.00069,   0.00112,-218678224.00000,   0.00000
289861792.88617,84666233.63823,-21676825.19889,   0.00052,   0.00051,   0.00084,261325936.00000,   0.00101,275741696.00000,  -0.00064,   0.00069,   0.00112,-214415760.00000,   0.00000
294712909.28958,87327055.85156,-22948076.34942,   0.00053,   0.00051,   0.00083,265608848.00000,   0.00101,275741696.00000,  -0.00064,   0.00069,   0.00112,-210132848.00000,   0.00000
299572280.57058,90007139.44595,-24219327.49994,   0.00055,   0.00051,   0.00081,269915552.00000,   0.00101,275741696.00000,  -0.00064,   0.00069,   0.00112,-205826144.00000,   0.00000
304439906.72919,92706484.42141,-25496081.90220,   0.00057,   0.00052,   0.00079,274248896.00000,   0.00101,275741696.00000,  -0.00064,   0.00069,   0.00112,-201492800.00000,   0.00000
309326794.26886,95414084.27448,-26772836.30446,   0.00058,   0.00052,   0.00078,278619712.00000,   0.00101,275741696.00000,  -0.00064,   0.00069,   0.00112,-197121984.00000,   0.00000
314202675.30507,98132690.63101,-28049590.70671,   0.00060,   0.00052,   0.00076,282996000.00000,   0.00101,275741696.00000,  -0.00064,   0.00069,   0.00112,-192745696.00000,   0.00000
319106072.59995,100878813.24621,-29326345.10897,   0.00062,   0.00052,   0.00074,287407712.00000,   0.00101,275741696.00000,  -0.00064,   0.00069,   0.00112,-188333984.00000,   0.00000
324009469.89482,103624935.86141,-30608602.76296,   0.00063,   0.00053,   0.00073,291838176.00000,   0.00101,275741696.00000,  -0.00064,   0.00069,   0.00112,-183903520.00000,   0.00000
328921122.06730,106390319.85768,-31890860.41695,   0.00065,   0.00053,   0.00071,296301248.00000,   0.00101,275741696.00000,  -0.00064,   0.00069,   0.00112,-179440448.00000,   0.00000
333852035.62085,109163958.73155,-33173118.07094,   0.00067,   0.00053,   0.00069,300806880.00000,   0.00101,275741696.00000,  -0.00064,   0.00069,   0.00112,-174934816.00000,   0.00000
338771942.67092,111948604.10888,-34455375.72494,   0.00068,   0.00054,   0.00068,305304448.00000,   0.00101,275741696.00000,  -0.00064,   0.00069,   0.00112,-170437248.00000,   0.00000
343719365.97967,114760765.74489,-35743136.63066,   0.00070,   0.00054,   0.00066,309819424.00000,   0.00101,275741696.00000,  -0.00064,   0.00069,   0.00112,-165922272.00000,   0.00000
348647527.90735,117564672.50330,-37030897.53639,   0.00072,   0.00054,   0.00064,314312288.00000,   0.00101,275741696.00000,  -0.00064,   0.00069,   0.00112,-161429408.00000,   0.00000
353603206.09370,120396095.52037,-38318658.44211,   0.00074,   0.00055,   0.00063,318816672.00000,   0.00101,275741696.00000,  -0.00064,   0.00069,   0.00112,-156925024.00000,   0.00000
358558884.28005,123227518.53745,-39606419.34784,   0.00075,   0.00055,   0.00061,323309120.00000,   0.00101,275741696.00000,  -0.00064,   0.00069,   0.00112,-152432576.00000,   0.00000
363522817.34400,126078202.93559,-40899683.50530,   0.00077,   0.00055,   0.00059,327795840.00000,   0.00101,275741696.00000,  -0.00064,   0.00069,   0.00112,-147945856.00000,   0.00000
368514266.66662,128956403.59240,-42192947.66275,   0.00079,   0.00056,   0.00058,332295488.00000,   0.00101,275741696.00000,  -0.00064,   0.00069,   0.00112,-143446208.00000,   0.00000
373486454.60817,131826349.37162,-43486211.82021,   0.00080,   0.00056,   0.00056,336780224.00000,   0.00101,275741696.00000,  -0.00064,   0.00069,   0.00112,-138961472.00000,   0.00000
378466897.42732,134715556.53190,-44779475.97767,   0.00082,   0.00056,   0.00054,341281376.00000,   0.00101,275741696.00000,  -0.00064,   0.00069,   0.00112,-134460320.00000,   0.00000
383466601.62754,137613018.56978,-46078243.38687,   0.00084,   0.00057,   0.00053,345825280.00000,   0.00101,275741696.00000,  -0.00064,   0.00069,   0.00112,-129916416.00000,   0.00000
388455299.32429,140521487.11113,-47371507.54432,   0.00085,   0.00057,   0.00051,350389888.00000,   0.00101,275741696.00000,  -0.00064,   0.00069,   0.00112,-125351808.00000,   0.00000
393471513.27971,143457471.91115,-48670274.95352,   0.00087,   0.00057,   0.00049,355018144.00000,   0.00101,275741696.00000,  -0.00064,   0.00069,   0.00112,-120723552.00000,   0.00000
398487727.23513,146393456.71117,-49974545.61444,   0.00089,   0.00058,   0.00047,359689792.00000,   0.00101,275741696.00000,  -0.00064,   0.00069,   0.00112,-116051904.00000,   0.00000
403492934.68708,149340448.01465,-51273313.02364,   0.00091,   0.00058,   0.00046,364387104.00000,   0.00101,275741696.00000,  -0.00064,   0.00069,   0.00112,-111354592.00000,   0.00000
408517403.52010,152295694.19574,-52572080.43283,   0.00092,   0.00058,   0.00044,369110400.00000,   0.00101,275741696.00000,  -0.00064,   0.00069,   0.00112,-106631296.00000,   0.00000
413550127.23073,155270201.75790,-53876351.09376,   0.00094,   0.00059,   0.00042,373806112.00000,   0.00101,275741696.00000,  -0.00064,   0.00069,   0.00112,-101935584.00000,   0.00000
418582850.94135,158244709.32005,-55180621.75468,   0.00096,   0.00059,   0.00041,378595840.00000,   0.00101,275741696.00000,  -0.00064,   0.00069,   0.00112,-97145856.00000,   0.00000
423604568.14850,161230223.38567,-56484892.41561,   0.00097,   0.00060,   0.00039,383370688.00000,   0.00101,275741696.00000,  -0.00064,   0.00069,   0.00112,-92371008.00000,   0.00000
428653801.61433,164243253.70997,-57789163.07654,   0.00099,   0.00060,   0.00037,388108128.00000,   0.00101,275741696.00000,  -0.00064,   0.00069,   0.00112,-87633568.00000,   0.00000
433703035.08015,167256284.03426,-59098936.98920,   0.00101,   0.00060,   0.00036,392801056.00000,   0.00101,275741696.00000,  -0.00064,   0.00069,   0.00112,-82940640.00000,   0.00000
438760523.42358,170288575.73962,-60403207.65012,   0.00103,   0.00061,   0.00034,397477792.00000,   0.00101,275741696.00000,  -0.00064,   0.00069,   0.00112,-78263904.00000,   0.00000
443818011.76700,173320867.44498,-61712981.56279,   0.00104,   0.00061,   0.00032,402177952.00000,   0.00101,275741696.00000,  -0.00064,   0.00069,   0.00112,-73563744.00000,   0.00000
448864493.60696,176364165.65381,-63022755.47545,   0.00106,   0.00061,   0.00030,406893120.00000,   0.00101,275741696.00000,  -0.00064,   0.00069,   0.00112,-68848576.00000,   0.00000
453938491.70559,179434980.12131,-64327026.13637,   0.00108,   0.00062,   0.00029,411591904.00000,   0.00101,275741696.00000,  -0.00064,   0.00069,   0.00112,-64149792.00000,   0.00000
459012489.80421,182505794.58881,-65642303.30077,   0.00109,   0.00062,   0.00027,416258240.00000,   0.00101,275741696.00000,  -0.00064,   0.00069,   0.00112,-59483456.00000,   0.00000
464086487.90284,185576609.05631,-66952077.21343,   0.00111,   0.00063,   0.00025,420927456.00000,   0.00101,275741696.00000,  -0.00064,   0.00069,   0.00112,-54814240.00000,   0.00000
469149479.49800,188658430.02727,-68261851.12609,   0.00113,   0.00063,   0.00024,425618848.00000,   0.00101,275741696.00000,  -0.00064,   0.00069,   0.00112,-50122848.00000,   0.00000
474239987.35183,191767767.25691,-69577128.29048,   0.00115,   0.00064,   0.00022,430375648.00000,   0.00101,275741696.00000,  -0.00064,   0.00069,   0.00112,-45366048.00000,   0.00000
479311233.82459,194868849.60894,-70886902.20314,   0.00116,   0.00064,   0.00020,435150848.00000,   0.00101,275741696.00000,  -0.00064,   0.00069,   0.00112,-40590848.00000,   0.00000
484409996.55601,197997448.21965,-72202179.36754,   0.00118,   0.00064,   0.00019,439974368.00000,   0.00101,275741696.00000,  -0.00064,   0.00069,   0.00112,-35767328.00000,   0.00000
489489497.90637,201117791.95275,-73517456.53193,   0.00120,   0.00065,   0.00017,444791040.00000,   0.00101,275741696.00000,  -0.00064,   0.00069,   0.00112,-30950656.00000,   0.00000
494568999.25674,204238135.68585,-74832733.69633,   0.00121,   0.00065,   0.00015,449604000.00000,   0.00101,275741696.00000,  -0.00064,   0.00069,   0.00112,-26137696.00000,   0.00000
499665010.36230,207397002.18110,-76148010.86072,   0.00123,   0.00066,   0.00013,454416992.00000,   0.00101,275741696.00000,  -0.00064,   0.00069,   0.00112,-21324704.00000,   0.00000
504752766.59026,210536607.29527,-77463288.02512,   0.00125,   0.00066,   0.00012,459213696.00000,   0.00101,275741696.00000,  -0.00064,   0.00069,   0.00112,-16528000.00000,   0.00000
509857032.57342,213714735.17158,-78778565.18951,   0.00126,   0.00067,   0.00010,464016224.00000,   0.00101,275741696.00000,  -0.00064,   0.00069,   0.00112,-11725472.00000,   0.00000
514953043.67898,216873601.66682,-80093842.35391,   0.00128,   0.00067,   0.00008,468817472.00000,   0.00101,275741696.00000,  -0.00064,   0.00069,   0.00112,-6924224.00000,   0.00000
520065564.53975,220070990.92419,-81409119.51830,   0.00130,   0.00067,   0.00007,473642816.00000,   0.00101,275741696.00000,  -0.00064,   0.00069,   0.00112,-2098880.00000,   0.00000
522281430.84659,221458451.24274,-81983736.38879,   0.00131,   0.00068,   0.00006,475742144.00000,   0.00101,275741696.00000,  -0.00064,   0.00069,   0.00112, 448.00000,   0.00000
522233804.56186,222238917.75407,-82206102.07880,   0.00132,   0.00068,   0.00005,475742144.00000,   0.00102,275752576.00000,  -0.00063,   0.00069,   0.00112,  32.00000,   2.00000
522152499.88112,223608616.49417,-82586388.74367,   0.00133,   0.00068,   0.00003,480609472.00000,   0.00104,275771904.00000,  -0.00061,   0.00068,   0.00111,   0.00000,   2.00000
522064407.77783,224976815.45362,-82968505.47967,   0.00135,   0.00069,   0.00001,480626336.00000,   0.00106,275791200.00000,  -0.00059,   0.00068,   0.00109, 224.00000,   2.00000
521975003.96784,226330690.16691,-83340589.00516,   0.00137,   0.00069,  -0.00000,480647680.00000,   0.00107,275810464.00000,  -0.00057,   0.00068,   0.00108, -32.00000,   2.00000
521880806.45026,227685223.16057,-83711505.39911,   0.00138,   0.00070,  -0.00002,480680000.00000,   0.00109,275829792.00000,  -0.00055,   0.00068,   0.00107,-160.00000,   2.00000
521785963.27928,229025651.88397,-84072601.98701,   0.00140,   0.00070,  -0.00004,480700608.00000,   0.00111,275849088.00000,  -0.00053,   0.00068,   0.00106, -64.00000,   2.00000
521683922.62168,230364522.62486,-84435638.27059,   0.00142,   0.00071,  -0.00005,480716704.00000,   0.00113,275868352.00000,  -0.00051,   0.00068,   0.00104, -32.00000,   2.00000
521580532.92551,231690191.71613,-84790652.94111,   0.00143,   0.00071,  -0.00007,480755584.00000,   0.00115,275887648.00000,  -0.00049,   0.00068,   0.00103, 160.00000,   2.00000
521476509.42225,233016646.66529,-85137926.87705,   0.00145,   0.00072,  -0.00009,480765312.00000,   0.00116,275906944.00000,  -0.00047,   0.00067,   0.00102,  96.00000,   2.00000
521365728.53023,234326621.02136,-85485228.59959,   0.00147,   0.00072,  -0.00011,480790880.00000,   0.00118,275926208.00000,  -0.00045,   0.00067,   0.00101,  32.00000,   2.00000
521251775.70776,235621477.64947,-85827727.52588,   0.00148,   0.00073,  -0.00012,480813184.00000,   0.00120,275945472.00000,  -0.00043,   0.00067,   0.00099,  32.00000,   2.00000
521134274.02419,236916111.48365,-86167409.25011,   0.00150,   0.00073,  -0.00014,480825536.00000,   0.00122,275964704.00000,  -0.00041,   0.00067,   0.00098,  96.00000,   2.00000
521020642.06405,238215131.81638,-86493048.17778,   0.00152,   0.00074,  -0.00016,480866528.00000,   0.00124,275984000.00000,  -0.00039,   0.00067,   0.00097,  64.00000,   2.00000
520898579.34039,239495891.57668,-86822069.35723,   0.00154,   0.00074,  -0.00017,480875552.00000,   0.00125,276003264.00000,  -0.00037,   0.00067,   0.00095, 128.00000,   2.00000
520773571.66206,240761460.91186,-87146377.88216,   0.00155,   0.00075,  -0.00019,480897568.00000,   0.00127,276022496.00000,  -0.00035,   0.00067,   0.00094,-128.00000,   2.00000
520645297.46691,242026863.78496,-87468018.16858,   0.00157,   0.00075,  -0.00021,480909600.00000,   0.00129,276041696.00000,  -0.00033,   0.00067,   0.00093,  64.00000,   2.00000
520521127.97802,243296372.75329,-87775662.81343,   0.00159,   0.00076,  -0.00023,480950688.00000,   0.00131,276060960.00000,  -0.00031,   0.00067,   0.00092,  96.00000,   2.00000
520387338.66316,244531315.96012,-88088157.98003,   0.00160,   0.00076,  -0.00024,480953216.00000,   0.00132,276080160.00000,  -0.00029,   0.00066,   0.00090,  32.00000,   2.00000
520250160.87335,245766145.39866,-88398046.11142,   0.00162,   0.00077,  -0.00026,480965536.00000,   0.00134,276099296.00000,  -0.00027,   0.00066,   0.00089,  64.00000,   2.00000
520117523.94817,247005116.67011,-88694039.35192,   0.00164,   0.00077,  -0.00028,481006368.00000,   0.00136,276118496.00000,  -0.00025,   0.00066,   0.00088, 128.00000,   2.00000
519976793.64615,248226120.72747,-88993710.84382,   0.00165,   0.00078,  -0.00029,481015424.00000,   0.00138,276137664.00000,  -0.00023,   0.00066,   0.00086,   0.00000,   2.00000
519838441.78331,249449765.28172,-89282848.06999,   0.00167,   0.00078,  -0.00031,481040480.00000,   0.00140,276156800.00000,  -0.00021,   0.00066,   0.00085,   0.00000,   2.00000
519693089.62834,250640666.18774,-89573819.37772,   0.00169,   0.00079,  -0.00033,481058976.00000,   0.00141,276175936.00000,  -0.00019,   0.00066,   0.00084,  96.00000,   2.00000
519549118.57402,251849293.85167,-89856285.33675,   0.00170,   0.00079,  -0.00035,481074784.00000,   0.00143,276195040.00000,  -0.00017,   0.00066,   0.00082, 192.00000,   2.00000
519398219.45066,253025272.80148,-90140669.59447,   0.00172,   0.00080,  -0.00036,481093056.00000,   0.00145,276214144.00000,  -0.00015,   0.00066,   0.00081,   0.00000,   2.00000
519251263.90304,254220401.82165,-90413343.74401,   0.00174,   0.00080,  -0.00038,481124672.00000,   0.00147,276233248.00000,  -0.00013,   0.00066,   0.00080, 160.00000,   2.00000
519098509.23908,255383196.61465,-90686643.52919,   0.00175,   0.00081,  -0.00040,481124288.00000,   0.00148,276252288.00000,  -0.00011,   0.00066,   0.00078,  64.00000,   2.00000
518945092.51752,256547639.71914,-90954514.71903,   0.00177,   0.00082,  -0.00041,481152480.00000,   0.00150,276271328.00000,  -0.00009,   0.00066,   0.00077,  96.00000,   2.00000
518789694.22060,257697494.71834,-91218399.57190,   0.00179,   0.00082,  -0.00043,481174048.00000,   0.00152,276290368.00000,  -0.00007,   0.00066,   0.00075,  96.00000,   2.00000
518631012.73052,258847863.38313,-91480281.27175,   0.00180,   0.00083,  -0.00045,481186624.00000,   0.00154,276309376.00000,  -0.00005,   0.00066,   0.00074, -32.00000,   2.00000
518470709.87329,259983930.39669,-91738330.65639,   0.00182,   0.00083,  -0.00047,481207808.00000,   0.00156,276328352.00000,  -0.00003,   0.00066,   0.00073,  64.00000,   2.00000
518308674.37441,261105801.61509,-91992577.79018,   0.00183,   0.00084,  -0.00048,481229376.00000,   0.00157,276347328.00000,  -0.00001,   0.00066,   0.00071,  32.00000,   2.00000
518143547.19028,262228637.97294,-92245013.76331,   0.00185,   0.00084,  -0.00050,481241856.00000,   0.00159,276366272.00000,   0.00000,   0.00066,   0.00070, 128.00000,   2.00000
517980115.78505,263338929.99059,-92488982.96560,   0.00187,   0.00085,  -0.00052,481259904.00000,   0.00161,276385184.00000,   0.00002,   0.00066,   0.00069,  32.00000,   2.00000
517810348.34464,264448977.54705,-92736067.22768,   0.00188,   0.00085,  -0.00053,481275360.00000,   0.00163,276404096.00000,   0.00004,   0.00066,   0.00067, 192.00000,   2.00000
517644907.92084,265547581.74503,-92971376.04703,   0.00190,   0.00086,  -0.00055,481309056.00000,   0.00164,276423040.00000,   0.00006,   0.00066,   0.00066,  64.00000,   2.00000
517473022.63800,266630895.25451,-93210059.83430,   0.00192,   0.00087,  -0.00057,481298688.00000,   0.00166,276441824.00000,   0.00008,   0.00066,   0.00064, 224.00000,   2.00000
517297178.86341,267715081.27038,-93448484.52911,   0.00193,   0.00087,  -0.00058,481329696.00000,   0.00168,276460672.00000,   0.00010,   0.00066,   0.00063,  96.00000,   2.00000
517123599.85946,268787462.26450,-93678727.31354,   0.00195,   0.00088,  -0.00060,481347040.00000,   0.00170,276479488.00000,   0.00012,   0.00066,   0.00062,  64.00000,   2.00000
516952155.46731,269848139.84521,-93900849.54118,   0.00196,   0.00088,  -0.00062,481364480.00000,   0.00171,276498304.00000,   0.00014,   0.00066,   0.00060, -32.00000,   2.00000
516774368.38500,270909232.85962,-94126329.44284,   0.00198,   0.00089,  -0.00064,481379552.00000,   0.00173,276517056.00000,   0.00016,   0.00066,   0.00059,  32.00000,   2.00000
516592972.01367,271956635.17034,-94351947.13470,   0.00200,   0.00089,  -0.00065,481384384.00000,   0.00175,276535776.00000,   0.00018,   0.00066,   0.00057,  64.00000,   2.00000
516414079.34103,272992781.07710,-94569532.49275,   0.00201,   0.00090,  -0.00067,481401536.00000,   0.00177,276554464.00000,   0.00020,   0.00066,   0.00056,  32.00000,   2.00000
516234472.54172,274016314.54704,-94783935.55157,   0.00203,   0.00091,  -0.00069,481421696.00000,   0.00178,276573152.00000,   0.00021,   0.00067,   0.00055, 224.00000,   2.00000
516051801.71016,275042184.13545,-94996965.21947,   0.00205,   0.00091,  -0.00070,481433536.00000,   0.00180,276591776.00000,   0.00023,   0.00067,   0.00053,  96.00000,   2.00000
515868876.73491,276070967.90421,-95205180.35781,   0.00206,   0.00092,  -0.00072,481460864.00000,   0.00182,276610432.00000,   0.00025,   0.00067,   0.00052,  64.00000,   2.00000
515682176.41362,277071201.20410,-95415372.39911,   0.00208,   0.00092,  -0.00074,481457952.00000,   0.00184,276628992.00000,   0.00027,   0.00067,   0.00050,   0.00000,   2.00000
515495535.35058,278074697.44745,-95620818.19359,   0.00209,   0.00093,  -0.00075,481485312.00000,   0.00185,276647584.00000,   0.00029,   0.00067,   0.00049,   0.00000,   2.00000
515309117.27968,279067090.63014,-95821945.01888,   0.00211,   0.00094,  -0.00077,481486528.00000,   0.00187,276666080.00000,   0.00031,   0.00067,   0.00047, 128.00000,   2.00000
515122634.42803,280062729.61147,-96018388.98071,   0.00213,   0.00094,  -0.00079,481513952.00000,   0.00189,276684608.00000,   0.00033,   0.00067,   0.00046,  96.00000,   2.00000
514933060.60524,281045860.60959,-96215386.98594,   0.00214,   0.00095,  -0.00081,481518400.00000,   0.00191,276703072.00000,   0.00035,   0.00067,   0.00045,  96.00000,   2.00000
514743094.58574,282016998.22831,-96409457.01151,   0.00216,   0.00095,  -0.00082,481538432.00000,   0.00192,276721504.00000,   0.00036,   0.00067,   0.00043,   0.00000,   2.00000
514553661.79737,282977750.88108,-96599514.10116,   0.00217,   0.00096,  -0.00084,481539776.00000,   0.00194,276739872.00000,   0.00038,   0.00068,   0.00042,   0.00000,   2.00000
514360441.18557,283925166.56660,-96791516.79836,   0.00219,   0.00097,  -0.00086,481563104.00000,   0.00196,276758240.00000,   0.00040,   0.00068,   0.00040,  96.00000,   2.00000
514168029.15899,284877816.03155,-96977929.68996,   0.00220,   0.00097,  -0.00087,481571936.00000,   0.00198,276776576.00000,   0.00042,   0.00068,   0.00039,  96.00000,   2.00000
513975674.59266,285834201.18511,-97160023.93641,   0.00222,   0.00098,  -0.00089,481599744.00000,   0.00199,276794912.00000,   0.00044,   0.00068,   0.00037, 128.00000,   2.00000
513779947.33365,286763722.66869,-97344848.66974,   0.00224,   0.00098,  -0.00091,481597056.00000,   0.00201,276813152.00000,   0.00046,   0.00068,   0.00036,  96.00000,   2.00000
513587908.06935,287699074.37344,-97520819.64614,   0.00225,   0.00099,  -0.00092,481621408.00000,   0.00203,276831424.00000,   0.00047,   0.00068,   0.00034,  32.00000,   2.00000
513392937.27780,288623234.38014,-97698032.55331,   0.00227,   0.00100,  -0.00094,481626400.00000,   0.00204,276849600.00000,   0.00049,   0.00068,   0.00033, 288.00000,   2.00000
513197653.57885,289536372.19638,-97872935.36307,   0.00228,   0.00100,  -0.00096,481646912.00000,   0.00206,276867776.00000,   0.00051,   0.00069,   0.00032, 128.00000,   2.00000
512996575.35811,290438640.71539,-98052752.19625,   0.00230,   0.00101,  -0.00097,481636352.00000,   0.00208,276885856.00000,   0.00053,   0.00069,   0.00030,  64.00000,   2.00000
512801920.66839,291347104.56762,-98220344.23773,   0.00231,   0.00101,  -0.00099,481676608.00000,   0.00209,276903968.00000,   0.00055,   0.00069,   0.00029,  96.00000,   2.00000
512600817.88477,292243138.06295,-98394113.38490,   0.00233,   0.00102,  -0.00101,481685152.00000,   0.00211,276922048.00000,   0.00057,   0.00069,   0.00027, 160.00000,   2.00000
512400198.07087,293130404.72519,-98564632.44977,   0.00234,   0.00103,  -0.00102,481687072.00000,   0.00213,276940032.00000,   0.00058,   0.00069,   0.00026, 160.00000,   2.00000
512200118.02370,294009089.96338,-98731961.79135,   0.00236,   0.00103,  -0.00104,481688736.00000,   0.00215,276957952.00000,   0.00060,   0.00069,   0.00024,  64.00000,   2.00000
511996625.25268,294890602.73869,-98900122.06164,   0.00237,   0.00104,  -0.00106,481720384.00000,   0.00216,276975872.00000,   0.00062,   0.00070,   0.00023,  96.00000,   2.00000
511796650.30083,295763511.79035,-99061515.64217,   0.00239,   0.00105,  -0.00107,481737824.00000,   0.00218,276993824.00000,   0.00064,   0.00070,   0.00021, 192.00000,   2.00000
511593533.71280,296626128.35778,-99224395.63339,   0.00240,   0.00105,  -0.00109,481743072.00000,   0.00220,277011680.00000,   0.00065,   0.00070,   0.00020, -96.00000,   2.00000
511391406.03015,297480699.25357,-99384185.46995,   0.00242,   0.00106,  -0.00111,481744768.00000,   0.00221,277029440.00000,   0.00067,   0.00070,   0.00019, 128.00000,   2.00000
511182814.45195,298323465.09687,-99550128.10263,   0.00243,   0.00106,  -0.00112,481753504.00000,   0.00223,277047200.00000,   0.00069,   0.00070,   0.00017, 192.00000,   2.00000
510977728.67413,299172729.38662,-99707341.68982,   0.00245,   0.00107,  -0.00114,481778496.00000,   0.00225,277064928.00000,   0.00071,   0.00071,   0.00016,   0.00000,   2.00000
510776548.30575,300013809.37399,-99857789.92067,   0.00246,   0.00108,  -0.00116,481795616.00000,   0.00226,277082656.00000,   0.00073,   0.00071,   0.00014,  96.00000,   2.00000
510565818.20615,300843421.32464,-100017941.54463,   0.00248,   0.00108,  -0.00117,481788768.00000,   0.00228,277100256.00000,   0.00074,   0.00071,   0.00013, 128.00000,   2.00000
510359237.95564,301665141.55229,-100171256.75412,   0.00249,   0.00109,  -0.00119,481805568.00000,   0.00230,277117856.00000,   0.00076,   0.00071,   0.00011, 128.00000,   2.00000
510156397.39483,302478843.57611,-100317679.13700,   0.00251,   0.00110,  -0.00121,481822464.00000,   0.00231,277135424.00000,   0.00078,   0.00071,   0.00010,  32.00000,   2.00000
509943932.57739,303296157.63982,-100471886.03678,   0.00252,   0.00110,  -0.00122,481823392.00000,   0.00233,277152896.00000,   0.00079,   0.00072,   0.00008,  64.00000,   2.00000
509735608.52806,304105681.77859,-100619189.29888,   0.00254,   0.00111,  -0.00124,481840096.00000,   0.00235,277170368.00000,   0.00081,   0.00072,   0.00007,  32.00000,   2.00000
509527867.82768,304905612.72172,-100764274.92082,   0.00255,   0.00112,  -0.00125,481860064.00000,   0.00236,277187840.00000,   0.00083,   0.00072,   0.00006,  96.00000,   2.00000
509317885.57280,305698701.56840,-100909713.43983,   0.00257,   0.00112,  -0.00127,481845792.00000,   0.00238,277205184.00000,   0.00085,   0.00072,   0.00004, 128.00000,   2.00000
509108385.35246,306482354.91630,-101052874.60363,   0.00258,   0.00113,  -0.00129,481865664.00000,   0.00240,277222496.00000,   0.00086,   0.00073,   0.00003, 160.00000,   2.00000
508899557.58393,307256779.37042,-101193798.39871,   0.00260,   0.00114,  -0.00130,481884992.00000,   0.00241,277239808.00000,   0.00088,   0.00073,   0.00001,   0.00000,   2.00000
508688220.50478,308039354.24789,-101333160.11666,   0.00261,   0.00114,  -0.00132,481878688.00000,   0.00243,277257024.00000,   0.00090,   0.00073,  -0.00000,   0.00000,   2.00000
508477990.77726,308798388.89428,-101472259.97288,   0.00263,   0.00115,  -0.00134,481889568.00000,   0.00244,277274208.00000,   0.00091,   0.00073,  -0.00002,  64.00000,   2.00000
508268018.49542,309562892.35213,-101607128.46268,   0.00264,   0.00115,  -0.00135,481916960.00000,   0.00246,277291424.00000,   0.00093,   0.00074,  -0.00003, -32.00000,   2.00000
508055991.98902,310321535.51766,-101742479.49041,   0.00265,   0.00116,  -0.00137,481901952.00000,   0.00248,277308512.00000,   0.00095,   0.00074,  -0.00005,  64.00000,   2.00000
507844866.13882,311071467.00559,-101875641.36573,   0.00267,   0.00117,  -0.00138,481920800.00000,   0.00249,277325568.00000,   0.00096,   0.00074,  -0.00006, 192.00000,   2.00000
507630972.95232,311813129.22684,-102010189.10348,   0.00268,   0.00117,  -0.00140,481924256.00000,   0.00251,277342592.00000,   0.00098,   0.00075,  -0.00007, -64.00000,   2.00000
507417994.54711,312563234.97333,-102139609.14992,   0.00270,   0.00118,  -0.00142,481932320.00000,   0.00252,277359552.00000,   0.00100,   0.00075,  -0.00009, 160.00000,   2.00000
507206221.89367,313290436.76428,-102268845.93209,   0.00271,   0.00119,  -0.00143,481942336.00000,   0.00254,277376480.00000,   0.00101,   0.00075,  -0.00010, -32.00000,   2.00000
506995261.35739,314026276.87424,-102392991.52810,   0.00273,   0.00119,  -0.00145,481950176.00000,   0.00256,277393344.00000,   0.00103,   0.00075,  -0.00012, 160.00000,   2.00000
506782351.89448,314740176.05196,-102520726.35740,   0.00274,   0.00120,  -0.00146,481944480.00000,   0.00257,277410144.00000,   0.00105,   0.00076,  -0.00013,  32.00000,   2.00000
506566506.57049,315460829.52976,-102647963.23048,   0.00275,   0.00121,  -0.00148,481955712.00000,   0.00259,277426912.00000,   0.00106,   0.00076,  -0.00015, 128.00000,   2.00000
506355240.27244,316175388.91550,-102768458.56773,   0.00277,   0.00121,  -0.00150,481969952.00000,   0.00260,277443648.00000,   0.00108,   0.00076,  -0.00016, 160.00000,   2.00000
506141442.72272,316882525.19002,-102890546.74059,   0.00278,   0.00122,  -0.00151,481972352.00000,   0.00262,277460352.00000,   0.00110,   0.00077,  -0.00018, -96.00000,   2.00000
505929173.39691,317584649.49412,-103009724.79377,   0.00280,   0.00123,  -0.00153,481970976.00000,   0.00264,277476960.00000,   0.00111,   0.00077,  -0.00019,  32.00000,   2.00000
505714413.03425,318279585.69988,-103130536.01483,   0.00281,   0.00123,  -0.00154,481973280.00000,   0.00265,277493504.00000,   0.00113,   0.00077,  -0.00020,  96.00000,   2.00000
505500645.71034,318966723.13481,-103249280.70313,   0.00282,   0.00124,  -0.00156,481990624.00000,   0.00267,277510048.00000,   0.00114,   0.00077,  -0.00022,  32.00000,   2.00000
505287431.07944,319663007.78719,-103363002.16705,   0.00284,   0.00125,  -0.00158,481997600.00000,   0.00268,277526560.00000,   0.00116,   0.00078,  -0.00023,  64.00000,   2.00000
505076289.23117,320340473.48390,-103476011.75884,   0.00285,   0.00125,  -0.00159,481987200.00000,   0.00270,277542944.00000,   0.00118,   0.00078,  -0.00025,  32.00000,   2.00000
504859151.23153,321009108.49340,-103595368.60377,   0.00286,   0.00126,  -0.00161,481992512.00000,   0.00271,277559296.00000,   0.00119,   0.00078,  -0.00026,  64.00000,   2.00000
504646166.57144,321689208.20938,-103705128.12546,   0.00288,   0.00127,  -0.00162,481995712.00000,   0.00273,277575584.00000,   0.00121,   0.00079,  -0.00028, 128.00000,   2.00000
504430579.83493,322359589.52526,-103817529.72434,   0.00289,   0.00127,  -0.00164,482015936.00000,   0.00275,277591904.00000,   0.00122,   0.00079,  -0.00029, 160.00000,   2.00000
504221018.02105,323013879.49874,-103924797.38500,   0.00290,   0.00128,  -0.00165,482001536.00000,   0.00276,277608096.00000,   0.00124,   0.00079,  -0.00030,  96.00000,   2.00000
504004236.82548,323673273.27864,-104036257.32185,   0.00292,   0.00129,  -0.00167,482015392.00000,   0.00278,277624256.00000,   0.00126,   0.00080,  -0.00032,  64.00000,   2.00000
503788972.53357,324328474.66825,-104145026.25431,   0.00293,   0.00129,  -0.00169,482013024.00000,   0.00279,277640352.00000,   0.00127,   0.00080,  -0.00033, 128.00000,   2.00000
503575806.11642,324965647.19277,-104253276.60761,   0.00294,   0.00130,  -0.00170,482001792.00000,   0.00281,277656352.00000,   0.00129,   0.00080,  -0.00035,  32.00000,   2.00000
503363034.38202,325609606.47729,-104357525.66757,   0.00296,   0.00131,  -0.00172,482026816.00000,   0.00282,277672384.00000,   0.00130,   0.00081,  -0.00036, -64.00000,   2.00000
503147920.64821,326247455.40460,-104463743.85450,   0.00297,   0.00131,  -0.00173,482028000.00000,   0.00284,277688320.00000,   0.00132,   0.00081,  -0.00037,  64.00000,   2.00000
502930285.21500,326882301.88873,-104571062.10886,   0.00298,   0.00132,  -0.00175,482010432.00000,   0.00285,277704160.00000,   0.00133,   0.00081,  -0.00039,   0.00000,   2.00000
502717780.19173,327512627.14653,-104672099.49599,   0.00300,   0.00133,  -0.00176,482022816.00000,   0.00287,277719968.00000,   0.00135,   0.00082,  -0.00040,  96.00000,   2.00000
502506368.55926,328136187.40396,-104771414.85386,   0.00301,   0.00133,  -0.00178,482038880.00000,   0.00288,277735776.00000,   0.00136,   0.00082,  -0.00042,  64.00000,   2.00000
502288886.42152,328755233.99041,-104876595.73085,   0.00302,   0.00134,  -0.00179,482024736.00000,   0.00290,277751488.00000,   0.00138,   0.00082,  -0.00043,  32.00000,   2.00000
502076363.15206,329370140.90617,-104975539.26761,   0.00303,   0.00135,  -0.00181,482036864.00000,   0.00291,277767168.00000,   0.00139,   0.00083,  -0.00044,  32.00000,   2.00000
501857446.87160,329980795.05171,-105080346.34619,   0.00305,   0.00135,  -0.00182,482022880.00000,   0.00293,277782720.00000,   0.00141,   0.00083,  -0.00046, 128.00000,   2.00000
501643710.24779,330587824.26757,-105179014.27741,   0.00306,   0.00136,  -0.00184,482034752.00000,   0.00294,277798272.00000,   0.00142,   0.00083,  -0.00047,  64.00000,   2.00000
501431038.79345,331192269.27469,-105275309.11030,   0.00307,   0.00137,  -0.00186,482031936.00000,   0.00296,277813760.00000,   0.00144,   0.00084,  -0.00049, -64.00000,   2.00000
501215888.86878,331792193.73333,-105373858.83898,   0.00308,   0.00137,  -0.00187,482032480.00000,   0.00297,277829184.00000,   0.00145,   0.00084,  -0.00050,  64.00000,   2.00000
500998100.46309,332387680.85001,-105474614.50165,   0.00310,   0.00138,  -0.00189,482033280.00000,   0.00299,277844544.00000,   0.00147,   0.00084,  -0.00051,  32.00000,   2.00000
500785372.63398,332980155.51064,-105569298.00665,   0.00311,   0.00139,  -0.00190,482045024.00000,   0.00300,277859872.00000,   0.00148,   0.00085,  -0.00053,  32.00000,   2.00000
500569917.44812,333571826.13224,-105665503.65869,   0.00312,   0.00139,  -0.00192,482027136.00000,   0.00301,277875104.00000,   0.00149,   0.00085,  -0.00054, 128.00000,   2.00000
500355779.60361,334158335.93757,-105760218.89946,   0.00313,   0.00140,  -0.00193,482042592.00000,   0.00303,277890304.00000,   0.00151,   0.00085,  -0.00056,  96.00000,   2.00000
500139854.76857,334730619.27628,-105858759.55209,   0.00315,   0.00141,  -0.00195,482015584.00000,   0.00304,277905344.00000,   0.00152,   0.00086,  -0.00057,  64.00000,   2.00000
499924212.29942,335311225.92689,-105953488.49126,   0.00316,   0.00141,  -0.00196,482040000.00000,   0.00306,277920448.00000,   0.00154,   0.00086,  -0.00058,  96.00000,   2.00000
499709682.47390,335889853.51867,-106045984.20464,   0.00317,   0.00142,  -0.00198,482036960.00000,   0.00307,277935456.00000,   0.00155,   0.00087,  -0.00060,   0.00000,   2.00000
499492702.85810,336464152.26347,-106140838.84923,   0.00318,   0.00143,  -0.00199,482037568.00000,   0.00309,277950400.00000,   0.00157,   0.00087,  -0.00061,  32.00000,   2.00000
499276834.18974,337036118.48633,-106233472.47366,   0.00319,   0.00143,  -0.00201,482034624.00000,   0.00310,277965280.00000,   0.00158,   0.00087,  -0.00062, 160.00000,   2.00000
499062205.96857,337605624.84841,-106323955.01433,   0.00321,   0.00144,  -0.00202,482031808.00000,   0.00312,277980096.00000,   0.00159,   0.00088,  -0.00064, 192.00000,   2.00000
498850030.86923,338155541.11582,-106415359.50069,   0.00322,   0.00145,  -0.00203,482038240.00000,   0.00313,277994880.00000,   0.00161,   0.00088,  -0.00065, -32.00000,   2.00000
498629996.92419,338714728.99064,-106510589.41534,   0.00323,   0.00145,  -0.00205,482033472.00000,   0.00314,278009568.00000,   0.00162,   0.00088,  -0.00066,-128.00000,   2.00000
498415420.06964,339269716.92970,-106599965.48796,   0.00324,   0.00146,  -0.00206,482045344.00000,   0.00316,278024256.00000,   0.00164,   0.00089,  -0.00068, 192.00000,   2.00000
498198822.70875,339809239.74887,-106693420.95282,   0.00325,   0.00147,  -0.00208,482018848.00000,   0.00317,278038784.00000,   0.00165,   0.00089,  -0.00069, 128.00000,   2.00000
497982642.18396,340355153.81707,-106783228.68832,   0.00326,   0.00147,  -0.00209,482043616.00000,   0.00318,278053312.00000,   0.00166,   0.00089,  -0.00071,  96.00000,   2.00000
497764436.97247,340885510.64081,-106877218.84349,   0.00328,   0.00148,  -0.00211,482017056.00000,   0.00320,278067712.00000,   0.00168,   0.00090,  -0.00072,  64.00000,   2.00000
497550195.72334,341424293.94610,-106963076.39518,   0.00329,   0.00149,  -0.00212,482038208.00000,   0.00321,278082112.00000,   0.00169,   0.00090,  -0.00073, -32.00000,   2.00000
497334518.33318,341944093.96710,-107054025.81740,   0.00330,   0.00149,  -0.00214,482029792.00000,   0.00323,278096448.00000,   0.00170,   0.00091,  -0.00075,  64.00000,   2.00000
497118469.03230,342473534.78651,-107140716.45775,   0.00331,   0.00150,  -0.00215,482036512.00000,   0.00324,278110720.00000,   0.00172,   0.00091,  -0.00076, 128.00000,   2.00000
496900817.67297,342984104.37824,-107232555.10088,   0.00332,   0.00151,  -0.00217,482028064.00000,   0.00325,278124896.00000,   0.00173,   0.00091,  -0.00077, 160.00000,   2.00000
496683942.40077,343491478.07677,-107322608.37185,   0.00333,   0.00151,  -0.00218,482025280.00000,   0.00327,278139008.00000,   0.00174,   0.00092,  -0.00078,   0.00000,   2.00000
496467964.51420,343995919.44027,-107410970.20322,   0.00334,   0.00152,  -0.00219,482022272.00000,   0.00328,278153056.00000,   0.00176,   0.00092,  -0.00080,  96.00000,   2.00000
496248789.16801,344494999.22978,-107502113.47715,   0.00335,   0.00152,  -0.00221,482023040.00000,   0.00329,278167040.00000,   0.00177,   0.00093,  -0.00081, -32.00000,   2.00000
496030423.96964,344991520.36561,-107591617.27863,   0.00337,   0.00153,  -0.00222,482019776.00000,   0.00331,278180928.00000,   0.00178,   0.00093,  -0.00082, -64.00000,   2.00000
495809022.13724,345483232.69218,-107684005.54201,   0.00338,   0.00154,  -0.00224,482020224.00000,   0.00332,278194784.00000,   0.00179,   0.00093,  -0.00084,  32.00000,   2.00000
495597719.62078,345960933.86952,-107768938.18396,   0.00339,   0.00154,  -0.00225,482018368.00000,   0.00333,278208576.00000,   0.00181,   0.00094,  -0.00085,  96.00000,   2.00000
495373674.98941,346446147.15347,-107862643.33157,   0.00340,   0.00155,  -0.00226,482017312.00000,   0.00335,278222304.00000,   0.00182,   0.00094,  -0.00086,  64.00000,   2.00000
495153825.39560,346931971.33778,-107950228.50363,   0.00341,   0.00156,  -0.00228,482010080.00000,   0.00336,278235968.00000,   0.00183,   0.00094,  -0.00088,  96.00000,   2.00000
494936659.23377,347399641.42634,-108039487.69434,   0.00342,   0.00156,  -0.00229,482015040.00000,   0.00337,278249568.00000,   0.00185,   0.00095,  -0.00089, -32.00000,   2.00000
494715565.26561,347867577.47447,-108131023.88242,   0.00343,   0.00157,  -0.00231,481996608.00000,   0.00339,278263040.00000,   0.00186,   0.00095,  -0.00090,  64.00000,   2.00000
494493990.41771,348343248.81161,-108219187.47627,   0.00344,   0.00158,  -0.00232,482020640.00000,   0.00340,278276576.00000,   0.00187,   0.00096,  -0.00091,   0.00000,   2.00000
494270051.17170,348806844.63931,-108312198.00582,   0.00345,   0.00158,  -0.00233,481992448.00000,   0.00341,278289920.00000,   0.00188,   0.00096,  -0.00093,  96.00000,   2.00000
494050881.01347,349268269.85359,-108399861.53256,   0.00346,   0.00159,  -0.00235,482002976.00000,   0.00342,278303264.00000,   0.00189,   0.00096,  -0.00094, 128.00000,   2.00000
493823794.22330,349728209.38974,-108494322.61872,   0.00347,   0.00160,  -0.00236,481987712.00000,   0.00344,278316512.00000,   0.00191,   0.00097,  -0.00095, 128.00000,   2.00000
493603059.02583,350173658.43296,-108585975.37825,   0.00348,   0.00160,  -0.00238,481988384.00000,   0.00345,278329696.00000,   0.00192,   0.00097,  -0.00096, 128.00000,   2.00000
493376637.32275,350633243.68611,-108677414.08708,   0.00349,   0.00161,  -0.00239,481979040.00000,   0.00346,278342784.00000,   0.00193,   0.00098,  -0.00098, 128.00000,   2.00000
493151131.31063,351088666.73240,-108768002.85911,   0.00350,   0.00162,  -0.00240,481992640.00000,   0.00347,278355872.00000,   0.00194,   0.00098,  -0.00099,  32.00000,   2.00000
492923212.74494,351533270.93837,-108863521.16468,   0.00351,   0.00162,  -0.00242,481963712.00000,   0.00349,278368800.00000,   0.00195,   0.00098,  -0.00100,  96.00000,   2.00000
492699833.24906,351976448.26677,-108953647.98176,   0.00352,   0.00163,  -0.00243,481973536.00000,   0.00350,278381728.00000,   0.00197,   0.00099,  -0.00101,  64.00000,   2.00000
492472334.53276,352421700.00066,-109046157.89882,   0.00353,   0.00164,  -0.00244,481953984.00000,   0.00351,278394528.00000,   0.00198,   0.00099,  -0.00103,  32.00000,   2.00000
492245787.54215,352863291.46545,-109137828.59506,   0.00354,   0.00164,  -0.00246,481967296.00000,   0.00352,278407328.00000,   0.00199,   0.00100,  -0.00104,  64.00000,   2.00000
492019514.77843,353305480.18395,-109228030.53141,   0.00355,   0.00165,  -0.00247,481962272.00000,   0.00354,278420064.00000,   0.00200,   0.00100,  -0.00105, 192.00000,   2.00000
491785040.98981,353747310.76785,-109325035.68425,   0.00356,   0.00165,  -0.00248,481946464.00000,   0.00355,278432704.00000,   0.00201,   0.00100,  -0.00106,  64.00000,   2.00000
491559226.62259,354190829.41219,-109412251.57680,   0.00357,   0.00166,  -0.00250,481951808.00000,   0.00356,278445312.00000,   0.00202,   0.00101,  -0.00107, 128.00000,   2.00000
491331242.01251,354619907.25585,-109505021.92790,   0.00358,   0.00167,  -0.00251,481940672.00000,   0.00357,278457792.00000,   0.00204,   0.00101,  -0.00109,   0.00000,   2.00000
491098862.76820,355051517.39648,-109600134.89241,   0.00359,   0.00167,  -0.00252,481920640.00000,   0.00358,278470208.00000,   0.00205,   0.00102,  -0.00110, -64.00000,   2.00000
490866008.20171,355492437.82720,-109691847.27032,   0.00360,   0.00168,  -0.00254,481943136.00000,   0.00360,278482624.00000,   0.00206,   0.00102,  -0.00111,  32.00000,   2.00000
490630205.13141,355923311.63583,-109788457.75985,   0.00361,   0.00169,  -0.00255,481913536.00000,   0.00361,278494880.00000,   0.00207,   0.00102,  -0.00112,  96.00000,   2.00000
490399330.74377,356353607.18078,-109879764.35345,   0.00362,   0.00169,  -0.00256,481922208.00000,   0.00362,278507136.00000,   0.00208,   0.00103,  -0.00113, 160.00000,   2.00000
490170051.02845,356772347.33159,-109972148.23828,   0.00363,   0.00170,  -0.00257,481906784.00000,   0.00363,278519296.00000,   0.00209,   0.00103,  -0.00114, -32.00000,   2.00000
489934749.54813,357206408.27189,-110064320.12660,   0.00364,   0.00171,  -0.00259,481896416.00000,   0.00364,278531360.00000,   0.00210,   0.00104,  -0.00116, 192.00000,   2.00000
489702022.34514,357624767.94638,-110158228.63433,   0.00364,   0.00171,  -0.00260,481899072.00000,   0.00366,278543360.00000,   0.00211,   0.00104,  -0.00117,  96.00000,   2.00000
489463002.04064,358058303.25124,-110251845.84441,   0.00365,   0.00172,  -0.00261,481888544.00000,   0.00367,278555328.00000,   0.00212,   0.00104,  -0.00118,  32.00000,   2.00000
489226778.24285,358476293.46645,-110347242.69925,   0.00366,   0.00172,  -0.00263,481890976.00000,   0.00368,278567232.00000,   0.00214,   0.00105,  -0.00119,  64.00000,   2.00000
488989632.79448,358899663.70908,-110440479.15972,   0.00367,   0.00173,  -0.00264,481866720.00000,   0.00369,278579008.00000,   0.00215,   0.00105,  -0.00120,  32.00000,   2.00000
488755320.22289,359307610.69745,-110535516.09164,   0.00368,   0.00174,  -0.00265,481868928.00000,   0.00370,278590752.00000,   0.00216,   0.00106,  -0.00121,  96.00000,   2.00000
488514470.65700,359730715.86125,-110630203.55845,   0.00369,   0.00174,  -0.00266,481858336.00000,   0.00371,278602400.00000,   0.00217,   0.00106,  -0.00122,   0.00000,   2.00000
488280390.00689,360141099.18555,-110722258.22225,   0.00370,   0.00175,  -0.00268,481856576.00000,   0.00372,278614016.00000,   0.00218,   0.00106,  -0.00124,  96.00000,   2.00000
488035860.40214,360563948.19941,-110818413.45739,   0.00371,   0.00176,  -0.00269,481849792.00000,   0.00373,278625536.00000,   0.00219,   0.00107,  -0.00125,  64.00000,   2.00000
487801843.02795,360976654.45364,-110907453.82534,   0.00371,   0.00176,  -0.00270,481844032.00000,   0.00375,278636992.00000,   0.00220,   0.00107,  -0.00126,  96.00000,   2.00000
487559167.18056,361389625.55571,-111003298.65427,   0.00372,   0.00177,  -0.00271,481827264.00000,   0.00376,278648384.00000,   0.00221,   0.00108,  -0.00127,  32.00000,   2.00000
487318194.06229,361791521.04305,-111100278.38595,   0.00373,   0.00177,  -0.00272,481810848.00000,   0.00377,278659648.00000,   0.00222,   0.00108,  -0.00128, -32.00000,   2.00000
487076825.46103,362202729.05612,-111193760.97427,   0.00374,   0.00178,  -0.00274,481832320.00000,   0.00378,278670944.00000,   0.00223,   0.00108,  -0.00129,  64.00000,   2.00000
486835978.41117,362607215.97615,-111287762.86529,   0.00375,   0.00179,  -0.00275,481797888.00000,   0.00379,278682080.00000,   0.00224,   0.00109,  -0.00130, -64.00000,   2.00000
486591403.87692,363010373.57795,-111384736.11860,   0.00375,   0.00179,  -0.00276,481795104.00000,   0.00380,278693152.00000,   0.00225,   0.00109,  -0.00131,  96.00000,   2.00000
486351657.83989,363412993.21850,-111476337.59412,   0.00376,   0.00180,  -0.00277,481802816.00000,   0.00381,278704224.00000,   0.00226,   0.00109,  -0.00132,  32.00000,   2.00000
486107022.52921,363818687.09824,-111570308.22134,   0.00377,   0.00181,  -0.00279,481781888.00000,   0.00382,278715168.00000,   0.00227,   0.00110,  -0.00133,  64.00000,   2.00000
485862264.99460,364225565.25091,-111662754.59694,   0.00378,   0.00181,  -0.00280,481775136.00000,   0.00383,278726048.00000,   0.00228,   0.00110,  -0.00135,  96.00000,   2.00000
485615418.09289,364618880.05132,-111760848.09400,   0.00379,   0.00182,  -0.00281,481762048.00000,   0.00384,278736864.00000,   0.00229,   0.00111,  -0.00136,   0.00000,   2.00000
485370712.05514,365028427.73166,-111850319.83081,   0.00379,   0.00182,  -0.00282,481761440.00000,   0.00385,278747616.00000,   0.00230,   0.00111,  -0.00137,  64.00000,   2.00000
485128919.27062,365422653.42561,-111941635.86474,   0.00380,   0.00183,  -0.00283,481762592.00000,   0.00386,278758336.00000,   0.00231,   0.00111,  -0.00138,  96.00000,   2.00000
484881910.87441,365819926.03026,-112035281.88481,   0.00381,   0.00184,  -0.00284,481741472.00000,   0.00387,278768928.00000,   0.00232,   0.00112,  -0.00139,  32.00000,   2.00000
484636605.84062,366206472.43771,-112130158.67645,   0.00382,   0.00184,  -0.00286,481724448.00000,   0.00388,278779424.00000,   0.00233,   0.00112,  -0.00140,  32.00000,   2.00000
484385702.18834,366603833.58302,-112225279.61607,   0.00382,   0.00185,  -0.00287,481731328.00000,   0.00389,278789920.00000,   0.00233,   0.00112,  -0.00141,  64.00000,   2.00000
484140262.93048,366993184.61672,-112317191.20548,   0.00383,   0.00185,  -0.00288,481710368.00000,   0.00390,278800288.00000,   0.00234,   0.00113,  -0.00142, -32.00000,   2.00000
483890785.78269,367381160.36014,-112412037.75751,   0.00384,   0.00186,  -0.00289,481707072.00000,   0.00391,278810624.00000,   0.00235,   0.00113,  -0.00143,   0.00000,   2.00000
483641206.69160,367770573.16232,-112505405.02117,   0.00385,   0.00187,  -0.00290,481699872.00000,   0.00392,278820864.00000,   0.00236,   0.00114,  -0.00144,   0.00000,   2.00000
483386502.13515,368163340.36475,-112601175.42474,   0.00385,   0.00187,  -0.00291,481678464.00000,   0.00393,278831008.00000,   0.00237,   0.00114,  -0.00145,  96.00000,   2.00000
483138401.63702,368543586.26597,-112694314.19000,   0.00386,   0.00188,  -0.00292,481675264.00000,   0.00394,278841088.00000,   0.00238,   0.00114,  -0.00146,  96.00000,   2.00000
482888297.75856,368937282.21834,-112783231.30986,   0.00387,   0.00188,  -0.00294,481677984.00000,   0.00395,278851168.00000,   0.00239,   0.00115,  -0.00147,  32.00000,   2.00000
482636014.72458,369317747.90683,-112877892.14064,   0.00387,   0.00189,  -0.00295,481664288.00000,   0.00396,278861152.00000,   0.00240,   0.00115,  -0.00148, -64.00000,   2.00000
482387356.00893,369702514.09782,-112966671.24412,   0.00388,   0.00190,  -0.00296,481652992.00000,   0.00397,278871040.00000,   0.00241,   0.00115,  -0.00149, 160.00000,   2.00000
482136392.09878,370074116.19578,-113061191.86411,   0.00389,   0.00190,  -0.00297,481639136.00000,   0.00398,278880864.00000,   0.00241,   0.00116,  -0.00150,  32.00000,   2.00000
481878163.81042,370461130.64670,-113155338.39200,   0.00389,   0.00191,  -0.00298,481627616.00000,   0.00399,278890592.00000,   0.00242,   0.00116,  -0.00151, 160.00000,   2.00000
481626662.13856,370835879.36602,-113246934.84777,   0.00390,   0.00191,  -0.00299,481623936.00000,   0.00400,278900288.00000,   0.00243,   0.00117,  -0.00152,  64.00000,   2.00000
481374885.32448,371212293.44964,-113337106.74370,   0.00391,   0.00192,  -0.00300,481616288.00000,   0.00401,278909920.00000,   0.00244,   0.00117,  -0.00153,   0.00000,   2.00000
481117502.39623,371592263.34632,-113429708.37034,   0.00391,   0.00193,  -0.00301,481594464.00000,   0.00402,278919424.00000,   0.00245,   0.00117,  -0.00154,  96.00000,   2.00000
480864994.55544,371971910.26368,-113517001.17878,   0.00392,   0.00193,  -0.00302,481600832.00000,   0.00403,278928928.00000,   0.00246,   0.00118,  -0.00155, -32.00000,   2.00000
480602999.53302,372352362.45932,-113611161.79722,   0.00393,   0.00194,  -0.00303,481582752.00000,   0.00404,278938304.00000,   0.00246,   0.00118,  -0.00156,  32.00000,   2.00000
480351708.37268,372723661.47750,-113698457.53927,   0.00393,   0.00194,  -0.00304,481574688.00000,   0.00405,278947648.00000,   0.00247,   0.00118,  -0.00157,  32.00000,   2.00000
480090656.11128,373095752.39503,-113792587.07558,   0.00394,   0.00195,  -0.00305,481556736.00000,   0.00405,278956864.00000,   0.00248,   0.00119,  -0.00157,  96.00000,   2.00000
479838384.79047,373470525.53986,-113877044.83830,   0.00394,   0.00195,  -0.00306,481558816.00000,   0.00406,278966080.00000,   0.00249,   0.00119,  -0.00158, -96.00000,   2.00000
479576339.25276,373846173.95291,-113968382.73089,   0.00395,   0.00196,  -0.00307,481540576.00000,   0.00407,278975200.00000,   0.00250,   0.00119,  -0.00159, -32.00000,   2.00000
479321292.81036,374210149.66533,-114057359.53199,   0.00396,   0.00197,  -0.00309,481536160.00000,   0.00408,278984256.00000,   0.00250,   0.00120,  -0.00160,   0.00000,   2.00000
479060272.75659,374578008.54631,-114148824.88819,   0.00396,   0.00197,  -0.00310,481514016.00000,   0.00409,278993184.00000,   0.00251,   0.00120,  -0.00161,  64.00000,   2.00000
478804012.09810,374945728.99105,-114235015.24746,   0.00397,   0.00198,  -0.00311,481519936.00000,   0.00410,279002112.00000,   0.00252,   0.00121,  -0.00162, -32.00000,   2.00000
478541658.92439,375317355.89528,-114323716.24346,   0.00397,   0.00198,  -0.00312,481497568.00000,   0.00411,279010944.00000,   0.00253,   0.00121,  -0.00163,   0.00000,   2.00000
478274864.57791,375688081.20546,-114415454.80851,   0.00398,   0.00199,  -0.00313,481493216.00000,   0.00412,279019712.00000,   0.00253,   0.00121,  -0.00164,  64.00000,   2.00000
478013228.49025,376052102.91229,-114504321.08796,   0.00398,   0.00199,  -0.00314,481470496.00000,   0.00412,279028352.00000,   0.00254,   0.00122,  -0.00165,  96.00000,   2.00000
477754446.65006,376427716.51500,-114585096.66158,   0.00399,   0.00200,  -0.00315,481486464.00000,   0.00413,279037056.00000,   0.00255,   0.00122,  -0.00166, -32.00000,   2.00000
477487618.08161,376793019.78154,-114675746.97890,   0.00399,   0.00201,  -0.00316,481457376.00000,   0.00414,279045600.00000,   0.00256,   0.00122,  -0.00166,  32.00000,   2.00000
477223812.64740,377163263.30555,-114760658.50073,   0.00400,   0.00201,  -0.00317,481444992.00000,   0.00415,279054048.00000,   0.00256,   0.00123,  -0.00167,  96.00000,   2.00000
