# sigma_xx, sigma_yy, sigma_xy, epsilon_xx, epsilon_yy, epsilon_xy, vonMises, epsPlastic, hardening, epsilonP__xx, epsilonP__yy, epsilonP__xy, yieldValue, iteration
   0.00000,   0.00000,   0.00000,   0.00000,   0.00000,   0.00000,1181185.37500,   0.00000,274640576.00000,   0.00000,   0.00000,   0.00000,-473459392.00000,   0.00000
   0.00000,   0.00000,   0.00000,   0.00000,   0.00000,   0.00000,1181185.37500,   0.00000,274640576.00000,   0.00000,   0.00000,   0.00000,-473459392.00000,   0.00000
-3788611.21135,-3077212.59961,339155.15211,  -0.00001,  -0.00001,   0.00000,3121671.25000,   0.00000,274640576.00000,   0.00000,   0.00000,   0.00000,-471518912.00000,   0.00000
-7571018.36504,-6139949.06469,678310.30422,  -0.00002,  -0.00001,   0.00001,6727976.00000,   0.00000,274640576.00000,   0.00000,   0.00000,   0.00000,-467912608.00000,   0.00000
-11359629.57640,-9217161.66430,1017465.45632,  -0.00003,  -0.00002,   0.00001,10301558.00000,   0.00000,274640576.00000,   0.00000,   0.00000,   0.00000,-464339024.00000,   0.00000
-15148240.78775,-12294374.26391,1356620.60843,  -0.00004,  -0.00003,   0.00002,13788241.00000,   0.00000,274640576.00000,   0.00000,   0.00000,   0.00000,-460852336.00000,   0.00000
-18922375.86456,-15365382.80587,1691639.72210,  -0.00006,  -0.00003,   0.00002,17270844.00000,   0.00000,274640576.00000,   0.00000,   0.00000,   0.00000,-457369728.00000,   0.00000
-22696510.94137,-18436391.34782,2030794.87421,  -0.00007,  -0.00004,   0.00003,20789692.00000,   0.00000,274640576.00000,   0.00000,   0.00000,   0.00000,-453850880.00000,   0.00000
-26476850.07584,-21521876.02432,2365813.98788,  -0.00008,  -0.00005,   0.00003,24337820.00000,   0.00000,274640576.00000,   0.00000,   0.00000,   0.00000,-450302752.00000,   0.00000
-30250985.15266,-24592884.56627,2696697.06310,  -0.00009,  -0.00005,   0.00004,27877692.00000,   0.00000,274640576.00000,   0.00000,   0.00000,   0.00000,-446762880.00000,   0.00000
-34010644.09493,-27657689.05056,3031716.17677,  -0.00010,  -0.00006,   0.00004,31400064.00000,   0.00000,274640576.00000,   0.00000,   0.00000,   0.00000,-443240512.00000,   0.00000
-37770303.03720,-30722493.53485,3362599.25200,  -0.00011,  -0.00007,   0.00004,34915288.00000,   0.00000,274640576.00000,   0.00000,   0.00000,   0.00000,-439725280.00000,   0.00000
-41521689.90259,-33795570.09603,3693482.32722,  -0.00012,  -0.00007,   0.00005,38427884.00000,   0.00000,274640576.00000,   0.00000,   0.00000,   0.00000,-436212688.00000,   0.00000
-45281348.84486,-36860374.58032,4024365.40245,  -0.00013,  -0.00008,   0.00005,41946820.00000,   0.00000,274640576.00000,   0.00000,   0.00000,   0.00000,-432693760.00000,   0.00000
-49032735.71025,-39933451.14149,4351112.43924,  -0.00015,  -0.00009,   0.00006,45466268.00000,   0.00000,274640576.00000,   0.00000,   0.00000,   0.00000,-429174304.00000,   0.00000
-52777918.51797,-42992051.56813,4681995.51447,  -0.00016,  -0.00009,   0.00006,48979576.00000,   0.00000,274640576.00000,   0.00000,   0.00000,   0.00000,-425660992.00000,   0.00000
-56514829.24882,-46058924.07164,5008742.55125,  -0.00017,  -0.00010,   0.00007,52487416.00000,   0.00000,274640576.00000,   0.00000,   0.00000,   0.00000,-422153152.00000,   0.00000
-60260012.05655,-49117524.49827,5331353.54960,  -0.00018,  -0.00011,   0.00007,55992988.00000,   0.00000,274640576.00000,   0.00000,   0.00000,   0.00000,-418647584.00000,   0.00000
-63996922.78740,-52184397.00179,5658100.58639,  -0.00019,  -0.00011,   0.00007,59493672.00000,   0.00000,274640576.00000,   0.00000,   0.00000,   0.00000,-415146912.00000,   0.00000
-67727629.46059,-55236793.37076,5980711.58473,  -0.00020,  -0.00012,   0.00008,62982692.00000,   0.00000,274640576.00000,   0.00000,   0.00000,   0.00000,-411657888.00000,   0.00000
-71450064.05690,-58297461.81661,6303322.58308,  -0.00021,  -0.00013,   0.00008,66469752.00000,   0.00000,274640576.00000,   0.00000,   0.00000,   0.00000,-408170816.00000,   0.00000
-75166294.59554,-61343654.12792,6621797.54299,  -0.00022,  -0.00013,   0.00009,69949296.00000,   0.00000,274640576.00000,   0.00000,   0.00000,   0.00000,-404691280.00000,   0.00000
-78888729.19185,-64404322.57377,6944408.54133,  -0.00023,  -0.00014,   0.00009,73442064.00000,   0.00000,274640576.00000,   0.00000,   0.00000,   0.00000,-401198512.00000,   0.00000
-82611163.78816,-67464991.01963,7262883.50124,  -0.00024,  -0.00015,   0.00009,76935936.00000,   0.00000,274640576.00000,   0.00000,   0.00000,   0.00000,-397704640.00000,   0.00000
-86312918.19226,-70504979.27328,7577222.42271,  -0.00026,  -0.00015,   0.00010,80409216.00000,   0.00000,274640576.00000,   0.00000,   0.00000,   0.00000,-394231360.00000,   0.00000
-90020876.65403,-73559443.66147,7895697.38261,  -0.00027,  -0.00016,   0.00010,83890920.00000,   0.00000,274640576.00000,   0.00000,   0.00000,   0.00000,-390749664.00000,   0.00000
-93722631.05813,-76599431.91512,8210036.30408,  -0.00028,  -0.00017,   0.00011,87359056.00000,   0.00000,274640576.00000,   0.00000,   0.00000,   0.00000,-387281520.00000,   0.00000
-97416113.38536,-79647692.24565,8524375.22554,  -0.00029,  -0.00017,   0.00011,90819896.00000,   0.00000,274640576.00000,   0.00000,   0.00000,   0.00000,-383820672.00000,   0.00000
-101117867.78946,-82687680.49930,8834578.10857,  -0.00030,  -0.00018,   0.00011,94276848.00000,   0.00000,274640576.00000,   0.00000,   0.00000,   0.00000,-380363728.00000,   0.00000
-104811350.11669,-85735940.82983,9144780.99159,  -0.00031,  -0.00019,   0.00012,97727016.00000,   0.00000,274640576.00000,   0.00000,   0.00000,   0.00000,-376913568.00000,   0.00000
-108484152.25171,-88763520.96816,9454983.87462,  -0.00032,  -0.00019,   0.00012,101154424.00000,   0.00000,274640576.00000,   0.00000,   0.00000,   0.00000,-373486144.00000,   0.00000
-112171430.52128,-91797305.16415,9765186.75765,  -0.00033,  -0.00020,   0.00013,104592400.00000,   0.00000,274640576.00000,   0.00000,   0.00000,   0.00000,-370048176.00000,   0.00000
-115844232.65630,-94824885.30248,10071253.60223,  -0.00034,  -0.00021,   0.00013,108019608.00000,   0.00000,274640576.00000,   0.00000,   0.00000,   0.00000,-366620960.00000,   0.00000
-119508762.71444,-97860737.51769,10377320.44682,  -0.00035,  -0.00021,   0.00013,111447672.00000,   0.00000,274640576.00000,   0.00000,   0.00000,   0.00000,-363192896.00000,   0.00000
-123181564.84946,-100888317.65602,10679251.25296,  -0.00036,  -0.00022,   0.00014,114881584.00000,   0.00000,274640576.00000,   0.00000,   0.00000,   0.00000,-359758992.00000,   0.00000
-126839890.84995,-103909693.73669,10981182.05911,  -0.00037,  -0.00023,   0.00014,118309168.00000,   0.00000,274640576.00000,   0.00000,   0.00000,   0.00000,-356331408.00000,   0.00000
-130498216.85043,-106931069.81736,11283112.86525,  -0.00039,  -0.00023,   0.00015,121741464.00000,   0.00000,274640576.00000,   0.00000,   0.00000,   0.00000,-352899104.00000,   0.00000
-134142066.71637,-109946241.84037,11580907.63296,  -0.00040,  -0.00024,   0.00015,125164912.00000,   0.00000,274640576.00000,   0.00000,   0.00000,   0.00000,-349475664.00000,   0.00000
-137800392.71685,-112967617.92104,11878702.40066,  -0.00041,  -0.00025,   0.00015,128601848.00000,   0.00000,274640576.00000,   0.00000,   0.00000,   0.00000,-346038720.00000,   0.00000
-141438038.52513,-115968313.80951,12176497.16836,  -0.00042,  -0.00025,   0.00016,132019208.00000,   0.00000,274640576.00000,   0.00000,   0.00000,   0.00000,-342621376.00000,   0.00000
-145081888.39107,-118983485.83252,12474291.93607,  -0.00043,  -0.00026,   0.00016,135444320.00000,   0.00000,274640576.00000,   0.00000,   0.00000,   0.00000,-339196256.00000,   0.00000
-148711262.12247,-121992453.79787,12767950.66533,  -0.00044,  -0.00027,   0.00017,138854448.00000,   0.00000,274640576.00000,   0.00000,   0.00000,   0.00000,-335786128.00000,   0.00000
-152334431.79621,-124986945.62867,13057473.35616,  -0.00045,  -0.00027,   0.00017,142251008.00000,   0.00000,274640576.00000,   0.00000,   0.00000,   0.00000,-332389568.00000,   0.00000
-155957601.46995,-127981437.45948,13351132.08542,  -0.00046,  -0.00028,   0.00017,145644464.00000,   0.00000,274640576.00000,   0.00000,   0.00000,   0.00000,-328996112.00000,   0.00000
-159572499.06681,-130984201.36717,13640654.77625,  -0.00047,  -0.00028,   0.00018,149030160.00000,   0.00000,274640576.00000,   0.00000,   0.00000,   0.00000,-325610416.00000,   0.00000
-163195668.74055,-133978693.19797,13926041.42863,  -0.00048,  -0.00029,   0.00018,152413264.00000,   0.00000,274640576.00000,   0.00000,   0.00000,   0.00000,-322227312.00000,   0.00000
-166804362.27974,-136966980.97112,14211428.08101,  -0.00049,  -0.00030,   0.00018,155782512.00000,   0.00000,274640576.00000,   0.00000,   0.00000,   0.00000,-318858064.00000,   0.00000
-170398579.68440,-139949064.68661,14496814.73340,  -0.00050,  -0.00030,   0.00019,159139344.00000,   0.00000,274640576.00000,   0.00000,   0.00000,   0.00000,-315501232.00000,   0.00000
-173986593.03140,-142916672.26755,14778065.34734,  -0.00051,  -0.00031,   0.00019,162486672.00000,   0.00000,274640576.00000,   0.00000,   0.00000,   0.00000,-312153904.00000,   0.00000
-177580810.43605,-145898755.98304,15059315.96128,  -0.00052,  -0.00032,   0.00020,165845360.00000,   0.00000,274640576.00000,   0.00000,   0.00000,   0.00000,-308795216.00000,   0.00000
-181168823.78305,-148866363.56398,15340566.57523,  -0.00053,  -0.00032,   0.00020,169199200.00000,   0.00000,274640576.00000,   0.00000,   0.00000,   0.00000,-305441376.00000,   0.00000
-184763041.18770,-151848447.27947,15617681.15073,  -0.00054,  -0.00033,   0.00020,172566272.00000,   0.00000,274640576.00000,   0.00000,   0.00000,   0.00000,-302074304.00000,   0.00000
-188336578.40016,-154809850.80275,15894795.72623,  -0.00056,  -0.00034,   0.00021,175919040.00000,   0.00000,274640576.00000,   0.00000,   0.00000,   0.00000,-298721536.00000,   0.00000
-191895639.47807,-157765050.26838,16171910.30173,  -0.00057,  -0.00034,   0.00021,179266208.00000,   0.00000,274640576.00000,   0.00000,   0.00000,   0.00000,-295374368.00000,   0.00000
-195469176.69053,-160726453.79166,16444888.83880,  -0.00058,  -0.00035,   0.00021,182627872.00000,   0.00000,274640576.00000,   0.00000,   0.00000,   0.00000,-292012704.00000,   0.00000
-199022033.71078,-163667177.12274,16713731.33742,  -0.00059,  -0.00036,   0.00022,185969984.00000,   0.00000,274640576.00000,   0.00000,   0.00000,   0.00000,-288670592.00000,   0.00000
-202581094.78869,-166622376.58837,16982573.83604,  -0.00060,  -0.00036,   0.00022,189319056.00000,   0.00000,274640576.00000,   0.00000,   0.00000,   0.00000,-285321520.00000,   0.00000
-206119475.67441,-169556895.86179,17251416.33466,  -0.00061,  -0.00037,   0.00022,192640608.00000,   0.00000,274640576.00000,   0.00000,   0.00000,   0.00000,-281999968.00000,   0.00000
-209672332.69466,-172497619.19287,17520258.83329,  -0.00062,  -0.00038,   0.00023,195948528.00000,   0.00000,274640576.00000,   0.00000,   0.00000,   0.00000,-278692048.00000,   0.00000
-213210713.58037,-175432138.46629,17784965.29347,  -0.00063,  -0.00038,   0.00023,199373152.00000,   0.00000,274640576.00000,   0.00000,   0.00000,   0.00000,-275267424.00000,   0.00000
-216734618.33154,-178360453.68206,18045535.71521,  -0.00064,  -0.00039,   0.00023,202686864.00000,   0.00000,274640576.00000,   0.00000,   0.00000,   0.00000,-271953712.00000,   0.00000
-220272999.21725,-181294972.95548,18306106.13695,  -0.00065,  -0.00040,   0.00024,205906432.00000,   0.00000,274640576.00000,   0.00000,   0.00000,   0.00000,-268734144.00000,   0.00000
-223790699.91076,-184208812.03670,18566676.55869,  -0.00066,  -0.00040,   0.00024,209111680.00000,   0.00000,274640576.00000,   0.00000,   0.00000,   0.00000,-265528896.00000,   0.00000
-227293924.46973,-187116447.06026,18827246.98043,  -0.00067,  -0.00041,   0.00024,212335696.00000,   0.00000,274640576.00000,   0.00000,   0.00000,   0.00000,-262304880.00000,   0.00000
-230811625.16324,-190030286.14148,19079545.32529,  -0.00068,  -0.00041,   0.00025,215615072.00000,   0.00000,274640576.00000,   0.00000,   0.00000,   0.00000,-259025504.00000,   0.00000
-234314849.72221,-192937921.16504,19335979.70860,  -0.00069,  -0.00042,   0.00025,218919776.00000,   0.00000,274640576.00000,   0.00000,   0.00000,   0.00000,-255720800.00000,   0.00000
-237797394.08898,-195824875.99640,19588278.05346,  -0.00070,  -0.00043,   0.00025,222204176.00000,   0.00000,274640576.00000,   0.00000,   0.00000,   0.00000,-252436400.00000,   0.00000
-241294414.59029,-198718034.88542,19840576.39832,  -0.00071,  -0.00043,   0.00026,225494304.00000,   0.00000,274640576.00000,   0.00000,   0.00000,   0.00000,-249146272.00000,   0.00000
-244776958.95706,-201604989.71677,20088738.70474,  -0.00072,  -0.00044,   0.00026,228770656.00000,   0.00000,274640576.00000,   0.00000,   0.00000,   0.00000,-245869920.00000,   0.00000
-248259503.32382,-204491944.54813,20332764.97272,  -0.00073,  -0.00045,   0.00026,232044016.00000,   0.00000,274640576.00000,   0.00000,   0.00000,   0.00000,-242596560.00000,   0.00000
-251727571.55605,-207372695.32183,20580927.27914,  -0.00074,  -0.00045,   0.00027,235303152.00000,   0.00000,274640576.00000,   0.00000,   0.00000,   0.00000,-239337424.00000,   0.00000
-255189435.73062,-210238969.96099,20824953.54712,  -0.00075,  -0.00046,   0.00027,238547312.00000,   0.00000,274640576.00000,   0.00000,   0.00000,   0.00000,-236093264.00000,   0.00000
-258651299.90518,-213105244.60014,21064843.77666,  -0.00076,  -0.00047,   0.00027,241785584.00000,   0.00000,274640576.00000,   0.00000,   0.00000,   0.00000,-232854992.00000,   0.00000
-262098687.94521,-215965315.18164,21304734.00620,  -0.00077,  -0.00047,   0.00028,245008896.00000,   0.00000,274640576.00000,   0.00000,   0.00000,   0.00000,-229631680.00000,   0.00000
-265539871.92757,-218810909.62859,21544624.23574,  -0.00078,  -0.00048,   0.00028,248220912.00000,   0.00000,274640576.00000,   0.00000,   0.00000,   0.00000,-226419664.00000,   0.00000
-268987259.96759,-221670980.21009,21780378.42684,  -0.00079,  -0.00048,   0.00028,251440432.00000,   0.00000,274640576.00000,   0.00000,   0.00000,   0.00000,-223200144.00000,   0.00000
-272428443.94996,-224516574.65704,22011996.57950,  -0.00080,  -0.00049,   0.00029,254650432.00000,   0.00000,274640576.00000,   0.00000,   0.00000,   0.00000,-219990144.00000,   0.00000
-275848947.74012,-227341488.91180,22243614.73216,  -0.00081,  -0.00050,   0.00029,257841536.00000,   0.00000,274640576.00000,   0.00000,   0.00000,   0.00000,-216799040.00000,   0.00000
-279275655.58794,-230180879.30109,22475232.88481,  -0.00082,  -0.00050,   0.00029,261042656.00000,   0.00000,274640576.00000,   0.00000,   0.00000,   0.00000,-213597920.00000,   0.00000
-282681683.24356,-232999589.49818,22702714.99903,  -0.00083,  -0.00051,   0.00030,264222992.00000,   0.00000,274640576.00000,   0.00000,   0.00000,   0.00000,-210417584.00000,   0.00000
-286087710.89919,-235818299.69528,22930197.11325,  -0.00084,  -0.00052,   0.00030,267402384.00000,   0.00000,274640576.00000,   0.00000,   0.00000,   0.00000,-207238192.00000,   0.00000
-289493738.55481,-238637009.89237,23157679.22747,  -0.00085,  -0.00052,   0.00030,270579616.00000,   0.00000,274640576.00000,   0.00000,   0.00000,   0.00000,-204060960.00000,   0.00000
-292893562.15277,-241441243.95492,23376889.26481,  -0.00086,  -0.00053,   0.00030,273742848.00000,   0.00000,274640576.00000,   0.00000,   0.00000,   0.00000,-200897728.00000,   0.00000
-296278909.61619,-244239273.95981,23600235.34059,  -0.00087,  -0.00053,   0.00031,276895136.00000,   0.00000,274640576.00000,   0.00000,   0.00000,   0.00000,-197745440.00000,   0.00000
-299658053.02194,-247022827.83016,23819445.37793,  -0.00088,  -0.00054,   0.00031,280054784.00000,   0.00000,274640576.00000,   0.00000,   0.00000,   0.00000,-194585792.00000,   0.00000
-303028924.35082,-249814653.77739,24034519.37682,  -0.00089,  -0.00055,   0.00031,283201248.00000,   0.00000,274640576.00000,   0.00000,   0.00000,   0.00000,-191439328.00000,   0.00000
-306393591.62204,-252592003.59008,24249593.37572,  -0.00090,  -0.00055,   0.00032,286279168.00000,   0.00000,274640576.00000,   0.00000,   0.00000,   0.00000,-188361408.00000,   0.00000
-309752054.83560,-255354877.26823,24464667.37462,  -0.00091,  -0.00056,   0.00032,289382560.00000,   0.00000,274640576.00000,   0.00000,   0.00000,   0.00000,-185258016.00000,   0.00000
-313116722.10682,-258132227.08092,24675605.33508,  -0.00092,  -0.00056,   0.00032,292510368.00000,   0.00000,274640576.00000,   0.00000,   0.00000,   0.00000,-182130208.00000,   0.00000
-316460709.18583,-260888896.70141,24886543.29553,  -0.00093,  -0.00057,   0.00032,295614304.00000,   0.00000,274640576.00000,   0.00000,   0.00000,   0.00000,-179026272.00000,   0.00000
-319804696.26485,-263645566.32189,25093345.21755,  -0.00094,  -0.00058,   0.00033,298716704.00000,   0.00000,274640576.00000,   0.00000,   0.00000,   0.00000,-175923872.00000,   0.00000
-323128003.15166,-266381555.75018,25300147.13957,  -0.00095,  -0.00058,   0.00033,301802208.00000,   0.00000,274640576.00000,   0.00000,   0.00000,   0.00000,-172838368.00000,   0.00000
-326451310.03848,-269117545.17847,25502813.02314,  -0.00096,  -0.00059,   0.00033,304888544.00000,   0.00000,274640576.00000,   0.00000,   0.00000,   0.00000,-169752032.00000,   0.00000
-329774616.92529,-271853534.60675,25705478.90672,  -0.00097,  -0.00059,   0.00033,307975808.00000,   0.00000,274640576.00000,   0.00000,   0.00000,   0.00000,-166664768.00000,   0.00000
-333077243.61990,-274568843.84283,25904008.75186,  -0.00098,  -0.00060,   0.00034,311044256.00000,   0.00000,274640576.00000,   0.00000,   0.00000,   0.00000,-163596320.00000,   0.00000
-336379870.31451,-277284153.07892,26102538.59699,  -0.00099,  -0.00061,   0.00034,314117248.00000,   0.00000,274640576.00000,   0.00000,   0.00000,   0.00000,-160523328.00000,   0.00000
-339682497.00913,-279999462.31500,26296932.40369,  -0.00100,  -0.00061,   0.00034,317193888.00000,   0.00000,274640576.00000,   0.00000,   0.00000,   0.00000,-157446688.00000,   0.00000
-342978919.64608,-282700295.41655,26491326.21039,  -0.00101,  -0.00062,   0.00034,320264704.00000,   0.00000,274640576.00000,   0.00000,   0.00000,   0.00000,-154375872.00000,   0.00000
-346260866.14849,-285394924.46043,26681583.97864,  -0.00102,  -0.00062,   0.00035,323324768.00000,   0.00000,274640576.00000,   0.00000,   0.00000,   0.00000,-151315808.00000,   0.00000
-349522132.45870,-288068873.31211,26871841.74690,  -0.00103,  -0.00063,   0.00035,326364576.00000,   0.00000,274640576.00000,   0.00000,   0.00000,   0.00000,-148276000.00000,   0.00000
-352797874.90345,-290749026.22145,27057963.47671,  -0.00104,  -0.00063,   0.00035,329413632.00000,   0.00000,274640576.00000,   0.00000,   0.00000,   0.00000,-145226944.00000,   0.00000
-356044665.07912,-293416771.01547,27244085.20653,  -0.00105,  -0.00064,   0.00035,332438016.00000,   0.00000,274640576.00000,   0.00000,   0.00000,   0.00000,-142202560.00000,   0.00000
-359299727.33167,-296076243.73261,27430206.93634,  -0.00106,  -0.00065,   0.00036,335462144.00000,   0.00000,274640576.00000,   0.00000,   0.00000,   0.00000,-139178432.00000,   0.00000
-362540313.44967,-298729512.39209,27612192.62772,  -0.00107,  -0.00065,   0.00036,338470688.00000,   0.00000,274640576.00000,   0.00000,   0.00000,   0.00000,-136169888.00000,   0.00000
-365780899.56768,-301382781.05157,27790042.28065,  -0.00108,  -0.00066,   0.00036,341474464.00000,   0.00000,274640576.00000,   0.00000,   0.00000,   0.00000,-133166112.00000,   0.00000
-369015281.62803,-304021573.57650,27967891.93359,  -0.00109,  -0.00066,   0.00036,344465472.00000,   0.00000,274640576.00000,   0.00000,   0.00000,   0.00000,-130175104.00000,   0.00000
-372228983.49617,-306639685.90924,28145741.58652,  -0.00110,  -0.00067,   0.00037,347432160.00000,   0.00000,274640576.00000,   0.00000,   0.00000,   0.00000,-127208416.00000,   0.00000
-375448889.42198,-309272274.37652,28319455.20102,  -0.00111,  -0.00068,   0.00037,350403424.00000,   0.00000,274640576.00000,   0.00000,   0.00000,   0.00000,-124237152.00000,   0.00000
-378648115.15558,-311884182.65159,28489032.77707,  -0.00111,  -0.00068,   0.00037,353350752.00000,   0.00000,274640576.00000,   0.00000,   0.00000,   0.00000,-121289824.00000,   0.00000
-381841136.83153,-314481614.79213,28662746.39157,  -0.00112,  -0.00069,   0.00037,356289024.00000,   0.00000,274640576.00000,   0.00000,   0.00000,   0.00000,-118351552.00000,   0.00000
-385034158.50747,-317079046.93266,28828187.92918,  -0.00113,  -0.00069,   0.00037,359225632.00000,   0.00000,274640576.00000,   0.00000,   0.00000,   0.00000,-115414944.00000,   0.00000
-388227180.18341,-319676479.07320,28993629.46679,  -0.00114,  -0.00070,   0.00038,362164704.00000,   0.00000,274640576.00000,   0.00000,   0.00000,   0.00000,-112475872.00000,   0.00000
-391399521.66715,-322253231.02153,29159071.00441,  -0.00115,  -0.00070,   0.00038,365087648.00000,   0.00000,274640576.00000,   0.00000,   0.00000,   0.00000,-109552928.00000,   0.00000
-394557387.01635,-324823778.91220,29320376.50358,  -0.00116,  -0.00071,   0.00038,368003872.00000,   0.00000,274640576.00000,   0.00000,   0.00000,   0.00000,-106636704.00000,   0.00000
-397723524.44244,-327386054.72599,29481682.00275,  -0.00117,  -0.00071,   0.00038,370928800.00000,   0.00000,274640576.00000,   0.00000,   0.00000,   0.00000,-103711776.00000,   0.00000
-400860709.59944,-329935922.42446,29638851.46349,  -0.00118,  -0.00072,   0.00039,373836224.00000,   0.00000,274640576.00000,   0.00000,   0.00000,   0.00000,-100804352.00000,   0.00000
-404006166.83331,-332477518.04605,29796020.92422,  -0.00119,  -0.00072,   0.00039,376750976.00000,   0.00000,274640576.00000,   0.00000,   0.00000,   0.00000,-97889600.00000,   0.00000
-407137147.93265,-335012909.60998,29949054.34651,  -0.00120,  -0.00073,   0.00039,379655904.00000,   0.00000,274640576.00000,   0.00000,   0.00000,   0.00000,-94984672.00000,   0.00000
-410268129.03199,-337548301.17391,30097951.73036,  -0.00121,  -0.00074,   0.00039,382559328.00000,   0.00000,274640576.00000,   0.00000,   0.00000,   0.00000,-92081248.00000,   0.00000
-413378429.93913,-340063012.54564,30250985.15266,  -0.00122,  -0.00074,   0.00039,385438912.00000,   0.00000,274640576.00000,   0.00000,   0.00000,   0.00000,-89201664.00000,   0.00000
-416497002.92315,-342569451.84049,30395746.49807,  -0.00123,  -0.00075,   0.00040,388310496.00000,   0.00000,274640576.00000,   0.00000,   0.00000,   0.00000,-86330080.00000,   0.00000
-419586623.63808,-345063483.02001,30544643.88192,  -0.00124,  -0.00075,   0.00040,391148576.00000,   0.00000,274640576.00000,   0.00000,   0.00000,   0.00000,-83492000.00000,   0.00000
-422690720.48756,-347563718.25720,30689405.22733,  -0.00125,  -0.00076,   0.00040,393982176.00000,   0.00000,274640576.00000,   0.00000,   0.00000,   0.00000,-80658400.00000,   0.00000
-425774137.14483,-350043273.30218,30830030.53430,  -0.00125,  -0.00076,   0.00040,396778624.00000,   0.00000,274640576.00000,   0.00000,   0.00000,   0.00000,-77861952.00000,   0.00000
-428836873.60990,-352502148.15496,30970655.84128,  -0.00126,  -0.00077,   0.00040,399539136.00000,   0.00000,274640576.00000,   0.00000,   0.00000,   0.00000,-75101440.00000,   0.00000
-431905814.13264,-354975499.14229,31107145.10981,  -0.00127,  -0.00077,   0.00040,402293216.00000,   0.00000,274640576.00000,   0.00000,   0.00000,   0.00000,-72347360.00000,   0.00000
-434962346.54005,-357419897.86053,31243634.37834,  -0.00128,  -0.00078,   0.00041,405018784.00000,   0.00000,274640576.00000,   0.00000,   0.00000,   0.00000,-69621792.00000,   0.00000
-438004402.81292,-359858092.52111,31375987.60843,  -0.00129,  -0.00078,   0.00041,407728736.00000,   0.00000,274640576.00000,   0.00000,   0.00000,   0.00000,-66911840.00000,   0.00000
-441046459.08579,-362296287.18169,31508340.83852,  -0.00130,  -0.00079,   0.00041,410465056.00000,   0.00000,274640576.00000,   0.00000,   0.00000,   0.00000,-64175520.00000,   0.00000
-444082311.30100,-364720005.70773,31640694.06861,  -0.00131,  -0.00079,   0.00041,413296096.00000,   0.00000,274640576.00000,   0.00000,   0.00000,   0.00000,-61344480.00000,   0.00000
-447103687.38167,-367137520.17611,31764775.22182,  -0.00132,  -0.00080,   0.00041,416078400.00000,   0.00000,274640576.00000,   0.00000,   0.00000,   0.00000,-58562176.00000,   0.00000
-450118859.40468,-369540558.50995,31892992.41347,  -0.00133,  -0.00080,   0.00041,418804608.00000,   0.00000,274640576.00000,   0.00000,   0.00000,   0.00000,-55835968.00000,   0.00000
-453127827.37003,-371929120.70925,32017073.56668,  -0.00134,  -0.00081,   0.00042,421581760.00000,   0.00000,274640576.00000,   0.00000,   0.00000,   0.00000,-53058816.00000,   0.00000
-456122319.20083,-374311478.85088,32137018.68145,  -0.00135,  -0.00081,   0.00042,424367200.00000,   0.00000,274640576.00000,   0.00000,   0.00000,   0.00000,-50273376.00000,   0.00000
-459116811.03164,-376693836.99252,32256963.79622,  -0.00135,  -0.00082,   0.00042,427152896.00000,   0.00000,274640576.00000,   0.00000,   0.00000,   0.00000,-47487680.00000,   0.00000
-462090622.67025,-379055514.94196,32376908.91099,  -0.00136,  -0.00082,   0.00042,429920032.00000,   0.00000,274640576.00000,   0.00000,   0.00000,   0.00000,-44720544.00000,   0.00000
-465064434.30885,-381417192.89139,32492717.98732,  -0.00137,  -0.00083,   0.00042,432695104.00000,   0.00000,274640576.00000,   0.00000,   0.00000,   0.00000,-41945472.00000,   0.00000
-468011361.69760,-383743714.51408,32608527.06365,  -0.00138,  -0.00083,   0.00042,435451296.00000,   0.00000,274640576.00000,   0.00000,   0.00000,   0.00000,-39189280.00000,   0.00000
-470964493.14400,-386084712.27132,32720200.10154,  -0.00139,  -0.00084,   0.00043,438223552.00000,   0.00000,274640576.00000,   0.00000,   0.00000,   0.00000,-36417024.00000,   0.00000
-473911420.53274,-388411233.89401,32827737.10099,  -0.00140,  -0.00084,   0.00043,440989824.00000,   0.00000,274640576.00000,   0.00000,   0.00000,   0.00000,-33650752.00000,   0.00000
-476852143.86383,-390723279.38216,32939410.13888,  -0.00141,  -0.00085,   0.00043,443748480.00000,   0.00000,274640576.00000,   0.00000,   0.00000,   0.00000,-30892096.00000,   0.00000
-479778391.06037,-393029120.81265,33042811.09989,  -0.00142,  -0.00085,   0.00043,446489408.00000,   0.00000,274640576.00000,   0.00000,   0.00000,   0.00000,-28151168.00000,   0.00000
-482683958.06471,-395314282.05094,33150348.09934,  -0.00143,  -0.00086,   0.00043,449195904.00000,   0.00000,274640576.00000,   0.00000,   0.00000,   0.00000,-25444672.00000,   0.00000
-485589525.06905,-397599443.28923,33249613.02190,  -0.00143,  -0.00086,   0.00043,451877536.00000,   0.00000,274640576.00000,   0.00000,   0.00000,   0.00000,-22763040.00000,   0.00000
-488488888.01573,-399870128.39297,33353013.98291,  -0.00144,  -0.00087,   0.00043,454529888.00000,   0.00000,274640576.00000,   0.00000,   0.00000,   0.00000,-20110688.00000,   0.00000
-491367570.77020,-402120133.30452,33452278.90548,  -0.00145,  -0.00087,   0.00043,457147072.00000,   0.00000,274640576.00000,   0.00000,   0.00000,   0.00000,-17493504.00000,   0.00000
-494246253.52468,-404370138.21606,33547407.78961,  -0.00146,  -0.00088,   0.00044,459755520.00000,   0.00000,274640576.00000,   0.00000,   0.00000,   0.00000,-14885056.00000,   0.00000
-497124936.27916,-406620143.12761,33642536.67374,  -0.00147,  -0.00088,   0.00044,462360800.00000,   0.00000,274640576.00000,   0.00000,   0.00000,   0.00000,-12279776.00000,   0.00000
-499976734.78377,-408834991.71241,33733529.51942,  -0.00148,  -0.00089,   0.00044,464936768.00000,   0.00000,274640576.00000,   0.00000,   0.00000,   0.00000,-9703808.00000,   0.00000
-502834737.34605,-411064316.43176,33824522.36511,  -0.00149,  -0.00089,   0.00044,467524704.00000,   0.00000,274640576.00000,   0.00000,   0.00000,   0.00000,-7115872.00000,   0.00000
-505665855.65846,-413258484.82436,33915515.21080,  -0.00149,  -0.00089,   0.00044,470088064.00000,   0.00000,274640576.00000,   0.00000,   0.00000,   0.00000,-4552512.00000,   0.00000
-508496973.97088,-415452653.21696,34002372.01805,  -0.00150,  -0.00090,   0.00044,472655168.00000,   0.00000,274640576.00000,   0.00000,   0.00000,   0.00000,-1985408.00000,   0.00000
-510683722.53670,-417151316.93403,34066593.70867,  -0.00151,  -0.00090,   0.00044,474641376.00000,   0.00000,274640576.00000,   0.00000,   0.00000,   0.00000, 800.00000,   0.00000
-510694037.80416,-417154279.83843,34036623.00257,  -0.00151,  -0.00090,   0.00044,474641376.00000,   0.00000,274642528.00000,  -0.00000,  -0.00000,   0.00000, -32.00000,   2.00000
-510746174.13568,-417163320.79428,33908088.22766,  -0.00152,  -0.00091,   0.00044,477194240.00000,   0.00001,274651200.00000,  -0.00001,  -0.00001,   0.00000,  64.00000,   2.00000
-510803011.54965,-417166759.48094,33773008.11784,  -0.00153,  -0.00091,   0.00045,477192448.00000,   0.00002,274659808.00000,  -0.00002,  -0.00001,   0.00001,  96.00000,   2.00000
-510859668.05532,-417165941.12634,33644487.10030,  -0.00154,  -0.00092,   0.00045,477181696.00000,   0.00003,274668384.00000,  -0.00003,  -0.00001,   0.00001,   0.00000,   2.00000
-510917814.98514,-417166632.96112,33508680.98148,  -0.00155,  -0.00092,   0.00045,477188512.00000,   0.00003,274676928.00000,  -0.00003,  -0.00002,   0.00001,  64.00000,   2.00000
-510972312.31873,-417169913.56388,33378676.43446,  -0.00155,  -0.00092,   0.00045,477186592.00000,   0.00004,274685472.00000,  -0.00004,  -0.00002,   0.00001,   0.00000,   2.00000
-511030781.98582,-417167061.06633,33246163.08078,  -0.00156,  -0.00093,   0.00045,477185376.00000,   0.00005,274693952.00000,  -0.00005,  -0.00003,   0.00002,   0.00000,   2.00000
-511093166.70352,-417158089.42985,33111147.31436,  -0.00157,  -0.00093,   0.00045,477184192.00000,   0.00006,274702400.00000,  -0.00006,  -0.00003,   0.00002, -32.00000,   2.00000
-511156178.99122,-417145585.55916,32978594.95882,  -0.00158,  -0.00094,   0.00045,477172512.00000,   0.00006,274710784.00000,  -0.00007,  -0.00004,   0.00002, -32.00000,   2.00000
-511216626.67195,-417136619.83840,32847768.84319,  -0.00159,  -0.00094,   0.00045,477169536.00000,   0.00007,274719136.00000,  -0.00008,  -0.00004,   0.00003,  32.00000,   2.00000
-511279670.92653,-417124991.59814,32712757.50239,  -0.00160,  -0.00095,   0.00045,477188448.00000,   0.00008,274727520.00000,  -0.00008,  -0.00004,   0.00003,   0.00000,   2.00000
-511347824.37147,-417103793.79291,32576871.40129,  -0.00160,  -0.00095,   0.00045,477166880.00000,   0.00009,274735776.00000,  -0.00009,  -0.00005,   0.00003,  96.00000,   2.00000
-511408808.60091,-417092155.72880,32446017.74533,  -0.00161,  -0.00095,   0.00045,477173632.00000,   0.00009,274744032.00000,  -0.00010,  -0.00005,   0.00003, -32.00000,   2.00000
-511478220.44560,-417068421.77695,32309296.73863,  -0.00162,  -0.00096,   0.00046,477162400.00000,   0.00010,274752256.00000,  -0.00011,  -0.00006,   0.00004,  96.00000,   2.00000
-511543799.81662,-417047317.72527,32178311.35730,  -0.00163,  -0.00096,   0.00046,477160224.00000,   0.00011,274760416.00000,  -0.00012,  -0.00006,   0.00004,  32.00000,   2.00000
-511615387.60568,-417016764.24376,32043853.58912,  -0.00164,  -0.00097,   0.00046,477170016.00000,   0.00012,274768576.00000,  -0.00012,  -0.00007,   0.00004,   0.00000,   2.00000
-511686436.78086,-416986988.84072,31908639.67919,  -0.00165,  -0.00097,   0.00046,477145920.00000,   0.00012,274776608.00000,  -0.00013,  -0.00007,   0.00004,   0.00000,   2.00000
-511756974.76690,-416957387.89887,31774207.87351,  -0.00165,  -0.00097,   0.00046,477153984.00000,   0.00013,274784672.00000,  -0.00014,  -0.00007,   0.00005, -32.00000,   2.00000
-511830350.88763,-416921009.28491,31641247.78545,  -0.00166,  -0.00098,   0.00046,477153184.00000,   0.00014,274792704.00000,  -0.00015,  -0.00008,   0.00005, -96.00000,   2.00000
-511904275.83218,-416885684.59830,31505019.91937,  -0.00167,  -0.00098,   0.00046,477160416.00000,   0.00015,274800704.00000,  -0.00015,  -0.00008,   0.00005,  96.00000,   2.00000
-511978641.38196,-416846826.78747,31371132.64196,  -0.00168,  -0.00098,   0.00046,477148416.00000,   0.00015,274808640.00000,  -0.00016,  -0.00009,   0.00005,  32.00000,   2.00000
-512054697.64704,-416805425.35002,31235536.48891,  -0.00169,  -0.00099,   0.00046,477135296.00000,   0.00016,274816512.00000,  -0.00017,  -0.00009,   0.00005,  64.00000,   2.00000
-512133541.36596,-416757281.20355,31101389.30463,  -0.00169,  -0.00099,   0.00046,477134368.00000,   0.00017,274824352.00000,  -0.00018,  -0.00009,   0.00006,  32.00000,   2.00000
-512211909.18551,-416709472.74068,30968005.44464,  -0.00170,  -0.00100,   0.00046,477142304.00000,   0.00017,274832192.00000,  -0.00019,  -0.00010,   0.00006,  64.00000,   2.00000
-512288364.22852,-416665933.16818,30832186.52936,  -0.00171,  -0.00100,   0.00046,477138112.00000,   0.00018,274840000.00000,  -0.00019,  -0.00010,   0.00006,  64.00000,   2.00000
-512368947.32872,-416612168.52034,30699349.25342,  -0.00172,  -0.00100,   0.00046,477116864.00000,   0.00019,274847712.00000,  -0.00020,  -0.00011,   0.00006,   0.00000,   2.00000
-512451835.26463,-416555887.13577,30562325.89972,  -0.00173,  -0.00101,   0.00046,477135168.00000,   0.00020,274855424.00000,  -0.00021,  -0.00011,   0.00007, -32.00000,   2.00000
-512533448.81933,-416499882.50686,30428464.71462,  -0.00173,  -0.00101,   0.00046,477111328.00000,   0.00020,274863072.00000,  -0.00022,  -0.00011,   0.00007, -64.00000,   2.00000
-512620000.91578,-416433840.72988,30295151.41031,  -0.00174,  -0.00101,   0.00046,477121664.00000,   0.00021,274870688.00000,  -0.00022,  -0.00012,   0.00007,  96.00000,   2.00000
-512704584.87162,-416372130.00595,30159362.56318,  -0.00175,  -0.00102,   0.00046,477117216.00000,   0.00022,274878304.00000,  -0.00023,  -0.00012,   0.00007,  64.00000,   2.00000
-512790617.49639,-416307775.52423,30021764.48186,  -0.00176,  -0.00102,   0.00047,477103872.00000,   0.00022,274885824.00000,  -0.00024,  -0.00013,   0.00008, -32.00000,   2.00000
-512875288.32459,-416243162.55623,29888973.98264,  -0.00177,  -0.00102,   0.00047,477112256.00000,   0.00023,274893344.00000,  -0.00024,  -0.00013,   0.00008, -32.00000,   2.00000
-512967012.81794,-416165637.98710,29754158.46419,  -0.00177,  -0.00103,   0.00047,477101440.00000,   0.00024,274900800.00000,  -0.00025,  -0.00013,   0.00008,   0.00000,   2.00000
-513056761.63058,-416092490.60278,29616843.75631,  -0.00178,  -0.00103,   0.00047,477096864.00000,   0.00024,274908224.00000,  -0.00026,  -0.00014,   0.00008,  32.00000,   2.00000
-513143753.54081,-416023068.53803,29481094.51885,  -0.00179,  -0.00103,   0.00047,477092992.00000,   0.00025,274915616.00000,  -0.00027,  -0.00014,   0.00008, -32.00000,   2.00000
-513237115.88903,-415940201.05974,29347371.04640,  -0.00180,  -0.00104,   0.00047,477082720.00000,   0.00026,274922912.00000,  -0.00027,  -0.00015,   0.00009,  96.00000,   2.00000
-513330407.04363,-415858191.76146,29210279.13065,  -0.00181,  -0.00104,   0.00047,477089504.00000,   0.00026,274930240.00000,  -0.00028,  -0.00015,   0.00009,   0.00000,   2.00000
-513424460.27124,-415773066.05890,29075378.40276,  -0.00181,  -0.00104,   0.00047,477076640.00000,   0.00027,274937504.00000,  -0.00029,  -0.00015,   0.00009, -64.00000,   2.00000
-513517959.82454,-415688428.97532,28941190.11677,  -0.00182,  -0.00105,   0.00047,477084064.00000,   0.00028,274944736.00000,  -0.00029,  -0.00016,   0.00009,  96.00000,   2.00000
-513616178.80253,-415594114.11390,28805712.49953,  -0.00183,  -0.00105,   0.00047,477061760.00000,   0.00028,274951904.00000,  -0.00030,  -0.00016,   0.00009,   0.00000,   2.00000
-513713759.32404,-415500276.17949,28670936.79906,  -0.00184,  -0.00105,   0.00047,477069024.00000,   0.00029,274959040.00000,  -0.00031,  -0.00016,   0.00010,   0.00000,   2.00000
-513809485.04114,-415410940.20410,28533606.73280,  -0.00184,  -0.00106,   0.00047,477064032.00000,   0.00030,274966176.00000,  -0.00032,  -0.00017,   0.00010,  96.00000,   2.00000
-513910440.53075,-415307325.59871,28402284.13110,  -0.00185,  -0.00106,   0.00047,477054464.00000,   0.00030,274973216.00000,  -0.00032,  -0.00017,   0.00010,  32.00000,   2.00000
-514012316.44078,-415205439.55972,28263504.54947,  -0.00186,  -0.00106,   0.00047,477060160.00000,   0.00031,274980256.00000,  -0.00033,  -0.00017,   0.00010,  64.00000,   2.00000
-514112018.05110,-415103158.11992,28131705.11726,  -0.00187,  -0.00106,   0.00047,477036416.00000,   0.00032,274987232.00000,  -0.00034,  -0.00018,   0.00010,  32.00000,   2.00000
-514213899.31738,-414998597.15618,27995710.52741,  -0.00187,  -0.00107,   0.00047,477054240.00000,   0.00032,274994208.00000,  -0.00034,  -0.00018,   0.00011, 128.00000,   2.00000
-514320532.73888,-414884380.89165,27858340.61868,  -0.00188,  -0.00107,   0.00047,477031712.00000,   0.00033,275001088.00000,  -0.00035,  -0.00018,   0.00011,  32.00000,   2.00000
-514423565.02944,-414773385.00539,27726498.88967,  -0.00189,  -0.00107,   0.00047,477028032.00000,   0.00034,275007936.00000,  -0.00036,  -0.00019,   0.00011, -96.00000,   2.00000
-514530205.85860,-414656551.98321,27591854.78310,  -0.00190,  -0.00107,   0.00047,477025376.00000,   0.00034,275014752.00000,  -0.00036,  -0.00019,   0.00011, -32.00000,   2.00000
-514636891.11252,-414540816.91371,27453804.13138,  -0.00190,  -0.00108,   0.00047,477031680.00000,   0.00035,275021568.00000,  -0.00037,  -0.00020,   0.00011,  32.00000,   2.00000
-514747584.35763,-414414836.34434,27318398.73053,  -0.00191,  -0.00108,   0.00047,477009760.00000,   0.00035,275028288.00000,  -0.00038,  -0.00020,   0.00011,  32.00000,   2.00000
-514855520.06576,-414292747.57471,27184418.17333,  -0.00192,  -0.00108,   0.00047,477005152.00000,   0.00036,275034944.00000,  -0.00038,  -0.00020,   0.00012,  32.00000,   2.00000
-514966018.59841,-414164038.93237,27051667.09051,  -0.00193,  -0.00109,   0.00047,477003264.00000,   0.00037,275041600.00000,  -0.00039,  -0.00021,   0.00012, -64.00000,   2.00000
-515076802.55671,-414036653.88274,26915497.60802,  -0.00193,  -0.00109,   0.00047,477009312.00000,   0.00037,275048256.00000,  -0.00040,  -0.00021,   0.00012,  96.00000,   2.00000
-515191344.32385,-413898805.59122,26781892.10547,  -0.00194,  -0.00109,   0.00047,476987328.00000,   0.00038,275054816.00000,  -0.00040,  -0.00021,   0.00012,   0.00000,   2.00000
-515305984.69964,-413762177.09836,26644851.02772,  -0.00195,  -0.00109,   0.00047,476993312.00000,   0.00038,275061344.00000,  -0.00041,  -0.00021,   0.00012,  96.00000,   2.00000
-515420507.52617,-413621790.90554,26513856.24247,  -0.00195,  -0.00110,   0.00047,476980544.00000,   0.00039,275067840.00000,  -0.00042,  -0.00022,   0.00012,  96.00000,   2.00000
-515537123.32601,-413479334.39364,26376648.70594,  -0.00196,  -0.00110,   0.00047,476965568.00000,   0.00040,275074240.00000,  -0.00042,  -0.00022,   0.00013,   0.00000,   2.00000
-515654199.21349,-413333517.79169,26243399.28298,  -0.00197,  -0.00110,   0.00047,476984352.00000,   0.00040,275080704.00000,  -0.00043,  -0.00022,   0.00013,   0.00000,   2.00000
-515770782.53716,-413188498.31571,26108750.52077,  -0.00198,  -0.00110,   0.00047,476958688.00000,   0.00041,275087040.00000,  -0.00043,  -0.00023,   0.00013,   0.00000,   2.00000
-515889937.74033,-413036893.72331,25975277.03898,  -0.00198,  -0.00110,   0.00047,476956448.00000,   0.00041,275093344.00000,  -0.00044,  -0.00023,   0.00013,  96.00000,   2.00000
-516011658.76050,-412878726.43528,25842967.57857,  -0.00199,  -0.00111,   0.00047,476954240.00000,   0.00042,275099648.00000,  -0.00045,  -0.00023,   0.00013,  96.00000,   2.00000
-516134757.59138,-412717938.19982,25708469.23600,  -0.00200,  -0.00111,   0.00047,476939872.00000,   0.00042,275105856.00000,  -0.00045,  -0.00024,   0.00013,   0.00000,   2.00000
-516256966.94114,-412557673.62939,25574562.10910,  -0.00200,  -0.00111,   0.00047,476946304.00000,   0.00043,275112064.00000,  -0.00046,  -0.00024,   0.00014,   0.00000,   2.00000
-516380604.99693,-412394792.25032,25438453.38372,  -0.00201,  -0.00111,   0.00047,476931840.00000,   0.00044,275118240.00000,  -0.00047,  -0.00024,   0.00014, -64.00000,   2.00000
-516504209.53262,-412228167.26901,25308289.82775,  -0.00202,  -0.00111,   0.00047,476918656.00000,   0.00044,275124320.00000,  -0.00047,  -0.00025,   0.00014, -32.00000,   2.00000
-516631130.18350,-412055547.91019,25175161.15619,  -0.00203,  -0.00112,   0.00047,476915552.00000,   0.00045,275130368.00000,  -0.00048,  -0.00025,   0.00014,  32.00000,   2.00000
-516757823.60301,-411883979.54195,25038520.08454,  -0.00203,  -0.00112,   0.00047,476921312.00000,   0.00045,275136416.00000,  -0.00048,  -0.00025,   0.00014,   0.00000,   2.00000
-516884568.26653,-411708713.60399,24907800.27201,  -0.00204,  -0.00112,   0.00047,476908032.00000,   0.00046,275142400.00000,  -0.00049,  -0.00025,   0.00014,  64.00000,   2.00000
-517014422.99392,-411527297.99770,24774085.85350,  -0.00205,  -0.00112,   0.00047,476904928.00000,   0.00046,275148352.00000,  -0.00050,  -0.00026,   0.00014, -32.00000,   2.00000
-517145003.36588,-411342697.19260,24642176.37353,  -0.00205,  -0.00112,   0.00047,476890816.00000,   0.00047,275154240.00000,  -0.00050,  -0.00026,   0.00015,  32.00000,   2.00000
-517276951.36381,-411155382.57725,24507967.39449,  -0.00206,  -0.00113,   0.00047,476876192.00000,   0.00047,275160064.00000,  -0.00051,  -0.00026,   0.00015,   0.00000,   2.00000
-517407304.78276,-410968099.53232,24378385.23940,  -0.00207,  -0.00113,   0.00047,476882880.00000,   0.00048,275165856.00000,  -0.00051,  -0.00027,   0.00015,   0.00000,   2.00000
-517544300.16458,-410767585.01141,24246307.94006,  -0.00207,  -0.00113,   0.00046,476870944.00000,   0.00049,275171616.00000,  -0.00052,  -0.00027,   0.00015,  64.00000,   2.00000
-517679148.38311,-410571453.85727,24111365.70626,  -0.00208,  -0.00113,   0.00046,476864928.00000,   0.00049,275177344.00000,  -0.00052,  -0.00027,   0.00015, -64.00000,   2.00000
-517814199.44578,-410371681.22988,23982263.86152,  -0.00209,  -0.00113,   0.00046,476851296.00000,   0.00050,275183008.00000,  -0.00053,  -0.00027,   0.00015, 192.00000,   2.00000
-517948818.39584,-410172834.81849,23849575.71868,  -0.00209,  -0.00113,   0.00046,476856832.00000,   0.00050,275188672.00000,  -0.00054,  -0.00028,   0.00015,  64.00000,   2.00000
-518089330.53869,-409960149.36151,23718441.01039,  -0.00210,  -0.00114,   0.00046,476845216.00000,   0.00051,275194240.00000,  -0.00054,  -0.00028,   0.00015, -32.00000,   2.00000
-518225371.00231,-409754747.38445,23589170.19268,  -0.00211,  -0.00114,   0.00046,476828032.00000,   0.00051,275199776.00000,  -0.00055,  -0.00028,   0.00016,  64.00000,   2.00000
-518366236.80852,-409539776.64488,23456139.07889,  -0.00211,  -0.00114,   0.00046,476836096.00000,   0.00052,275205312.00000,  -0.00055,  -0.00029,   0.00016,   0.00000,   2.00000
-518507935.24604,-409321598.54389,23324800.03094,  -0.00212,  -0.00114,   0.00046,476821568.00000,   0.00052,275210752.00000,  -0.00056,  -0.00029,   0.00016,   0.00000,   2.00000
-518650267.45124,-409100043.99096,23195122.13979,  -0.00213,  -0.00114,   0.00046,476807296.00000,   0.00053,275216160.00000,  -0.00056,  -0.00029,   0.00016,  32.00000,   2.00000
-518795610.84375,-408872242.58385,23062334.42649,  -0.00213,  -0.00114,   0.00046,476803840.00000,   0.00053,275221536.00000,  -0.00057,  -0.00029,   0.00016,   0.00000,   2.00000
-518937662.04668,-408647900.42042,22934783.54638,  -0.00214,  -0.00114,   0.00046,476798496.00000,   0.00054,275226848.00000,  -0.00057,  -0.00030,   0.00016,   0.00000,   2.00000
-519082813.62839,-408417351.99538,22804105.17710,  -0.00215,  -0.00114,   0.00046,476794848.00000,   0.00054,275232160.00000,  -0.00058,  -0.00030,   0.00016,  32.00000,   2.00000
-519228636.81076,-408183396.68188,22675042.41556,  -0.00215,  -0.00115,   0.00046,476780224.00000,   0.00055,275237376.00000,  -0.00059,  -0.00030,   0.00016,   0.00000,   2.00000
-519377459.71133,-407943162.93850,22542836.20764,  -0.00216,  -0.00115,   0.00046,476776704.00000,   0.00055,275242592.00000,  -0.00059,  -0.00030,   0.00017, -32.00000,   2.00000
-519526370.96107,-407699070.78963,22416318.84359,  -0.00216,  -0.00115,   0.00046,476762528.00000,   0.00056,275247712.00000,  -0.00060,  -0.00031,   0.00017,  64.00000,   2.00000
-519676587.70673,-407452005.93203,22287275.75448,  -0.00217,  -0.00115,   0.00046,476747264.00000,   0.00056,275252800.00000,  -0.00060,  -0.00031,   0.00017,   0.00000,   2.00000
-519825791.88252,-407205485.77406,22158671.38257,  -0.00218,  -0.00115,   0.00046,476752800.00000,   0.00056,275257856.00000,  -0.00061,  -0.00031,   0.00017,  32.00000,   2.00000
-519978130.05653,-406952760.70097,22026898.32690,  -0.00218,  -0.00115,   0.00046,476748960.00000,   0.00057,275262912.00000,  -0.00061,  -0.00031,   0.00017,   0.00000,   2.00000
-520133757.55374,-406688659.16614,21901235.18115,  -0.00219,  -0.00115,   0.00046,476726208.00000,   0.00057,275267872.00000,  -0.00062,  -0.00031,   0.00017,  64.00000,   2.00000
-520287324.23938,-406428884.14642,21772525.08333,  -0.00220,  -0.00115,   0.00045,476719456.00000,   0.00058,275272768.00000,  -0.00062,  -0.00032,   0.00017,  96.00000,   2.00000
-520439931.17613,-406169699.58556,21644237.69797,  -0.00220,  -0.00115,   0.00045,476724704.00000,   0.00058,275277696.00000,  -0.00063,  -0.00032,   0.00017,  32.00000,   2.00000
-520596520.49752,-405899558.71208,21517919.26447,  -0.00221,  -0.00115,   0.00045,476701184.00000,   0.00059,275282496.00000,  -0.00063,  -0.00032,   0.00017,  32.00000,   2.00000
-520756106.49409,-405623095.30939,21388375.18793,  -0.00221,  -0.00115,   0.00045,476697216.00000,   0.00059,275287296.00000,  -0.00064,  -0.00032,   0.00017,   0.00000,   2.00000
-520912466.18728,-405350058.32228,21263952.34195,  -0.00222,  -0.00115,   0.00045,476691520.00000,   0.00060,275292032.00000,  -0.00064,  -0.00033,   0.00018,  96.00000,   2.00000
-521071669.97800,-405070558.50381,21136277.13203,  -0.00223,  -0.00116,   0.00045,476687424.00000,   0.00060,275296768.00000,  -0.00065,  -0.00033,   0.00018,  32.00000,   2.00000
-521231597.13650,-404787492.90049,21010063.56138,  -0.00223,  -0.00116,   0.00045,476672480.00000,   0.00060,275301408.00000,  -0.00065,  -0.00033,   0.00018,   0.00000,   2.00000
-521393746.75800,-404497504.43337,20884681.35446,  -0.00224,  -0.00116,   0.00045,476668992.00000,   0.00061,275306048.00000,  -0.00065,  -0.00033,   0.00018, -32.00000,   2.00000
-521557178.80178,-404204335.40003,20756634.92186,  -0.00224,  -0.00116,   0.00045,476653408.00000,   0.00061,275310592.00000,  -0.00066,  -0.00033,   0.00018,   0.00000,   2.00000
-521720704.16694,-403907085.64464,20634109.49263,  -0.00225,  -0.00116,   0.00045,476638784.00000,   0.00062,275315104.00000,  -0.00066,  -0.00034,   0.00018, -32.00000,   2.00000
-521883862.78998,-403610892.22102,20507849.87911,  -0.00226,  -0.00116,   0.00045,476643264.00000,   0.00062,275319616.00000,  -0.00067,  -0.00034,   0.00018,   0.00000,   2.00000
-522047610.16304,-403310931.90910,20382987.11571,  -0.00226,  -0.00116,   0.00045,476628128.00000,   0.00063,275324032.00000,  -0.00067,  -0.00034,   0.00018,  32.00000,   2.00000
-522217442.30661,-402996920.03193,20255254.54269,  -0.00227,  -0.00116,   0.00045,476615424.00000,   0.00063,275328416.00000,  -0.00068,  -0.00034,   0.00018, -32.00000,   2.00000
-522384045.37067,-402686259.59730,20132566.49786,  -0.00227,  -0.00116,   0.00045,476609184.00000,   0.00063,275332736.00000,  -0.00068,  -0.00034,   0.00018, -32.00000,   2.00000
-522552990.28428,-402368712.73889,20010655.53317,  -0.00228,  -0.00116,   0.00044,476605536.00000,   0.00064,275337056.00000,  -0.00069,  -0.00035,   0.00018,  64.00000,   2.00000
-522723047.08360,-402047720.05437,19885986.25026,  -0.00229,  -0.00116,   0.00044,476589856.00000,   0.00064,275341312.00000,  -0.00069,  -0.00035,   0.00019,  32.00000,   2.00000
-522892221.46468,-401727420.97017,19761664.98869,  -0.00229,  -0.00116,   0.00044,476594592.00000,   0.00065,275345568.00000,  -0.00070,  -0.00035,   0.00019, 128.00000,   2.00000
-523065007.56199,-401395497.99708,19639084.69672,  -0.00230,  -0.00116,   0.00044,476570912.00000,   0.00065,275349728.00000,  -0.00070,  -0.00035,   0.00019,  32.00000,   2.00000
-523235384.18692,-401067456.41105,19517409.39501,  -0.00230,  -0.00116,   0.00044,476563936.00000,   0.00065,275353824.00000,  -0.00070,  -0.00035,   0.00019,   0.00000,   2.00000
-523411670.85679,-400725106.58531,19392780.32181,  -0.00231,  -0.00116,   0.00044,476551232.00000,   0.00066,275357888.00000,  -0.00071,  -0.00036,   0.00019,  64.00000,   2.00000
-523584717.20424,-400386019.07613,19273135.11971,  -0.00231,  -0.00116,   0.00044,476544768.00000,   0.00066,275361920.00000,  -0.00071,  -0.00036,   0.00019,  32.00000,   2.00000
-523760479.37092,-400040250.37062,19150104.80007,  -0.00232,  -0.00116,   0.00044,476540416.00000,   0.00066,275365920.00000,  -0.00072,  -0.00036,   0.00019,   0.00000,   2.00000
-523936897.67486,-399690546.57804,19028352.72189,  -0.00232,  -0.00116,   0.00044,476524896.00000,   0.00067,275369856.00000,  -0.00072,  -0.00036,   0.00019, -64.00000,   2.00000
-524113955.32848,-399336862.22170,18907863.21427,  -0.00233,  -0.00116,   0.00044,476509408.00000,   0.00067,275373728.00000,  -0.00072,  -0.00036,   0.00019,  32.00000,   2.00000
-524293124.71836,-398976027.62190,18788068.45412,  -0.00234,  -0.00116,   0.00044,476505600.00000,   0.00067,275377568.00000,  -0.00073,  -0.00036,   0.00019, 128.00000,   2.00000
-524470154.97249,-398619168.93103,18665007.18976,  -0.00234,  -0.00116,   0.00044,476498016.00000,   0.00068,275381376.00000,  -0.00073,  -0.00037,   0.00019, -32.00000,   2.00000
-524651845.10158,-398246953.41411,18547130.25077,  -0.00235,  -0.00116,   0.00043,476486144.00000,   0.00068,275385120.00000,  -0.00074,  -0.00037,   0.00019, -96.00000,   2.00000
-524831705.37587,-397878911.04693,18425980.01854,  -0.00235,  -0.00116,   0.00043,476478304.00000,   0.00068,275388832.00000,  -0.00074,  -0.00037,   0.00019, -32.00000,   2.00000
-525016108.39283,-397495391.41477,18309987.69898,  -0.00236,  -0.00116,   0.00043,476466528.00000,   0.00069,275392480.00000,  -0.00074,  -0.00037,   0.00020,  64.00000,   2.00000
-525198418.95754,-397115829.50507,18190692.28911,  -0.00236,  -0.00116,   0.00043,476458784.00000,   0.00069,275396096.00000,  -0.00075,  -0.00037,   0.00020,  64.00000,   2.00000
-525381290.55600,-396732044.40204,18072583.78690,  -0.00237,  -0.00115,   0.00043,476443072.00000,   0.00069,275399680.00000,  -0.00075,  -0.00037,   0.00020, -32.00000,   2.00000
-525566351.43724,-396341071.41707,17955126.12267,  -0.00237,  -0.00115,   0.00043,476438976.00000,   0.00070,275403200.00000,  -0.00075,  -0.00038,   0.00020,  64.00000,   2.00000
-525753641.49236,-395942940.17579,17834189.44311,  -0.00238,  -0.00115,   0.00043,476434592.00000,   0.00070,275406688.00000,  -0.00076,  -0.00038,   0.00020, -64.00000,   2.00000
-525939703.52791,-395543305.55229,17719052.37505,  -0.00238,  -0.00115,   0.00043,476407488.00000,   0.00070,275410112.00000,  -0.00076,  -0.00038,   0.00020, -32.00000,   2.00000
-526124583.02103,-395144106.69030,17604158.17427,  -0.00239,  -0.00115,   0.00043,476411680.00000,   0.00071,275413504.00000,  -0.00077,  -0.00038,   0.00020, -32.00000,   2.00000
-526315014.63419,-394729970.07882,17486139.32787,  -0.00239,  -0.00115,   0.00043,476398784.00000,   0.00071,275416864.00000,  -0.00077,  -0.00038,   0.00020,   0.00000,   2.00000
-526503061.94786,-394319445.77085,17368889.37315,  -0.00240,  -0.00115,   0.00043,476391296.00000,   0.00071,275420160.00000,  -0.00077,  -0.00038,   0.00020,  96.00000,   2.00000
-526694473.45434,-393896379.16577,17253109.97416,  -0.00240,  -0.00115,   0.00042,476367232.00000,   0.00072,275423392.00000,  -0.00078,  -0.00038,   0.00020,  32.00000,   2.00000
-526884647.25609,-393473700.98825,17137560.52709,  -0.00241,  -0.00115,   0.00042,476371200.00000,   0.00072,275426624.00000,  -0.00078,  -0.00039,   0.00020,   0.00000,   2.00000
-527075477.44387,-393046595.66001,17023111.81845,  -0.00241,  -0.00115,   0.00042,476355136.00000,   0.00072,275429760.00000,  -0.00078,  -0.00039,   0.00020,   0.00000,   2.00000
-527266937.31598,-392615002.41360,16909749.45131,  -0.00242,  -0.00115,   0.00042,476339168.00000,   0.00073,275432864.00000,  -0.00079,  -0.00039,   0.00020,  96.00000,   2.00000
-527460012.89855,-392175649.64489,16796947.78409,  -0.00242,  -0.00114,   0.00042,476334944.00000,   0.00073,275435936.00000,  -0.00079,  -0.00039,   0.00020,   0.00000,   2.00000
-527654956.94671,-391728712.00168,16684711.76864,  -0.00243,  -0.00114,   0.00042,476330560.00000,   0.00073,275438976.00000,  -0.00079,  -0.00039,   0.00020, -32.00000,   2.00000
-527849722.48025,-391280525.08265,16569918.49994,  -0.00243,  -0.00114,   0.00042,476302272.00000,   0.00073,275441920.00000,  -0.00080,  -0.00039,   0.00020, 128.00000,   2.00000
-528045506.59932,-390824104.98633,16459776.62782,  -0.00244,  -0.00114,   0.00042,476298464.00000,   0.00074,275444832.00000,  -0.00080,  -0.00039,   0.00020, -64.00000,   2.00000
-528243672.72491,-390360397.11584,16346069.07579,  -0.00244,  -0.00114,   0.00042,476293504.00000,   0.00074,275447712.00000,  -0.00080,  -0.00039,   0.00020, -32.00000,   2.00000
-528438831.38469,-389899639.75733,16237159.92041,  -0.00245,  -0.00114,   0.00042,476285984.00000,   0.00074,275450592.00000,  -0.00080,  -0.00039,   0.00020, -96.00000,   2.00000
-528637985.71801,-389426319.88778,16125487.26478,  -0.00245,  -0.00114,   0.00041,476261152.00000,   0.00074,275453344.00000,  -0.00081,  -0.00040,   0.00021,  32.00000,   2.00000
-528835778.31529,-388953229.40800,16014001.12853,  -0.00246,  -0.00114,   0.00041,476264960.00000,   0.00075,275456096.00000,  -0.00081,  -0.00040,   0.00021,  64.00000,   2.00000
-529033969.27308,-388475179.74862,15903509.49687,  -0.00246,  -0.00113,   0.00041,476248672.00000,   0.00075,275458816.00000,  -0.00081,  -0.00040,   0.00021,  32.00000,   2.00000
-529235568.05312,-387984010.98299,15794329.44673,  -0.00247,  -0.00113,   0.00041,476224064.00000,   0.00075,275461408.00000,  -0.00082,  -0.00040,   0.00021, -32.00000,   2.00000
-529435842.69609,-387493070.97604,15685322.58980,  -0.00247,  -0.00113,   0.00041,476227680.00000,   0.00075,275464032.00000,  -0.00082,  -0.00040,   0.00021, -32.00000,   2.00000
-529636639.14919,-386997141.59552,15577282.82507,  -0.00248,  -0.00113,   0.00041,476211296.00000,   0.00076,275466592.00000,  -0.00082,  -0.00040,   0.00021,   0.00000,   2.00000
-529838903.57505,-386493124.50159,15469725.59670,  -0.00248,  -0.00113,   0.00041,476206784.00000,   0.00076,275469120.00000,  -0.00082,  -0.00040,   0.00021,  32.00000,   2.00000
-530041555.53576,-385983955.62126,15363111.25594,  -0.00249,  -0.00113,   0.00041,476190304.00000,   0.00076,275471552.00000,  -0.00083,  -0.00040,   0.00021,  32.00000,   2.00000
-530245140.24711,-385469958.99091,15253317.93631,  -0.00249,  -0.00112,   0.00041,476173376.00000,   0.00076,275473952.00000,  -0.00083,  -0.00040,   0.00021,  64.00000,   2.00000
-530446893.18835,-384955801.42670,15147797.38859,  -0.00249,  -0.00112,   0.00041,476177344.00000,   0.00077,275476352.00000,  -0.00083,  -0.00040,   0.00021,  96.00000,   2.00000
-530651745.57397,-384427961.94189,15043494.05067,  -0.00250,  -0.00112,   0.00040,476152736.00000,   0.00077,275478688.00000,  -0.00083,  -0.00041,   0.00021,   0.00000,   2.00000
-530858468.89457,-383892206.13523,14935524.86268,  -0.00250,  -0.00112,   0.00040,476147552.00000,   0.00077,275480960.00000,  -0.00084,  -0.00041,   0.00021, -32.00000,   2.00000
-531061268.17011,-383362031.02328,14832716.54481,  -0.00251,  -0.00112,   0.00040,476127424.00000,   0.00077,275483168.00000,  -0.00084,  -0.00041,   0.00021, -32.00000,   2.00000
-531269850.41737,-382812680.43355,14726084.07094,  -0.00251,  -0.00111,   0.00040,476126144.00000,   0.00077,275485376.00000,  -0.00084,  -0.00041,   0.00021,  64.00000,   2.00000
-531474197.69805,-382268613.41126,14624581.50165,  -0.00252,  -0.00111,   0.00040,476106080.00000,   0.00078,275487488.00000,  -0.00084,  -0.00041,   0.00021, -64.00000,   2.00000
-531683352.09304,-381708203.93783,14519685.24224,  -0.00252,  -0.00111,   0.00040,476092736.00000,   0.00078,275489568.00000,  -0.00085,  -0.00041,   0.00021,   0.00000,   2.00000
-531890416.90977,-381147412.38243,14419026.56402,  -0.00252,  -0.00111,   0.00040,476096480.00000,   0.00078,275491648.00000,  -0.00085,  -0.00041,   0.00021, -96.00000,   2.00000
-532097173.54489,-380584071.71384,14315527.47396,  -0.00253,  -0.00111,   0.00040,476067296.00000,   0.00078,275493600.00000,  -0.00085,  -0.00041,   0.00021, -32.00000,   2.00000
-532306317.92390,-380009526.90257,14212006.92749,  -0.00253,  -0.00110,   0.00040,476074464.00000,   0.00078,275495584.00000,  -0.00085,  -0.00041,   0.00021,  64.00000,   2.00000
-532514526.99059,-379431890.58859,14109736.02711,  -0.00254,  -0.00110,   0.00040,476045760.00000,   0.00079,275497472.00000,  -0.00085,  -0.00041,   0.00021, 128.00000,   2.00000
-532723480.00202,-378845363.95060,14011971.53484,  -0.00254,  -0.00110,   0.00039,476041312.00000,   0.00079,275499360.00000,  -0.00086,  -0.00041,   0.00021, -64.00000,   2.00000
-532933164.76133,-378253315.87264,13910893.26587,  -0.00255,  -0.00110,   0.00039,476024128.00000,   0.00079,275501152.00000,  -0.00086,  -0.00041,   0.00021,  32.00000,   2.00000
-533143851.82685,-377652505.95687,13810187.51893,  -0.00255,  -0.00109,   0.00039,476019232.00000,   0.00079,275502912.00000,  -0.00086,  -0.00041,   0.00021, 128.00000,   2.00000
-533354600.48771,-377045642.30989,13710264.68688,  -0.00255,  -0.00109,   0.00039,476002400.00000,   0.00079,275504640.00000,  -0.00086,  -0.00042,   0.00021, -96.00000,   2.00000
-533565494.83668,-376432722.51238,13611116.07438,  -0.00256,  -0.00109,   0.00039,475985472.00000,   0.00079,275506304.00000,  -0.00086,  -0.00042,   0.00021,  32.00000,   2.00000
-533777046.28334,-375810732.10199,13516441.72222,  -0.00256,  -0.00109,   0.00039,475980928.00000,   0.00079,275507936.00000,  -0.00087,  -0.00042,   0.00021,  96.00000,   2.00000
-533986274.36315,-375191380.88959,13418128.52128,  -0.00256,  -0.00108,   0.00039,475971488.00000,   0.00080,275509504.00000,  -0.00087,  -0.00042,   0.00021,  32.00000,   2.00000
-534198242.26707,-374557101.92526,13320823.39364,  -0.00257,  -0.00108,   0.00039,475946592.00000,   0.00080,275511008.00000,  -0.00087,  -0.00042,   0.00021,  64.00000,   2.00000
-534408498.22032,-373922549.11108,13223590.96938,  -0.00257,  -0.00108,   0.00039,475949600.00000,   0.00080,275512544.00000,  -0.00087,  -0.00042,   0.00021,  32.00000,   2.00000
-534621231.59775,-373272769.76957,13127336.39935,  -0.00258,  -0.00107,   0.00038,475924832.00000,   0.00080,275513952.00000,  -0.00087,  -0.00042,   0.00021, -96.00000,   2.00000
-534831459.48445,-372625348.50554,13031542.43734,  -0.00258,  -0.00107,   0.00038,475915520.00000,   0.00080,275515328.00000,  -0.00087,  -0.00042,   0.00021,  64.00000,   2.00000
-535042488.73664,-371968775.66967,12936060.86635,  -0.00258,  -0.00107,   0.00038,475910656.00000,   0.00080,275516704.00000,  -0.00087,  -0.00042,   0.00021, 192.00000,   2.00000
-535255390.29547,-371296372.90008,12845637.01668,  -0.00259,  -0.00107,   0.00038,475886304.00000,   0.00080,275517984.00000,  -0.00088,  -0.00042,   0.00021,   0.00000,   2.00000
-535466959.50040,-370623868.39763,12751142.08171,  -0.00259,  -0.00106,   0.00038,475888576.00000,   0.00081,275519264.00000,  -0.00088,  -0.00042,   0.00021, -32.00000,   2.00000
-535678315.85636,-369944555.02836,12657320.22033,  -0.00259,  -0.00106,   0.00038,475871552.00000,   0.00081,275520480.00000,  -0.00088,  -0.00042,   0.00021, -96.00000,   2.00000
-535889583.78841,-369258444.08406,12564164.20146,  -0.00260,  -0.00106,   0.00038,475854624.00000,   0.00081,275521632.00000,  -0.00088,  -0.00042,   0.00021,   0.00000,   2.00000
-536101290.69919,-368562790.05950,12471281.81308,  -0.00260,  -0.00105,   0.00038,475849600.00000,   0.00081,275522752.00000,  -0.00088,  -0.00042,   0.00021, -32.00000,   2.00000
-536312898.51611,-367860219.10103,12379047.67025,  -0.00261,  -0.00105,   0.00038,475832576.00000,   0.00081,275523840.00000,  -0.00088,  -0.00042,   0.00021, -32.00000,   2.00000
-536524132.69555,-367150485.23709,12287443.96246,  -0.00261,  -0.00105,   0.00037,475815584.00000,   0.00081,275524832.00000,  -0.00088,  -0.00042,   0.00022, -64.00000,   2.00000
-536733663.17247,-366432676.79380,12200558.22920,  -0.00261,  -0.00104,   0.00037,475798720.00000,   0.00081,275525792.00000,  -0.00088,  -0.00042,   0.00022,-928.00000,   1.00000
-536945016.34982,-365706042.39988,12109822.74333,  -0.00262,  -0.00104,   0.00037,475792512.00000,   0.00081,275526720.00000,  -0.00089,  -0.00042,   0.00022,-864.00000,   1.00000
-537156776.89319,-364969669.43419,12019332.54363,  -0.00262,  -0.00104,   0.00037,475787520.00000,   0.00081,275527648.00000,  -0.00089,  -0.00042,   0.00022,-960.00000,   1.00000
-537367559.02492,-364228362.96713,11929799.17367,  -0.00262,  -0.00103,   0.00037,475758336.00000,   0.00081,275528448.00000,  -0.00089,  -0.00042,   0.00022,-768.00000,   1.00000
-537575604.04087,-363485861.81416,11844390.72974,  -0.00263,  -0.00103,   0.00037,475761440.00000,   0.00081,275529248.00000,  -0.00089,  -0.00042,   0.00022,-768.00000,   1.00000
-537786778.84195,-362724591.09970,11755304.53998,  -0.00263,  -0.00102,   0.00037,475748512.00000,   0.00082,275530016.00000,  -0.00089,  -0.00042,   0.00022,-832.00000,   1.00000
-537994446.00556,-361967165.12883,11666918.94187,  -0.00263,  -0.00102,   0.00037,475726880.00000,   0.00082,275530720.00000,  -0.00089,  -0.00042,   0.00022,-672.00000,   1.00000
-538204251.53596,-361190219.17773,11583083.35330,  -0.00263,  -0.00102,   0.00037,475714752.00000,   0.00082,275531360.00000,  -0.00089,  -0.00042,   0.00022,-640.00000,   1.00000
-538412140.16649,-360412514.33688,11495112.89523,  -0.00264,  -0.00101,   0.00037,475716992.00000,   0.00082,275532000.00000,  -0.00089,  -0.00042,   0.00022,-544.00000,   1.00000
-538621228.28280,-359619983.98197,11408236.22441,  -0.00264,  -0.00101,   0.00036,475680288.00000,   0.00082,275532512.00000,  -0.00089,  -0.00042,   0.00022,-512.00000,   1.00000
-538827501.41443,-358826075.26966,11325464.36487,  -0.00264,  -0.00101,   0.00036,475683200.00000,   0.00082,275533056.00000,  -0.00089,  -0.00042,   0.00022,-576.00000,   1.00000
-539036508.31438,-358012794.77181,11238960.87243,  -0.00265,  -0.00100,   0.00036,475670432.00000,   0.00082,275533536.00000,  -0.00089,  -0.00042,   0.00022,-512.00000,   1.00000
-539241746.04192,-357202718.76688,11157229.02712,  -0.00265,  -0.00100,   0.00036,475648832.00000,   0.00082,275533952.00000,  -0.00089,  -0.00042,   0.00022,-384.00000,   1.00000
-539446543.88146,-356381925.91406,11075662.27853,  -0.00265,  -0.00099,   0.00036,475644160.00000,   0.00082,275534336.00000,  -0.00089,  -0.00042,   0.00022,-480.00000,   1.00000
-539651822.03237,-355550949.23072,10990144.72157,  -0.00266,  -0.00099,   0.00036,475638656.00000,   0.00082,275534688.00000,  -0.00089,  -0.00042,   0.00022,-320.00000,   1.00000
-539855419.80048,-354713456.34727,10909566.06189,  -0.00266,  -0.00099,   0.00036,475609728.00000,   0.00082,275534944.00000,  -0.00089,  -0.00042,   0.00022,-224.00000,   1.00000
-540060758.34618,-353855666.70399,10829331.25739,  -0.00266,  -0.00098,   0.00036,475597600.00000,   0.00082,275535168.00000,  -0.00089,  -0.00042,   0.00022,-224.00000,   1.00000
-540264011.63136,-352996783.07976,10744929.05765,  -0.00266,  -0.00098,   0.00036,475599616.00000,   0.00082,275535392.00000,  -0.00089,  -0.00042,   0.00022,-224.00000,   1.00000
-540465500.95149,-352131030.41529,10665431.78097,  -0.00267,  -0.00097,   0.00035,475570688.00000,   0.00082,275535520.00000,  -0.00089,  -0.00042,   0.00022,-192.00000,   1.00000
-540666751.51647,-351254422.44003,10586076.38161,  -0.00267,  -0.00097,   0.00035,475565600.00000,   0.00082,275535648.00000,  -0.00090,  -0.00042,   0.00022,-128.00000,   1.00000
-540865416.40891,-350376360.20625,10506671.10735,  -0.00267,  -0.00096,   0.00035,475567968.00000,   0.00082,275535744.00000,  -0.00090,  -0.00042,   0.00022,-128.00000,   1.00000
-541059810.21560,-349478839.86470,10428086.37698,  -0.00268,  -0.00096,   0.00035,475531424.00000,   0.00082,275535744.00000,  -0.00090,  -0.00042,   0.00022,-4320.00000,   0.00000
-541247999.96464,-348566843.38860,10349501.64661,  -0.00268,  -0.00096,   0.00035,475522336.00000,   0.00082,275535744.00000,  -0.00090,  -0.00042,   0.00022,-13408.00000,   0.00000
-541429985.65601,-347640370.77797,10270916.91625,  -0.00268,  -0.00095,   0.00035,475508320.00000,   0.00082,275535744.00000,  -0.00090,  -0.00042,   0.00022,-27424.00000,   0.00000
-541583019.07831,-346701490.05201,10192332.18588,  -0.00268,  -0.00095,   0.00035,475472096.00000,   0.00082,275535744.00000,  -0.00090,  -0.00042,   0.00022,-63648.00000,   0.00000
-541723644.38528,-345733657.05697,10117883.49396,  -0.00269,  -0.00094,   0.00035,475424192.00000,   0.00082,275535744.00000,  -0.00090,  -0.00042,   0.00022,-111552.00000,   0.00000
-541843589.50005,-344745143.86973,10039298.76359,  -0.00269,  -0.00094,   0.00035,475359200.00000,   0.00082,275535744.00000,  -0.00090,  -0.00042,   0.00022,-176544.00000,   0.00000
-541963534.61482,-343756630.68249,9960714.03322,  -0.00269,  -0.00093,   0.00035,475296512.00000,   0.00082,275535744.00000,  -0.00090,  -0.00042,   0.00022,-239232.00000,   0.00000
-542056595.47972,-342732961.16850,9886265.34130,  -0.00269,  -0.00093,   0.00034,475210112.00000,   0.00082,275535744.00000,  -0.00090,  -0.00042,   0.00022,-325632.00000,   0.00000
-542135180.21009,-341703087.59686,9807680.61093,  -0.00270,  -0.00092,   0.00034,475113824.00000,   0.00082,275535744.00000,  -0.00090,  -0.00042,   0.00022,-421920.00000,   0.00000
-542201356.82514,-340644261.75613,9733231.91900,  -0.00270,  -0.00092,   0.00034,475006272.00000,   0.00082,275535744.00000,  -0.00090,  -0.00042,   0.00022,-529472.00000,   0.00000
-542238581.17110,-339573027.80008,9654647.18864,  -0.00270,  -0.00091,   0.00034,474876512.00000,   0.00082,275535744.00000,  -0.00090,  -0.00042,   0.00022,-659232.00000,   0.00000
-542269601.45940,-338487317.70949,9580198.49671,  -0.00270,  -0.00091,   0.00034,474742592.00000,   0.00082,275535744.00000,  -0.00090,  -0.00042,   0.00022,-793152.00000,   0.00000
-542294417.69004,-337387131.48436,9505749.80478,  -0.00270,  -0.00090,   0.00034,474604256.00000,   0.00082,275535744.00000,  -0.00090,  -0.00042,   0.00022,-931488.00000,   0.00000
-542292349.67082,-336251788.93249,9427165.07442,  -0.00271,  -0.00090,   0.00034,474442176.00000,   0.00082,275535744.00000,  -0.00090,  -0.00042,   0.00022,-1093568.00000,   0.00000
-542275805.51706,-335110242.32295,9352716.38249,  -0.00271,  -0.00089,   0.00034,474270656.00000,   0.00082,275535744.00000,  -0.00090,  -0.00042,   0.00022,-1265088.00000,   0.00000
-542238581.17110,-333948015.52122,9278267.69057,  -0.00271,  -0.00089,   0.00034,474082656.00000,   0.00082,275535744.00000,  -0.00090,  -0.00042,   0.00022,-1453088.00000,   0.00000
-542195152.76748,-332771312.58494,9203818.99864,  -0.00271,  -0.00088,   0.00034,473890176.00000,   0.00082,275535744.00000,  -0.00090,  -0.00042,   0.00022,-1645568.00000,   0.00000
-542131044.17165,-331573929.45646,9133506.34515,  -0.00272,  -0.00088,   0.00033,473681056.00000,   0.00082,275535744.00000,  -0.00090,  -0.00042,   0.00022,-1854688.00000,   0.00000
-542046255.38362,-330355866.13578,9059057.65323,  -0.00272,  -0.00087,   0.00033,473454752.00000,   0.00082,275535744.00000,  -0.00090,  -0.00042,   0.00022,-2080992.00000,   0.00000
-541955262.53794,-329123326.68056,8984608.96130,  -0.00272,  -0.00087,   0.00033,473223680.00000,   0.00082,275535744.00000,  -0.00090,  -0.00042,   0.00022,-2312064.00000,   0.00000
-541843589.50005,-327870107.03314,8910160.26938,  -0.00272,  -0.00086,   0.00033,472975008.00000,   0.00082,275535744.00000,  -0.00090,  -0.00042,   0.00022,-2560736.00000,   0.00000
-541717440.32762,-326610683.32805,8839847.61589,  -0.00272,  -0.00085,   0.00033,472715584.00000,   0.00082,275535744.00000,  -0.00090,  -0.00042,   0.00022,-2820160.00000,   0.00000
-541564406.90532,-325316103.29623,8765398.92396,  -0.00272,  -0.00085,   0.00033,472431424.00000,   0.00082,275535744.00000,  -0.00090,  -0.00042,   0.00022,-3104320.00000,   0.00000
-541405169.42537,-324007047.12986,8695086.27048,  -0.00273,  -0.00084,   0.00033,472142720.00000,   0.00082,275535744.00000,  -0.00090,  -0.00042,   0.00022,-3393024.00000,   0.00000
-541225251.75322,-322677310.77129,8624773.61699,  -0.00273,  -0.00084,   0.00033,471838656.00000,   0.00082,275535744.00000,  -0.00090,  -0.00042,   0.00022,-3697088.00000,   0.00000
-541045334.08106,-321347574.41272,8550324.92507,  -0.00273,  -0.00083,   0.00033,471540992.00000,   0.00082,275535744.00000,  -0.00090,  -0.00042,   0.00022,-3994752.00000,   0.00000
-540824056.02450,-319976477.66975,8480012.27158,  -0.00273,  -0.00083,   0.00033,471216352.00000,   0.00082,275535744.00000,  -0.00090,  -0.00042,   0.00022,-4319392.00000,   0.00000
-540602777.96794,-318605380.92677,8409699.61809,  -0.00273,  -0.00082,   0.00033,470903584.00000,   0.00082,275535744.00000,  -0.00090,  -0.00042,   0.00022,-4632160.00000,   0.00000
-540375295.85373,-317219808.04926,8339386.96461,  -0.00274,  -0.00081,   0.00032,470592416.00000,   0.00082,275535744.00000,  -0.00090,  -0.00042,   0.00022,-4943328.00000,   0.00000
-540106453.35510,-315792874.78734,8269074.31112,  -0.00274,  -0.00081,   0.00032,470243936.00000,   0.00082,275535744.00000,  -0.00090,  -0.00042,   0.00022,-5291808.00000,   0.00000
-539837610.85648,-314365941.52542,8202897.69608,  -0.00274,  -0.00080,   0.00032,469888736.00000,   0.00082,275535744.00000,  -0.00090,  -0.00042,   0.00022,-5647008.00000,   0.00000
-539548088.16566,-312918328.07130,8132585.04259,  -0.00274,  -0.00080,   0.00032,469508032.00000,   0.00082,275535744.00000,  -0.00090,  -0.00042,   0.00022,-6027712.00000,   0.00000
-539246157.35951,-311441762.34810,8062272.38911,  -0.00274,  -0.00079,   0.00032,469113920.00000,   0.00082,275535744.00000,  -0.00090,  -0.00042,   0.00022,-6421824.00000,   0.00000
-538929750.41883,-309958992.56724,7996095.77406,  -0.00274,  -0.00078,   0.00032,468712352.00000,   0.00082,275535744.00000,  -0.00090,  -0.00042,   0.00022,-6823392.00000,   0.00000
-538592663.28594,-308455542.59417,7925783.12057,  -0.00274,  -0.00078,   0.00032,468299936.00000,   0.00082,275535744.00000,  -0.00090,  -0.00042,   0.00022,-7235808.00000,   0.00000
-538234895.96085,-306931412.42891,7859606.50553,  -0.00275,  -0.00077,   0.00032,467877376.00000,   0.00082,275535744.00000,  -0.00090,  -0.00042,   0.00022,-7658368.00000,   0.00000
-537870924.57810,-305392806.12910,7793429.89048,  -0.00275,  -0.00077,   0.00032,467455744.00000,   0.00082,275535744.00000,  -0.00090,  -0.00042,   0.00022,-8080000.00000,   0.00000
-537486273.00315,-303833519.63709,7727253.27544,  -0.00275,  -0.00076,   0.00032,467020992.00000,   0.00082,275535744.00000,  -0.00090,  -0.00042,   0.00022,-8514752.00000,   0.00000
-537087145.29365,-302268029.08742,7661076.66039,  -0.00275,  -0.00075,   0.00032,466577600.00000,   0.00082,275535744.00000,  -0.00090,  -0.00042,   0.00022,-8958144.00000,   0.00000
-536661133.33430,-300667382.21101,7594900.04535,  -0.00275,  -0.00075,   0.00031,466111680.00000,   0.00082,275535744.00000,  -0.00090,  -0.00042,   0.00022,-9424064.00000,   0.00000
-536228917.31728,-299052259.20006,7528723.43030,  -0.00275,  -0.00074,   0.00031,465640992.00000,   0.00082,275535744.00000,  -0.00090,  -0.00042,   0.00022,-9894752.00000,   0.00000
-535782225.16573,-297430932.13145,7462546.81526,  -0.00275,  -0.00073,   0.00031,465158848.00000,   0.00082,275535744.00000,  -0.00090,  -0.00042,   0.00022,-10376896.00000,   0.00000
-535323124.89885,-295780652.79375,7396370.20021,  -0.00275,  -0.00073,   0.00031,464665568.00000,   0.00082,275535744.00000,  -0.00090,  -0.00042,   0.00022,-10870176.00000,   0.00000
-534835072.36289,-294117965.34073,7334329.62361,  -0.00276,  -0.00072,   0.00031,464149536.00000,   0.00082,275535744.00000,  -0.00090,  -0.00042,   0.00022,-11386208.00000,   0.00000
-534334611.71161,-292426325.61863,7268153.00856,  -0.00276,  -0.00071,   0.00031,463624064.00000,   0.00082,275535744.00000,  -0.00090,  -0.00042,   0.00022,-11911680.00000,   0.00000
-533819674.92578,-290728481.83887,7206112.43196,  -0.00276,  -0.00071,   0.00031,463089696.00000,   0.00082,275535744.00000,  -0.00090,  -0.00042,   0.00022,-12446048.00000,   0.00000
-533298534.08230,-289016161.92457,7144071.85535,  -0.00276,  -0.00070,   0.00031,462553632.00000,   0.00082,275535744.00000,  -0.00090,  -0.00042,   0.00022,-12982112.00000,   0.00000
-532750508.98896,-287268685.68353,7082031.27874,  -0.00276,  -0.00069,   0.00031,461997568.00000,   0.00082,275535744.00000,  -0.00090,  -0.00042,   0.00022,-13538176.00000,   0.00000
-532188007.76107,-285515005.38482,7015854.66370,  -0.00276,  -0.00069,   0.00031,461433888.00000,   0.00082,275535744.00000,  -0.00090,  -0.00042,   0.00022,-14101856.00000,   0.00000
-531604826.34098,-283740644.89392,6953814.08709,  -0.00276,  -0.00068,   0.00031,460857056.00000,   0.00082,275535744.00000,  -0.00090,  -0.00042,   0.00022,-14678688.00000,   0.00000
-531015440.86323,-281951808.26847,6895909.54893,  -0.00276,  -0.00067,   0.00031,460280064.00000,   0.00082,275535744.00000,  -0.00090,  -0.00042,   0.00022,-15255680.00000,   0.00000
-530405375.19328,-280142291.45082,6833868.97232,  -0.00276,  -0.00067,   0.00031,459690336.00000,   0.00082,275535744.00000,  -0.00090,  -0.00042,   0.00022,-15845408.00000,   0.00000
-529774629.33113,-278312094.44097,6771828.39572,  -0.00276,  -0.00066,   0.00030,459088352.00000,   0.00082,275535744.00000,  -0.00090,  -0.00042,   0.00022,-16447392.00000,   0.00000
-529129407.33444,-276475693.37346,6709787.81911,  -0.00276,  -0.00065,   0.00030,458480192.00000,   0.00082,275535744.00000,  -0.00090,  -0.00042,   0.00022,-17055552.00000,   0.00000
-528471777.22242,-274610340.03686,6651883.28095,  -0.00276,  -0.00064,   0.00030,457867040.00000,   0.00082,275535744.00000,  -0.00090,  -0.00042,   0.00022,-17668704.00000,   0.00000
-527793466.91821,-272724306.50807,6593978.74278,  -0.00276,  -0.00064,   0.00030,457242336.00000,   0.00082,275535744.00000,  -0.00090,  -0.00042,   0.00022,-18293408.00000,   0.00000
-527100680.47945,-270832068.92161,6531938.16618,  -0.00277,  -0.00063,   0.00030,456611392.00000,   0.00082,275535744.00000,  -0.00090,  -0.00042,   0.00022,-18924352.00000,   0.00000
-526401689.98303,-268925355.20061,6474033.62801,  -0.00277,  -0.00062,   0.00030,455981632.00000,   0.00082,275535744.00000,  -0.00090,  -0.00042,   0.00022,-19554112.00000,   0.00000
-525675815.23675,-266983485.15287,6416129.08985,  -0.00277,  -0.00061,   0.00030,455334592.00000,   0.00082,275535744.00000,  -0.00090,  -0.00042,   0.00022,-20201152.00000,   0.00000
-524935464.35593,-265035411.04747,6358224.55169,  -0.00277,  -0.00061,   0.00030,454681280.00000,   0.00082,275535744.00000,  -0.00090,  -0.00042,   0.00022,-20854464.00000,   0.00000
-524174433.28291,-263066656.74987,6300320.01352,  -0.00277,  -0.00060,   0.00030,454016096.00000,   0.00082,275535744.00000,  -0.00090,  -0.00042,   0.00022,-21519648.00000,   0.00000
-523407198.15223,-261083426.31773,6242415.47536,  -0.00277,  -0.00059,   0.00030,453351360.00000,   0.00082,275535744.00000,  -0.00090,  -0.00042,   0.00022,-22184384.00000,   0.00000
-522619282.82934,-259079515.69338,6188646.97563,  -0.00277,  -0.00058,   0.00030,452674912.00000,   0.00082,275535744.00000,  -0.00090,  -0.00042,   0.00022,-22860832.00000,   0.00000
-521810687.31425,-257054924.87683,6130742.43747,  -0.00277,  -0.00058,   0.00030,451986176.00000,   0.00082,275535744.00000,  -0.00090,  -0.00042,   0.00022,-23549568.00000,   0.00000
-520981411.60697,-255009653.86808,6072837.89930,  -0.00277,  -0.00057,   0.00030,451285664.00000,   0.00082,275535744.00000,  -0.00090,  -0.00042,   0.00022,-24250080.00000,   0.00000
-520145931.84202,-252949906.72479,6019069.39958,  -0.00277,  -0.00056,   0.00029,450585920.00000,   0.00082,275535744.00000,  -0.00090,  -0.00042,   0.00022,-24949824.00000,   0.00000
-519295975.94253,-250883955.52384,5965300.89985,  -0.00277,  -0.00055,   0.00029,449879648.00000,   0.00082,275535744.00000,  -0.00090,  -0.00042,   0.00022,-25656096.00000,   0.00000
-518419135.79317,-248782847.99615,5907396.36169,  -0.00277,  -0.00055,   0.00029,449156416.00000,   0.00082,275535744.00000,  -0.00090,  -0.00042,   0.00022,-26379328.00000,   0.00000
-517542295.64382,-246681740.46846,5853627.86196,  -0.00277,  -0.00054,   0.00029,448439712.00000,   0.00082,275535744.00000,  -0.00090,  -0.00042,   0.00022,-27096032.00000,   0.00000
-516638571.24461,-244545476.61402,5799859.36224,  -0.00277,  -0.00053,   0.00029,447706560.00000,   0.00082,275535744.00000,  -0.00090,  -0.00042,   0.00022,-27829184.00000,   0.00000
-515720370.71085,-242403008.70192,5746090.86251,  -0.00277,  -0.00052,   0.00029,446967392.00000,   0.00082,275535744.00000,  -0.00090,  -0.00042,   0.00022,-28568352.00000,   0.00000
-514781489.98489,-240239860.59763,5696458.40123,  -0.00277,  -0.00051,   0.00029,446217312.00000,   0.00082,275535744.00000,  -0.00090,  -0.00042,   0.00022,-29318432.00000,   0.00000
-513836405.20128,-238062236.35879,5642689.90151,  -0.00277,  -0.00051,   0.00029,445468768.00000,   0.00082,275535744.00000,  -0.00090,  -0.00042,   0.00022,-30066976.00000,   0.00000
-512856164.09091,-235857727.87008,5588921.40178,  -0.00277,  -0.00050,   0.00029,444696896.00000,   0.00082,275535744.00000,  -0.00090,  -0.00042,   0.00022,-30838848.00000,   0.00000
-511869718.92289,-233638743.24684,5539288.94050,  -0.00277,  -0.00049,   0.00029,443927072.00000,   0.00082,275535744.00000,  -0.00090,  -0.00042,   0.00022,-31608672.00000,   0.00000
-510883273.75487,-231419758.62360,5485520.44077,  -0.00277,  -0.00048,   0.00029,443164000.00000,   0.00082,275535744.00000,  -0.00090,  -0.00042,   0.00022,-32371744.00000,   0.00000
-509855468.20245,-229159413.61595,5435887.97949,  -0.00277,  -0.00047,   0.00029,442373280.00000,   0.00082,275535744.00000,  -0.00090,  -0.00042,   0.00022,-33162464.00000,   0.00000
-508827662.65002,-226899068.60831,5386255.51820,  -0.00277,  -0.00046,   0.00029,441589664.00000,   0.00082,275535744.00000,  -0.00090,  -0.00042,   0.00022,-33946080.00000,   0.00000
-507772972.84774,-224603567.27392,5336623.05692,  -0.00277,  -0.00046,   0.00029,440791296.00000,   0.00082,275535744.00000,  -0.00090,  -0.00042,   0.00022,-34744448.00000,   0.00000
-506718283.04545,-222308065.93953,5286990.59564,  -0.00277,  -0.00045,   0.00028,440000224.00000,   0.00082,275535744.00000,  -0.00090,  -0.00042,   0.00022,-35535520.00000,   0.00000
-505628436.91642,-219985680.35528,5237358.13435,  -0.00277,  -0.00044,   0.00028,439186848.00000,   0.00082,275535744.00000,  -0.00090,  -0.00042,   0.00022,-36348896.00000,   0.00000
-504532386.72973,-217648818.63648,5187725.67307,  -0.00277,  -0.00043,   0.00028,438376736.00000,   0.00082,275535744.00000,  -0.00090,  -0.00042,   0.00022,-37159008.00000,   0.00000
-503415656.35084,-215291276.72549,5138093.21178,  -0.00277,  -0.00042,   0.00028,437557440.00000,   0.00082,275535744.00000,  -0.00090,  -0.00042,   0.00022,-37978304.00000,   0.00000
-502298925.97194,-212933734.81449,5088460.75050,  -0.00277,  -0.00041,   0.00028,436746112.00000,   0.00082,275535744.00000,  -0.00090,  -0.00042,   0.00022,-38789632.00000,   0.00000
-501155311.34319,-210541036.57676,5042964.32766,  -0.00276,  -0.00041,   0.00028,435921856.00000,   0.00082,275535744.00000,  -0.00090,  -0.00042,   0.00022,-39613888.00000,   0.00000
-499982744.44535,-208135930.22370,4993331.86637,  -0.00276,  -0.00040,   0.00028,435080832.00000,   0.00082,275535744.00000,  -0.00090,  -0.00042,   0.00022,-40454912.00000,   0.00000
-498812245.56674,-205708075.65922,4947835.44353,  -0.00276,  -0.00039,   0.00028,434252800.00000,   0.00082,275535744.00000,  -0.00090,  -0.00042,   0.00022,-41282944.00000,   0.00000
-497612794.41904,-203267812.97942,4898202.98224,  -0.00276,  -0.00038,   0.00028,433408064.00000,   0.00082,275535744.00000,  -0.00090,  -0.00042,   0.00022,-42127680.00000,   0.00000
-496407139.21368,-200813074.16507,4852706.55940,  -0.00276,  -0.00037,   0.00028,432568416.00000,   0.00082,275535744.00000,  -0.00090,  -0.00042,   0.00022,-42967328.00000,   0.00000
-495180803.81612,-198337655.15853,4807210.13656,  -0.00276,  -0.00036,   0.00028,431721216.00000,   0.00082,275535744.00000,  -0.00090,  -0.00042,   0.00022,-43814528.00000,   0.00000
-493939992.28401,-195856032.09432,4761713.71371,  -0.00276,  -0.00035,   0.00028,430870240.00000,   0.00082,275535744.00000,  -0.00090,  -0.00042,   0.00022,-44665504.00000,   0.00000
-492672296.50205,-193339252.70338,4716217.29087,  -0.00276,  -0.00034,   0.00028,430007520.00000,   0.00082,275535744.00000,  -0.00090,  -0.00042,   0.00022,-45528224.00000,   0.00000
-491398396.66242,-190807997.17789,4670720.86803,  -0.00276,  -0.00033,   0.00028,429149664.00000,   0.00082,275535744.00000,  -0.00090,  -0.00042,   0.00022,-46386080.00000,   0.00000
-490110020.68826,-188270537.59474,4625224.44518,  -0.00276,  -0.00033,   0.00028,428287424.00000,   0.00082,275535744.00000,  -0.00090,  -0.00042,   0.00022,-47248320.00000,   0.00000
-488800964.52189,-185712397.81939,4583864.06078,  -0.00276,  -0.00032,   0.00028,427417216.00000,   0.00082,275535744.00000,  -0.00090,  -0.00042,   0.00022,-48118528.00000,   0.00000
-487485704.29786,-183139781.90949,4538367.63793,  -0.00276,  -0.00031,   0.00028,426551104.00000,   0.00082,275535744.00000,  -0.00090,  -0.00042,   0.00022,-48984640.00000,   0.00000
-486135287.74709,-180540281.74974,4492871.21509,  -0.00276,  -0.00030,   0.00027,425664096.00000,   0.00082,275535744.00000,  -0.00090,  -0.00042,   0.00022,-49871648.00000,   0.00000
-484778667.13866,-177926305.45544,4451510.83069,  -0.00275,  -0.00029,   0.00027,424781888.00000,   0.00082,275535744.00000,  -0.00090,  -0.00042,   0.00022,-50753856.00000,   0.00000
-483407570.39569,-175306125.10349,4410150.44628,  -0.00275,  -0.00028,   0.00027,423895904.00000,   0.00082,275535744.00000,  -0.00090,  -0.00042,   0.00022,-51639840.00000,   0.00000
-482030269.59505,-172671468.61699,4364654.02344,  -0.00275,  -0.00027,   0.00027,423015680.00000,   0.00082,275535744.00000,  -0.00090,  -0.00042,   0.00022,-52520064.00000,   0.00000
-480611608.41001,-169995451.74609,4323293.63904,  -0.00275,  -0.00026,   0.00027,422114336.00000,   0.00082,275535744.00000,  -0.00090,  -0.00042,   0.00022,-53421408.00000,   0.00000
-479192947.22498,-167319434.87519,4281933.25463,  -0.00275,  -0.00025,   0.00027,421225024.00000,   0.00082,275535744.00000,  -0.00090,  -0.00042,   0.00022,-54310720.00000,   0.00000
-477768081.98228,-164628941.86975,4240572.87023,  -0.00275,  -0.00024,   0.00027,420345408.00000,   0.00082,275535744.00000,  -0.00090,  -0.00042,   0.00022,-55190336.00000,   0.00000
-476314264.47050,-161926040.74898,4199212.48583,  -0.00275,  -0.00023,   0.00027,419454880.00000,   0.00082,275535744.00000,  -0.00090,  -0.00042,   0.00022,-56080864.00000,   0.00000
-474848038.84340,-159194187.35914,4157852.10142,  -0.00275,  -0.00022,   0.00027,418572832.00000,   0.00082,275535744.00000,  -0.00090,  -0.00042,   0.00022,-56962912.00000,   0.00000
-473367337.08176,-156456129.91163,4116491.71702,  -0.00274,  -0.00021,   0.00027,417693312.00000,   0.00082,275535744.00000,  -0.00090,  -0.00042,   0.00022,-57842432.00000,   0.00000
-471865955.12791,-153697392.27193,4079267.37106,  -0.00274,  -0.00020,   0.00027,416813440.00000,   0.00082,275535744.00000,  -0.00090,  -0.00042,   0.00022,-58722304.00000,   0.00000
-470343892.98187,-150917974.44002,4037906.98665,  -0.00274,  -0.00019,   0.00027,415932288.00000,   0.00082,275535744.00000,  -0.00090,  -0.00042,   0.00022,-59603456.00000,   0.00000
-468815626.77816,-148124080.47357,3996546.60225,  -0.00274,  -0.00018,   0.00027,415061760.00000,   0.00082,275535744.00000,  -0.00090,  -0.00042,   0.00022,-60473984.00000,   0.00000
-467272884.43991,-145323982.44945,3959322.25629,  -0.00274,  -0.00017,   0.00027,414191424.00000,   0.00082,275535744.00000,  -0.00090,  -0.00042,   0.00022,-61344320.00000,   0.00000
-465703257.85180,-142488728.09860,3917961.87188,  -0.00274,  -0.00016,   0.00027,413314368.00000,   0.00082,275535744.00000,  -0.00090,  -0.00042,   0.00022,-62221376.00000,   0.00000
-464119155.12915,-139647269.69009,3880737.52592,  -0.00273,  -0.00016,   0.00027,412435552.00000,   0.00082,275535744.00000,  -0.00090,  -0.00042,   0.00022,-63100192.00000,   0.00000
-462528848.34884,-136791335.14703,3843513.17996,  -0.00273,  -0.00015,   0.00027,411564384.00000,   0.00082,275535744.00000,  -0.00090,  -0.00042,   0.00022,-63971360.00000,   0.00000
-460903385.24179,-133908516.35411,3802152.79555,  -0.00273,  -0.00014,   0.00027,410675552.00000,   0.00082,275535744.00000,  -0.00090,  -0.00042,   0.00022,-64860192.00000,   0.00000
-459292398.26928,-131031901.61886,3764928.44959,  -0.00273,  -0.00013,   0.00027,409809824.00000,   0.00082,275535744.00000,  -0.00090,  -0.00042,   0.00022,-65725920.00000,   0.00000
-457640050.91236,-128113926.49919,3727704.10363,  -0.00273,  -0.00012,   0.00026,408925664.00000,   0.00082,275535744.00000,  -0.00090,  -0.00042,   0.00022,-66610080.00000,   0.00000
-455973227.42090,-125189747.32187,3690479.75767,  -0.00273,  -0.00011,   0.00026,408041632.00000,   0.00082,275535744.00000,  -0.00090,  -0.00042,   0.00022,-67494112.00000,   0.00000
-454300199.87178,-122251092.01001,3653255.41170,  -0.00272,  -0.00010,   0.00026,407169120.00000,   0.00082,275535744.00000,  -0.00090,  -0.00042,   0.00022,-68366624.00000,   0.00000
-452612696.18812,-119306232.64049,3616031.06574,  -0.00272,  -0.00008,   0.00026,406299552.00000,   0.00082,275535744.00000,  -0.00090,  -0.00042,   0.00022,-69236192.00000,   0.00000
-450912784.38914,-116332421.00188,3578806.71978,  -0.00272,  -0.00007,   0.00026,405442368.00000,   0.00082,275535744.00000,  -0.00090,  -0.00042,   0.00022,-70093376.00000,   0.00000
-449183920.32108,-113346201.24796,3545718.41225,  -0.00272,  -0.00006,   0.00026,404578368.00000,   0.00082,275535744.00000,  -0.00090,  -0.00042,   0.00022,-70957376.00000,   0.00000
-447448852.19536,-110345505.35949,3508494.06629,  -0.00272,  -0.00005,   0.00026,403731168.00000,   0.00082,275535744.00000,  -0.00090,  -0.00042,   0.00022,-71804576.00000,   0.00000
-445693103.87743,-107324129.27882,3471269.72033,  -0.00271,  -0.00004,   0.00026,402889312.00000,   0.00082,275535744.00000,  -0.00090,  -0.00042,   0.00022,-72646432.00000,   0.00000
-443922879.42497,-104296549.14049,3438181.41280,  -0.00271,  -0.00003,   0.00026,402055296.00000,   0.00082,275535744.00000,  -0.00090,  -0.00042,   0.00022,-73480448.00000,   0.00000
-442125770.72264,-101233812.67542,3400957.06684,  -0.00271,  -0.00002,   0.00026,401225344.00000,   0.00082,275535744.00000,  -0.00090,  -0.00042,   0.00022,-74310400.00000,   0.00000
-440328662.02031,-98171076.21034,3367868.75932,  -0.00271,  -0.00001,   0.00026,400415168.00000,   0.00082,275535744.00000,  -0.00090,  -0.00042,   0.00022,-75120576.00000,   0.00000
-438510873.12578,-95087659.55307,3330644.41336,  -0.00270,  -0.00000,   0.00026,399609568.00000,   0.00082,275535744.00000,  -0.00090,  -0.00042,   0.00022,-75926176.00000,   0.00000
-436678608.09671,-91998038.83813,3297556.10583,  -0.00270,   0.00001,   0.00026,398808960.00000,   0.00082,275535744.00000,  -0.00090,  -0.00042,   0.00022,-76726784.00000,   0.00000
-434833934.95232,-88879465.85412,3260331.75987,  -0.00270,   0.00002,   0.00026,398020576.00000,   0.00082,275535744.00000,  -0.00090,  -0.00042,   0.00022,-77515168.00000,   0.00000
-432960309.53884,-85748484.75478,3227243.45235,  -0.00270,   0.00003,   0.00026,397220736.00000,   0.00082,275535744.00000,  -0.00090,  -0.00042,   0.00022,-78315008.00000,   0.00000
-431086684.12537,-82617503.65544,3194155.14482,  -0.00270,   0.00004,   0.00026,396430656.00000,   0.00082,275535744.00000,  -0.00090,  -0.00042,   0.00022,-79105088.00000,   0.00000
-429186174.46203,-79451366.22936,3161066.83730,  -0.00269,   0.00005,   0.00026,395632992.00000,   0.00082,275535744.00000,  -0.00090,  -0.00042,   0.00022,-79902752.00000,   0.00000
-427285664.79869,-76285228.80328,3127978.52978,  -0.00269,   0.00006,   0.00026,394839840.00000,   0.00082,275535744.00000,  -0.00090,  -0.00042,   0.00022,-80695904.00000,   0.00000
-425349998.80861,-73092207.12733,3094890.22226,  -0.00269,   0.00007,   0.00026,394024320.00000,   0.00082,275535744.00000,  -0.00090,  -0.00042,   0.00022,-81511424.00000,   0.00000
-423408128.76087,-69884709.31685,3061801.91473,  -0.00269,   0.00008,   0.00026,393210464.00000,   0.00082,275535744.00000,  -0.00090,  -0.00042,   0.00022,-82325280.00000,   0.00000
-421451782.57859,-66671007.44871,3028713.60721,  -0.00268,   0.00009,   0.00026,392388864.00000,   0.00082,275535744.00000,  -0.00090,  -0.00042,   0.00022,-83146880.00000,   0.00000
-419474756.20411,-63436625.38836,2995625.29969,  -0.00268,   0.00010,   0.00026,391560736.00000,   0.00082,275535744.00000,  -0.00090,  -0.00042,   0.00022,-83975008.00000,   0.00000
-417491525.77197,-60187767.19347,2962536.99216,  -0.00268,   0.00012,   0.00025,390740384.00000,   0.00082,275535744.00000,  -0.00090,  -0.00042,   0.00022,-84795360.00000,   0.00000
-415487615.14762,-56918228.80638,2929448.68464,  -0.00267,   0.00013,   0.00025,389912288.00000,   0.00082,275535744.00000,  -0.00090,  -0.00042,   0.00022,-85623456.00000,   0.00000
-413469228.38873,-53642486.36163,2896360.37712,  -0.00267,   0.00014,   0.00025,389061024.00000,   0.00082,275535744.00000,  -0.00090,  -0.00042,   0.00022,-86474720.00000,   0.00000
-411430161.43765,-50346063.72468,2863272.06960,  -0.00267,   0.00015,   0.00025,388231232.00000,   0.00082,275535744.00000,  -0.00090,  -0.00042,   0.00022,-87304512.00000,   0.00000
-409370414.29436,-47028960.89552,2834319.80051,  -0.00267,   0.00016,   0.00025,387614240.00000,   0.00082,275535744.00000,  -0.00090,  -0.00042,   0.00022,-87921504.00000,   0.00000
-407310667.15107,-43711858.06637,2801231.49299,  -0.00266,   0.00017,   0.00025,387010464.00000,   0.00082,275535744.00000,  -0.00090,  -0.00042,   0.00022,-88525280.00000,   0.00000
-405230239.81557,-40374075.04502,2768143.18547,  -0.00266,   0.00018,   0.00025,386253696.00000,   0.00082,275535744.00000,  -0.00090,  -0.00042,   0.00022,-89282048.00000,   0.00000
-403129132.28788,-37015611.83146,2739190.91639,  -0.00266,   0.00019,   0.00025,385453184.00000,   0.00082,275535744.00000,  -0.00090,  -0.00042,   0.00022,-90082560.00000,   0.00000
-401028024.76019,-33657148.61790,2706102.60886,  -0.00265,   0.00020,   0.00025,384710304.00000,   0.00082,275535744.00000,  -0.00090,  -0.00042,   0.00022,-90825440.00000,   0.00000
-398885556.84809,-30257325.01994,2673014.30134,  -0.00265,   0.00022,   0.00025,384021920.00000,   0.00082,275535744.00000,  -0.00090,  -0.00042,   0.00022,-91513824.00000,   0.00000
-396749292.99366,-26871977.55652,2644062.03226,  -0.00265,   0.00023,   0.00025,383391264.00000,   0.00082,275535744.00000,  -0.00090,  -0.00042,   0.00022,-92144480.00000,   0.00000
-394586144.88936,-23451473.76636,2610973.72474,  -0.00264,   0.00024,   0.00025,382779776.00000,   0.00082,275535744.00000,  -0.00090,  -0.00042,   0.00022,-92755968.00000,   0.00000
-392422996.78506,-20030969.97620,2582021.45565,  -0.00264,   0.00025,   0.00025,382183008.00000,   0.00082,275535744.00000,  -0.00090,  -0.00042,   0.00022,-93352736.00000,   0.00000
-390224692.35402,-16583581.93617,2548933.14813,  -0.00264,   0.00026,   0.00025,381573280.00000,   0.00082,275535744.00000,  -0.00090,  -0.00042,   0.00022,-93962464.00000,   0.00000
-388026387.92298,-13136193.89615,2519980.87905,  -0.00264,   0.00027,   0.00025,380973984.00000,   0.00082,275535744.00000,  -0.00090,  -0.00042,   0.00022,-94561760.00000,   0.00000
-385807403.29973,-9668125.66392,2491028.60997,  -0.00263,   0.00028,   0.00025,380376512.00000,   0.00082,275535744.00000,  -0.00090,  -0.00042,   0.00022,-95159232.00000,   0.00000
-383567738.48429,-6179377.23949,2457940.30244,  -0.00263,   0.00030,   0.00025,379784032.00000,   0.00082,275535744.00000,  -0.00090,  -0.00042,   0.00022,-95751712.00000,   0.00000
-381328073.66884,-2690628.81507,2428988.03336,  -0.00262,   0.00031,   0.00025,379211680.00000,   0.00082,275535744.00000,  -0.00090,  -0.00042,   0.00022,-96324064.00000,   0.00000
-379067728.66120,818799.80156,2395899.72584,  -0.00262,   0.00032,   0.00025,378653440.00000,   0.00082,275535744.00000,  -0.00090,  -0.00042,   0.00022,-96882304.00000,   0.00000
-376786703.46135,4348908.61039,2366947.45676,  -0.00262,   0.00033,   0.00025,378115680.00000,   0.00082,275535744.00000,  -0.00090,  -0.00042,   0.00022,-97420064.00000,   0.00000
-374491202.12696,7885221.47689,2337995.18767,  -0.00261,   0.00034,   0.00025,377604032.00000,   0.00082,275535744.00000,  -0.00090,  -0.00042,   0.00022,-97931712.00000,   0.00000
-372175020.60037,11442214.53558,2309042.91859,  -0.00261,   0.00035,   0.00025,377126656.00000,   0.00082,275535744.00000,  -0.00090,  -0.00042,   0.00022,-98409088.00000,   0.00000
-369858839.07378,14999207.59427,2275954.61107,  -0.00261,   0.00036,   0.00025,376699168.00000,   0.00082,275535744.00000,  -0.00090,  -0.00042,   0.00022,-98836576.00000,   0.00000
-367521977.35498,18576880.84517,2247002.34199,  -0.00260,   0.00038,   0.00025,376314560.00000,   0.00082,275535744.00000,  -0.00090,  -0.00042,   0.00022,-99221184.00000,   0.00000
-365164435.44399,22175234.28827,2218050.07290,  -0.00260,   0.00039,   0.00025,375972480.00000,   0.00082,275535744.00000,  -0.00090,  -0.00042,   0.00022,-99563264.00000,   0.00000
-362806893.53299,25773587.73136,2189097.80382,  -0.00260,   0.00040,   0.00024,375678144.00000,   0.00082,275535744.00000,  -0.00090,  -0.00042,   0.00022,-99857600.00000,   0.00000
-360414195.29526,29398825.42432,2156009.49630,  -0.00259,   0.00041,   0.00024,375405248.00000,   0.00082,275535744.00000,  -0.00090,  -0.00042,   0.00022,-100130496.00000,   0.00000
-358015292.99986,33038539.25182,2127057.22722,  -0.00259,   0.00042,   0.00024,375167680.00000,   0.00082,275535744.00000,  -0.00090,  -0.00042,   0.00022,-100368064.00000,   0.00000
-355601914.56992,36684457.13698,2098104.95813,  -0.00258,   0.00044,   0.00024,374944320.00000,   0.00082,275535744.00000,  -0.00090,  -0.00042,   0.00022,-100591424.00000,   0.00000
-353182332.08232,40344851.15668,2069152.68905,  -0.00258,   0.00045,   0.00024,374740864.00000,   0.00082,275535744.00000,  -0.00090,  -0.00042,   0.00022,-100794880.00000,   0.00000
-350733797.32564,44017653.29171,2040200.41997,  -0.00258,   0.00046,   0.00024,374527744.00000,   0.00082,275535744.00000,  -0.00090,  -0.00042,   0.00022,-101008000.00000,   0.00000
-348279058.51130,47704931.56127,2011248.15089,  -0.00257,   0.00047,   0.00024,374325120.00000,   0.00082,275535744.00000,  -0.00090,  -0.00042,   0.00022,-101210624.00000,   0.00000
-345809843.56241,51398413.88850,1978159.84336,  -0.00257,   0.00048,   0.00024,374118400.00000,   0.00082,275535744.00000,  -0.00090,  -0.00042,   0.00022,-101417344.00000,   0.00000
-343319948.42133,55112576.40792,1949207.57428,  -0.00256,   0.00050,   0.00024,373911296.00000,   0.00082,275535744.00000,  -0.00090,  -0.00042,   0.00022,-101624448.00000,   0.00000
-340823849.22258,58841215.06189,1920255.30520,  -0.00256,   0.00051,   0.00024,373717312.00000,   0.00082,275535744.00000,  -0.00090,  -0.00042,   0.00022,-101818432.00000,   0.00000
-338313273.88929,62576057.77352,1891303.03612,  -0.00256,   0.00052,   0.00024,373527424.00000,   0.00082,275535744.00000,  -0.00090,  -0.00042,   0.00022,-102008320.00000,   0.00000
-335788222.42147,66317104.54281,1862350.76703,  -0.00255,   0.00053,   0.00024,373346976.00000,   0.00082,275535744.00000,  -0.00090,  -0.00042,   0.00022,-102188768.00000,   0.00000
-333242490.76144,70078831.50430,1833398.49795,  -0.00255,   0.00054,   0.00024,373183968.00000,   0.00082,275535744.00000,  -0.00090,  -0.00042,   0.00022,-102351776.00000,   0.00000
-330690555.04374,73855034.60033,1800310.19043,  -0.00254,   0.00056,   0.00024,373054176.00000,   0.00082,275535744.00000,  -0.00090,  -0.00042,   0.00022,-102481568.00000,   0.00000
-328109667.05697,77643645.81168,1771357.92135,  -0.00254,   0.00057,   0.00024,372937760.00000,   0.00082,275535744.00000,  -0.00090,  -0.00042,   0.00022,-102597984.00000,   0.00000
-325522575.01254,81446733.15758,1742405.65226,  -0.00254,   0.00058,   0.00024,372861056.00000,   0.00082,275535744.00000,  -0.00090,  -0.00042,   0.00022,-102674688.00000,   0.00000
-322929278.91044,85264296.63801,1713453.38318,  -0.00253,   0.00059,   0.00024,372825504.00000,   0.00082,275535744.00000,  -0.00090,  -0.00042,   0.00022,-102710240.00000,   0.00000
-320313234.59693,89079792.09923,1684501.11410,  -0.00253,   0.00061,   0.00024,372802816.00000,   0.00082,275535744.00000,  -0.00090,  -0.00042,   0.00022,-102732928.00000,   0.00000
-317684782.16809,92924239.82952,1655548.84502,  -0.00252,   0.00062,   0.00024,372822400.00000,   0.00082,275535744.00000,  -0.00090,  -0.00042,   0.00022,-102713344.00000,   0.00000
-315048057.66237,96760415.48294,1622460.53749,  -0.00252,   0.00063,   0.00024,372860352.00000,   0.00082,275535744.00000,  -0.00090,  -0.00042,   0.00022,-102675392.00000,   0.00000
-312384448.90679,100631747.46310,1593508.26841,  -0.00251,   0.00064,   0.00024,372925600.00000,   0.00082,275535744.00000,  -0.00090,  -0.00042,   0.00022,-102610144.00000,   0.00000
-309706364.01667,104509283.50092,1564555.99933,  -0.00251,   0.00065,   0.00024,373008832.00000,   0.00082,275535744.00000,  -0.00090,  -0.00042,   0.00022,-102526912.00000,   0.00000
-307028279.12655,108386819.53874,1535603.73025,  -0.00250,   0.00067,   0.00024,373119328.00000,   0.00082,275535744.00000,  -0.00090,  -0.00042,   0.00022,-102416416.00000,   0.00000
-304329514.04423,112285035.76876,1506651.46116,  -0.00250,   0.00068,   0.00024,373251968.00000,   0.00082,275535744.00000,  -0.00090,  -0.00042,   0.00022,-102283776.00000,   0.00000
-301616272.82737,116189456.05644,1473563.15364,  -0.00249,   0.00069,   0.00024,373402656.00000,   0.00082,275535744.00000,  -0.00090,  -0.00042,   0.00022,-102133088.00000,   0.00000
-298896827.55284,120108352.47867,1444610.88456,  -0.00249,   0.00070,   0.00023,373578944.00000,   0.00082,275535744.00000,  -0.00090,  -0.00042,   0.00022,-101956800.00000,   0.00000
-296162906.14378,124033452.95855,1415658.61548,  -0.00248,   0.00072,   0.00023,373725312.00000,   0.00082,275535744.00000,  -0.00090,  -0.00042,   0.00022,-101810432.00000,   0.00000
-293408304.54251,127979233.63064,1386706.34639,  -0.00248,   0.00073,   0.00023,373835936.00000,   0.00082,275535744.00000,  -0.00090,  -0.00042,   0.00022,-101699808.00000,   0.00000
-290639226.80670,131931218.36038,1353618.03887,  -0.00247,   0.00074,   0.00023,374018272.00000,   0.00082,275535744.00000,  -0.00090,  -0.00042,   0.00022,-101517472.00000,   0.00000
-287855672.93635,135889407.14779,1324665.76979,  -0.00247,   0.00075,   0.00023,374273280.00000,   0.00082,275535744.00000,  -0.00090,  -0.00042,   0.00022,-101262464.00000,   0.00000
-285065915.00834,139862072.06974,1295713.50071,  -0.00246,   0.00077,   0.00023,374593792.00000,   0.00082,275535744.00000,  -0.00090,  -0.00042,   0.00022,-100941952.00000,   0.00000
-282255476.88813,143855417.18389,1262625.19318,  -0.00246,   0.00078,   0.00023,374954496.00000,   0.00082,275535744.00000,  -0.00090,  -0.00042,   0.00022,-100581248.00000,   0.00000
-279430562.63338,147854966.35570,1233672.92410,  -0.00245,   0.00079,   0.00023,375344640.00000,   0.00082,275535744.00000,  -0.00090,  -0.00042,   0.00022,-100191104.00000,   0.00000
-276605648.37862,151854515.52751,1204720.65502,  -0.00245,   0.00081,   0.00023,375763392.00000,   0.00082,275535744.00000,  -0.00090,  -0.00042,   0.00022,-99772352.00000,   0.00000
-273745577.79713,155880948.94918,1171632.34750,  -0.00244,   0.00082,   0.00023,376194432.00000,   0.00082,275535744.00000,  -0.00090,  -0.00042,   0.00022,-99341312.00000,   0.00000
-270885507.21563,159907382.37085,1142680.07841,  -0.00244,   0.00083,   0.00023,376653184.00000,   0.00082,275535744.00000,  -0.00090,  -0.00042,   0.00022,-98882560.00000,   0.00000
-268019232.57647,163948291.92706,1109591.77089,  -0.00243,   0.00084,   0.00023,377150080.00000,   0.00082,275535744.00000,  -0.00090,  -0.00042,   0.00022,-98385664.00000,   0.00000
-265124005.66823,168001609.59860,1080639.50181,  -0.00243,   0.00086,   0.00023,377666592.00000,   0.00082,275535744.00000,  -0.00090,  -0.00042,   0.00022,-97869152.00000,   0.00000
-262228778.76000,172054927.27013,1047551.19429,  -0.00242,   0.00087,   0.00023,378222080.00000,   0.00082,275535744.00000,  -0.00090,  -0.00042,   0.00022,-97313664.00000,   0.00000
-259312871.65956,176128925.13387,1018598.92520,  -0.00242,   0.00088,   0.00023,378814368.00000,   0.00082,275535744.00000,  -0.00090,  -0.00042,   0.00022,-96721376.00000,   0.00000
-256382488.42457,180209127.05527,985510.61768,  -0.00241,   0.00090,   0.00023,379437216.00000,   0.00082,275535744.00000,  -0.00090,  -0.00042,   0.00022,-96098528.00000,   0.00000
-253445901.13193,184303805.11120,956558.34860,  -0.00241,   0.00091,   0.00023,380103744.00000,   0.00082,275535744.00000,  -0.00090,  -0.00042,   0.00022,-95432000.00000,   0.00000
-250501041.76241,188390211.09026,923470.04108,  -0.00240,   0.00092,   0.00023,380791904.00000,   0.00082,275535744.00000,  -0.00090,  -0.00042,   0.00022,-94743840.00000,   0.00000
-247529298.14302,192511773.39606,890381.73355,  -0.00240,   0.00093,   0.00023,381519328.00000,   0.00082,275535744.00000,  -0.00090,  -0.00042,   0.00022,-94016416.00000,   0.00000
-244549282.44676,196625063.62498,861429.46447,  -0.00239,   0.00095,   0.00023,382266464.00000,   0.00082,275535744.00000,  -0.00090,  -0.00042,   0.00022,-93269280.00000,   0.00000
-241563062.69283,200752829.98844,828341.15695,  -0.00239,   0.00096,   0.00023,383053952.00000,   0.00082,275535744.00000,  -0.00090,  -0.00042,   0.00022,-92481792.00000,   0.00000
-238556162.74670,204901276.54410,795252.84943,  -0.00238,   0.00097,   0.00023,383875360.00000,   0.00082,275535744.00000,  -0.00090,  -0.00042,   0.00022,-91660384.00000,   0.00000
-235540990.72369,209041451.02288,762164.54190,  -0.00237,   0.00099,   0.00023,384718496.00000,   0.00082,275535744.00000,  -0.00090,  -0.00042,   0.00022,-90817248.00000,   0.00000
-232505138.50848,213202305.69387,733212.27282,  -0.00237,   0.00100,   0.00023,385598752.00000,   0.00082,275535744.00000,  -0.00090,  -0.00042,   0.00022,-89936992.00000,   0.00000
-229463082.23561,217377636.49939,700123.96530,  -0.00236,   0.00101,   0.00023,386524960.00000,   0.00082,275535744.00000,  -0.00090,  -0.00042,   0.00022,-89010784.00000,   0.00000
-226412753.88586,221544695.22804,667035.65778,  -0.00236,   0.00102,   0.00022,387475712.00000,   0.00082,275535744.00000,  -0.00090,  -0.00042,   0.00022,-88060032.00000,   0.00000
-223341745.34391,225732434.14888,633947.35025,  -0.00235,   0.00104,   0.00022,388464544.00000,   0.00082,275535744.00000,  -0.00090,  -0.00042,   0.00022,-87071200.00000,   0.00000
-220264532.74429,229934649.20427,600859.04273,  -0.00235,   0.00105,   0.00022,389496736.00000,   0.00082,275535744.00000,  -0.00090,  -0.00042,   0.00022,-86039008.00000,   0.00000
-217179048.06780,234128592.18277,567770.73521,  -0.00234,   0.00106,   0.00022,390547744.00000,   0.00082,275535744.00000,  -0.00090,  -0.00042,   0.00022,-84988000.00000,   0.00000
-214072883.19910,238343215.35348,534682.42768,  -0.00233,   0.00108,   0.00022,391629056.00000,   0.00082,275535744.00000,  -0.00090,  -0.00042,   0.00022,-83906688.00000,   0.00000
-210952242.19587,242564042.58185,501594.12016,  -0.00233,   0.00109,   0.00022,392731232.00000,   0.00082,275535744.00000,  -0.00090,  -0.00042,   0.00022,-82804512.00000,   0.00000
-207825397.13497,246799345.94476,468505.81264,  -0.00232,   0.00110,   0.00022,393867552.00000,   0.00082,275535744.00000,  -0.00090,  -0.00042,   0.00022,-81668192.00000,   0.00000
-204690279.99719,251026377.23079,435417.50512,  -0.00232,   0.00112,   0.00022,395016640.00000,   0.00082,275535744.00000,  -0.00090,  -0.00042,   0.00022,-80519104.00000,   0.00000
-201534482.66721,255274088.70902,402329.19759,  -0.00231,   0.00113,   0.00022,396197152.00000,   0.00082,275535744.00000,  -0.00090,  -0.00042,   0.00022,-79338592.00000,   0.00000
-198372481.27957,259536276.32179,365104.85163,  -0.00230,   0.00114,   0.00022,397419360.00000,   0.00082,275535744.00000,  -0.00090,  -0.00042,   0.00022,-78116384.00000,   0.00000
-195202207.81505,263790191.85768,332016.54411,  -0.00230,   0.00116,   0.00022,398664448.00000,   0.00082,275535744.00000,  -0.00090,  -0.00042,   0.00022,-76871296.00000,   0.00000
-192011254.15832,268064787.58577,298928.23659,  -0.00229,   0.00117,   0.00022,399949376.00000,   0.00082,275535744.00000,  -0.00090,  -0.00042,   0.00022,-75586368.00000,   0.00000
-188805824.36706,272345587.37153,261703.89062,  -0.00229,   0.00118,   0.00022,401263840.00000,   0.00082,275535744.00000,  -0.00090,  -0.00042,   0.00022,-74271904.00000,   0.00000
-185600394.57579,276626387.15728,228615.58310,  -0.00228,   0.00120,   0.00022,402607072.00000,   0.00082,275535744.00000,  -0.00090,  -0.00042,   0.00022,-72928672.00000,   0.00000
-182374284.59233,280927867.13524,195527.27558,  -0.00227,   0.00121,   0.00022,403975840.00000,   0.00082,275535744.00000,  -0.00090,  -0.00042,   0.00022,-71559904.00000,   0.00000
-179139902.53198,285221075.03631,158302.92961,  -0.00227,   0.00122,   0.00022,405353344.00000,   0.00082,275535744.00000,  -0.00090,  -0.00042,   0.00022,-70182400.00000,   0.00000
-175899316.41397,289528759.07193,125214.62209,  -0.00226,   0.00124,   0.00022,406768384.00000,   0.00082,275535744.00000,  -0.00090,  -0.00042,   0.00022,-68767360.00000,   0.00000
-172638050.10376,293857123.29974,87990.27613,  -0.00225,   0.00125,   0.00022,408217504.00000,   0.00082,275535744.00000,  -0.00090,  -0.00042,   0.00022,-67318240.00000,   0.00000
-169368511.71667,298177215.45068,54901.96861,  -0.00225,   0.00126,   0.00022,409679200.00000,   0.00082,275535744.00000,  -0.00090,  -0.00042,   0.00022,-65856544.00000,   0.00000
-166098973.32958,302497307.60162,17677.62264,  -0.00224,   0.00128,   0.00022,411160480.00000,   0.00082,275535744.00000,  -0.00090,  -0.00042,   0.00022,-64375264.00000,   0.00000
-162794278.61575,306844284.00241,-15410.68488,  -0.00223,   0.00129,   0.00022,412666752.00000,   0.00082,275535744.00000,  -0.00090,  -0.00042,   0.00022,-62868992.00000,   0.00000
-159504060.03646,311185056.34555,-52635.03084,  -0.00223,   0.00130,   0.00022,414318880.00000,   0.00082,275535744.00000,  -0.00090,  -0.00042,   0.00022,-61216864.00000,   0.00000
-156184889.18809,315538236.80401,-89859.37681,  -0.00222,   0.00132,   0.00022,416141760.00000,   0.00082,275535744.00000,  -0.00090,  -0.00042,   0.00022,-59393984.00000,   0.00000
-152865718.33971,319891417.26247,-127083.72277,  -0.00221,   0.00133,   0.00021,417762720.00000,   0.00082,275535744.00000,  -0.00090,  -0.00042,   0.00022,-57773024.00000,   0.00000
-149525867.29914,324265277.91313,-160172.03029,  -0.00221,   0.00134,   0.00021,419433312.00000,   0.00082,275535744.00000,  -0.00090,  -0.00042,   0.00022,-56102432.00000,   0.00000
-146177744.18168,328630866.48691,-197396.37626,  -0.00220,   0.00136,   0.00021,421113312.00000,   0.00082,275535744.00000,  -0.00090,  -0.00042,   0.00022,-54422432.00000,   0.00000
-142823417.00656,333010931.19523,-234620.72222,  -0.00219,   0.00137,   0.00021,422828224.00000,   0.00082,275535744.00000,  -0.00090,  -0.00042,   0.00022,-52707520.00000,   0.00000
-139454613.69691,337397199.96121,-271845.06818,  -0.00219,   0.00138,   0.00021,424562048.00000,   0.00082,275535744.00000,  -0.00090,  -0.00042,   0.00022,-50973696.00000,   0.00000
-136085810.38725,341783468.72720,-309069.41414,  -0.00218,   0.00140,   0.00021,426317984.00000,   0.00082,275535744.00000,  -0.00090,  -0.00042,   0.00022,-49217760.00000,   0.00000
-132688054.80851,346182145.60850,-346293.76011,  -0.00217,   0.00141,   0.00021,428086336.00000,   0.00082,275535744.00000,  -0.00090,  -0.00042,   0.00022,-47449408.00000,   0.00000
-129290299.22977,350580822.48980,-383518.10607,  -0.00217,   0.00142,   0.00021,429877568.00000,   0.00082,275535744.00000,  -0.00090,  -0.00042,   0.00022,-45658176.00000,   0.00000
-125892543.65103,354979499.37111,-420742.45203,  -0.00216,   0.00144,   0.00021,431694912.00000,   0.00082,275535744.00000,  -0.00090,  -0.00042,   0.00022,-43840832.00000,   0.00000
-122459631.74554,359405060.50227,-457966.79800,  -0.00215,   0.00145,   0.00021,433544768.00000,   0.00082,275535744.00000,  -0.00090,  -0.00042,   0.00022,-41990976.00000,   0.00000
-119047400.03226,363809941.44123,-499327.18240,  -0.00215,   0.00146,   0.00021,435426112.00000,   0.00082,275535744.00000,  -0.00090,  -0.00042,   0.00022,-40109632.00000,   0.00000
-115600011.99224,368241706.63006,-536551.52836,  -0.00214,   0.00148,   0.00021,437350304.00000,   0.00082,275535744.00000,  -0.00090,  -0.00042,   0.00022,-38185440.00000,   0.00000
-112158828.00987,372658995.68434,-573775.87433,  -0.00213,   0.00149,   0.00021,439305920.00000,   0.00082,275535744.00000,  -0.00090,  -0.00042,   0.00022,-36229824.00000,   0.00000
-108696963.83531,377096964.93083,-611000.22029,  -0.00213,   0.00150,   0.00021,441303680.00000,   0.00082,275535744.00000,  -0.00090,  -0.00042,   0.00022,-34232064.00000,   0.00000
-105220623.52620,381541138.23498,-652360.60469,  -0.00212,   0.00152,   0.00021,443327744.00000,   0.00082,275535744.00000,  -0.00090,  -0.00042,   0.00022,-32208000.00000,   0.00000
-101744283.21709,385985311.53912,-689584.95066,  -0.00211,   0.00153,   0.00021,445378752.00000,   0.00082,275535744.00000,  -0.00090,  -0.00042,   0.00022,-30156992.00000,   0.00000
-98253466.77345,390435688.90093,-726809.29662,  -0.00210,   0.00154,   0.00021,447455808.00000,   0.00082,275535744.00000,  -0.00090,  -0.00042,   0.00022,-28079936.00000,   0.00000
-94762650.32980,394886066.26274,-768169.68102,  -0.00210,   0.00156,   0.00021,449566528.00000,   0.00082,275535744.00000,  -0.00090,  -0.00042,   0.00022,-25969216.00000,   0.00000
-91242881.61707,399348851.73987,-805394.02699,  -0.00209,   0.00157,   0.00021,451704928.00000,   0.00082,275535744.00000,  -0.00090,  -0.00042,   0.00022,-23830816.00000,   0.00000
-87737589.03888,403805433.15933,-846754.41139,  -0.00208,   0.00158,   0.00021,453878176.00000,   0.00082,275535744.00000,  -0.00090,  -0.00042,   0.00022,-21657568.00000,   0.00000
-84203344.19161,408274422.69412,-883978.75735,  -0.00207,   0.00160,   0.00020,456071264.00000,   0.00082,275535744.00000,  -0.00090,  -0.00042,   0.00022,-19464480.00000,   0.00000
-80669099.34434,412743412.22891,-925339.14176,  -0.00207,   0.00161,   0.00020,458284704.00000,   0.00082,275535744.00000,  -0.00090,  -0.00042,   0.00022,-17251040.00000,   0.00000
-77120378.36252,417218605.82136,-966699.52616,  -0.00206,   0.00162,   0.00020,460510272.00000,   0.00082,275535744.00000,  -0.00090,  -0.00042,   0.00022,-15025472.00000,   0.00000
-73571657.38071,421693799.41381,-1003923.87212,  -0.00205,   0.00164,   0.00020,462747776.00000,   0.00082,275535744.00000,  -0.00090,  -0.00042,   0.00022,-12787968.00000,   0.00000
-70008460.26436,426175197.06392,-1045284.25653,  -0.00204,   0.00165,   0.00020,464993792.00000,   0.00082,275535744.00000,  -0.00090,  -0.00042,   0.00022,-10541952.00000,   0.00000
-66445263.14800,430656594.71403,-1086644.64093,  -0.00204,   0.00166,   0.00020,467253248.00000,   0.00082,275535744.00000,  -0.00090,  -0.00042,   0.00022,-8282496.00000,   0.00000
-62853113.76257,435150400.47946,-1128005.02533,  -0.00203,   0.00168,   0.00020,469525696.00000,   0.00082,275535744.00000,  -0.00090,  -0.00042,   0.00022,-6010048.00000,   0.00000
-59260964.37713,439644206.24489,-1165229.37130,  -0.00202,   0.00169,   0.00020,471824160.00000,   0.00082,275535744.00000,  -0.00090,  -0.00042,   0.00022,-3711584.00000,   0.00000
-55668814.99169,444138012.01032,-1206589.75570,  -0.00201,   0.00170,   0.00020,474158368.00000,   0.00082,275535744.00000,  -0.00090,  -0.00042,   0.00022,-1377376.00000,   0.00000
-53569646.23202,446757158.35267,-1230662.79193,  -0.00201,   0.00171,   0.00020,475536576.00000,   0.00082,275535744.00000,  -0.00090,  -0.00042,   0.00022, 832.00000,   0.00000
-51883628.83575,447741535.76518,-1249929.31388,  -0.00201,   0.00172,   0.00020,475536576.00000,   0.00082,275540288.00000,  -0.00090,  -0.00042,   0.00022,   0.00000,   2.00000
-47866885.78715,450056122.51019,-1297227.50630,  -0.00200,   0.00173,   0.00020,477973760.00000,   0.00083,275551200.00000,  -0.00090,  -0.00041,   0.00022,  64.00000,   2.00000
-43874827.01533,452313237.79287,-1346323.25666,  -0.00199,   0.00175,   0.00020,478039904.00000,   0.00084,275562304.00000,  -0.00091,  -0.00040,   0.00022,  32.00000,   2.00000
-39898838.36175,454521721.61633,-1397791.03108,  -0.00198,   0.00176,   0.00020,478091328.00000,   0.00086,275573472.00000,  -0.00092,  -0.00039,   0.00022,   0.00000,   2.00000
-35934192.86520,456689916.76519,-1452104.60931,  -0.00198,   0.00177,   0.00020,478162784.00000,   0.00087,275584832.00000,  -0.00092,  -0.00038,   0.00022,  32.00000,   2.00000
-31969374.88999,458830357.77680,-1509188.60919,  -0.00197,   0.00179,   0.00020,478214464.00000,   0.00088,275596288.00000,  -0.00093,  -0.00036,   0.00022, 160.00000,   2.00000
-28005924.26643,460949338.14219,-1568471.40857,  -0.00196,   0.00180,   0.00020,478245312.00000,   0.00089,275607744.00000,  -0.00093,  -0.00035,   0.00022, -64.00000,   2.00000
-24044546.65136,463054781.60109,-1629106.78646,  -0.00195,   0.00181,   0.00020,478277056.00000,   0.00090,275619296.00000,  -0.00094,  -0.00034,   0.00022,   0.00000,   2.00000
-20058097.75193,465168398.96760,-1689887.19173,  -0.00194,   0.00183,   0.00020,478306560.00000,   0.00091,275630880.00000,  -0.00095,  -0.00033,   0.00022, 128.00000,   2.00000
-16072750.84033,467282223.35951,-1749149.35649,  -0.00194,   0.00184,   0.00020,478302720.00000,   0.00092,275642432.00000,  -0.00095,  -0.00032,   0.00022, 160.00000,   2.00000
-12066656.96205,469410587.48667,-1809655.03521,  -0.00193,   0.00185,   0.00019,478300384.00000,   0.00093,275653952.00000,  -0.00096,  -0.00031,   0.00022,  32.00000,   2.00000
-8043773.27768,471549714.89509,-1862011.96765,  -0.00192,   0.00187,   0.00019,478294784.00000,   0.00094,275665472.00000,  -0.00096,  -0.00030,   0.00022, 160.00000,   2.00000
-4033840.16925,473676096.50697,-1909656.52969,  -0.00191,   0.00188,   0.00019,478283744.00000,   0.00095,275676928.00000,  -0.00097,  -0.00028,   0.00022, 160.00000,   2.00000
-18247.95613,475787456.37588,-1952462.50711,  -0.00190,   0.00189,   0.00019,478304064.00000,   0.00096,275688512.00000,  -0.00098,  -0.00027,   0.00022,  64.00000,   2.00000
3961536.80306,477846753.96214,-1994740.34362,  -0.00190,   0.00191,   0.00019,478318208.00000,   0.00097,275700160.00000,  -0.00098,  -0.00026,   0.00022, -32.00000,   2.00000
7923892.55986,479850393.73530,-2028704.09412,  -0.00189,   0.00192,   0.00019,478368896.00000,   0.00098,275712000.00000,  -0.00099,  -0.00025,   0.00022,  32.00000,   2.00000
11835277.39486,481773777.24061,-2059234.80760,  -0.00188,   0.00193,   0.00019,478408736.00000,   0.00099,275724000.00000,  -0.00099,  -0.00024,   0.00022, 160.00000,   2.00000
15717271.30209,483629672.21485,-2087918.21244,  -0.00187,   0.00195,   0.00019,478460352.00000,   0.00101,275736160.00000,  -0.00100,  -0.00022,   0.00022,   0.00000,   2.00000
19555094.93686,485413942.77591,-2121361.83033,  -0.00186,   0.00196,   0.00019,478519872.00000,   0.00102,275748448.00000,  -0.00101,  -0.00021,   0.00022, 160.00000,   2.00000
23366593.45360,487126757.18082,-2149755.96763,  -0.00186,   0.00197,   0.00019,478572384.00000,   0.00103,275760928.00000,  -0.00101,  -0.00020,   0.00022,  64.00000,   2.00000
27176772.41629,488829326.18178,-2180468.67394,  -0.00185,   0.00199,   0.00019,478578400.00000,   0.00104,275773472.00000,  -0.00102,  -0.00019,   0.00022, 128.00000,   2.00000
30977259.33146,490528315.46387,-2206999.56090,  -0.00184,   0.00200,   0.00019,478608000.00000,   0.00105,275785984.00000,  -0.00102,  -0.00017,   0.00022,  64.00000,   2.00000
34776470.34616,492206245.73757,-2235073.31890,  -0.00183,   0.00201,   0.00019,478638080.00000,   0.00106,275798560.00000,  -0.00103,  -0.00016,   0.00022, 128.00000,   2.00000
38569236.60850,493873597.03832,-2268486.18443,  -0.00182,   0.00203,   0.00019,478651360.00000,   0.00107,275811072.00000,  -0.00104,  -0.00015,   0.00022, 128.00000,   2.00000
42376582.52537,495542860.12525,-2297623.51360,  -0.00181,   0.00204,   0.00019,478682944.00000,   0.00109,275823680.00000,  -0.00104,  -0.00013,   0.00022,  64.00000,   2.00000
46164166.90246,497191164.98026,-2329981.16206,  -0.00181,   0.00205,   0.00019,478697728.00000,   0.00110,275836256.00000,  -0.00105,  -0.00012,   0.00022,-128.00000,   2.00000
49947384.02873,498819496.82636,-2357168.85487,  -0.00180,   0.00207,   0.00019,478729344.00000,   0.00111,275848896.00000,  -0.00105,  -0.00011,   0.00022,  32.00000,   2.00000
53707790.47736,500415395.25673,-2383638.19932,  -0.00179,   0.00208,   0.00019,478764800.00000,   0.00112,275861600.00000,  -0.00106,  -0.00009,   0.00022, 128.00000,   2.00000
57450621.54802,501978327.38126,-2413994.72594,  -0.00178,   0.00209,   0.00018,478791072.00000,   0.00113,275874304.00000,  -0.00106,  -0.00008,   0.00022,  96.00000,   2.00000
61164921.63240,503501858.88437,-2440346.40651,  -0.00177,   0.00210,   0.00018,478831392.00000,   0.00115,275887104.00000,  -0.00107,  -0.00007,   0.00022, 224.00000,   2.00000
64863328.79462,504989988.23190,-2471232.63400,  -0.00176,   0.00212,   0.00018,478873504.00000,   0.00116,275900000.00000,  -0.00107,  -0.00005,   0.00022, 128.00000,   2.00000
68530535.41255,506435852.02594,-2498576.15545,  -0.00175,   0.00213,   0.00018,478915840.00000,   0.00117,275912992.00000,  -0.00108,  -0.00004,   0.00022, 128.00000,   2.00000
72175499.19770,507843426.96566,-2530710.73257,  -0.00175,   0.00214,   0.00018,478946560.00000,   0.00118,275925984.00000,  -0.00108,  -0.00003,   0.00022,   0.00000,   2.00000
75790200.23266,509211068.18345,-2559288.86842,  -0.00174,   0.00216,   0.00018,478987200.00000,   0.00119,275939104.00000,  -0.00109,  -0.00001,   0.00022, -32.00000,   2.00000
79390380.29063,510546381.62744,-2588319.96426,  -0.00173,   0.00217,   0.00018,479026752.00000,   0.00121,275952256.00000,  -0.00109,   0.00000,   0.00021, 160.00000,   2.00000
82958336.24320,511844622.87151,-2621791.07684,  -0.00172,   0.00218,   0.00018,479051264.00000,   0.00122,275965440.00000,  -0.00110,   0.00002,   0.00021, 192.00000,   2.00000
86515707.65785,513116080.87016,-2651234.22846,  -0.00171,   0.00220,   0.00018,479085920.00000,   0.00123,275978720.00000,  -0.00110,   0.00003,   0.00021,  96.00000,   2.00000
90050293.75616,514358751.82332,-2684735.61632,  -0.00170,   0.00221,   0.00018,479116960.00000,   0.00124,275992032.00000,  -0.00111,   0.00004,   0.00021,  64.00000,   2.00000
93578477.51975,515580541.82700,-2713888.79525,  -0.00169,   0.00222,   0.00018,479146720.00000,   0.00125,276005376.00000,  -0.00111,   0.00006,   0.00021,  64.00000,   2.00000
97083024.12846,516777659.45256,-2742741.29215,  -0.00169,   0.00224,   0.00018,479160800.00000,   0.00127,276018752.00000,  -0.00112,   0.00007,   0.00021,  64.00000,   2.00000
100579956.62805,517957311.30011,-2775315.95330,  -0.00168,   0.00225,   0.00018,479174496.00000,   0.00128,276032096.00000,  -0.00112,   0.00009,   0.00021,  96.00000,   2.00000
104065689.64518,519119589.84615,-2803219.71374,  -0.00167,   0.00226,   0.00018,479209664.00000,   0.00129,276045536.00000,  -0.00113,   0.00010,   0.00021, -64.00000,   2.00000
107531619.18995,520263215.58967,-2830603.31445,  -0.00166,   0.00227,   0.00018,479219296.00000,   0.00130,276058944.00000,  -0.00113,   0.00012,   0.00021, 288.00000,   2.00000
110992380.84463,521393032.91280,-2861527.55177,  -0.00165,   0.00229,   0.00018,479230528.00000,   0.00132,276072352.00000,  -0.00114,   0.00013,   0.00021,  96.00000,   2.00000
114452739.66565,522511248.98067,-2887638.46792,  -0.00164,   0.00230,   0.00018,479253536.00000,   0.00133,276085760.00000,  -0.00114,   0.00015,   0.00021,  64.00000,   2.00000
117884148.64822,523609172.30170,-2913053.57430,  -0.00163,   0.00231,   0.00018,479273728.00000,   0.00134,276099200.00000,  -0.00115,   0.00016,   0.00021,   0.00000,   2.00000
121327283.77737,524698969.29232,-2937786.05000,  -0.00162,   0.00233,   0.00017,479299808.00000,   0.00135,276112704.00000,  -0.00115,   0.00018,   0.00021,  32.00000,   2.00000
124727537.46675,525759587.22968,-2965974.92003,  -0.00161,   0.00234,   0.00017,479312896.00000,   0.00137,276126144.00000,  -0.00116,   0.00019,   0.00021,   0.00000,   2.00000
128100679.05779,526788277.60079,-2988946.52503,  -0.00161,   0.00235,   0.00017,479337312.00000,   0.00138,276139584.00000,  -0.00116,   0.00020,   0.00021, -64.00000,   2.00000
131443412.58849,527776691.20719,-3010345.15633,  -0.00160,   0.00236,   0.00017,479382432.00000,   0.00139,276153120.00000,  -0.00117,   0.00022,   0.00021, -64.00000,   2.00000
134747996.32989,528723467.51508,-3030658.80808,  -0.00159,   0.00238,   0.00017,479425952.00000,   0.00140,276166720.00000,  -0.00117,   0.00023,   0.00021,   0.00000,   2.00000
138023658.82569,529639498.88899,-3051263.79096,  -0.00158,   0.00239,   0.00017,479449312.00000,   0.00142,276180320.00000,  -0.00117,   0.00025,   0.00021,   0.00000,   2.00000
141297105.44449,530540345.42674,-3073185.07791,  -0.00157,   0.00240,   0.00017,479478528.00000,   0.00143,276193984.00000,  -0.00118,   0.00026,   0.00021, -64.00000,   2.00000
144552579.35931,531425258.69730,-3096762.60266,  -0.00156,   0.00242,   0.00017,479489024.00000,   0.00144,276207584.00000,  -0.00118,   0.00028,   0.00021,  96.00000,   2.00000
147806030.88871,532298240.11014,-3121532.93686,  -0.00155,   0.00243,   0.00017,479513824.00000,   0.00146,276221248.00000,  -0.00119,   0.00029,   0.00021, 160.00000,   2.00000
151040751.29218,533153046.70467,-3146804.42713,  -0.00154,   0.00244,   0.00017,479537440.00000,   0.00147,276234912.00000,  -0.00119,   0.00031,   0.00021, 160.00000,   2.00000
154251184.26766,533987433.92975,-3171930.47228,  -0.00153,   0.00245,   0.00017,479549088.00000,   0.00148,276248576.00000,  -0.00119,   0.00032,   0.00021, 160.00000,   2.00000
157449848.53193,534803427.23350,-3196343.30625,  -0.00152,   0.00247,   0.00017,479564128.00000,   0.00149,276262208.00000,  -0.00120,   0.00034,   0.00021,   0.00000,   2.00000
160625387.67855,535597968.56900,-3215507.18233,  -0.00151,   0.00248,   0.00017,479589344.00000,   0.00151,276275872.00000,  -0.00120,   0.00036,   0.00021, 160.00000,   2.00000
163773565.30282,536369590.42736,-3237495.22719,  -0.00151,   0.00249,   0.00017,479602720.00000,   0.00152,276289536.00000,  -0.00120,   0.00037,   0.00021,   0.00000,   2.00000
166910691.24320,537122411.48627,-3257972.86776,  -0.00150,   0.00250,   0.00017,479631584.00000,   0.00153,276303200.00000,  -0.00121,   0.00039,   0.00021, 160.00000,   2.00000
170021806.07224,537852632.17321,-3272816.43242,  -0.00149,   0.00252,   0.00017,479658848.00000,   0.00154,276316928.00000,  -0.00121,   0.00040,   0.00021,  96.00000,   2.00000
173099480.37804,538557750.95579,-3290452.22120,  -0.00148,   0.00253,   0.00017,479662528.00000,   0.00156,276330560.00000,  -0.00121,   0.00042,   0.00021,  32.00000,   2.00000
176165420.67920,539242863.55379,-3302409.51202,  -0.00147,   0.00254,   0.00017,479707200.00000,   0.00157,276344288.00000,  -0.00122,   0.00043,   0.00021,  64.00000,   2.00000
179195743.34210,539901907.95494,-3317299.60327,  -0.00146,   0.00255,   0.00016,479713696.00000,   0.00158,276357952.00000,  -0.00122,   0.00045,   0.00021,  64.00000,   2.00000
182211405.42564,540538879.68360,-3326643.33634,  -0.00145,   0.00257,   0.00016,479761824.00000,   0.00160,276371680.00000,  -0.00122,   0.00046,   0.00021,-128.00000,   2.00000
185189828.51290,541149495.10107,-3335034.41202,  -0.00144,   0.00258,   0.00016,479770976.00000,   0.00161,276385376.00000,  -0.00123,   0.00048,   0.00021, 448.00000,   1.00000
188135337.32737,541732876.75719,-3346468.08254,  -0.00143,   0.00259,   0.00016,479806816.00000,   0.00162,276399072.00000,  -0.00123,   0.00049,   0.00021,   0.00000,   2.00000
191047928.75028,542290553.65044,-3352870.99670,  -0.00142,   0.00260,   0.00016,479842464.00000,   0.00163,276412800.00000,  -0.00123,   0.00051,   0.00021, -32.00000,   2.00000
193938511.83866,542824555.13713,-3358637.64047,  -0.00141,   0.00262,   0.00016,479869856.00000,   0.00165,276426528.00000,  -0.00124,   0.00052,   0.00021, 128.00000,   2.00000
196793948.78611,543332276.80227,-3363997.07653,  -0.00140,   0.00263,   0.00016,479894368.00000,   0.00166,276440224.00000,  -0.00124,   0.00054,   0.00021, -96.00000,   2.00000
199630601.67273,543817833.54861,-3364913.42199,  -0.00139,   0.00264,   0.00016,479934752.00000,   0.00167,276453984.00000,  -0.00124,   0.00055,   0.00021,  64.00000,   2.00000
202420613.92885,544276456.76244,-3370028.83140,  -0.00138,   0.00265,   0.00016,479955200.00000,   0.00169,276467680.00000,  -0.00124,   0.00057,   0.00020,-224.00000,   2.00000
205194002.42486,544714842.63632,-3375245.34636,  -0.00137,   0.00266,   0.00016,479994240.00000,   0.00170,276481408.00000,  -0.00125,   0.00059,   0.00020,  96.00000,   2.00000
207949794.08565,545132666.72009,-3380885.96210,  -0.00136,   0.00268,   0.00016,480020288.00000,   0.00171,276495168.00000,  -0.00125,   0.00060,   0.00020, -32.00000,   2.00000
210663671.66781,545528164.44948,-3383105.39162,  -0.00136,   0.00269,   0.00016,480036928.00000,   0.00172,276508864.00000,  -0.00125,   0.00062,   0.00020, 128.00000,   2.00000
213364954.37545,545906005.20558,-3390107.21227,  -0.00135,   0.00270,   0.00016,480072832.00000,   0.00174,276522592.00000,  -0.00125,   0.00063,   0.00020,-192.00000,   2.00000
216040602.51747,546266035.19270,-3393913.99025,  -0.00134,   0.00271,   0.00016,480089920.00000,   0.00175,276536288.00000,  -0.00125,   0.00065,   0.00020,-128.00000,   2.00000
218691877.02106,546608751.99282,-3398717.39043,  -0.00133,   0.00272,   0.00016,480105888.00000,   0.00176,276549952.00000,  -0.00126,   0.00066,   0.00020,   0.00000,   2.00000
221334453.16217,546937136.04328,-3404410.12790,  -0.00132,   0.00274,   0.00016,480137152.00000,   0.00178,276563648.00000,  -0.00126,   0.00068,   0.00020,-160.00000,   2.00000
223954832.59323,547250418.91639,-3411088.20759,  -0.00131,   0.00275,   0.00016,480149664.00000,   0.00179,276577312.00000,  -0.00126,   0.00069,   0.00020, -96.00000,   2.00000
226553503.06564,547548746.61873,-3418667.17486,  -0.00130,   0.00276,   0.00016,480161184.00000,   0.00180,276590912.00000,  -0.00126,   0.00071,   0.00020,-192.00000,   2.00000
229132306.97616,547833300.17907,-3426948.59712,  -0.00129,   0.00277,   0.00016,480184192.00000,   0.00181,276604576.00000,  -0.00126,   0.00073,   0.00020,-224.00000,   2.00000
231702474.32085,548105203.87288,-3435840.76591,  -0.00128,   0.00278,   0.00016,480197984.00000,   0.00183,276618176.00000,  -0.00126,   0.00074,   0.00020,-160.00000,   2.00000
234238229.32805,548361992.52108,-3441112.21572,  -0.00127,   0.00280,   0.00016,480201984.00000,   0.00184,276631744.00000,  -0.00127,   0.00076,   0.00020, -32.00000,   2.00000
236765545.33735,548605916.70894,-3450690.31362,  -0.00126,   0.00281,   0.00016,480227744.00000,   0.00185,276645344.00000,  -0.00127,   0.00077,   0.00020,-128.00000,   2.00000
239281290.99304,548836549.97935,-3456291.70756,  -0.00125,   0.00282,   0.00016,480227424.00000,   0.00186,276658880.00000,  -0.00127,   0.00079,   0.00020,   0.00000,   2.00000
241762738.71413,549051867.10613,-3461709.08658,  -0.00124,   0.00283,   0.00015,480256608.00000,   0.00188,276672448.00000,  -0.00127,   0.00080,   0.00020, -64.00000,   2.00000
244230975.76485,549253070.47362,-3466935.16143,  -0.00123,   0.00284,   0.00015,480256384.00000,   0.00189,276685920.00000,  -0.00127,   0.00082,   0.00020,   0.00000,   2.00000
246662157.93476,549438138.47681,-3471740.42424,  -0.00122,   0.00285,   0.00015,480272448.00000,   0.00190,276699424.00000,  -0.00127,   0.00083,   0.00020,-160.00000,   2.00000
249079774.33923,549609012.04371,-3476028.67023,  -0.00121,   0.00286,   0.00015,480284992.00000,   0.00192,276712896.00000,  -0.00127,   0.00085,   0.00020,-224.00000,   2.00000
251470661.64455,549764376.04864,-3479738.76996,  -0.00120,   0.00288,   0.00015,480293184.00000,   0.00193,276726336.00000,  -0.00127,   0.00087,   0.00020,-128.00000,   2.00000
253847315.39818,549904843.47881,-3482702.84139,  -0.00119,   0.00289,   0.00015,480319392.00000,   0.00194,276739776.00000,  -0.00127,   0.00088,   0.00020,-192.00000,   2.00000
256183593.76867,550029267.43402,-3480992.37079,  -0.00118,   0.00290,   0.00015,480309824.00000,   0.00195,276753152.00000,  -0.00128,   0.00090,   0.00020,-128.00000,   2.00000
258504974.31618,550138893.08377,-3478501.59179,  -0.00117,   0.00291,   0.00015,480336160.00000,   0.00197,276766528.00000,  -0.00128,   0.00091,   0.00020,-192.00000,   2.00000
260798507.77332,550233216.52185,-3475322.78178,  -0.00116,   0.00292,   0.00015,480344704.00000,   0.00198,276779872.00000,  -0.00128,   0.00093,   0.00020, -96.00000,   2.00000
263064782.00684,550312778.29984,-3471367.20800,  -0.00115,   0.00293,   0.00015,480365760.00000,   0.00199,276793216.00000,  -0.00128,   0.00094,   0.00020, -64.00000,   2.00000
265303280.01902,550377677.04177,-3466800.46973,  -0.00114,   0.00294,   0.00015,480361472.00000,   0.00200,276806464.00000,  -0.00128,   0.00096,   0.00020,-160.00000,   2.00000
267515339.08186,550428958.65427,-3461467.61887,  -0.00113,   0.00296,   0.00015,480382496.00000,   0.00202,276819744.00000,  -0.00128,   0.00097,   0.00020, -96.00000,   2.00000
269701391.70167,550466939.46518,-3451390.95034,  -0.00112,   0.00297,   0.00015,480391136.00000,   0.00203,276832960.00000,  -0.00128,   0.00099,   0.00020,-128.00000,   2.00000
271874662.86487,550492917.05683,-3444746.04277,  -0.00111,   0.00298,   0.00015,480417856.00000,   0.00204,276846208.00000,  -0.00128,   0.00100,   0.00020,-224.00000,   2.00000
274013189.12624,550508013.39620,-3433702.71115,  -0.00110,   0.00299,   0.00015,480408288.00000,   0.00205,276859360.00000,  -0.00128,   0.00102,   0.00019,-192.00000,   2.00000
276142559.06688,550513234.21435,-3422344.74827,  -0.00109,   0.00300,   0.00015,480435488.00000,   0.00207,276872512.00000,  -0.00128,   0.00103,   0.00019,-224.00000,   2.00000
278253811.85852,550510200.35688,-3411227.55885,  -0.00108,   0.00301,   0.00015,480431712.00000,   0.00208,276885568.00000,  -0.00128,   0.00105,   0.00019, -64.00000,   2.00000
280349252.70991,550499932.30832,-3400570.51133,  -0.00107,   0.00302,   0.00015,480453856.00000,   0.00209,276898656.00000,  -0.00128,   0.00106,   0.00019,-256.00000,   2.00000
282431441.08925,550483622.29741,-3386830.90958,  -0.00107,   0.00303,   0.00015,480463232.00000,   0.00210,276911680.00000,  -0.00128,   0.00108,   0.00019,-192.00000,   2.00000
284501312.64986,550461473.52727,-3374452.43319,  -0.00106,   0.00304,   0.00015,480485312.00000,   0.00211,276924672.00000,  -0.00128,   0.00109,   0.00019, -32.00000,   2.00000
286558810.37894,550432482.24661,-3367940.40160,  -0.00105,   0.00305,   0.00015,480482208.00000,   0.00213,276937632.00000,  -0.00128,   0.00111,   0.00019,-128.00000,   2.00000
288601627.68848,550395831.06971,-3354769.00072,  -0.00104,   0.00306,   0.00015,480491296.00000,   0.00214,276950496.00000,  -0.00128,   0.00112,   0.00019, -96.00000,   2.00000
290637247.03019,550349309.27694,-3346792.29440,  -0.00103,   0.00308,   0.00015,480519168.00000,   0.00215,276963424.00000,  -0.00128,   0.00114,   0.00019,-160.00000,   2.00000
292639740.63433,550292391.43412,-3339439.70480,  -0.00102,   0.00309,   0.00015,480522336.00000,   0.00216,276976288.00000,  -0.00127,   0.00115,   0.00019, -32.00000,   2.00000
294618518.00781,550224137.23501,-3328014.72152,  -0.00101,   0.00310,   0.00015,480531168.00000,   0.00217,276989088.00000,  -0.00127,   0.00117,   0.00019,-224.00000,   2.00000
296584789.18756,550144763.12686,-3316260.53259,  -0.00100,   0.00311,   0.00015,480545600.00000,   0.00219,277001888.00000,  -0.00127,   0.00118,   0.00019,  32.00000,   2.00000
298516852.50192,550055368.74817,-3304134.55620,  -0.00099,   0.00312,   0.00015,480548256.00000,   0.00220,277014592.00000,  -0.00127,   0.00120,   0.00019,-128.00000,   2.00000
300439169.23050,549956253.29943,-3291599.96720,  -0.00098,   0.00313,   0.00015,480562016.00000,   0.00221,277027296.00000,  -0.00127,   0.00121,   0.00019,   0.00000,   2.00000
302330898.26958,549849128.01405,-3278840.65155,  -0.00097,   0.00314,   0.00015,480563520.00000,   0.00222,277039936.00000,  -0.00127,   0.00123,   0.00019,-128.00000,   2.00000
304214912.59727,549733673.27209,-3261691.45792,  -0.00096,   0.00315,   0.00015,480589568.00000,   0.00223,277052608.00000,  -0.00127,   0.00124,   0.00019,-160.00000,   2.00000
306071124.53952,549611041.82620,-3244648.57450,  -0.00095,   0.00316,   0.00015,480577728.00000,   0.00225,277065152.00000,  -0.00127,   0.00126,   0.00019,-128.00000,   2.00000
307909614.79642,549481365.42019,-3227578.91540,  -0.00094,   0.00317,   0.00015,480597248.00000,   0.00226,277077696.00000,  -0.00127,   0.00127,   0.00019,   0.00000,   2.00000
309742794.76357,549343000.94626,-3210693.56856,  -0.00093,   0.00318,   0.00015,480597312.00000,   0.00227,277090208.00000,  -0.00127,   0.00128,   0.00019,-288.00000,   2.00000
311547403.94091,549198794.16509,-3189873.12898,  -0.00092,   0.00319,   0.00015,480609920.00000,   0.00228,277102656.00000,  -0.00126,   0.00130,   0.00019, -96.00000,   2.00000
313345857.36193,549046371.48120,-3173410.01666,  -0.00091,   0.00320,   0.00015,480622720.00000,   0.00229,277115104.00000,  -0.00126,   0.00131,   0.00019, -64.00000,   2.00000
315117934.00247,548888309.47171,-3153280.06184,  -0.00090,   0.00321,   0.00015,480609472.00000,   0.00231,277127424.00000,  -0.00126,   0.00133,   0.00019, -96.00000,   2.00000
316883087.51797,548722735.14765,-3133379.51830,  -0.00089,   0.00322,   0.00015,480635072.00000,   0.00232,277139776.00000,  -0.00126,   0.00134,   0.00019, -96.00000,   2.00000
318621292.79998,548552106.02873,-3109789.08429,  -0.00088,   0.00323,   0.00015,480635040.00000,   0.00233,277152064.00000,  -0.00126,   0.00136,   0.00019, -32.00000,   2.00000
320343373.61281,548375127.05704,-3090708.00516,  -0.00087,   0.00324,   0.00015,480641856.00000,   0.00234,277164288.00000,  -0.00126,   0.00137,   0.00019, -64.00000,   2.00000
322049784.00344,548192332.14585,-3067917.73133,  -0.00086,   0.00325,   0.00015,480648608.00000,   0.00235,277176480.00000,  -0.00126,   0.00138,   0.00019,-128.00000,   2.00000
323751119.38711,548002422.01804,-3045541.01249,  -0.00085,   0.00326,   0.00015,480662400.00000,   0.00236,277188640.00000,  -0.00125,   0.00140,   0.00019, -32.00000,   2.00000
325426405.01830,547807871.09383,-3019589.42421,  -0.00084,   0.00327,   0.00015,480663040.00000,   0.00237,277200736.00000,  -0.00125,   0.00141,   0.00019,   0.00000,   2.00000
327086181.59362,547607386.95822,-2998293.82635,  -0.00083,   0.00328,   0.00015,480670592.00000,   0.00239,277212800.00000,  -0.00125,   0.00142,   0.00019,-160.00000,   2.00000
328720159.82808,547402569.27734,-2973484.33488,  -0.00082,   0.00329,   0.00015,480671232.00000,   0.00240,277224800.00000,  -0.00125,   0.00144,   0.00019, -96.00000,   2.00000
330348765.31323,547190366.13955,-2949243.80814,  -0.00081,   0.00330,   0.00015,480685760.00000,   0.00241,277236768.00000,  -0.00125,   0.00145,   0.00018,-128.00000,   2.00000
331962938.50791,546972021.91303,-2921577.23711,  -0.00080,   0.00331,   0.00015,480680416.00000,   0.00242,277248640.00000,  -0.00124,   0.00147,   0.00018,  32.00000,   2.00000
333559238.97952,546747708.24600,-2894474.59960,  -0.00079,   0.00332,   0.00015,480700608.00000,   0.00243,277260512.00000,  -0.00124,   0.00148,   0.00018, -32.00000,   2.00000
335128892.68916,546518785.29364,-2872100.85226,  -0.00078,   0.00333,   0.00015,480700960.00000,   0.00244,277272320.00000,  -0.00124,   0.00149,   0.00018,-160.00000,   2.00000
336681980.81640,546283725.88203,-2842057.97588,  -0.00077,   0.00334,   0.00015,480707680.00000,   0.00245,277284096.00000,  -0.00124,   0.00151,   0.00018,-192.00000,   2.00000
338228486.90497,546040979.66068,-2816650.89065,  -0.00076,   0.00334,   0.00015,480721376.00000,   0.00246,277295840.00000,  -0.00124,   0.00152,   0.00018, -64.00000,   2.00000
339748380.14278,545793897.15169,-2787682.66121,  -0.00075,   0.00335,   0.00015,480720512.00000,   0.00248,277307552.00000,  -0.00123,   0.00153,   0.00018, -96.00000,   2.00000
341243734.40510,545542139.75215,-2759326.29696,  -0.00074,   0.00336,   0.00015,480706496.00000,   0.00249,277319104.00000,  -0.00123,   0.00155,   0.00018,-256.00000,   2.00000
342731393.35876,545283343.48653,-2731410.59975,  -0.00073,   0.00337,   0.00015,480731488.00000,   0.00250,277330720.00000,  -0.00123,   0.00156,   0.00018,-224.00000,   2.00000
344203626.24362,545019155.56093,-2699929.55492,  -0.00072,   0.00338,   0.00015,480736000.00000,   0.00251,277342272.00000,  -0.00123,   0.00157,   0.00018,-160.00000,   2.00000
345652956.53319,544751041.99964,-2669100.50197,  -0.00071,   0.00339,   0.00015,480720352.00000,   0.00252,277353728.00000,  -0.00122,   0.00159,   0.00018, -96.00000,   2.00000
347086131.23349,544478423.09948,-2638785.07610,  -0.00070,   0.00340,   0.00015,480736672.00000,   0.00253,277365184.00000,  -0.00122,   0.00160,   0.00018, -96.00000,   2.00000
348507378.31631,544200519.71364,-2609058.54903,  -0.00069,   0.00341,   0.00015,480727232.00000,   0.00254,277376544.00000,  -0.00122,   0.00161,   0.00018, -64.00000,   2.00000
349913242.50527,543918505.95250,-2575673.23660,  -0.00068,   0.00342,   0.00015,480742496.00000,   0.00255,277387904.00000,  -0.00122,   0.00162,   0.00018, -32.00000,   2.00000
351308003.57212,543631566.48029,-2542780.83479,  -0.00067,   0.00343,   0.00015,480732224.00000,   0.00256,277399168.00000,  -0.00121,   0.00164,   0.00018, -64.00000,   2.00000
352680552.39803,543342562.44991,-2510262.07098,  -0.00066,   0.00343,   0.00015,480726944.00000,   0.00257,277410400.00000,  -0.00121,   0.00165,   0.00018,-160.00000,   2.00000
354040675.35365,543049476.30917,-2473872.66773,  -0.00065,   0.00344,   0.00015,480728640.00000,   0.00258,277421568.00000,  -0.00121,   0.00166,   0.00018,-128.00000,   2.00000
355388547.29281,542752356.90815,-2437624.51157,  -0.00065,   0.00345,   0.00015,480730336.00000,   0.00259,277432704.00000,  -0.00120,   0.00168,   0.00018, -96.00000,   2.00000
356724456.13509,542451417.97611,-2401394.57843,  -0.00064,   0.00346,   0.00015,480731712.00000,   0.00260,277443776.00000,  -0.00120,   0.00169,   0.00018,-160.00000,   2.00000
358048667.63850,542146787.32253,-2360960.74862,  -0.00063,   0.00347,   0.00015,480732736.00000,   0.00262,277454816.00000,  -0.00120,   0.00170,   0.00018, -96.00000,   2.00000
359354396.66459,541840168.66031,-2320429.28374,  -0.00062,   0.00348,   0.00015,480713792.00000,   0.00263,277465760.00000,  -0.00119,   0.00171,   0.00018, -32.00000,   2.00000
360646939.68437,541530700.40477,-2279599.69630,  -0.00061,   0.00349,   0.00015,480727040.00000,   0.00264,277476672.00000,  -0.00119,   0.00173,   0.00018, -32.00000,   2.00000
361931129.72045,541217212.66773,-2234389.79685,  -0.00060,   0.00349,   0.00015,480715136.00000,   0.00265,277487520.00000,  -0.00119,   0.00174,   0.00018,   0.00000,   2.00000
363193667.33301,540903459.87329,-2188828.30086,  -0.00059,   0.00350,   0.00015,480720384.00000,   0.00266,277498368.00000,  -0.00119,   0.00175,   0.00018,-160.00000,   2.00000
364448875.31289,540586060.97091,-2142952.84610,  -0.00058,   0.00351,   0.00015,480708064.00000,   0.00267,277509088.00000,  -0.00118,   0.00176,   0.00018, -64.00000,   2.00000
365694718.45678,540265659.68769,-2096703.97836,  -0.00057,   0.00352,   0.00015,480708160.00000,   0.00268,277519808.00000,  -0.00118,   0.00177,   0.00018, -64.00000,   2.00000
366931640.86299,539942518.15519,-2045983.10671,  -0.00056,   0.00353,   0.00015,480708064.00000,   0.00269,277530432.00000,  -0.00118,   0.00179,   0.00018, 128.00000,   2.00000
368153251.34353,539618240.28055,-1990933.81680,  -0.00055,   0.00353,   0.00015,480687840.00000,   0.00270,277540992.00000,  -0.00117,   0.00180,   0.00018, -96.00000,   2.00000
369364124.78675,539292103.60956,-1939701.57625,  -0.00054,   0.00354,   0.00015,480699872.00000,   0.00271,277551552.00000,  -0.00117,   0.00181,   0.00018, -64.00000,   2.00000
370569413.05566,538962790.00705,-1884209.69395,  -0.00053,   0.00355,   0.00016,480687328.00000,   0.00272,277562016.00000,  -0.00117,   0.00182,   0.00018, 160.00000,   2.00000
371755099.68033,538633883.02605,-1828592.59627,  -0.00052,   0.00356,   0.00016,480691584.00000,   0.00273,277572448.00000,  -0.00116,   0.00183,   0.00018, -64.00000,   2.00000
372935551.89141,538301914.52275,-1768904.98819,  -0.00051,   0.00357,   0.00016,480679008.00000,   0.00274,277582784.00000,  -0.00116,   0.00184,   0.00018,-160.00000,   2.00000
374099431.56912,537970206.34328,-1709357.31324,  -0.00050,   0.00357,   0.00016,480670784.00000,   0.00275,277593088.00000,  -0.00116,   0.00186,   0.00018, -32.00000,   2.00000
375266561.95487,537632353.05545,-1650027.97620,  -0.00049,   0.00358,   0.00016,480666432.00000,   0.00276,277603296.00000,  -0.00115,   0.00187,   0.00018,   0.00000,   2.00000
376414295.36707,537295491.82532,-1586875.47924,  -0.00048,   0.00359,   0.00016,480670560.00000,   0.00277,277613504.00000,  -0.00115,   0.00188,   0.00018, -64.00000,   2.00000
377547927.90436,536958119.99462,-1524249.33718,  -0.00047,   0.00360,   0.00016,480650304.00000,   0.00278,277623616.00000,  -0.00115,   0.00189,   0.00018,  96.00000,   2.00000
378670552.60249,536619035.96213,-1462094.36827,  -0.00047,   0.00360,   0.00016,480662496.00000,   0.00278,277633696.00000,  -0.00114,   0.00190,   0.00018,   0.00000,   2.00000
379787287.66457,536276480.45521,-1396498.52442,  -0.00046,   0.00361,   0.00016,480650496.00000,   0.00279,277643712.00000,  -0.00114,   0.00191,   0.00018, -96.00000,   2.00000
380897991.83154,535930464.89842,-1331668.45660,  -0.00045,   0.00362,   0.00016,480638496.00000,   0.00280,277653664.00000,  -0.00113,   0.00192,   0.00018,-160.00000,   2.00000
381988646.43798,535585698.10661,-1263483.82924,  -0.00044,   0.00363,   0.00016,480642752.00000,   0.00281,277663552.00000,  -0.00113,   0.00193,   0.00018, -64.00000,   2.00000
383065396.10146,535241257.23118,-1196206.69457,  -0.00043,   0.00363,   0.00016,480623040.00000,   0.00282,277673344.00000,  -0.00113,   0.00194,   0.00018, 800.00000,   1.00000
384129167.12996,534893344.81294,-1129719.20328,  -0.00042,   0.00364,   0.00016,480636192.00000,   0.00283,277683136.00000,  -0.00112,   0.00196,   0.00018, 128.00000,   1.00000
385186761.08612,534541740.04731,-1059991.15948,  -0.00041,   0.00365,   0.00016,480623712.00000,   0.00284,277692864.00000,  -0.00112,   0.00197,   0.00018,-800.00000,   1.00000
386239888.36520,534188654.86455,-991111.90851,  -0.00040,   0.00365,   0.00016,480611200.00000,   0.00285,277702496.00000,  -0.00112,   0.00198,   0.00018, 128.00000,   2.00000
387272749.06943,533835854.23583,-922951.32117,  -0.00039,   0.00366,   0.00017,480616032.00000,   0.00286,277712128.00000,  -0.00111,   0.00199,   0.00018, -64.00000,   2.00000
388292737.58064,533482737.47943,-851373.06153,  -0.00038,   0.00367,   0.00017,480595872.00000,   0.00287,277721632.00000,  -0.00111,   0.00200,   0.00018,   0.00000,   2.00000
389302704.77073,533128240.44261,-780321.63005,  -0.00037,   0.00367,   0.00017,480607552.00000,   0.00288,277731136.00000,  -0.00111,   0.00201,   0.00018,  64.00000,   2.00000
390312482.42027,532769489.93894,-705656.01021,  -0.00036,   0.00368,   0.00017,480583168.00000,   0.00289,277740544.00000,  -0.00110,   0.00202,   0.00018,  32.00000,   2.00000
391305557.02056,532412386.38377,-631355.07867,  -0.00036,   0.00369,   0.00017,480586176.00000,   0.00290,277749888.00000,  -0.00110,   0.00203,   0.00018,  32.00000,   2.00000
392285971.80130,532056287.57329,-557375.30205,  -0.00035,   0.00369,   0.00017,480576768.00000,   0.00290,277759200.00000,  -0.00109,   0.00204,   0.00018,  64.00000,   2.00000
393265372.75296,531697077.71605,-479584.83421,  -0.00034,   0.00370,   0.00017,480563456.00000,   0.00291,277768416.00000,  -0.00109,   0.00205,   0.00018, -32.00000,   2.00000
394240994.31962,531335935.70510,-402121.06488,  -0.00033,   0.00371,   0.00017,480561952.00000,   0.00292,277777600.00000,  -0.00109,   0.00206,   0.00018, -96.00000,   2.00000
395207893.29384,530974724.59306,-320958.83936,  -0.00032,   0.00371,   0.00017,480540192.00000,   0.00293,277786656.00000,  -0.00108,   0.00207,   0.00018, -96.00000,   2.00000
396167951.95941,530613074.55635,-240282.97848,  -0.00031,   0.00372,   0.00017,480550208.00000,   0.00294,277795744.00000,  -0.00108,   0.00208,   0.00018,  32.00000,   2.00000
397118705.57306,530251172.32323,-156093.85818,  -0.00030,   0.00373,   0.00017,480528832.00000,   0.00295,277804704.00000,  -0.00107,   0.00209,   0.00018,   0.00000,   2.00000
398057118.46352,529890727.91969,-76694.14111,  -0.00029,   0.00373,   0.00018,480519136.00000,   0.00296,277813600.00000,  -0.00107,   0.00210,   0.00018,  96.00000,   2.00000
398990459.83487,529528209.92892,10223.72190,  -0.00028,   0.00374,   0.00018,480517920.00000,   0.00296,277822496.00000,  -0.00107,   0.00211,   0.00018, -64.00000,   2.00000
399921736.76326,529162522.25218,92260.47362,  -0.00028,   0.00374,   0.00018,480505024.00000,   0.00297,277831264.00000,  -0.00106,   0.00212,   0.00018,  32.00000,   2.00000
400839923.14688,528798100.81841,181778.31358,  -0.00027,   0.00375,   0.00018,480495840.00000,   0.00298,277840000.00000,  -0.00106,   0.00213,   0.00018, 224.00000,   2.00000
401744840.94471,528434594.86370,266420.02164,  -0.00026,   0.00376,   0.00018,480486528.00000,   0.00299,277848640.00000,  -0.00106,   0.00214,   0.00018, -32.00000,   2.00000
402644706.46219,528069389.54823,354457.53980,  -0.00025,   0.00376,   0.00018,480485504.00000,   0.00300,277857280.00000,  -0.00105,   0.00214,   0.00018,-160.00000,   2.00000
403534957.63203,527703969.94930,445933.35868,  -0.00024,   0.00377,   0.00018,480464608.00000,   0.00301,277865792.00000,  -0.00105,   0.00215,   0.00018,  64.00000,   2.00000
404420246.68427,527336555.25590,532611.05665,  -0.00023,   0.00377,   0.00018,480463712.00000,   0.00301,277874272.00000,  -0.00104,   0.00216,   0.00018, -64.00000,   2.00000
405293211.99521,526970468.57256,626904.41964,  -0.00022,   0.00378,   0.00019,480454464.00000,   0.00302,277882688.00000,  -0.00104,   0.00217,   0.00018,  64.00000,   2.00000
406161613.56046,526602461.87212,716449.97632,  -0.00021,   0.00379,   0.00019,480453536.00000,   0.00303,277891040.00000,  -0.00104,   0.00218,   0.00018,  64.00000,   2.00000
407013774.96338,526237397.97642,813714.73373,  -0.00021,   0.00379,   0.00019,480424160.00000,   0.00304,277899296.00000,  -0.00103,   0.00219,   0.00018, -32.00000,   2.00000
407869289.46658,525867220.27330,906252.87572,  -0.00020,   0.00380,   0.00019,480431584.00000,   0.00305,277907520.00000,  -0.00103,   0.00220,   0.00018,  64.00000,   2.00000
408709153.18639,525500150.08657,1002449.44084,  -0.00019,   0.00380,   0.00019,480402144.00000,   0.00305,277915648.00000,  -0.00102,   0.00221,   0.00018,   0.00000,   2.00000
409541728.78740,525132610.83880,1102184.58513,  -0.00018,   0.00381,   0.00019,480412736.00000,   0.00306,277923744.00000,  -0.00102,   0.00222,   0.00018, -32.00000,   2.00000
410373960.30219,524761722.46138,1201421.36526,  -0.00017,   0.00381,   0.00019,480400128.00000,   0.00307,277931776.00000,  -0.00102,   0.00222,   0.00018, 128.00000,   2.00000
411195165.07595,524392268.39895,1300171.40203,  -0.00016,   0.00382,   0.00019,480390688.00000,   0.00308,277939744.00000,  -0.00101,   0.00223,   0.00018, 128.00000,   2.00000
412008595.73712,524022228.19120,1402608.89756,  -0.00016,   0.00382,   0.00020,480369504.00000,   0.00308,277947616.00000,  -0.00101,   0.00224,   0.00018,  32.00000,   2.00000
412811398.10237,523653719.03185,1504573.87239,  -0.00015,   0.00383,   0.00020,480359488.00000,   0.00309,277955424.00000,  -0.00100,   0.00225,   0.00018, -32.00000,   2.00000
413610855.32607,523283268.08123,1610154.02346,  -0.00014,   0.00383,   0.00020,480358336.00000,   0.00310,277963168.00000,  -0.00100,   0.00226,   0.00018, -32.00000,   2.00000
414399669.47760,522914036.04687,1715259.48055,  -0.00013,   0.00384,   0.00020,480348352.00000,   0.00311,277970880.00000,  -0.00100,   0.00227,   0.00018,-160.00000,   2.00000
415188880.17796,522541318.91351,1824026.50922,  -0.00012,   0.00384,   0.00020,480335648.00000,   0.00311,277978496.00000,  -0.00099,   0.00227,   0.00018, -32.00000,   2.00000
415960636.82189,522173329.69545,1932355.56989,  -0.00011,   0.00385,   0.00020,480316864.00000,   0.00312,277986048.00000,  -0.00099,   0.00228,   0.00018, 192.00000,   2.00000
416732753.62032,521801389.15369,2040224.64392,  -0.00011,   0.00385,   0.00021,480303936.00000,   0.00313,277993504.00000,  -0.00098,   0.00229,   0.00018,  64.00000,   2.00000
417498363.70763,521429079.54453,2155741.08130,  -0.00010,   0.00386,   0.00021,480313888.00000,   0.00313,278000960.00000,  -0.00098,   0.00230,   0.00018,  64.00000,   2.00000
418250513.48007,521059764.69751,2266744.10124,  -0.00009,   0.00386,   0.00021,480283072.00000,   0.00314,278008320.00000,  -0.00098,   0.00231,   0.00018,   0.00000,   2.00000
419003542.92531,520686645.18027,2381393.13690,  -0.00008,   0.00386,   0.00021,480269536.00000,   0.00315,278015584.00000,  -0.00097,   0.00231,   0.00018,  96.00000,   2.00000
419750237.86427,520313076.99496,2499525.92357,  -0.00007,   0.00387,   0.00021,480279264.00000,   0.00316,278022848.00000,  -0.00097,   0.00232,   0.00018,  32.00000,   2.00000
420483964.11409,519942421.53251,2613150.91293,  -0.00007,   0.00387,   0.00021,480247968.00000,   0.00316,278029984.00000,  -0.00097,   0.00233,   0.00018, -64.00000,   2.00000
421215376.28621,519569757.38166,2734450.36338,  -0.00006,   0.00388,   0.00022,480245632.00000,   0.00317,278037088.00000,  -0.00096,   0.00234,   0.00018,  96.00000,   2.00000
421941096.49344,519196489.70060,2855295.54210,  -0.00005,   0.00388,   0.00022,480223072.00000,   0.00318,278044096.00000,  -0.00096,   0.00234,   0.00018,   0.00000,   2.00000
422657678.91626,518824468.90051,2975615.74767,  -0.00004,   0.00389,   0.00022,480211776.00000,   0.00318,278051008.00000,  -0.00095,   0.00235,   0.00018, 128.00000,   2.00000
423372002.22476,518450063.35238,3099462.52472,  -0.00003,   0.00389,   0.00022,480209152.00000,   0.00319,278057920.00000,  -0.00095,   0.00236,   0.00018, -64.00000,   2.00000
424074576.81934,518078860.64948,3222941.25086,  -0.00003,   0.00389,   0.00022,480176928.00000,   0.00320,278064704.00000,  -0.00095,   0.00236,   0.00018, -64.00000,   2.00000
424775075.22190,517705152.15349,3349941.10760,  -0.00002,   0.00390,   0.00022,480174240.00000,   0.00320,278071456.00000,  -0.00094,   0.00237,   0.00018, -96.00000,   2.00000
425467283.33827,517333038.14389,3476413.42612,  -0.00001,   0.00390,   0.00023,480162048.00000,   0.00321,278078144.00000,  -0.00094,   0.00238,   0.00018,  64.00000,   2.00000
426161320.72400,516956473.42061,3606503.19352,  -0.00000,   0.00391,   0.00023,480147808.00000,   0.00322,278084736.00000,  -0.00094,   0.00238,   0.00018,  64.00000,   2.00000
426836779.56635,516586835.19258,3736046.18206,   0.00000,   0.00391,   0.00023,480137952.00000,   0.00322,278091296.00000,  -0.00093,   0.00239,   0.00018, -32.00000,   2.00000
427518168.58534,516210828.36967,3869327.78672,   0.00001,   0.00391,   0.00023,480112000.00000,   0.00323,278097760.00000,  -0.00093,   0.00240,   0.00018,  96.00000,   2.00000
428187895.33593,515838187.37175,4001983.36983,   0.00002,   0.00392,   0.00023,480110976.00000,   0.00323,278104160.00000,  -0.00092,   0.00240,   0.00018, -32.00000,   2.00000
428853423.35448,515464666.87807,4138373.28694,   0.00003,   0.00392,   0.00024,480087232.00000,   0.00324,278110496.00000,  -0.00092,   0.00241,   0.00018, -32.00000,   2.00000
429514994.25676,515090352.11844,4274386.91610,   0.00003,   0.00392,   0.00024,480063232.00000,   0.00325,278116704.00000,  -0.00092,   0.00242,   0.00018, -32.00000,   2.00000
430171643.82346,514715624.89942,4413807.72472,   0.00004,   0.00393,   0.00024,480071072.00000,   0.00325,278122944.00000,  -0.00091,   0.00242,   0.00018,-160.00000,   2.00000
430824746.92039,514340275.02817,4552875.80516,   0.00005,   0.00393,   0.00024,480046816.00000,   0.00326,278129056.00000,  -0.00091,   0.00243,   0.00018, -64.00000,   2.00000
431464016.61844,513969797.61509,4695703.45992,   0.00006,   0.00393,   0.00024,480025024.00000,   0.00326,278135104.00000,  -0.00091,   0.00244,   0.00018,  96.00000,   2.00000
432106223.73024,513594634.92013,4838094.61067,   0.00006,   0.00394,   0.00025,480010048.00000,   0.00327,278141088.00000,  -0.00090,   0.00244,   0.00018,  96.00000,   2.00000
432741403.93230,513220806.66785,4980043.23761,   0.00007,   0.00394,   0.00025,479997024.00000,   0.00327,278146976.00000,  -0.00090,   0.00245,   0.00018,  64.00000,   2.00000
433369356.66372,512847910.22926,5129797.69200,   0.00008,   0.00394,   0.00025,479984160.00000,   0.00328,278152832.00000,  -0.00090,   0.00245,   0.00018,   0.00000,   2.00000
434000743.01125,512470517.96268,5275022.05580,   0.00008,   0.00394,   0.00025,479968736.00000,   0.00329,278158592.00000,  -0.00089,   0.00246,   0.00018, -32.00000,   2.00000
434618903.50020,512097905.27488,5424084.00257,   0.00009,   0.00395,   0.00026,479946528.00000,   0.00329,278164288.00000,  -0.00089,   0.00246,   0.00019,  32.00000,   2.00000
435236573.33511,511722624.89453,5576727.29228,   0.00010,   0.00395,   0.00026,479942560.00000,   0.00330,278169920.00000,  -0.00088,   0.00247,   0.00019,  32.00000,   2.00000
435845223.97326,511349960.38579,5729266.42233,   0.00010,   0.00395,   0.00026,479908736.00000,   0.00330,278175456.00000,  -0.00088,   0.00248,   0.00019,-128.00000,   2.00000
436453590.28350,510974644.19156,5885402.93795,   0.00011,   0.00396,   0.00026,479904672.00000,   0.00331,278180928.00000,  -0.00088,   0.00248,   0.00019,  32.00000,   2.00000
437055686.91033,510600629.20411,6041159.09352,   0.00012,   0.00396,   0.00027,479891200.00000,   0.00331,278186368.00000,  -0.00087,   0.00249,   0.00019,  96.00000,   2.00000
437655114.47015,510225130.68816,6196724.68991,   0.00013,   0.00396,   0.00027,479866624.00000,   0.00332,278191680.00000,  -0.00087,   0.00249,   0.00019,  32.00000,   2.00000
438248208.64924,509850592.47662,6360183.06758,   0.00013,   0.00396,   0.00027,479853184.00000,   0.00332,278196960.00000,  -0.00087,   0.00250,   0.00019,  32.00000,   2.00000
438835372.91775,509477371.75755,6519165.83902,   0.00014,   0.00396,   0.00027,479839392.00000,   0.00333,278202176.00000,  -0.00086,   0.00250,   0.00019,  32.00000,   2.00000
439420167.54535,509102556.70596,6682130.09944,   0.00015,   0.00397,   0.00027,479814784.00000,   0.00333,278207264.00000,  -0.00086,   0.00251,   0.00019,   0.00000,   2.00000
439998806.70003,508728543.04867,6848888.88317,   0.00015,   0.00397,   0.00028,479801056.00000,   0.00334,278212320.00000,  -0.00086,   0.00251,   0.00019, -64.00000,   2.00000
440575595.24435,508353251.34947,7015531.15286,   0.00016,   0.00397,   0.00028,479775904.00000,   0.00334,278217280.00000,  -0.00086,   0.00252,   0.00019,  32.00000,   2.00000
441146363.92553,507978684.31464,7185989.21228,   0.00016,   0.00397,   0.00028,479762336.00000,   0.00335,278222176.00000,  -0.00085,   0.00252,   0.00019,  32.00000,   2.00000
441717369.05221,507601250.38509,7355971.15867,   0.00017,   0.00398,   0.00028,479757536.00000,   0.00335,278227040.00000,  -0.00085,   0.00253,   0.00019, -64.00000,   2.00000
442276767.90899,507228621.64902,7529969.32469,   0.00018,   0.00398,   0.00029,479734304.00000,   0.00336,278231776.00000,  -0.00085,   0.00253,   0.00019, 128.00000,   2.00000
442834368.29494,506854200.79333,7703903.47124,   0.00018,   0.00398,   0.00029,479709120.00000,   0.00336,278236448.00000,  -0.00084,   0.00254,   0.00019,  96.00000,   2.00000
443392445.15659,506476925.06353,7877388.31687,   0.00019,   0.00398,   0.00029,479704192.00000,   0.00336,278241088.00000,  -0.00084,   0.00254,   0.00019,  64.00000,   2.00000
443942644.62320,506101233.95594,8059281.77969,   0.00020,   0.00398,   0.00030,479669888.00000,   0.00337,278245600.00000,  -0.00084,   0.00255,   0.00019,  32.00000,   2.00000
444487810.76646,505726750.01134,8236807.99815,   0.00020,   0.00398,   0.00030,479655168.00000,   0.00337,278250048.00000,  -0.00083,   0.00255,   0.00019,  96.00000,   2.00000
445033270.28151,505348935.52769,8418024.71748,   0.00021,   0.00399,   0.00030,479650528.00000,   0.00338,278254496.00000,  -0.00083,   0.00255,   0.00019,  64.00000,   2.00000
445567554.30254,504975622.98045,8603345.80006,   0.00021,   0.00399,   0.00030,479626560.00000,   0.00338,278258816.00000,  -0.00083,   0.00256,   0.00019,  32.00000,   2.00000
446100652.60785,504600404.16859,8788699.46498,   0.00022,   0.00399,   0.00031,479600896.00000,   0.00339,278263040.00000,  -0.00083,   0.00256,   0.00019,   0.00000,   2.00000
446638100.11962,504219027.79579,8978010.06975,   0.00023,   0.00399,   0.00031,479584928.00000,   0.00339,278267200.00000,  -0.00082,   0.00257,   0.00019,  64.00000,   2.00000
447160888.41563,503845017.37672,9167095.14643,   0.00023,   0.00399,   0.00031,479571680.00000,   0.00339,278271328.00000,  -0.00082,   0.00257,   0.00019,  32.00000,   2.00000
447682575.62968,503468790.39604,9360390.45153,   0.00024,   0.00399,   0.00032,479545920.00000,   0.00340,278275328.00000,  -0.00082,   0.00257,   0.00019, 128.00000,   2.00000
448199380.14075,503093180.88274,9553521.30265,   0.00024,   0.00399,   0.00032,479531072.00000,   0.00340,278279296.00000,  -0.00081,   0.00258,   0.00019,  32.00000,   2.00000
448715026.16917,502715018.16239,9750894.73694,   0.00025,   0.00399,   0.00032,479505280.00000,   0.00341,278283168.00000,  -0.00081,   0.00258,   0.00019,  64.00000,   2.00000
449226028.36459,502337529.93552,9948134.55814,   0.00026,   0.00399,   0.00032,479490016.00000,   0.00341,278286944.00000,  -0.00081,   0.00258,   0.00019,  64.00000,   2.00000
449732092.03737,501960274.20516,10149374.05766,   0.00026,   0.00400,   0.00033,479475200.00000,   0.00341,278290688.00000,  -0.00081,   0.00259,   0.00020, -32.00000,   2.00000
450237660.92154,501580820.09585,10350796.19844,   0.00027,   0.00400,   0.00033,479448896.00000,   0.00342,278294336.00000,  -0.00080,   0.00259,   0.00020,  32.00000,   2.00000
450738379.69256,501201482.49279,10556247.62141,   0.00027,   0.00400,   0.00033,479433824.00000,   0.00342,278297920.00000,  -0.00080,   0.00260,   0.00020,   0.00000,   2.00000
451234690.36865,500822658.92393,10761622.55243,   0.00028,   0.00400,   0.00034,479418400.00000,   0.00342,278301440.00000,  -0.00080,   0.00260,   0.00020,   0.00000,   2.00000
451730606.38361,500441346.30834,10967244.57692,   0.00028,   0.00400,   0.00034,479392000.00000,   0.00343,278304864.00000,  -0.00080,   0.00260,   0.00020,  32.00000,   2.00000
452216169.24358,500063729.57459,11181341.78487,   0.00029,   0.00400,   0.00034,479367264.00000,   0.00343,278308224.00000,  -0.00079,   0.00261,   0.00020,  32.00000,   2.00000
452703254.11774,499682863.55744,11391013.71098,   0.00029,   0.00400,   0.00035,479360928.00000,   0.00343,278311520.00000,  -0.00079,   0.00261,   0.00020,  96.00000,   2.00000
453184208.83752,499302701.86370,11609525.69542,   0.00030,   0.00400,   0.00035,479325120.00000,   0.00344,278314688.00000,  -0.00079,   0.00261,   0.00020,  64.00000,   2.00000
453666569.41588,498918992.10019,11823631.84796,   0.00030,   0.00400,   0.00035,479318688.00000,   0.00344,278317856.00000,  -0.00079,   0.00261,   0.00020, -64.00000,   2.00000
454139448.95669,498539450.06715,12042193.79108,   0.00031,   0.00400,   0.00036,479293216.00000,   0.00344,278320928.00000,  -0.00079,   0.00262,   0.00020, -64.00000,   2.00000
454608023.24232,498159754.07486,12264922.72783,   0.00031,   0.00400,   0.00036,479277504.00000,   0.00344,278323904.00000,  -0.00078,   0.00262,   0.00020,  32.00000,   2.00000
455076759.31356,497777228.97851,12488061.73906,   0.00032,   0.00400,   0.00036,479250752.00000,   0.00345,278326816.00000,  -0.00078,   0.00262,   0.00020,  64.00000,   2.00000
455545276.55811,497391318.48300,12715756.16678,   0.00032,   0.00400,   0.00037,479224032.00000,   0.00345,278329632.00000,  -0.00078,   0.00263,   0.00020, 160.00000,   2.00000
456005943.09323,497008592.11118,12943202.88609,   0.00033,   0.00400,   0.00037,479218592.00000,   0.00345,278332416.00000,  -0.00078,   0.00263,   0.00020,   0.00000,   2.00000
456461489.33030,496626600.95119,13175586.78422,   0.00033,   0.00400,   0.00037,479181824.00000,   0.00345,278335104.00000,  -0.00078,   0.00263,   0.00020, 160.00000,   2.00000
456918447.79495,496240463.26169,13407784.73762,   0.00034,   0.00400,   0.00038,479175264.00000,   0.00346,278337728.00000,  -0.00077,   0.00263,   0.00020, -64.00000,   2.00000
457370414.66868,495854907.79588,13644985.22128,   0.00034,   0.00400,   0.00038,479138496.00000,   0.00346,278340224.00000,  -0.00077,   0.00263,   0.00020,  32.00000,   2.00000
457818818.08479,495469267.07417,13882380.55907,   0.00035,   0.00400,   0.00038,479121920.00000,   0.00346,278342688.00000,  -0.00077,   0.00264,   0.00020,  32.00000,   2.00000
458263768.57916,495083568.04198,14119996.28815,   0.00035,   0.00400,   0.00039,479105184.00000,   0.00346,278345088.00000,  -0.00077,   0.00264,   0.00020,   0.00000,   2.00000
458705106.26225,494697541.73001,14361976.32550,   0.00036,   0.00400,   0.00039,479088800.00000,   0.00347,278347392.00000,  -0.00077,   0.00264,   0.00020, 128.00000,   2.00000
459141501.32522,494311543.97231,14609085.93601,   0.00036,   0.00400,   0.00039,479051840.00000,   0.00347,278349600.00000,  -0.00077,   0.00264,   0.00020,  96.00000,   2.00000
459579670.81219,493921304.56072,14856112.06663,   0.00036,   0.00400,   0.00040,479044768.00000,   0.00347,278351808.00000,  -0.00076,   0.00265,   0.00020, -32.00000,   2.00000
460013227.97569,493531172.47671,15108345.84364,   0.00037,   0.00400,   0.00040,479007488.00000,   0.00347,278353856.00000,  -0.00076,   0.00265,   0.00020,   0.00000,   2.00000
460439649.95963,493144202.53061,15360501.79924,   0.00037,   0.00400,   0.00040,479001024.00000,   0.00347,278355872.00000,  -0.00076,   0.00265,   0.00020, -32.00000,   2.00000
460867002.89174,492753582.84307,15613433.48905,   0.00038,   0.00399,   0.00041,478973216.00000,   0.00348,278357792.00000,  -0.00076,   0.00265,   0.00020,  64.00000,   2.00000
461294921.49146,492358795.33919,15871289.71475,   0.00038,   0.00399,   0.00041,478945824.00000,   0.00348,278359648.00000,  -0.00076,   0.00265,   0.00020,  96.00000,   2.00000
461710785.93000,491971052.52434,16129520.65205,   0.00039,   0.00399,   0.00041,478929184.00000,   0.00348,278361440.00000,  -0.00076,   0.00265,   0.00020,  32.00000,   2.00000
462132336.36929,491575039.00798,16392329.89316,   0.00039,   0.00399,   0.00042,478911552.00000,   0.00348,278363168.00000,  -0.00076,   0.00266,   0.00020, -32.00000,   2.00000
462549586.63999,491178625.43650,16660562.33407,   0.00039,   0.00399,   0.00042,478873952.00000,   0.00348,278364768.00000,  -0.00075,   0.00266,   0.00021,   0.00000,   2.00000
462959781.25809,490785021.17442,16928816.68872,   0.00040,   0.00399,   0.00043,478867040.00000,   0.00348,278366336.00000,  -0.00075,   0.00266,   0.00021, -96.00000,   2.00000
463366525.94243,490391642.24145,17198470.63380,   0.00040,   0.00399,   0.00043,478828608.00000,   0.00349,278367776.00000,  -0.00075,   0.00266,   0.00021, -96.00000,   2.00000
463774864.03034,489993069.39076,17472333.34978,   0.00040,   0.00399,   0.00043,478821344.00000,   0.00349,278369184.00000,  -0.00075,   0.00266,   0.00021, -32.00000,   2.00000
464175698.91338,489597997.72907,17747194.82899,   0.00041,   0.00398,   0.00044,478793696.00000,   0.00349,278370528.00000,  -0.00075,   0.00266,   0.00021,   0.00000,   2.00000
464577359.61536,489198100.62574,18027224.85682,   0.00041,   0.00398,   0.00044,478765728.00000,   0.00349,278371744.00000,  -0.00075,   0.00266,   0.00021,  64.00000,   2.00000
464976437.49096,488797532.23859,18307867.08670,   0.00041,   0.00398,   0.00044,478747840.00000,   0.00349,278372928.00000,  -0.00075,   0.00266,   0.00021,   0.00000,   2.00000
465368151.39823,488400265.86174,18589610.43369,   0.00042,   0.00398,   0.00045,478719840.00000,   0.00349,278374016.00000,  -0.00075,   0.00267,   0.00021,  64.00000,   2.00000
465756817.78281,488001648.87421,18876128.67983,   0.00042,   0.00398,   0.00045,478702272.00000,   0.00349,278375040.00000,  -0.00075,   0.00267,   0.00021,  96.00000,   2.00000
466145595.81758,487597010.53115,19167904.06919,   0.00042,   0.00398,   0.00046,478674016.00000,   0.00349,278376000.00000,  -0.00075,   0.00267,   0.00021,-992.00000,   1.00000
466532957.65516,487192572.37957,19460449.37474,   0.00043,   0.00397,   0.00046,478654816.00000,   0.00350,278376864.00000,  -0.00074,   0.00267,   0.00021,-800.00000,   1.00000
466913163.59279,486791220.52524,19754232.82689,   0.00043,   0.00397,   0.00046,478626560.00000,   0.00350,278377632.00000,  -0.00074,   0.00267,   0.00021,-704.00000,   1.00000
467299066.41719,486380403.81641,20052917.13618,   0.00043,   0.00397,   0.00047,478608448.00000,   0.00350,278378368.00000,  -0.00074,   0.00267,   0.00021,-768.00000,   1.00000
467678098.19056,485972761.74831,20352920.58630,   0.00044,   0.00397,   0.00047,478579872.00000,   0.00350,278379008.00000,  -0.00074,   0.00267,   0.00021,-608.00000,   1.00000
468049474.42709,485567353.85257,20658374.40718,   0.00044,   0.00397,   0.00048,478552064.00000,   0.00350,278379552.00000,  -0.00074,   0.00267,   0.00021,-672.00000,   1.00000
468423341.98512,485156876.23334,20964175.24215,   0.00044,   0.00396,   0.00048,478543520.00000,   0.00350,278380064.00000,  -0.00074,   0.00267,   0.00021,-544.00000,   1.00000
468793852.87824,484744899.61938,21276057.31843,   0.00045,   0.00396,   0.00048,478504896.00000,   0.00350,278380448.00000,  -0.00074,   0.00267,   0.00021,-352.00000,   1.00000
469162087.34243,484331597.90095,21588862.54896,   0.00045,   0.00396,   0.00049,478486304.00000,   0.00350,278380800.00000,  -0.00074,   0.00267,   0.00021,-384.00000,   1.00000
469523447.07743,483920927.30700,21903166.37140,   0.00045,   0.00396,   0.00049,478457600.00000,   0.00350,278381024.00000,  -0.00074,   0.00267,   0.00021,-256.00000,   1.00000
469886761.27227,483504369.70355,22222011.05262,   0.00045,   0.00396,   0.00050,478449408.00000,   0.00350,278381248.00000,  -0.00074,   0.00267,   0.00021,-160.00000,   1.00000
470242720.02544,483089761.15862,22546529.29887,   0.00046,   0.00395,   0.00050,478421152.00000,   0.00350,278381376.00000,  -0.00074,   0.00267,   0.00021,-128.00000,   1.00000
470596351.31209,482674089.29537,22869140.29721,   0.00046,   0.00395,   0.00051,478381056.00000,   0.00350,278381376.00000,  -0.00074,   0.00267,   0.00021,-320.00000,   0.00000
470943778.54108,482243941.29757,23195887.33400,   0.00046,   0.00395,   0.00051,478372448.00000,   0.00350,278381376.00000,  -0.00074,   0.00267,   0.00021,-8928.00000,   0.00000
471249845.38566,481772432.91537,23526770.40923,   0.00046,   0.00394,   0.00051,478324864.00000,   0.00350,278381376.00000,  -0.00074,   0.00267,   0.00021,-56512.00000,   0.00000
471541436.09571,481294720.47551,23857653.48445,   0.00047,   0.00394,   0.00052,478268512.00000,   0.00350,278381376.00000,  -0.00074,   0.00267,   0.00021,-112864.00000,   0.00000
471791666.42135,480775647.65125,24188536.55968,   0.00047,   0.00394,   0.00052,478172704.00000,   0.00350,278381376.00000,  -0.00074,   0.00267,   0.00021,-208672.00000,   0.00000
472021216.55479,480235894.63479,24523555.67335,   0.00047,   0.00394,   0.00053,478058368.00000,   0.00350,278381376.00000,  -0.00074,   0.00267,   0.00021,-323008.00000,   0.00000
472230086.49602,479675461.42612,24858574.78702,   0.00047,   0.00393,   0.00053,477925216.00000,   0.00350,278381376.00000,  -0.00074,   0.00267,   0.00021,-456160.00000,   0.00000
472418276.24506,479094348.02525,25197729.93912,   0.00047,   0.00393,   0.00054,477773536.00000,   0.00350,278381376.00000,  -0.00074,   0.00267,   0.00021,-607840.00000,   0.00000
472565105.60969,478471874.23998,25536885.09123,   0.00048,   0.00393,   0.00054,477582336.00000,   0.00350,278381376.00000,  -0.00074,   0.00267,   0.00021,-799040.00000,   0.00000
472697458.83978,477843196.39705,25876040.24334,   0.00048,   0.00392,   0.00054,477382400.00000,   0.00350,278381376.00000,  -0.00074,   0.00267,   0.00021,-998976.00000,   0.00000
472802927.82001,477179362.22737,26219331.43389,   0.00048,   0.00392,   0.00055,477153792.00000,   0.00350,278381376.00000,  -0.00074,   0.00267,   0.00021,-1227584.00000,   0.00000
472867036.41584,476474167.67330,26562622.62444,   0.00048,   0.00392,   0.00055,476885760.00000,   0.00350,278381376.00000,  -0.00074,   0.00267,   0.00021,-1495616.00000,   0.00000
472916668.87712,475762769.06156,26910049.85343,   0.00048,   0.00391,   0.00056,476609664.00000,   0.00350,278381376.00000,  -0.00074,   0.00267,   0.00021,-1771712.00000,   0.00000
472924940.95400,475010010.06541,27253341.04397,   0.00048,   0.00391,   0.00056,476293312.00000,   0.00350,278381376.00000,  -0.00074,   0.00267,   0.00021,-2088064.00000,   0.00000
472933213.03088,474257251.06927,27604904.31140,   0.00049,   0.00391,   0.00057,475980096.00000,   0.00350,278381376.00000,  -0.00074,   0.00267,   0.00021,-2401280.00000,   0.00000
472900124.72336,473463131.68873,27952331.54039,   0.00049,   0.00390,   0.00057,475626560.00000,   0.00350,278381376.00000,  -0.00074,   0.00267,   0.00021,-2754816.00000,   0.00000
472831880.08909,472642128.05832,28303894.80782,   0.00049,   0.00390,   0.00058,475244512.00000,   0.00350,278381376.00000,  -0.00074,   0.00267,   0.00021,-3136864.00000,   0.00000
472751227.33951,471792172.15883,28659594.11369,   0.00049,   0.00390,   0.00058,474844384.00000,   0.00350,278381376.00000,  -0.00074,   0.00267,   0.00021,-3536992.00000,   0.00000
472627146.18630,470923604.08636,29011157.38112,   0.00049,   0.00389,   0.00059,474414176.00000,   0.00350,278381376.00000,  -0.00074,   0.00267,   0.00021,-3967200.00000,   0.00000
472490656.91776,470026083.74480,29366856.68699,   0.00049,   0.00389,   0.00059,473965984.00000,   0.00350,278381376.00000,  -0.00074,   0.00267,   0.00021,-4415392.00000,   0.00000
472319011.32249,469101679.15339,29726692.03130,   0.00049,   0.00389,   0.00059,473489376.00000,   0.00350,278381376.00000,  -0.00074,   0.00267,   0.00021,-4892000.00000,   0.00000
472126685.53501,468156594.36977,30086527.37561,   0.00049,   0.00388,   0.00060,472993952.00000,   0.00350,278381376.00000,  -0.00074,   0.00267,   0.00021,-5387424.00000,   0.00000
471913679.55534,467190829.39395,30446362.71992,   0.00050,   0.00388,   0.00060,472479808.00000,   0.00350,278381376.00000,  -0.00074,   0.00267,   0.00021,-5901568.00000,   0.00000
471665517.24892,466198180.16827,30806198.06423,   0.00050,   0.00387,   0.00061,471936576.00000,   0.00350,278381376.00000,  -0.00074,   0.00267,   0.00021,-6444800.00000,   0.00000
471375994.55809,465164170.55818,31170169.44698,   0.00050,   0.00387,   0.00061,471354880.00000,   0.00350,278381376.00000,  -0.00074,   0.00267,   0.00021,-7026496.00000,   0.00000
471086471.86727,464130160.94810,31534140.82973,   0.00050,   0.00387,   0.00062,470775136.00000,   0.00350,278381376.00000,  -0.00074,   0.00267,   0.00021,-7606240.00000,   0.00000
470755588.79204,463054790.95361,31902248.25092,   0.00050,   0.00386,   0.00062,470157056.00000,   0.00350,278381376.00000,  -0.00074,   0.00267,   0.00021,-8224320.00000,   0.00000
470404025.52461,461958740.76692,32266219.63367,   0.00050,   0.00386,   0.00063,469519616.00000,   0.00350,278381376.00000,  -0.00074,   0.00267,   0.00021,-8861760.00000,   0.00000
470017305.93044,460835806.33037,32634327.05486,   0.00050,   0.00385,   0.00063,468854272.00000,   0.00350,278381376.00000,  -0.00074,   0.00267,   0.00021,-9527104.00000,   0.00000
469609906.14407,459692191.70161,33006570.51449,   0.00050,   0.00385,   0.00064,468171616.00000,   0.00350,278381376.00000,  -0.00074,   0.00267,   0.00021,-10209760.00000,   0.00000
469181826.16549,458527896.88065,33374677.93568,   0.00050,   0.00384,   0.00064,467469664.00000,   0.00350,278381376.00000,  -0.00074,   0.00267,   0.00021,-10911712.00000,   0.00000
468712385.80251,457322241.67530,33746921.39531,   0.00050,   0.00384,   0.00065,466729824.00000,   0.00350,278381376.00000,  -0.00074,   0.00267,   0.00021,-11651552.00000,   0.00000
468228469.30499,456110382.41228,34123300.89338,   0.00050,   0.00383,   0.00065,465982976.00000,   0.00350,278381376.00000,  -0.00074,   0.00267,   0.00021,-12398400.00000,   0.00000
467703192.42307,454857162.76485,34495544.35301,   0.00050,   0.00383,   0.00066,465196768.00000,   0.00350,278381376.00000,  -0.00074,   0.00267,   0.00021,-13184608.00000,   0.00000
467157235.34894,453583262.92523,34871923.85108,   0.00050,   0.00382,   0.00066,464393408.00000,   0.00350,278381376.00000,  -0.00074,   0.00267,   0.00021,-13987968.00000,   0.00000
466590598.08262,452288682.89340,35248303.34915,   0.00050,   0.00382,   0.00067,463572352.00000,   0.00350,278381376.00000,  -0.00074,   0.00267,   0.00021,-14809024.00000,   0.00000
465988804.48955,450967218.61171,35628818.88567,   0.00050,   0.00382,   0.00067,462724096.00000,   0.00350,278381376.00000,  -0.00074,   0.00267,   0.00021,-15657280.00000,   0.00000
465366330.70428,449625074.13782,36009334.42218,   0.00050,   0.00381,   0.00068,461857984.00000,   0.00350,278381376.00000,  -0.00074,   0.00267,   0.00021,-16523392.00000,   0.00000
464723176.72680,448262249.47173,36389849.95869,   0.00050,   0.00381,   0.00068,460974240.00000,   0.00350,278381376.00000,  -0.00074,   0.00267,   0.00021,-17407136.00000,   0.00000
464044866.42259,446872540.55577,36770365.49520,   0.00050,   0.00380,   0.00069,460062560.00000,   0.00350,278381376.00000,  -0.00074,   0.00267,   0.00021,-18318816.00000,   0.00000
463345875.92617,445462151.44762,37150881.03171,   0.00050,   0.00380,   0.00069,459133248.00000,   0.00350,278381376.00000,  -0.00074,   0.00267,   0.00021,-19248128.00000,   0.00000
462605525.04535,444010401.95506,37535532.60666,   0.00050,   0.00379,   0.00070,458166944.00000,   0.00350,278381376.00000,  -0.00074,   0.00267,   0.00021,-20214432.00000,   0.00000
461865174.16453,442558652.46250,37920184.18161,   0.00050,   0.00378,   0.00070,457203584.00000,   0.00350,278381376.00000,  -0.00074,   0.00267,   0.00021,-21177792.00000,   0.00000
461068986.76476,441059338.52787,38308971.79501,   0.00050,   0.00378,   0.00071,456192960.00000,   0.00350,278381376.00000,  -0.00074,   0.00267,   0.00021,-22188416.00000,   0.00000
460266595.30734,439545548.45871,38693623.36996,   0.00050,   0.00377,   0.00071,455174144.00000,   0.00350,278381376.00000,  -0.00074,   0.00267,   0.00021,-23207232.00000,   0.00000
459420775.44629,438013146.21656,39082410.98335,   0.00050,   0.00377,   0.00072,454127616.00000,   0.00350,278381376.00000,  -0.00074,   0.00267,   0.00021,-24253760.00000,   0.00000
458562547.46992,436451791.70533,39471198.59674,   0.00049,   0.00376,   0.00072,453064256.00000,   0.00350,278381376.00000,  -0.00074,   0.00267,   0.00021,-25317120.00000,   0.00000
457669163.16680,434863552.94424,39859986.21013,   0.00049,   0.00376,   0.00073,451972704.00000,   0.00350,278381376.00000,  -0.00074,   0.00267,   0.00021,-26408672.00000,   0.00000
456755098.67149,433254633.99095,40252909.86197,   0.00049,   0.00375,   0.00073,450864608.00000,   0.00350,278381376.00000,  -0.00074,   0.00267,   0.00021,-27516768.00000,   0.00000
455805877.84943,431618830.78779,40641697.47536,   0.00049,   0.00375,   0.00074,449727200.00000,   0.00350,278381376.00000,  -0.00074,   0.00267,   0.00021,-28654176.00000,   0.00000
454835976.83517,429962347.39244,41034621.12719,   0.00049,   0.00374,   0.00074,448573056.00000,   0.00350,278381376.00000,  -0.00074,   0.00267,   0.00021,-29808320.00000,   0.00000
453845395.62871,428285183.80488,41427544.77902,   0.00049,   0.00374,   0.00075,447401184.00000,   0.00350,278381376.00000,  -0.00074,   0.00267,   0.00021,-30980192.00000,   0.00000
452819658.09550,426581135.96746,41824604.46930,   0.00049,   0.00373,   0.00075,446202272.00000,   0.00350,278381376.00000,  -0.00074,   0.00267,   0.00021,-32179104.00000,   0.00000
451773240.37010,424856407.93784,42217528.12113,   0.00049,   0.00372,   0.00076,444984416.00000,   0.00350,278381376.00000,  -0.00074,   0.00267,   0.00021,-33396960.00000,   0.00000
450706142.45249,423110999.71601,42614587.81140,   0.00048,   0.00372,   0.00076,443750016.00000,   0.00350,278381376.00000,  -0.00074,   0.00267,   0.00021,-34631360.00000,   0.00000
449603888.20814,421338707.24433,43011647.50167,   0.00048,   0.00371,   0.00077,442487680.00000,   0.00350,278381376.00000,  -0.00074,   0.00267,   0.00021,-35893696.00000,   0.00000
448466477.63704,419539530.52278,43408707.19195,   0.00048,   0.00371,   0.00077,441197184.00000,   0.00350,278381376.00000,  -0.00074,   0.00267,   0.00021,-37184192.00000,   0.00000
447322863.00829,417725877.66669,43805766.88222,   0.00048,   0.00370,   0.00078,439899968.00000,   0.00350,278381376.00000,  -0.00074,   0.00267,   0.00021,-38481408.00000,   0.00000
446144092.05279,415885340.56074,44206962.61093,   0.00048,   0.00369,   0.00078,438576256.00000,   0.00350,278381376.00000,  -0.00074,   0.00267,   0.00021,-39805120.00000,   0.00000
444923960.71289,414003443.07038,44604022.30121,   0.00048,   0.00369,   0.00079,437213856.00000,   0.00350,278381376.00000,  -0.00074,   0.00267,   0.00021,-41167520.00000,   0.00000
443689353.23845,412115341.52237,45005218.02992,   0.00047,   0.00368,   0.00079,435845408.00000,   0.00350,278381376.00000,  -0.00074,   0.00267,   0.00021,-42535968.00000,   0.00000
442434065.57181,410206559.78215,45406413.75863,   0.00047,   0.00368,   0.00080,434460224.00000,   0.00350,278381376.00000,  -0.00074,   0.00267,   0.00021,-43921152.00000,   0.00000
441158097.71296,408277097.84973,45807609.48734,   0.00047,   0.00367,   0.00080,433058176.00000,   0.00350,278381376.00000,  -0.00074,   0.00267,   0.00021,-45323200.00000,   0.00000
439846973.52737,406320751.66745,46208805.21606,   0.00047,   0.00366,   0.00081,431628608.00000,   0.00350,278381376.00000,  -0.00074,   0.00267,   0.00021,-46752768.00000,   0.00000
438500693.01504,404337521.23530,46614136.98321,   0.00047,   0.00366,   0.00081,430173024.00000,   0.00350,278381376.00000,  -0.00074,   0.00267,   0.00021,-48208352.00000,   0.00000
437133732.31051,402333610.61096,47015332.71192,   0.00046,   0.00365,   0.00082,428699104.00000,   0.00350,278381376.00000,  -0.00074,   0.00267,   0.00021,-49682272.00000,   0.00000
435746091.41377,400309019.79441,47420664.47908,   0.00046,   0.00364,   0.00082,427209280.00000,   0.00350,278381376.00000,  -0.00074,   0.00267,   0.00021,-51172096.00000,   0.00000
434337770.32484,398263748.78566,47821860.20779,   0.00046,   0.00364,   0.00083,425700800.00000,   0.00350,278381376.00000,  -0.00074,   0.00267,   0.00021,-52680576.00000,   0.00000
432894292.90916,396191593.52705,48227191.97494,   0.00046,   0.00363,   0.00084,424165664.00000,   0.00350,278381376.00000,  -0.00074,   0.00267,   0.00021,-54215712.00000,   0.00000
431430135.30128,394098758.07624,48632523.74210,   0.00045,   0.00362,   0.00084,422612992.00000,   0.00350,278381376.00000,  -0.00074,   0.00267,   0.00021,-55768384.00000,   0.00000
429930821.36665,391979038.37556,49037855.50925,   0.00045,   0.00362,   0.00085,421032224.00000,   0.00350,278381376.00000,  -0.00074,   0.00267,   0.00021,-57349152.00000,   0.00000
428417031.29749,389853114.61723,49443187.27640,   0.00045,   0.00361,   0.00085,419443712.00000,   0.00350,278381376.00000,  -0.00074,   0.00267,   0.00021,-58937664.00000,   0.00000
426876356.97846,387692034.53215,49852655.08200,   0.00045,   0.00360,   0.00086,417830080.00000,   0.00350,278381376.00000,  -0.00074,   0.00267,   0.00021,-60551296.00000,   0.00000
425300526.33269,385504070.19721,50257986.84915,   0.00044,   0.00360,   0.00086,416188096.00000,   0.00350,278381376.00000,  -0.00074,   0.00267,   0.00021,-62193280.00000,   0.00000
423710219.55238,383309901.80461,50663318.61631,   0.00044,   0.00359,   0.00087,414540000.00000,   0.00350,278381376.00000,  -0.00074,   0.00267,   0.00021,-63841376.00000,   0.00000
422078552.38767,381074373.02760,51072786.42190,   0.00044,   0.00358,   0.00087,412858272.00000,   0.00350,278381376.00000,  -0.00074,   0.00267,   0.00021,-65523104.00000,   0.00000
