# sigma_xx, sigma_yy, sigma_xy, epsilon_xx, epsilon_yy, epsilon_xy, vonMises, epsPlastic, hardening, epsilonP__xx, epsilonP__yy, epsilonP__xy, yieldValue, iteration
   0.00000,   0.00000,   0.00000,   0.00000,   0.00000,   0.00000,   0.00000,   0.00000,274640135.82653,   0.00000,   0.00000,   0.00000,-474640135.82653,   0.00000
   0.00000,   0.00000,   0.00000,   0.00000,   0.00000,   0.00000,   0.00000,   0.00000,274640135.82653,   0.00000,   0.00000,   0.00000,-474640135.82653,   0.00000
1766275.65419,1128289.79917,-578913.09067,   0.00001,   0.00000,  -0.00001,1845350.33368,   0.00000,274640135.82653,   0.00000,   0.00000,   0.00000,-472794785.49285,   0.00000
3520736.75552,2268394.15121,-1163733.45778,   0.00001,   0.00000,  -0.00002,3690204.24164,   0.00000,274640135.82653,   0.00000,   0.00000,   0.00000,-470949931.58489,   0.00000
5245661.47466,3378962.12107,-1748553.82489,   0.00002,   0.00001,  -0.00002,5511966.92072,   0.00000,274640135.82653,   0.00000,   0.00000,   0.00000,-469128168.90581,   0.00000
6970586.19381,4489530.09093,-2345188.74487,   0.00002,   0.00001,  -0.00003,7345068.18221,   0.00000,274640135.82653,   0.00000,   0.00000,   0.00000,-467295067.64432,   0.00000
8683696.36008,5611912.61366,-2941823.66484,   0.00003,   0.00001,  -0.00004,9172294.14848,   0.00000,274640135.82653,   0.00000,   0.00000,   0.00000,-465467841.67805,   0.00000
10367270.14418,6704758.75421,-3538458.58482,   0.00003,   0.00001,  -0.00005,10976616.16381,   0.00000,274640135.82653,   0.00000,   0.00000,   0.00000,-463663519.66272,   0.00000
12050843.92828,7797604.89477,-4146908.05767,   0.00004,   0.00001,  -0.00005,12792509.57372,   0.00000,274640135.82653,   0.00000,   0.00000,   0.00000,-461847626.25281,   0.00000
13713742.24485,8881590.12067,-4755357.53052,   0.00005,   0.00001,  -0.00006,14594170.32653,   0.00000,274640135.82653,   0.00000,   0.00000,   0.00000,-460045965.50000,   0.00000
15376640.56143,9965575.34657,-5369714.27981,   0.00005,   0.00002,  -0.00007,16401774.02575,   0.00000,274640135.82653,   0.00000,   0.00000,   0.00000,-458238361.80078,   0.00000
17027724.32513,11061375.12535,-5984071.02909,   0.00006,   0.00002,  -0.00008,18203699.82472,   0.00000,274640135.82653,   0.00000,   0.00000,   0.00000,-456436436.00181,   0.00000
18649271.70666,12127638.52194,-6610242.33125,   0.00006,   0.00002,  -0.00009,19994730.21536,   0.00000,274640135.82653,   0.00000,   0.00000,   0.00000,-454645405.61116,   0.00000
20270819.08818,13193901.91854,-7236413.63340,   0.00007,   0.00002,  -0.00009,21786027.68531,   0.00000,274640135.82653,   0.00000,   0.00000,   0.00000,-452854108.14122,   0.00000
21871691.00218,14251304.40048,-7862584.93556,   0.00007,   0.00002,  -0.00010,23563343.22187,   0.00000,274640135.82653,   0.00000,   0.00000,   0.00000,-451076792.60466,   0.00000
23451887.44866,15299845.96777,-8500570.79059,   0.00008,   0.00002,  -0.00011,25338610.00966,   0.00000,274640135.82653,   0.00000,   0.00000,   0.00000,-449301525.81687,   0.00000
25032083.89514,16348387.53506,-9138556.64561,   0.00008,   0.00003,  -0.00012,27114211.09856,   0.00000,274640135.82653,   0.00000,   0.00000,   0.00000,-447525924.72797,   0.00000
26591604.87409,17388068.18769,-9776542.50064,   0.00009,   0.00003,  -0.00013,28876012.12268,   0.00000,274640135.82653,   0.00000,   0.00000,   0.00000,-445764123.70385,   0.00000
28130450.38552,18418887.92567,-10426342.90854,   0.00009,   0.00003,  -0.00014,30636121.45328,   0.00000,274640135.82653,   0.00000,   0.00000,   0.00000,-444004014.37324,   0.00000
29669295.89695,19449707.66366,-11076143.31643,   0.00010,   0.00003,  -0.00014,32396635.12989,   0.00000,274640135.82653,   0.00000,   0.00000,   0.00000,-442243500.69664,   0.00000
31208141.40838,20480527.40164,-11725943.72433,   0.00010,   0.00003,  -0.00015,34157490.63126,   0.00000,274640135.82653,   0.00000,   0.00000,   0.00000,-440482645.19527,   0.00000
32705635.98477,21493625.31032,-12387558.68510,   0.00011,   0.00003,  -0.00016,35903017.96906,   0.00000,274640135.82653,   0.00000,   0.00000,   0.00000,-438737117.85747,   0.00000
34203130.56115,22506723.21899,-13049173.64587,   0.00011,   0.00004,  -0.00017,37649025.69784,   0.00000,274640135.82653,   0.00000,   0.00000,   0.00000,-436991110.12869,   0.00000
35679949.67000,23510960.21302,-13716695.88307,   0.00012,   0.00004,  -0.00018,39387782.61522,   0.00000,274640135.82653,   0.00000,   0.00000,   0.00000,-435252353.21130,   0.00000
37156768.77886,24515197.20704,-14384218.12028,   0.00012,   0.00004,  -0.00019,41127023.21820,   0.00000,274640135.82653,   0.00000,   0.00000,   0.00000,-433513112.60833,   0.00000
38612912.42020,25510573.28641,-15057647.63391,   0.00013,   0.00004,  -0.00020,42859153.97760,   0.00000,274640135.82653,   0.00000,   0.00000,   0.00000,-431780981.84893,   0.00000
40057241.50866,26517763.91865,-15731077.14755,   0.00013,   0.00004,  -0.00020,44586391.32781,   0.00000,274640135.82653,   0.00000,   0.00000,   0.00000,-430053744.49872,   0.00000
41492709.68247,27504279.08337,-16416321.21406,   0.00014,   0.00004,  -0.00021,46318355.58683,   0.00000,274640135.82653,   0.00000,   0.00000,   0.00000,-428321780.23970,   0.00000
42907502.38875,28481933.33343,-17101565.28057,   0.00014,   0.00005,  -0.00022,48037238.37033,   0.00000,274640135.82653,   0.00000,   0.00000,   0.00000,-426602897.45620,   0.00000
44322295.09504,29459587.58350,-17786809.34708,   0.00014,   0.00005,  -0.00023,49756691.70148,   0.00000,274640135.82653,   0.00000,   0.00000,   0.00000,-424883444.12505,   0.00000
45716412.33380,30428380.91891,-18477960.69003,   0.00015,   0.00005,  -0.00024,51469460.91682,   0.00000,274640135.82653,   0.00000,   0.00000,   0.00000,-423170674.90971,   0.00000
47098715.01969,31408988.80719,-19175019.30941,   0.00015,   0.00005,  -0.00025,53183969.55906,   0.00000,274640135.82653,   0.00000,   0.00000,   0.00000,-421456166.26747,   0.00000
48451481.32341,32360060.31329,-19877985.20523,   0.00016,   0.00005,  -0.00026,54883782.44506,   0.00000,274640135.82653,   0.00000,   0.00000,   0.00000,-419756353.38147,   0.00000
49804247.62712,33311131.81940,-20580951.10104,   0.00016,   0.00005,  -0.00027,56584320.89891,   0.00000,274640135.82653,   0.00000,   0.00000,   0.00000,-418055814.92762,   0.00000
51165874.84549,34282878.79303,-21283916.99686,   0.00017,   0.00006,  -0.00028,58293776.76529,   0.00000,274640135.82653,   0.00000,   0.00000,   0.00000,-416346359.06124,   0.00000
52477290.21415,35216228.46982,-21992790.16911,   0.00017,   0.00006,  -0.00029,59975369.54841,   0.00000,274640135.82653,   0.00000,   0.00000,   0.00000,-414664766.27812,   0.00000
53797566.49747,36170253.61415,-22707570.61780,   0.00017,   0.00006,  -0.00030,61672482.30460,   0.00000,274640135.82653,   0.00000,   0.00000,   0.00000,-412967653.52193,   0.00000
55108981.86614,37103603.29094,-23428258.34292,   0.00018,   0.00006,  -0.00030,63368646.23387,   0.00000,274640135.82653,   0.00000,   0.00000,   0.00000,-411271489.59266,   0.00000
56408582.68193,38048767.52061,-24148946.06804,   0.00018,   0.00006,  -0.00031,65060546.03200,   0.00000,274640135.82653,   0.00000,   0.00000,   0.00000,-409579589.79453,   0.00000
57687508.03020,38985070.83563,-24869633.79317,   0.00019,   0.00006,  -0.00032,66740008.98205,   0.00000,274640135.82653,   0.00000,   0.00000,   0.00000,-407900126.84448,   0.00000
58936896.99630,39891837.76847,-25602136.07116,   0.00019,   0.00007,  -0.00033,68412159.21723,   0.00000,274640135.82653,   0.00000,   0.00000,   0.00000,-406227976.60930,   0.00000
60195146.87704,40819280.16883,-26328731.07272,   0.00019,   0.00007,  -0.00034,70086753.49573,   0.00000,274640135.82653,   0.00000,   0.00000,   0.00000,-404553382.33080,   0.00000
61432721.29027,41737861.65454,-27067140.62715,   0.00020,   0.00007,  -0.00035,71762442.98751,   0.00000,274640135.82653,   0.00000,   0.00000,   0.00000,-402877692.83902,   0.00000
62670295.70349,42656443.14025,-27805550.18157,   0.00020,   0.00007,  -0.00036,73439036.36610,   0.00000,274640135.82653,   0.00000,   0.00000,   0.00000,-401201099.46043,   0.00000
63887194.64919,43566163.71131,-28543959.73600,   0.00021,   0.00007,  -0.00037,75103509.84976,   0.00000,274640135.82653,   0.00000,   0.00000,   0.00000,-399536625.97677,   0.00000
65083418.12736,44467023.36771,-29288276.56687,   0.00021,   0.00008,  -0.00038,76762693.02453,   0.00000,274640135.82653,   0.00000,   0.00000,   0.00000,-397877442.80200,   0.00000
66279641.60554,45367883.02411,-30038500.67417,   0.00021,   0.00008,  -0.00039,78429606.92534,   0.00000,274640135.82653,   0.00000,   0.00000,   0.00000,-396210528.90119,   0.00000
67455189.61619,46259881.76586,-30788724.78147,   0.00022,   0.00008,  -0.00040,80084623.31819,   0.00000,274640135.82653,   0.00000,   0.00000,   0.00000,-394555512.50834,   0.00000
68639598.54149,47172555.97514,-31544856.16520,   0.00022,   0.00008,  -0.00041,81755569.05988,   0.00000,274640135.82653,   0.00000,   0.00000,   0.00000,-392884566.76665,   0.00000
69794471.08462,48055693.80223,-32300987.54894,   0.00022,   0.00008,  -0.00042,83406579.83142,   0.00000,274640135.82653,   0.00000,   0.00000,   0.00000,-391233555.99511,   0.00000
70937529.07488,48950646.18220,-33063026.20911,   0.00023,   0.00008,  -0.00043,85060872.39403,   0.00000,274640135.82653,   0.00000,   0.00000,   0.00000,-389579263.43250,   0.00000
72071726.15048,49824923.09464,-33825064.86928,   0.00023,   0.00009,  -0.00044,86708093.61982,   0.00000,274640135.82653,   0.00000,   0.00000,   0.00000,-387932042.20671,   0.00000
73194108.67321,50711014.55996,-34593010.80589,   0.00023,   0.00009,  -0.00045,88358735.96529,   0.00000,274640135.82653,   0.00000,   0.00000,   0.00000,-386281399.86124,   0.00000
74295815.72842,51588245.11062,-35360956.74249,   0.00024,   0.00009,  -0.00046,89997868.31412,   0.00000,274640135.82653,   0.00000,   0.00000,   0.00000,-384642267.51240,   0.00000
75388661.86897,52444800.19376,-36134809.95553,   0.00024,   0.00009,  -0.00047,91636987.99465,   0.00000,274640135.82653,   0.00000,   0.00000,   0.00000,-383003147.83188,   0.00000
76469693.45666,53313169.82977,-36908663.16857,   0.00024,   0.00009,  -0.00048,93272796.63032,   0.00000,274640135.82653,   0.00000,   0.00000,   0.00000,-381367339.19621,   0.00000
77550725.04434,54181539.46578,-37688423.65805,   0.00025,   0.00010,  -0.00049,94916744.24295,   0.00000,274640135.82653,   0.00000,   0.00000,   0.00000,-379723391.58358,   0.00000
78619942.07915,55061723.65465,-38468184.14753,   0.00025,   0.00010,  -0.00050,96557458.30679,   0.00000,274640135.82653,   0.00000,   0.00000,   0.00000,-378082677.51974,   0.00000
79659622.73179,55912371.46136,-39253851.91344,   0.00025,   0.00010,  -0.00051,98185971.65420,   0.00000,274640135.82653,   0.00000,   0.00000,   0.00000,-376454164.17233,   0.00000
80699303.38443,56763019.26806,-40045426.95579,   0.00026,   0.00010,  -0.00052,99822795.34476,   0.00000,274640135.82653,   0.00000,   0.00000,   0.00000,-374817340.48176,   0.00000
81727169.48419,57625481.62763,-40831094.72170,   0.00026,   0.00010,  -0.00053,101449464.01851,   0.00000,274640135.82653,   0.00000,   0.00000,   0.00000,-373190671.80802,   0.00000
82746174.66930,58467268.51968,-41628577.04048,   0.00026,   0.00010,  -0.00054,103083574.71700,   0.00000,274640135.82653,   0.00000,   0.00000,   0.00000,-371556561.10953,   0.00000
83753365.30154,59320869.96460,-42420152.08283,   0.00027,   0.00011,  -0.00055,104707579.61453,   0.00000,274640135.82653,   0.00000,   0.00000,   0.00000,-369932556.21200,   0.00000
84739880.46626,60165610.49487,-43223541.67805,   0.00027,   0.00011,  -0.00056,106335060.31279,   0.00000,274640135.82653,   0.00000,   0.00000,   0.00000,-368305075.51374,   0.00000
85726395.63098,61010351.02513,-44021023.99683,   0.00027,   0.00011,  -0.00057,107956620.97210,   0.00000,274640135.82653,   0.00000,   0.00000,   0.00000,-366683514.85443,   0.00000
86692235.32817,61846230.64075,-44824413.59205,   0.00027,   0.00011,  -0.00058,109574614.26539,   0.00000,274640135.82653,   0.00000,   0.00000,   0.00000,-365065521.56114,   0.00000
87658075.02536,62682110.25636,-45633710.46371,   0.00028,   0.00011,  -0.00059,111201162.45705,   0.00000,274640135.82653,   0.00000,   0.00000,   0.00000,-363438973.36948,   0.00000
88603239.25503,63509128.95732,-46443007.33536,   0.00028,   0.00012,  -0.00060,112817054.16547,   0.00000,274640135.82653,   0.00000,   0.00000,   0.00000,-361823081.66106,   0.00000
89548403.48470,64336147.65828,-47258211.48345,   0.00028,   0.00012,  -0.00061,114441569.41800,   0.00000,274640135.82653,   0.00000,   0.00000,   0.00000,-360198566.40853,   0.00000
90481753.16150,65174980.91211,-48067508.35510,   0.00028,   0.00012,  -0.00062,116056173.18903,   0.00000,274640135.82653,   0.00000,   0.00000,   0.00000,-358583962.63750,   0.00000
91385566.45612,65984277.78377,-48888619.77963,   0.00029,   0.00012,  -0.00064,117667019.59579,   0.00000,274640135.82653,   0.00000,   0.00000,   0.00000,-356973116.23074,   0.00000
92298240.66540,66814250.12295,-49709731.20415,   0.00029,   0.00012,  -0.00065,119287231.67574,   0.00000,274640135.82653,   0.00000,   0.00000,   0.00000,-355352904.15079,   0.00000
93190239.40715,67635361.54747,-50530842.62868,   0.00029,   0.00013,  -0.00066,120897086.34915,   0.00000,274640135.82653,   0.00000,   0.00000,   0.00000,-353743049.47738,   0.00000
94082238.14890,68456472.97200,-51351954.05320,   0.00029,   0.00013,  -0.00067,122508316.40804,   0.00000,274640135.82653,   0.00000,   0.00000,   0.00000,-352131819.41849,   0.00000
94953561.42312,69268723.48187,-52178972.75416,   0.00030,   0.00013,  -0.00068,124116713.14914,   0.00000,274640135.82653,   0.00000,   0.00000,   0.00000,-350523422.67739,   0.00000
95804209.22982,70072113.07709,-53011898.73156,   0.00030,   0.00013,  -0.00069,125722425.90804,   0.00000,274640135.82653,   0.00000,   0.00000,   0.00000,-348917709.91849,   0.00000
96684393.41870,70905039.05448,-53838917.43252,   0.00030,   0.00013,  -0.00070,127341559.96243,   0.00000,274640135.82653,   0.00000,   0.00000,   0.00000,-347298575.86410,   0.00000
97514365.75788,71699567.73505,-54677750.68635,   0.00030,   0.00014,  -0.00071,128946155.15832,   0.00000,274640135.82653,   0.00000,   0.00000,   0.00000,-345693980.66821,   0.00000
98353199.01171,72514771.88314,-55510676.66375,   0.00031,   0.00014,  -0.00072,130552632.21319,   0.00000,274640135.82653,   0.00000,   0.00000,   0.00000,-344087503.61334,   0.00000
99171356.79802,73321115.11657,-56349509.91758,   0.00031,   0.00014,  -0.00073,132156692.10031,   0.00000,274640135.82653,   0.00000,   0.00000,   0.00000,-342483443.72621,   0.00000
99989514.58433,74127458.35001,-57188343.17141,   0.00031,   0.00014,  -0.00074,133762230.52315,   0.00000,274640135.82653,   0.00000,   0.00000,   0.00000,-340877905.30338,   0.00000
100786996.90311,74924940.66879,-58033083.70168,   0.00031,   0.00014,  -0.00075,135365513.06591,   0.00000,274640135.82653,   0.00000,   0.00000,   0.00000,-339274622.76062,   0.00000
101584479.22189,75722422.98758,-58877824.23194,   0.00031,   0.00015,  -0.00077,136970301.21943,   0.00000,274640135.82653,   0.00000,   0.00000,   0.00000,-337669834.60709,   0.00000
102361286.07315,76511044.39171,-59722564.76221,   0.00032,   0.00015,  -0.00078,138565356.86474,   0.00000,274640135.82653,   0.00000,   0.00000,   0.00000,-336074778.96179,   0.00000
103146953.83907,77320341.26336,-60573212.56891,   0.00032,   0.00015,  -0.00079,140177436.95404,   0.00000,274640135.82653,   0.00000,   0.00000,   0.00000,-334462698.87249,   0.00000
103911946.13745,78120777.22036,-61423860.37561,   0.00032,   0.00015,  -0.00080,141779893.70562,   0.00000,274640135.82653,   0.00000,   0.00000,   0.00000,-332860242.12091,   0.00000
104676938.43584,78921213.17736,-62274508.18232,   0.00032,   0.00015,  -0.00081,143383860.54465,   0.00000,274640135.82653,   0.00000,   0.00000,   0.00000,-331256275.28188,   0.00000
105412394.35205,79692112.75219,-63131063.26545,   0.00032,   0.00016,  -0.00082,144978145.76286,   0.00000,274640135.82653,   0.00000,   0.00000,   0.00000,-329661990.06367,   0.00000
106165572.09757,80504363.26206,-63987618.34859,   0.00033,   0.00016,  -0.00083,146589683.56178,   0.00000,274640135.82653,   0.00000,   0.00000,   0.00000,-328050452.26475,   0.00000
106889213.46091,81287077.38975,-64850080.70816,   0.00033,   0.00016,  -0.00084,148191700.31314,   0.00000,274640135.82653,   0.00000,   0.00000,   0.00000,-326448435.51339,   0.00000
107592179.35673,82060930.60279,-65706635.79130,   0.00033,   0.00016,  -0.00085,149776650.34164,   0.00000,274640135.82653,   0.00000,   0.00000,   0.00000,-324863485.48488,   0.00000
108324681.63472,82864320.19801,-66569098.15087,   0.00033,   0.00017,  -0.00087,151389615.21411,   0.00000,274640135.82653,   0.00000,   0.00000,   0.00000,-323250520.61242,   0.00000
109015832.97767,83649987.96392,-67431560.51045,   0.00033,   0.00017,  -0.00088,152982499.87611,   0.00000,274640135.82653,   0.00000,   0.00000,   0.00000,-321657635.95042,   0.00000
109706984.32061,84435655.72984,-68299930.14646,   0.00033,   0.00017,  -0.00089,154584807.08669,   0.00000,274640135.82653,   0.00000,   0.00000,   0.00000,-320055328.73984,   0.00000
110398135.66356,85221323.49575,-69168299.78246,   0.00034,   0.00017,  -0.00090,156188694.17482,   0.00000,274640135.82653,   0.00000,   0.00000,   0.00000,-318451441.65171,   0.00000
111068611.53898,85998130.34701,-70036669.41847,   0.00034,   0.00017,  -0.00091,157783481.86513,   0.00000,274640135.82653,   0.00000,   0.00000,   0.00000,-316856653.96140,   0.00000
111739087.41440,86774937.19827,-70905039.05448,   0.00034,   0.00018,  -0.00092,159379844.33090,   0.00000,274640135.82653,   0.00000,   0.00000,   0.00000,-315260291.49563,   0.00000
112397748.73695,87563558.60240,-71779315.96693,   0.00034,   0.00018,  -0.00093,160982901.14165,   0.00000,274640135.82653,   0.00000,   0.00000,   0.00000,-313657234.68488,   0.00000
113047549.14485,88331504.53900,-72653592.87937,   0.00034,   0.00018,  -0.00094,162579754.69354,   0.00000,274640135.82653,   0.00000,   0.00000,   0.00000,-312060381.13299,   0.00000
113685534.99987,89111265.02848,-73527869.79181,   0.00034,   0.00018,  -0.00096,164175514.28965,   0.00000,274640135.82653,   0.00000,   0.00000,   0.00000,-310464621.53688,   0.00000
114323520.85490,89891025.51796,-74402146.70426,   0.00034,   0.00019,  -0.00097,165772867.68789,   0.00000,274640135.82653,   0.00000,   0.00000,   0.00000,-308867268.13864,   0.00000
114940831.24240,90661925.09278,-75282330.89314,   0.00035,   0.00019,  -0.00098,167369382.95320,   0.00000,274640135.82653,   0.00000,   0.00000,   0.00000,-307270752.87333,   0.00000
115567002.54456,91453500.13513,-76162515.08202,   0.00035,   0.00019,  -0.00099,168975305.86488,   0.00000,274640135.82653,   0.00000,   0.00000,   0.00000,-305664829.96165,   0.00000
116163637.46454,92215538.79530,-77042699.27089,   0.00035,   0.00019,  -0.00100,170564757.14497,   0.00000,274640135.82653,   0.00000,   0.00000,   0.00000,-304075378.68156,   0.00000
116769133.29917,92998252.92299,-77922883.45977,   0.00035,   0.00020,  -0.00101,172163606.62483,   0.00000,274640135.82653,   0.00000,   0.00000,   0.00000,-302476529.20170,   0.00000
117374629.13380,93780967.05069,-78808974.92509,   0.00035,   0.00020,  -0.00102,173772065.37331,   0.00000,274640135.82653,   0.00000,   0.00000,   0.00000,-300868070.45322,   0.00000
117959449.50091,94554820.26373,-79695066.39040,   0.00035,   0.00020,  -0.00104,175371953.39224,   0.00000,274640135.82653,   0.00000,   0.00000,   0.00000,-299268182.43429,   0.00000
118544269.86802,95328673.47677,-80581157.85572,   0.00035,   0.00020,  -0.00105,176973446.91986,   0.00000,274640135.82653,   0.00000,   0.00000,   0.00000,-297666688.90667,   0.00000
119108414.76760,96093665.77516,-81467249.32103,   0.00035,   0.00020,  -0.00106,178566461.03532,   0.00000,274640135.82653,   0.00000,   0.00000,   0.00000,-296073674.79121,   0.00000
119681420.58184,96879333.54107,-82353340.78635,   0.00036,   0.00021,  -0.00107,180168836.51911,   0.00000,274640135.82653,   0.00000,   0.00000,   0.00000,-294471299.30742,   0.00000
120233750.92855,97656140.39233,-83245339.52810,   0.00036,   0.00021,  -0.00108,181770933.36820,   0.00000,274640135.82653,   0.00000,   0.00000,   0.00000,-292869202.45833,   0.00000
120777220.36061,98412271.77607,-84137338.26985,   0.00036,   0.00021,  -0.00109,183366918.04434,   0.00000,274640135.82653,   0.00000,   0.00000,   0.00000,-291273217.78219,   0.00000
121317736.15445,99200893.18020,-85023429.73516,   0.00036,   0.00021,  -0.00111,184961978.09296,   0.00000,274640135.82653,   0.00000,   0.00000,   0.00000,-289678157.73357,   0.00000
121849391.03364,99968839.11680,-85915428.47691,   0.00036,   0.00022,  -0.00112,186559061.08260,   0.00000,274640135.82653,   0.00000,   0.00000,   0.00000,-288081074.74393,   0.00000
122381045.91283,100736785.05341,-86813334.49510,   0.00036,   0.00022,  -0.00113,188165916.90143,   0.00000,274640135.82653,   0.00000,   0.00000,   0.00000,-286474218.92510,   0.00000
122921561.70667,101525406.45754,-87705333.23685,   0.00036,   0.00022,  -0.00114,189773900.75737,   0.00000,274640135.82653,   0.00000,   0.00000,   0.00000,-284866235.06915,   0.00000
123411865.65081,102275630.56484,-88603239.25503,   0.00036,   0.00022,  -0.00115,191364492.08692,   0.00000,274640135.82653,   0.00000,   0.00000,   0.00000,-283275643.73961,   0.00000
123931705.97713,103055391.05432,-89495237.99678,   0.00036,   0.00023,  -0.00116,192965913.62352,   0.00000,274640135.82653,   0.00000,   0.00000,   0.00000,-281674222.20301,   0.00000
124430870.83592,103826290.62914,-90393144.01497,   0.00036,   0.00023,  -0.00118,194567484.27956,   0.00000,274640135.82653,   0.00000,   0.00000,   0.00000,-280072651.54697,   0.00000
124938896.60937,104617865.67149,-91291050.03315,   0.00036,   0.00023,  -0.00119,196178368.96424,   0.00000,274640135.82653,   0.00000,   0.00000,   0.00000,-278461766.86229,   0.00000
125417386.00064,105379904.33166,-92188956.05134,   0.00037,   0.00023,  -0.00120,197773566.64483,   0.00000,274640135.82653,   0.00000,   0.00000,   0.00000,-276866569.18170,   0.00000
125904736.30656,106162618.45935,-93086862.06953,   0.00037,   0.00024,  -0.00121,199378081.46756,   0.00000,274640135.82653,   0.00000,   0.00000,   0.00000,-275262054.35897,   0.00000
126383225.69783,106924657.11952,-93984768.08771,   0.00037,   0.00024,  -0.00122,200976438.57433,   0.00000,274640135.82653,   0.00000,   0.00000,   0.00000,-273663697.25220,   0.00000
126849900.53623,107698510.33256,-94888581.38233,   0.00037,   0.00024,  -0.00123,202582945.23620,   0.00000,274640135.82653,   0.00000,   0.00000,   0.00000,-272057190.59033,   0.00000
127316575.37463,108472363.54561,-95786487.40052,   0.00037,   0.00025,  -0.00125,204182731.08778,   0.00000,274640135.82653,   0.00000,   0.00000,   0.00000,-270457404.73875,   0.00000
127792111.12768,109266892.22617,-96690300.69514,   0.00037,   0.00025,  -0.00126,205800080.93983,   0.00000,274640135.82653,   0.00000,   0.00000,   0.00000,-268840054.88670,   0.00000
128238110.49856,110031884.52456,-97588206.71332,   0.00037,   0.00025,  -0.00127,207393639.96711,   0.00000,274640135.82653,   0.00000,   0.00000,   0.00000,-267246495.85941,   0.00000
128692970.78409,110817552.29047,-98492020.00795,   0.00037,   0.00025,  -0.00128,209004795.68981,   0.00000,274640135.82653,   0.00000,   0.00000,   0.00000,-265635340.13672,   0.00000
129147831.06962,111603220.05638,-99395833.30257,   0.00037,   0.00026,  -0.00129,210617478.42952,   0.00000,274640135.82653,   0.00000,   0.00000,   0.00000,-264022657.39701,   0.00000
129582015.88762,112380026.90764,-100293739.32075,   0.00037,   0.00026,  -0.00130,212214140.19306,   0.00000,274640135.82653,   0.00000,   0.00000,   0.00000,-262425995.63347,   0.00000
130016200.70562,113156833.75890,-101197552.61537,   0.00037,   0.00026,  -0.00132,213820704.86526,   0.00000,274640135.82653,   0.00000,   0.00000,   0.00000,-260819430.96127,   0.00000
130450385.52363,113933640.61016,-102101365.90999,   0.00037,   0.00026,  -0.00133,215428774.69433,   0.00000,274640135.82653,   0.00000,   0.00000,   0.00000,-259211361.13220,   0.00000
130872755.78876,114722262.01429,-103005179.20461,   0.00037,   0.00027,  -0.00134,217036996.51952,   0.00000,274640135.82653,   0.00000,   0.00000,   0.00000,-257603139.30701,   0.00000
131286265.13924,115490207.95090,-103908992.49924,   0.00037,   0.00027,  -0.00135,218639039.63232,   0.00000,274640135.82653,   0.00000,   0.00000,   0.00000,-256001096.19421,   0.00000
131708635.40438,116278829.35503,-104812805.79386,   0.00037,   0.00027,  -0.00136,220250261.36337,   0.00000,274640135.82653,   0.00000,   0.00000,   0.00000,-254389874.46316,   0.00000
132110330.20198,117058589.84451,-105716619.08848,   0.00037,   0.00028,  -0.00137,221854038.72731,   0.00000,274640135.82653,   0.00000,   0.00000,   0.00000,-252786097.09922,   0.00000
132520885.91425,117859025.80151,-106620432.38310,   0.00037,   0.00028,  -0.00139,223467005.30246,   0.00000,274640135.82653,   0.00000,   0.00000,   0.00000,-251173130.52407,   0.00000
132922580.71186,118638786.29098,-107524245.67772,   0.00037,   0.00028,  -0.00140,225073744.92611,   0.00000,274640135.82653,   0.00000,   0.00000,   0.00000,-249566390.90042,   0.00000
133312460.95659,119430361.33333,-108428058.97234,   0.00037,   0.00028,  -0.00141,226680832.86807,   0.00000,274640135.82653,   0.00000,   0.00000,   0.00000,-247959302.95846,   0.00000
133714155.75420,120210121.82281,-109331872.26696,   0.00037,   0.00029,  -0.00142,228290448.25674,   0.00000,274640135.82653,   0.00000,   0.00000,   0.00000,-246349687.56979,   0.00000
134104035.99894,121001696.86516,-110235685.56158,   0.00037,   0.00029,  -0.00143,229900426.96092,   0.00000,274640135.82653,   0.00000,   0.00000,   0.00000,-244739708.86561,   0.00000
134473240.77616,121784410.99285,-111139498.85620,   0.00037,   0.00029,  -0.00144,231503165.07883,   0.00000,274640135.82653,   0.00000,   0.00000,   0.00000,-243136970.74770,   0.00000
134871981.93555,122596661.50272,-112043312.15082,   0.00037,   0.00029,  -0.00146,233123678.76401,   0.00000,274640135.82653,   0.00000,   0.00000,   0.00000,-241516457.06252,   0.00000
135241186.71276,123379375.63042,-112947125.44545,   0.00037,   0.00030,  -0.00147,234729280.61377,   0.00000,274640135.82653,   0.00000,   0.00000,   0.00000,-239910855.21276,   0.00000
135619252.40463,124182765.22564,-113850938.74007,   0.00037,   0.00030,  -0.00148,236343977.66057,   0.00000,274640135.82653,   0.00000,   0.00000,   0.00000,-238296158.16596,   0.00000
135967781.71432,124956618.43868,-114748844.75825,   0.00037,   0.00030,  -0.00149,237935310.65475,   0.00000,274640135.82653,   0.00000,   0.00000,   0.00000,-236704825.17178,   0.00000
136345847.40619,125760008.03390,-115652658.05287,   0.00038,   0.00031,  -0.00150,239552764.13452,   0.00000,274640135.82653,   0.00000,   0.00000,   0.00000,-235087371.69201,   0.00000
136703237.63053,126554536.71446,-116556471.34749,   0.00038,   0.00031,  -0.00152,241163106.78651,   0.00000,274640135.82653,   0.00000,   0.00000,   0.00000,-233477029.04002,   0.00000
137069488.76953,127369740.86255,-117454377.36568,   0.00038,   0.00031,  -0.00153,242773933.24094,   0.00000,274640135.82653,   0.00000,   0.00000,   0.00000,-231866202.58559,   0.00000
137426878.99387,128164269.54312,-118358190.66030,   0.00038,   0.00032,  -0.00154,244386978.75463,   0.00000,274640135.82653,   0.00000,   0.00000,   0.00000,-230253157.07190,   0.00000
137772454.66535,128970612.77655,-119256096.67849,   0.00038,   0.00032,  -0.00155,245992113.91327,   0.00000,274640135.82653,   0.00000,   0.00000,   0.00000,-228648021.91326,   0.00000
138138705.80434,129785816.92464,-120159909.97311,   0.00038,   0.00032,  -0.00156,247615483.01470,   0.00000,274640135.82653,   0.00000,   0.00000,   0.00000,-227024652.81183,   0.00000
138484281.47581,130592160.15808,-121057815.99129,   0.00038,   0.00032,  -0.00157,249223256.30347,   0.00000,274640135.82653,   0.00000,   0.00000,   0.00000,-225416879.52306,   0.00000
138829857.14729,131398503.39152,-121955722.00948,   0.00038,   0.00033,  -0.00159,250832324.20566,   0.00000,274640135.82653,   0.00000,   0.00000,   0.00000,-223807811.62087,   0.00000
139154757.35124,132195985.71030,-122853628.02766,   0.00038,   0.00033,  -0.00160,252434479.76803,   0.00000,274640135.82653,   0.00000,   0.00000,   0.00000,-222205656.05850,   0.00000
139500333.02271,133002328.94373,-123751534.04585,   0.00038,   0.00033,  -0.00161,254046097.73338,   0.00000,274640135.82653,   0.00000,   0.00000,   0.00000,-220594038.09315,   0.00000
139834094.14131,133820486.73004,-124649440.06403,   0.00038,   0.00034,  -0.00162,255658519.78445,   0.00000,274640135.82653,   0.00000,   0.00000,   0.00000,-218981616.04208,   0.00000
140167855.25991,134638644.51635,-125547346.08222,   0.00038,   0.00034,  -0.00163,257272210.96199,   0.00000,274640135.82653,   0.00000,   0.00000,   0.00000,-217367924.86454,   0.00000
140501616.37851,135456802.30266,-126439344.82397,   0.00038,   0.00034,  -0.00164,258878491.92351,   0.00000,274640135.82653,   0.00000,   0.00000,   0.00000,-215761643.90302,   0.00000
140835377.49712,136274960.08896,-127337250.84216,   0.00038,   0.00035,  -0.00166,260494643.34336,   0.00000,274640135.82653,   0.00000,   0.00000,   0.00000,-214145492.48317,   0.00000
141169138.61572,137093117.87527,-128229249.58391,   0.00037,   0.00035,  -0.00167,262103324.38225,   0.00000,274640135.82653,   0.00000,   0.00000,   0.00000,-212536811.44428,   0.00000
141482224.26680,137902414.74692,-129121248.32566,   0.00037,   0.00035,  -0.00168,263705225.04092,   0.00000,274640135.82653,   0.00000,   0.00000,   0.00000,-210934910.78561,   0.00000
141824846.30005,138741248.00076,-130013247.06741,   0.00037,   0.00035,  -0.00169,265323949.14649,   0.00000,274640135.82653,   0.00000,   0.00000,   0.00000,-209316186.68004,   0.00000
142146792.86578,139571220.33993,-130905245.80916,   0.00037,   0.00036,  -0.00170,266935919.39375,   0.00000,274640135.82653,   0.00000,   0.00000,   0.00000,-207704216.43278,   0.00000
142468739.43151,140401192.67911,-131791337.27447,   0.00037,   0.00036,  -0.00171,268540360.89018,   0.00000,274640135.82653,   0.00000,   0.00000,   0.00000,-206099774.93635,   0.00000
142790685.99724,141231165.01829,-132683336.01622,   0.00037,   0.00036,  -0.00172,270154640.92259,   0.00000,274640135.82653,   0.00000,   0.00000,   0.00000,-204485494.90393,   0.00000
143091957.09545,142052276.44282,-133569427.48154,   0.00037,   0.00037,  -0.00174,271753555.73600,   0.00000,274640135.82653,   0.00000,   0.00000,   0.00000,-202886580.09052,   0.00000
143413903.66118,142882248.78199,-134455518.94685,   0.00037,   0.00037,  -0.00175,273361378.84571,   0.00000,274640135.82653,   0.00000,   0.00000,   0.00000,-201278756.98082,   0.00000
143744711.14157,143732896.58870,-135341610.41217,   0.00037,   0.00037,  -0.00176,274977996.15268,   0.00000,274640135.82653,   0.00000,   0.00000,   0.00000,-199662139.67385,   0.00000
144045982.23977,144554008.01322,-136221794.60104,   0.00037,   0.00038,  -0.00177,276571535.29265,   0.00000,274640135.82653,   0.00000,   0.00000,   0.00000,-198068600.53388,   0.00000
144356114.25263,145395794.90527,-137107886.06636,   0.00037,   0.00038,  -0.00178,278182620.20086,   0.00000,274640135.82653,   0.00000,   0.00000,   0.00000,-196457515.62567,   0.00000
144666246.26549,146237581.79732,-137988070.25524,   0.00037,   0.00038,  -0.00179,279786049.89386,   0.00000,274640135.82653,   0.00000,   0.00000,   0.00000,-194854085.93267,   0.00000
144997053.74588,147088229.60402,-138868254.44412,   0.00037,   0.00039,  -0.00181,281398132.94835,   0.00000,274640135.82653,   0.00000,   0.00000,   0.00000,-193242002.87818,   0.00000
145307185.75874,147930016.49607,-139742531.35656,   0.00037,   0.00039,  -0.00182,282994874.22422,   0.00000,274640135.82653,   0.00000,   0.00000,   0.00000,-191645261.60231,   0.00000
145605503.21873,148783617.94099,-140622715.54544,   0.00037,   0.00039,  -0.00183,284601578.27445,   0.00000,274640135.82653,   0.00000,   0.00000,   0.00000,-190038557.55207,   0.00000
145915635.23159,149625404.83304,-141496992.45788,   0.00037,   0.00040,  -0.00184,286200358.15382,   0.00000,274640135.82653,   0.00000,   0.00000,   0.00000,-188439777.67271,   0.00000
146234628.15910,150487867.19261,-142371269.37033,   0.00037,   0.00040,  -0.00185,287807856.68567,   0.00000,274640135.82653,   0.00000,   0.00000,   0.00000,-186832279.14086,   0.00000
146553621.08661,151350329.55218,-143239639.00634,   0.00037,   0.00040,  -0.00186,289407549.67455,   0.00000,274640135.82653,   0.00000,   0.00000,   0.00000,-185232586.15198,   0.00000
146851938.54660,152203930.99710,-144113915.91878,   0.00037,   0.00041,  -0.00187,291009533.22677,   0.00000,274640135.82653,   0.00000,   0.00000,   0.00000,-183630602.59976,   0.00000
147170931.47412,153066393.35668,-144982285.55479,   0.00037,   0.00041,  -0.00188,292611123.39172,   0.00000,274640135.82653,   0.00000,   0.00000,   0.00000,-182029012.43481,   0.00000
147469248.93411,153919994.80160,-145850655.19080,   0.00037,   0.00041,  -0.00190,294206252.50041,   0.00000,274640135.82653,   0.00000,   0.00000,   0.00000,-180433883.32612,   0.00000
147788241.86162,154782457.16117,-146713117.55037,   0.00037,   0.00042,  -0.00191,295800883.78261,   0.00000,274640135.82653,   0.00000,   0.00000,   0.00000,-178839252.04392,   0.00000
148095420.23626,155656734.07361,-147575579.90994,   0.00037,   0.00042,  -0.00192,297396836.34741,   0.00000,274640135.82653,   0.00000,   0.00000,   0.00000,-177243299.47911,   0.00000
148393737.69625,156510335.51853,-148438042.26952,   0.00037,   0.00042,  -0.00193,298985936.14804,   0.00000,274640135.82653,   0.00000,   0.00000,   0.00000,-175654199.67849,   0.00000
148721591.53842,157393473.34563,-149300504.62909,   0.00037,   0.00043,  -0.00194,300590970.31565,   0.00000,274640135.82653,   0.00000,   0.00000,   0.00000,-174049165.51088,   0.00000
149028769.91306,158267750.25807,-150157059.71223,   0.00037,   0.00043,  -0.00195,302180797.93387,   0.00000,274640135.82653,   0.00000,   0.00000,   0.00000,-172459337.89266,   0.00000
149335948.28770,159142027.17052,-151013614.79536,   0.00037,   0.00043,  -0.00196,303771493.53368,   0.00000,274640135.82653,   0.00000,   0.00000,   0.00000,-170868642.29285,   0.00000
149663802.12987,160025164.99761,-151864262.60207,   0.00037,   0.00044,  -0.00197,305361417.40156,   0.00000,274640135.82653,   0.00000,   0.00000,   0.00000,-169278718.42497,   0.00000
149970980.50451,160899441.91006,-152720817.68520,   0.00037,   0.00044,  -0.00199,306953779.57908,   0.00000,274640135.82653,   0.00000,   0.00000,   0.00000,-167686356.24745,   0.00000
150278158.87915,161773718.82250,-153571465.49191,   0.00037,   0.00044,  -0.00200,308538149.27507,   0.00000,274640135.82653,   0.00000,   0.00000,   0.00000,-166101986.55146,   0.00000
150594198.16845,162668671.20247,-154416206.02217,   0.00037,   0.00045,  -0.00201,310122306.60299,   0.00000,274640135.82653,   0.00000,   0.00000,   0.00000,-164517829.22354,   0.00000
150922052.01062,163551809.02957,-155260946.55244,   0.00037,   0.00045,  -0.00202,311706544.62848,   0.00000,274640135.82653,   0.00000,   0.00000,   0.00000,-162933591.19805,   0.00000
151238091.29991,164446761.40954,-156105687.08271,   0.00037,   0.00045,  -0.00203,313292259.56092,   0.00000,274640135.82653,   0.00000,   0.00000,   0.00000,-161347876.26561,   0.00000
151554130.58921,165341713.78950,-156950427.61297,   0.00037,   0.00046,  -0.00204,314878750.18440,   0.00000,274640135.82653,   0.00000,   0.00000,   0.00000,-159761385.64213,   0.00000
151870169.87850,166236666.16947,-157789260.86680,   0.00037,   0.00046,  -0.00205,316457168.47869,   0.00000,274640135.82653,   0.00000,   0.00000,   0.00000,-158182967.34784,   0.00000
152206884.63532,167140479.46409,-158622186.84420,   0.00037,   0.00046,  -0.00206,318034492.48140,   0.00000,274640135.82653,   0.00000,   0.00000,   0.00000,-156605643.34513,   0.00000
152522923.92462,168035431.84406,-159461020.09803,   0.00037,   0.00047,  -0.00207,319614367.76506,   0.00000,274640135.82653,   0.00000,   0.00000,   0.00000,-155025768.06147,   0.00000
152838963.21391,168930384.22403,-160293946.07543,   0.00037,   0.00047,  -0.00208,321186123.69707,   0.00000,274640135.82653,   0.00000,   0.00000,   0.00000,-153454012.12946,   0.00000
153184538.88539,169854872.98617,-161120964.77639,   0.00037,   0.00047,  -0.00209,322764521.44911,   0.00000,274640135.82653,   0.00000,   0.00000,   0.00000,-151875614.37741,   0.00000
153500578.17468,170749825.36614,-161947983.47735,   0.00037,   0.00048,  -0.00211,324328816.94777,   0.00000,274640135.82653,   0.00000,   0.00000,   0.00000,-150311318.87876,   0.00000
153837292.93150,171653638.66076,-162775002.17831,   0.00037,   0.00048,  -0.00212,325900686.20824,   0.00000,274640135.82653,   0.00000,   0.00000,   0.00000,-148739449.61829,   0.00000
154162193.13545,172569266.50825,-163596113.60283,   0.00036,   0.00048,  -0.00213,327465329.61627,   0.00000,274640135.82653,   0.00000,   0.00000,   0.00000,-147174806.21026,   0.00000
154507768.80692,173493755.27040,-164417225.02736,   0.00036,   0.00049,  -0.00214,329037493.86331,   0.00000,274640135.82653,   0.00000,   0.00000,   0.00000,-145602641.96322,   0.00000
154832669.01087,174409383.11789,-165232429.17545,   0.00036,   0.00049,  -0.00215,330594593.08580,   0.00000,274640135.82653,   0.00000,   0.00000,   0.00000,-144045542.74073,   0.00000
155169383.76769,175313196.41251,-166047633.32354,   0.00036,   0.00050,  -0.00216,332151265.89942,   0.00000,274640135.82653,   0.00000,   0.00000,   0.00000,-142488869.92711,   0.00000
155514959.43916,176237685.17466,-166862837.47163,   0.00036,   0.00050,  -0.00217,333716417.65239,   0.00000,274640135.82653,   0.00000,   0.00000,   0.00000,-140923718.17414,   0.00000
155869396.02529,177182849.40433,-167672134.34328,   0.00036,   0.00050,  -0.00218,335281196.79357,   0.00000,274640135.82653,   0.00000,   0.00000,   0.00000,-139358939.03296,   0.00000
156214971.69676,178107338.16647,-168475523.93850,   0.00036,   0.00051,  -0.00219,336829801.23404,   0.00000,274640135.82653,   0.00000,   0.00000,   0.00000,-137810334.59249,   0.00000
156560547.36823,179031826.92862,-169284820.81015,   0.00036,   0.00051,  -0.00220,338387840.93926,   0.00000,274640135.82653,   0.00000,   0.00000,   0.00000,-136252294.88727,   0.00000
156906123.03971,179956315.69076,-170082303.12894,   0.00036,   0.00051,  -0.00221,339928711.21123,   0.00000,274640135.82653,   0.00000,   0.00000,   0.00000,-134711424.61530,   0.00000
157281235.09336,180910340.83508,-170879785.44772,   0.00036,   0.00052,  -0.00222,341484757.65374,   0.00000,274640135.82653,   0.00000,   0.00000,   0.00000,-133155378.17279,   0.00000
157626810.76483,181834829.59723,-171677267.76650,   0.00036,   0.00052,  -0.00223,343026712.15881,   0.00000,274640135.82653,   0.00000,   0.00000,   0.00000,-131613423.66772,   0.00000
157981247.35096,182779993.82690,-172468842.80885,   0.00036,   0.00052,  -0.00224,344568272.56993,   0.00000,274640135.82653,   0.00000,   0.00000,   0.00000,-130071863.25660,   0.00000
158347498.48995,183713343.50369,-173260417.85120,   0.00036,   0.00053,  -0.00225,346109074.79899,   0.00000,274640135.82653,   0.00000,   0.00000,   0.00000,-128531061.02754,   0.00000
158722610.54360,184667368.64802,-174046085.61711,   0.00036,   0.00053,  -0.00226,347649445.65330,   0.00000,274640135.82653,   0.00000,   0.00000,   0.00000,-126990690.17323,   0.00000
159097722.59725,185621393.79234,-174831753.38302,   0.00036,   0.00053,  -0.00227,349190309.32187,   0.00000,274640135.82653,   0.00000,   0.00000,   0.00000,-125449826.50466,   0.00000
159463973.73625,186554743.46914,-175611513.87250,   0.00036,   0.00054,  -0.00228,350714815.67141,   0.00000,274640135.82653,   0.00000,   0.00000,   0.00000,-123925320.15512,   0.00000
159839085.78990,187508768.61346,-176385367.08554,   0.00036,   0.00054,  -0.00229,352238888.63387,   0.00000,274640135.82653,   0.00000,   0.00000,   0.00000,-122401247.19266,   0.00000
160214197.84355,188462793.75778,-177159220.29858,   0.00036,   0.00055,  -0.00230,353763432.97010,   0.00000,274640135.82653,   0.00000,   0.00000,   0.00000,-120876702.85643,   0.00000
160589309.89720,189416818.90210,-177933073.51162,   0.00036,   0.00055,  -0.00231,355288442.61208,   0.00000,274640135.82653,   0.00000,   0.00000,   0.00000,-119351693.21445,   0.00000
160985097.41837,190379704.96108,-178701019.44823,   0.00036,   0.00055,  -0.00232,356811576.82696,   0.00000,274640135.82653,   0.00000,   0.00000,   0.00000,-117828558.99957,   0.00000
161380884.93955,191342591.02005,-179463058.10840,   0.00036,   0.00056,  -0.00233,358326259.39715,   0.00000,274640135.82653,   0.00000,   0.00000,   0.00000,-116313876.42938,   0.00000
161776672.46072,192305477.07903,-180225096.76857,   0.00036,   0.00056,  -0.00234,359841360.33114,   0.00000,274640135.82653,   0.00000,   0.00000,   0.00000,-114798775.49539,   0.00000
162172459.98189,193268363.13800,-180987135.42874,   0.00036,   0.00056,  -0.00235,361356874.36655,   0.00000,274640135.82653,   0.00000,   0.00000,   0.00000,-113283261.45998,   0.00000
162577108.41772,194251924.66450,-181743266.81248,   0.00036,   0.00057,  -0.00236,362871954.40791,   0.00000,274640135.82653,   0.00000,   0.00000,   0.00000,-111768181.41862,   0.00000
162972895.93890,195214810.72348,-182493490.91978,   0.00036,   0.00057,  -0.00237,364370535.01485,   0.00000,274640135.82653,   0.00000,   0.00000,   0.00000,-110269600.81168,   0.00000
163389358.92759,196186557.69711,-183237807.75064,   0.00036,   0.00057,  -0.00238,365867099.78796,   0.00000,274640135.82653,   0.00000,   0.00000,   0.00000,-108773036.03857,   0.00000
163785146.44877,197149443.75608,-183982124.58151,   0.00036,   0.00058,  -0.00239,367357582.40340,   0.00000,274640135.82653,   0.00000,   0.00000,   0.00000,-107282553.42313,   0.00000
164210470.35212,198141866.19724,-184726441.41237,   0.00036,   0.00058,  -0.00240,368862959.83648,   0.00000,274640135.82653,   0.00000,   0.00000,   0.00000,-105777175.99005,   0.00000
164647608.80834,199122474.08552,-185464850.96680,   0.00036,   0.00058,  -0.00241,370358189.30661,   0.00000,274640135.82653,   0.00000,   0.00000,   0.00000,-104281946.51992,   0.00000
165064071.79704,200094221.05915,-186197353.24479,   0.00036,   0.00059,  -0.00242,371838461.28998,   0.00000,274640135.82653,   0.00000,   0.00000,   0.00000,-102801674.53654,   0.00000
165489395.70039,201086643.50030,-186929855.52279,   0.00036,   0.00059,  -0.00243,373327180.66667,   0.00000,274640135.82653,   0.00000,   0.00000,   0.00000,-101312955.15986,   0.00000
165926534.15661,202067251.38858,-187656450.52434,   0.00036,   0.00060,  -0.00244,374805683.52373,   0.00000,274640135.82653,   0.00000,   0.00000,   0.00000,-99834452.30280,   0.00000
166372533.52749,203068534.74438,-188377138.24947,   0.00036,   0.00060,  -0.00245,376283751.64977,   0.00000,274640135.82653,   0.00000,   0.00000,   0.00000,-98356384.17676,   0.00000
166809671.98371,204049142.63267,-189097825.97459,   0.00036,   0.00060,  -0.00246,377754036.49766,   0.00000,274640135.82653,   0.00000,   0.00000,   0.00000,-96886099.32887,   0.00000
167255671.35458,205050425.98847,-189812606.42328,   0.00036,   0.00061,  -0.00247,379223900.63085,   0.00000,274640135.82653,   0.00000,   0.00000,   0.00000,-95416235.19568,   0.00000
167713485.27833,206039894.79141,-190527386.87196,   0.00036,   0.00061,  -0.00248,380692314.04480,   0.00000,274640135.82653,   0.00000,   0.00000,   0.00000,-93947821.78172,   0.00000
168180160.11673,207050039.06187,-191236260.04422,   0.00036,   0.00061,  -0.00249,382160303.63959,   0.00000,274640135.82653,   0.00000,   0.00000,   0.00000,-92479832.18694,   0.00000
168637974.04047,208039507.86480,-191939225.94003,   0.00036,   0.00062,  -0.00250,383611576.15195,   0.00000,274640135.82653,   0.00000,   0.00000,   0.00000,-91028559.67458,   0.00000
169104648.87887,209049652.13526,-192636284.55941,   0.00036,   0.00062,  -0.00250,385062443.88969,   0.00000,274640135.82653,   0.00000,   0.00000,   0.00000,-89577691.93684,   0.00000
169583138.27014,210047981.85285,-193333343.17879,   0.00036,   0.00063,  -0.00251,386511764.72412,   0.00000,274640135.82653,   0.00000,   0.00000,   0.00000,-88128371.10241,   0.00000
170049813.10854,211058126.12331,-194030401.79817,   0.00036,   0.00063,  -0.00252,387963229.06238,   0.00000,274640135.82653,   0.00000,   0.00000,   0.00000,-86676906.76415,   0.00000
170528302.49981,212056455.84089,-194715645.86468,   0.00036,   0.00063,  -0.00253,389395381.58804,   0.00000,274640135.82653,   0.00000,   0.00000,   0.00000,-85244754.23849,   0.00000
171006791.89108,213054785.55848,-195400889.93119,   0.00036,   0.00064,  -0.00254,390827804.16004,   0.00000,274640135.82653,   0.00000,   0.00000,   0.00000,-83812331.66649,   0.00000
171514817.66453,214082651.65825,-196086133.99770,   0.00036,   0.00064,  -0.00255,392275009.77467,   0.00000,274640135.82653,   0.00000,   0.00000,   0.00000,-82365126.05186,   0.00000
172013982.52332,215089842.29049,-196759563.51134,   0.00036,   0.00064,  -0.00256,393696542.48787,   0.00000,274640135.82653,   0.00000,   0.00000,   0.00000,-80943593.33866,   0.00000
172522008.29677,216117708.39025,-197432993.02498,   0.00036,   0.00065,  -0.00257,395126570.03931,   0.00000,274640135.82653,   0.00000,   0.00000,   0.00000,-79513565.78722,   0.00000
173021173.15556,217124899.02249,-198100515.26219,   0.00036,   0.00065,  -0.00258,396539765.75740,   0.00000,274640135.82653,   0.00000,   0.00000,   0.00000,-78100370.06913,   0.00000
173520338.01436,218132089.65473,-198768037.49939,   0.00036,   0.00065,  -0.00258,397953213.96763,   0.00000,274640135.82653,   0.00000,   0.00000,   0.00000,-76686921.85890,   0.00000
174049039.25533,219168816.66915,-199429652.46016,   0.00036,   0.00066,  -0.00259,399372601.87825,   0.00000,274640135.82653,   0.00000,   0.00000,   0.00000,-75267533.94828,   0.00000
174568879.58165,220184868.21605,-200085360.14449,   0.00036,   0.00066,  -0.00260,400775121.72895,   0.00000,274640135.82653,   0.00000,   0.00000,   0.00000,-73865014.09758,   0.00000
175109395.37549,221209780.67759,-200735160.55239,   0.00037,   0.00067,  -0.00261,402175298.24267,   0.00000,274640135.82653,   0.00000,   0.00000,   0.00000,-72464837.58386,   0.00000
175629235.70181,222225832.22449,-201384960.96029,   0.00037,   0.00067,  -0.00262,403569452.97831,   0.00000,274640135.82653,   0.00000,   0.00000,   0.00000,-71070682.84822,   0.00000
176178612.41030,223271420.15356,-202028854.09175,   0.00037,   0.00067,  -0.00263,404969573.16760,   0.00000,274640135.82653,   0.00000,   0.00000,   0.00000,-69670562.65893,   0.00000
176719128.20414,224296332.61511,-202666839.94678,   0.00037,   0.00068,  -0.00263,406352786.11168,   0.00000,274640135.82653,   0.00000,   0.00000,   0.00000,-68287349.71485,   0.00000
177280319.46551,225330105.99131,-203298918.52537,   0.00037,   0.00068,  -0.00264,407733645.87836,   0.00000,274640135.82653,   0.00000,   0.00000,   0.00000,-66906489.94817,   0.00000
177841510.72688,226363879.36751,-203930997.10396,   0.00037,   0.00068,  -0.00265,409114738.52534,   0.00000,274640135.82653,   0.00000,   0.00000,   0.00000,-65525397.30119,   0.00000
178402701.98824,227397652.74371,-204557168.40611,   0.00037,   0.00069,  -0.00266,410487230.39063,   0.00000,274640135.82653,   0.00000,   0.00000,   0.00000,-64152905.43590,   0.00000
178963893.24961,228431426.11991,-205183339.70827,   0.00037,   0.00069,  -0.00267,411859955.38383,   0.00000,274640135.82653,   0.00000,   0.00000,   0.00000,-62780180.44270,   0.00000
179536899.06384,229453384.94324,-205797696.45755,   0.00037,   0.00069,  -0.00268,413213117.38214,   0.00000,274640135.82653,   0.00000,   0.00000,   0.00000,-61427018.44439,   0.00000
180118765.79273,230496019.23409,-206412053.20684,   0.00037,   0.00070,  -0.00268,414574882.61600,   0.00000,274640135.82653,   0.00000,   0.00000,   0.00000,-60065253.21053,   0.00000
180700632.52162,231538653.52495,-207020502.67969,   0.00037,   0.00070,  -0.00269,415928060.02234,   0.00000,274640135.82653,   0.00000,   0.00000,   0.00000,-58712075.80419,   0.00000
181294313.80339,232569473.26293,-207623044.87610,   0.00037,   0.00070,  -0.00270,417270477.43076,   0.00000,274640135.82653,   0.00000,   0.00000,   0.00000,-57369658.39577,   0.00000
181896855.99980,233620968.46844,-208219679.79608,   0.00037,   0.00071,  -0.00271,418612719.14964,   0.00000,274640135.82653,   0.00000,   0.00000,   0.00000,-56027416.67689,   0.00000
182490537.28156,234651788.20642,-208816314.71606,   0.00037,   0.00071,  -0.00271,419946766.71776,   0.00000,274640135.82653,   0.00000,   0.00000,   0.00000,-54693369.10877,   0.00000
183113754.94550,235712144.32658,-209407042.35960,   0.00037,   0.00072,  -0.00272,421286902.91625,   0.00000,274640135.82653,   0.00000,   0.00000,   0.00000,-53353232.91028,   0.00000
183707436.22726,236742964.06456,-209991862.72671,   0.00037,   0.00072,  -0.00273,422603783.01717,   0.00000,274640135.82653,   0.00000,   0.00000,   0.00000,-52036352.80936,   0.00000
184342468.44407,237791505.63185,-210570775.81738,   0.00038,   0.00072,  -0.00274,423924554.11843,   0.00000,274640135.82653,   0.00000,   0.00000,   0.00000,-50715581.70810,   0.00000
184956825.19335,238831186.28449,-211149688.90805,   0.00038,   0.00073,  -0.00274,425239318.65859,   0.00000,274640135.82653,   0.00000,   0.00000,   0.00000,-49400817.16794,   0.00000
185591857.41016,239879727.85177,-211722694.72229,   0.00038,   0.00073,  -0.00275,426551750.09083,   0.00000,274640135.82653,   0.00000,   0.00000,   0.00000,-48088385.73570,   0.00000
186247565.09449,240937130.33372,-212289793.26009,   0.00038,   0.00073,  -0.00276,427861860.15910,   0.00000,274640135.82653,   0.00000,   0.00000,   0.00000,-46778275.66743,   0.00000
186882597.31130,241985671.90101,-212850984.52146,   0.00038,   0.00074,  -0.00277,429157179.29621,   0.00000,274640135.82653,   0.00000,   0.00000,   0.00000,-45482956.53032,   0.00000
187538304.99564,243043074.38295,-213406268.50639,   0.00038,   0.00074,  -0.00277,430450196.82759,   0.00000,274640135.82653,   0.00000,   0.00000,   0.00000,-44189938.99894,   0.00000
188185151.76532,244079801.39737,-213961552.49132,   0.00038,   0.00074,  -0.00278,431734923.48869,   0.00000,274640135.82653,   0.00000,   0.00000,   0.00000,-42905212.33784,   0.00000
188861534.91717,245146064.79396,-214505021.92338,   0.00038,   0.00075,  -0.00279,433017117.06397,   0.00000,274640135.82653,   0.00000,   0.00000,   0.00000,-41623018.76256,   0.00000
189529057.15438,246191652.72303,-215048491.35544,   0.00038,   0.00075,  -0.00280,434291011.25766,   0.00000,274640135.82653,   0.00000,   0.00000,   0.00000,-40349124.56887,   0.00000
190205440.30623,247257916.11963,-215586053.51106,   0.00038,   0.00075,  -0.00280,435564949.46977,   0.00000,274640135.82653,   0.00000,   0.00000,   0.00000,-39075186.35676,   0.00000
190893638.01096,248312364.96335,-216117708.39025,   0.00038,   0.00076,  -0.00281,436828058.34259,   0.00000,274640135.82653,   0.00000,   0.00000,   0.00000,-37812077.48394,   0.00000
191581835.71569,249366813.80708,-216649363.26944,   0.00039,   0.00076,  -0.00282,438091423.63657,   0.00000,274640135.82653,   0.00000,   0.00000,   0.00000,-36548712.18996,   0.00000
192290708.88794,250430123.56545,-217169203.59576,   0.00039,   0.00076,  -0.00282,439343790.78074,   0.00000,274640135.82653,   0.00000,   0.00000,   0.00000,-35296345.04579,   0.00000
192990721.14554,251472757.85631,-217689043.92208,   0.00039,   0.00077,  -0.00283,440587808.54230,   0.00000,274640135.82653,   0.00000,   0.00000,   0.00000,-34052327.28423,   0.00000
193699594.31779,252536067.61469,-218202976.97196,   0.00039,   0.00077,  -0.00284,441831961.17514,   0.00000,274640135.82653,   0.00000,   0.00000,   0.00000,-32808174.65139,   0.00000
194399606.57539,253578701.90554,-218711002.74541,   0.00039,   0.00077,  -0.00284,443058995.36758,   0.00000,274640135.82653,   0.00000,   0.00000,   0.00000,-31581140.45894,   0.00000
195129155.21517,254650872.57857,-219213121.24242,   0.00039,   0.00078,  -0.00285,444292496.05804,   0.00000,274640135.82653,   0.00000,   0.00000,   0.00000,-30347639.76849,   0.00000
195870518.40781,255711228.69873,-219709332.46299,   0.00039,   0.00078,  -0.00286,445515178.02432,   0.00000,274640135.82653,   0.00000,   0.00000,   0.00000,-29124957.80221,   0.00000
196591206.13293,256762723.90424,-220199636.40714,   0.00039,   0.00078,  -0.00286,446723118.67052,   0.00000,274640135.82653,   0.00000,   0.00000,   0.00000,-27917017.15601,   0.00000
197332569.32558,257823080.02440,-220689940.35128,   0.00040,   0.00079,  -0.00287,447937654.15960,   0.00000,274640135.82653,   0.00000,   0.00000,   0.00000,-26702481.66693,   0.00000
198085747.07110,258871621.59169,-221168429.74255,   0.00040,   0.00079,  -0.00288,449132635.24718,   0.00000,274640135.82653,   0.00000,   0.00000,   0.00000,-25507500.57935,   0.00000
198847785.73127,259940838.62650,-221646919.13382,   0.00040,   0.00079,  -0.00288,450336642.50048,   0.00000,274640135.82653,   0.00000,   0.00000,   0.00000,-24303493.32605,   0.00000
199600963.47679,260989380.19379,-222119501.24865,   0.00040,   0.00080,  -0.00289,451523518.71830,   0.00000,274640135.82653,   0.00000,   0.00000,   0.00000,-23116617.10823,   0.00000
200363002.13696,262058597.22860,-222586176.08705,   0.00040,   0.00080,  -0.00289,452710736.65797,   0.00000,274640135.82653,   0.00000,   0.00000,   0.00000,-21929399.16856,   0.00000
201136855.35000,263115999.71054,-223046943.64901,   0.00040,   0.00080,  -0.00290,453887162.54507,   0.00000,274640135.82653,   0.00000,   0.00000,   0.00000,-20752973.28146,   0.00000
201931384.03056,264182263.10714,-223501803.93454,   0.00040,   0.00081,  -0.00291,455061568.42491,   0.00000,274640135.82653,   0.00000,   0.00000,   0.00000,-19578567.40162,   0.00000
202696376.32895,265218990.12156,-223956664.22007,   0.00041,   0.00081,  -0.00291,456221182.99402,   0.00000,274640135.82653,   0.00000,   0.00000,   0.00000,-18418952.83251,   0.00000
203511580.47704,266294114.43281,-224399709.95273,   0.00041,   0.00081,  -0.00292,457385255.72045,   0.00000,274640135.82653,   0.00000,   0.00000,   0.00000,-17254880.10608,   0.00000
204297248.24295,267339702.36188,-224842755.68538,   0.00041,   0.00082,  -0.00292,458534525.32230,   0.00000,274640135.82653,   0.00000,   0.00000,   0.00000,-16105610.50423,   0.00000
205103591.47639,268394151.20560,-225273986.86517,   0.00041,   0.00082,  -0.00293,459673152.10783,   0.00000,274640135.82653,   0.00000,   0.00000,   0.00000,-14966983.71870,   0.00000
205930610.17735,269457460.96398,-225705218.04496,   0.00041,   0.00082,  -0.00293,460818550.49703,   0.00000,274640135.82653,   0.00000,   0.00000,   0.00000,-13821585.32950,   0.00000
206736953.41079,270511909.80770,-226130541.94831,   0.00041,   0.00083,  -0.00294,461949260.37814,   0.00000,274640135.82653,   0.00000,   0.00000,   0.00000,-12690875.44839,   0.00000
207555111.19709,271554544.09856,-226549958.57522,   0.00041,   0.00083,  -0.00295,463069230.46070,   0.00000,274640135.82653,   0.00000,   0.00000,   0.00000,-11570905.36583,   0.00000
208402805.36558,272626714.77159,-226963467.92570,   0.00042,   0.00083,  -0.00295,464196219.32323,   0.00000,274640135.82653,   0.00000,   0.00000,   0.00000,-10443916.50330,   0.00000
209241638.61941,273678209.97709,-227371069.99975,   0.00042,   0.00084,  -0.00296,465306092.00489,   0.00000,274640135.82653,   0.00000,   0.00000,   0.00000,-9334043.82164,   0.00000
210080471.87324,274729705.18260,-227772764.79736,   0.00042,   0.00084,  -0.00296,466407725.72948,   0.00000,274640135.82653,   0.00000,   0.00000,   0.00000,-8232410.09705,   0.00000
210931119.67994,275769385.83524,-228168552.31853,   0.00042,   0.00084,  -0.00297,467498674.74369,   0.00000,274640135.82653,   0.00000,   0.00000,   0.00000,-7141461.08284,   0.00000
211790628.40130,276829741.95540,-228564339.83971,   0.00042,   0.00085,  -0.00297,468598979.55489,   0.00000,274640135.82653,   0.00000,   0.00000,   0.00000,-6041156.27164,   0.00000
212661951.67553,277878283.52269,-228948312.80801,   0.00043,   0.00085,  -0.00298,469679995.16126,   0.00000,274640135.82653,   0.00000,   0.00000,   0.00000,-4960140.66527,   0.00000
213533274.94975,278926825.08998,-229326378.49988,   0.00043,   0.00085,  -0.00298,470752842.22227,   0.00000,274640135.82653,   0.00000,   0.00000,   0.00000,-3887293.60426,   0.00000
214404598.22398,279975366.65726,-229704444.19174,   0.00043,   0.00086,  -0.00299,471826161.54470,   0.00000,274640135.82653,   0.00000,   0.00000,   0.00000,-2813974.28183,   0.00000
215296596.96573,281032769.13921,-230070695.33074,   0.00043,   0.00086,  -0.00299,472889223.51166,   0.00000,274640135.82653,   0.00000,   0.00000,   0.00000,-1750912.31487,   0.00000
216179734.79282,282069496.15362,-230436946.46974,   0.00043,   0.00086,  -0.00300,473943803.01752,   0.00000,274640135.82653,   0.00000,   0.00000,   0.00000,-696332.80901,   0.00000
216777465.04585,282760988.01497,-230675257.22421,   0.00043,   0.00086,  -0.00300,474640135.66651,   0.00000,274640135.82653,   0.00000,   0.00000,   0.00000,  -4.17719,   0.00000
216946495.26942,282926436.10433,-230616951.90729,   0.00044,   0.00086,  -0.00300,474642799.21379,   0.00000,274642806.65497,   0.00000,   0.00000,  -0.00000,  -7.44118,   1.00000
217451157.95052,283422942.97453,-230441768.89021,   0.00044,   0.00087,  -0.00300,474650555.78453,   0.00001,274650563.52488,   0.00000,   0.00000,  -0.00001,  -7.74036,   1.00000
217967290.69020,283907601.60292,-230267816.77129,   0.00044,   0.00087,  -0.00301,474658295.67475,   0.00002,274658302.61205,   0.00000,   0.00000,  -0.00002,  -6.93730,   1.00000
218490797.89080,284411309.88371,-230087722.78560,   0.00044,   0.00087,  -0.00301,474666038.87054,   0.00002,274666045.68097,   0.00000,   0.00001,  -0.00002,  -6.81042,   1.00000
219010974.10506,284902367.82511,-229910599.43727,   0.00044,   0.00088,  -0.00302,474673647.96184,   0.00003,274673657.72177,   0.00000,   0.00001,  -0.00003,  -9.75993,   1.00000
219551251.08073,285401965.83250,-229728544.14064,   0.00045,   0.00088,  -0.00302,474681248.07251,   0.00004,274681255.83122,   0.00000,   0.00001,  -0.00004,  -7.75870,   1.00000
220088213.17891,285888971.87350,-229549444.41801,   0.00045,   0.00088,  -0.00303,474688713.92718,   0.00004,274688723.12938,   0.00000,   0.00001,  -0.00004,  -9.20220,   1.00000
220650518.72795,286400269.49368,-229360791.61084,   0.00045,   0.00089,  -0.00303,474696235.43737,   0.00005,274696245.01345,   0.00001,   0.00001,  -0.00005,  -9.57607,   1.00000
221209499.71994,286898979.32603,-229175078.13214,   0.00045,   0.00089,  -0.00303,474703630.41419,   0.00006,274703636.35779,   0.00001,   0.00001,  -0.00006,  -5.94360,   1.00000
221765206.49034,287385171.22867,-228992298.62279,   0.00046,   0.00089,  -0.00304,474710891.06707,   0.00006,274710897.21113,   0.00001,   0.00002,  -0.00006,  -6.14406,   1.00000
222346158.71144,287895576.45529,-228799894.00822,   0.00046,   0.00089,  -0.00304,474718207.14602,   0.00007,274718213.75730,   0.00001,   0.00002,  -0.00007,  -6.61128,   1.00000
222923828.72515,288393466.85941,-228610405.63840,   0.00046,   0.00090,  -0.00305,474725396.44252,   0.00008,274725400.10375,   0.00001,   0.00002,  -0.00007,  -3.66122,   1.00000
223521431.90293,288899788.77162,-228415839.45109,   0.00046,   0.00090,  -0.00305,474732568.02748,   0.00008,274732574.76097,   0.00001,   0.00002,  -0.00008,  -6.73348,   1.00000
224120959.90461,289409306.97787,-228219559.69229,   0.00047,   0.00090,  -0.00305,474739678.37878,   0.00009,274739687.87541,   0.00001,   0.00002,  -0.00009,  -9.49663,   1.00000
224735181.49979,289911550.77373,-228022774.17317,   0.00047,   0.00090,  -0.00306,474746712.17255,   0.00010,274746721.52885,   0.00001,   0.00002,  -0.00009,  -9.35630,   1.00000
225347915.68566,290412395.00580,-227825890.72909,   0.00047,   0.00091,  -0.00306,474753750.73036,   0.00010,274753757.25275,   0.00001,   0.00003,  -0.00010,  -6.52239,   1.00000
225965980.60037,290921080.49791,-227625609.31266,   0.00047,   0.00091,  -0.00306,474760662.10209,   0.00011,274760668.82984,   0.00001,   0.00003,  -0.00011,  -6.72775,   1.00000
226598739.82372,291422508.32658,-227424772.36109,   0.00048,   0.00091,  -0.00307,474767496.10358,   0.00012,274767501.68862,   0.00001,   0.00003,  -0.00011,  -5.58505,   1.00000
227238507.08953,291942735.92879,-227217517.42182,   0.00048,   0.00092,  -0.00307,474774335.20334,   0.00012,274774342.81744,   0.00001,   0.00003,  -0.00012,  -7.61409,   1.00000
227884417.73817,292435482.43453,-227015975.88806,   0.00048,   0.00092,  -0.00307,474781096.42153,   0.00013,274781099.84547,   0.00001,   0.00003,  -0.00012,  -3.42394,   1.00000
228540730.48195,292951653.87501,-226806304.96493,   0.00048,   0.00092,  -0.00308,474787796.74753,   0.00013,274787802.91651,   0.00001,   0.00003,  -0.00013,  -6.16898,   1.00000
229211692.31051,293460544.89326,-226596001.17962,   0.00049,   0.00092,  -0.00308,474794425.44256,   0.00014,274794428.44187,   0.00002,   0.00003,  -0.00014,  -2.99931,   1.00000
229884510.50957,293972637.94015,-226383842.68223,   0.00049,   0.00093,  -0.00308,474800986.45260,   0.00015,274800994.55665,   0.00002,   0.00004,  -0.00014,  -8.10405,   1.00000
230555735.36289,294483289.17943,-226171524.82472,   0.00049,   0.00093,  -0.00309,474807560.33412,   0.00015,274807563.75399,   0.00002,   0.00004,  -0.00015,  -3.41987,   1.00000
231245080.93193,294991326.49144,-225956814.53489,   0.00049,   0.00093,  -0.00309,474813987.88992,   0.00016,274813993.85594,   0.00002,   0.00004,  -0.00015,  -5.96602,   1.00000
231936288.27366,295502584.05504,-225740211.22440,   0.00050,   0.00093,  -0.00309,474820361.15912,   0.00016,274820365.11989,   0.00002,   0.00004,  -0.00016,  -3.96077,   1.00000
232647085.25678,296022004.35651,-225518207.23860,   0.00050,   0.00094,  -0.00310,474826728.65441,   0.00017,274826729.63358,   0.00002,   0.00004,  -0.00016,  -0.97917,   1.00000
233351270.11818,296524516.22359,-225300664.05133,   0.00050,   0.00094,  -0.00310,474833022.41037,   0.00018,274833028.66469,   0.00002,   0.00004,  -0.00017,  -6.25433,   1.00000
234078509.28817,297039846.31923,-225075945.64565,   0.00051,   0.00094,  -0.00310,474839255.23401,   0.00018,274839259.59682,   0.00002,   0.00005,  -0.00017,  -4.36282,   1.00000
234802671.62857,297542986.23487,-224853937.77432,   0.00051,   0.00094,  -0.00310,474845359.21397,   0.00019,274845363.32546,   0.00002,   0.00005,  -0.00018,  -4.11149,   1.00000
235530025.67537,298060033.44098,-224627015.83428,   0.00051,   0.00095,  -0.00311,474851532.51112,   0.00019,274851540.82468,   0.00002,   0.00005,  -0.00019,  -8.31356,   1.00000
236275521.92074,298574465.00566,-224397505.30099,   0.00052,   0.00095,  -0.00311,474857575.50747,   0.00020,274857582.10261,   0.00002,   0.00005,  -0.00019,  -6.59514,   1.00000
237018004.56281,299076765.38720,-224170668.18870,   0.00052,   0.00095,  -0.00311,474863489.19109,   0.00020,274863496.70170,   0.00002,   0.00005,  -0.00020,  -7.51061,   1.00000
237779923.93582,299587111.02522,-223938250.58080,   0.00052,   0.00095,  -0.00311,474869402.11725,   0.00021,274869407.25394,   0.00002,   0.00005,  -0.00020,  -5.13669,   1.00000
238540084.11643,300095954.05767,-223705556.31682,   0.00052,   0.00095,  -0.00311,474875317.35098,   0.00021,274875322.73040,   0.00002,   0.00005,  -0.00021,  -5.37942,   1.00000
239305632.04482,300612698.62598,-223469017.48964,   0.00053,   0.00096,  -0.00312,474881115.21889,   0.00022,274881120.61155,   0.00003,   0.00006,  -0.00021,  -5.39266,   1.00000
240085779.72092,301122126.65935,-223231521.87301,   0.00053,   0.00096,  -0.00312,474886842.61731,   0.00022,274886845.74903,   0.00003,   0.00006,  -0.00022,  -3.13172,   1.00000
240867733.74060,301634748.51910,-222991918.58728,   0.00053,   0.00096,  -0.00312,474892509.56822,   0.00023,274892515.25264,   0.00003,   0.00006,  -0.00022,  -5.68442,   1.00000
241664281.40035,302140052.15812,-222751309.99801,   0.00054,   0.00096,  -0.00312,474898110.91779,   0.00024,274898112.71974,   0.00003,   0.00006,  -0.00023,  -1.80194,   1.00000
242459015.92499,302643834.78767,-222510370.61592,   0.00054,   0.00096,  -0.00312,474903710.10850,   0.00024,274903715.94874,   0.00003,   0.00006,  -0.00023,  -5.84024,   1.00000
243276605.65625,303160191.16605,-222261834.40334,   0.00054,   0.00097,  -0.00313,474909249.42298,   0.00025,274909257.34070,   0.00003,   0.00006,  -0.00024,  -7.91772,   1.00000
244091328.27641,303664541.49065,-222015835.67189,   0.00055,   0.00097,  -0.00313,474914669.05416,   0.00025,274914673.99198,   0.00003,   0.00006,  -0.00024,  -4.93782,   1.00000
244907855.92429,304172085.93700,-221767638.36132,   0.00055,   0.00097,  -0.00313,474920033.93300,   0.00026,274920036.34615,   0.00003,   0.00006,  -0.00025,  -2.41315,   1.00000
245738964.48430,304672281.46336,-221518304.64975,   0.00055,   0.00097,  -0.00313,474925325.38151,   0.00026,274925328.58550,   0.00003,   0.00007,  -0.00025,  -3.20399,   1.00000
246589198.53354,305180230.28750,-221263068.61849,   0.00056,   0.00097,  -0.00313,474930620.19655,   0.00026,274930621.64867,   0.00003,   0.00007,  -0.00025,  -1.45212,   1.00000
247423875.64400,305686782.70295,-221009231.64291,   0.00056,   0.00098,  -0.00313,474935802.25399,   0.00027,274935806.86489,   0.00003,   0.00007,  -0.00026,  -4.61090,   1.00000
248273136.22640,306185968.33096,-220754185.56159,   0.00056,   0.00098,  -0.00313,474940920.61781,   0.00027,274940923.03268,   0.00003,   0.00007,  -0.00026,  -2.41487,   1.00000
249141446.80256,306692823.65005,-220493146.49129,   0.00057,   0.00098,  -0.00313,474946036.65476,   0.00028,274946041.39413,   0.00003,   0.00007,  -0.00027,  -4.73937,   1.00000
250007042.92046,307187784.73350,-220234525.84418,   0.00057,   0.00098,  -0.00314,474951035.41126,   0.00028,274951036.67415,   0.00003,   0.00007,  -0.00027,  -1.26289,   1.00000
250878873.53321,307700930.82261,-219968814.18935,   0.00058,   0.00098,  -0.00314,474956047.17921,   0.00029,274956050.52614,   0.00003,   0.00007,  -0.00028,  -3.34693,   1.00000
251760810.89786,308191631.20043,-219706522.26683,   0.00058,   0.00099,  -0.00314,474960924.96408,   0.00029,274960926.34289,   0.00003,   0.00007,  -0.00028,  -1.37882,   1.00000
252644534.46608,308685496.93260,-219441843.74903,   0.00058,   0.00099,  -0.00314,474965747.71984,   0.00030,274965750.61701,   0.00004,   0.00008,  -0.00029,  -2.89717,   1.00000
253547171.69757,309186891.31725,-219171017.69551,   0.00059,   0.00099,  -0.00314,474970572.99570,   0.00030,274970579.41521,   0.00004,   0.00008,  -0.00029,  -6.41950,   1.00000
254451555.20790,309691398.29216,-218897760.14129,   0.00059,   0.00099,  -0.00314,474975353.44326,   0.00031,274975357.36526,   0.00004,   0.00008,  -0.00029,  -3.92200,   1.00000
255353372.23131,310184084.67987,-218626812.71213,   0.00059,   0.00099,  -0.00314,474980008.81417,   0.00031,274980013.74509,   0.00004,   0.00008,  -0.00030,  -4.93093,   1.00000
256269727.12977,310669302.18330,-218354387.08863,   0.00060,   0.00099,  -0.00314,474984595.69408,   0.00031,274984605.01009,   0.00004,   0.00008,  -0.00030,  -9.31601,   1.00000
257187866.07967,311157659.39926,-218079471.12856,   0.00060,   0.00100,  -0.00314,474989136.93824,   0.00032,274989146.25266,   0.00004,   0.00008,  -0.00031,  -9.31441,   1.00000
258111597.50186,311653914.12965,-217800079.53750,   0.00061,   0.00100,  -0.00314,474993571.80198,   0.00032,274993578.97345,   0.00004,   0.00008,  -0.00031,  -7.17147,   1.00000
259046048.86169,312137878.92248,-217521087.77609,   0.00061,   0.00100,  -0.00314,474997997.40212,   0.00033,274998006.67050,   0.00004,   0.00008,  -0.00031,  -9.26838,   1.00000
259999200.26855,312629150.96990,-217235718.32646,   0.00061,   0.00100,  -0.00314,475002434.61911,   0.00033,275002442.36298,   0.00004,   0.00008,  -0.00032,  -7.74388,   1.00000
260949913.62988,313108666.32016,-216952529.38830,   0.00062,   0.00100,  -0.00314,475006752.51954,   0.00033,275006758.28574,   0.00004,   0.00009,  -0.00032,  -5.76620,   1.00000
261906243.56245,313596049.99771,-216664728.64436,   0.00062,   0.00100,  -0.00314,475010961.40599,   0.00034,275010967.63629,   0.00004,   0.00009,  -0.00032,  -6.23030,   1.00000
262860506.01676,314081741.48174,-216376313.15527,   0.00063,   0.00100,  -0.00314,475015186.22363,   0.00034,275015187.13579,   0.00004,   0.00009,  -0.00033,  -0.91216,   1.00000
263829262.87609,314559830.30666,-216086166.15954,   0.00063,   0.00101,  -0.00314,475019338.81543,   0.00035,275019345.23074,   0.00004,   0.00009,  -0.00033,  -6.41532,   1.00000
264820432.35838,315049825.37343,-215787436.06921,   0.00063,   0.00101,  -0.00314,475023447.40912,   0.00035,275023456.04842,   0.00004,   0.00009,  -0.00034,  -8.63929,   1.00000
265788669.45630,315519283.25475,-215496700.25699,   0.00064,   0.00101,  -0.00314,475027439.09990,   0.00035,275027448.35350,   0.00004,   0.00009,  -0.00034,  -9.25361,   1.00000
266775329.72708,315985912.83256,-215202093.85176,   0.00064,   0.00101,  -0.00314,475031315.98784,   0.00036,275031322.86437,   0.00004,   0.00009,  -0.00034,  -6.87653,   1.00000
267780526.16108,316469496.94018,-214898100.16902,   0.00065,   0.00101,  -0.00314,475035329.89543,   0.00036,275035338.73386,   0.00005,   0.00009,  -0.00035,  -8.83842,   1.00000
268783462.97608,316931495.22149,-214598831.27730,   0.00065,   0.00101,  -0.00314,475039106.78772,   0.00036,275039108.21984,   0.00005,   0.00009,  -0.00035,  -1.43212,   1.00000
269788178.34058,317406404.32597,-214294049.95204,   0.00065,   0.00101,  -0.00314,475042956.58106,   0.00037,275042961.15637,   0.00005,   0.00009,  -0.00035,  -4.57531,   1.00000
270807383.72405,317863712.75005,-213989996.43533,   0.00066,   0.00101,  -0.00314,475046623.24370,   0.00037,275046627.39008,   0.00005,   0.00010,  -0.00036,  -4.14638,   1.00000
271811751.22742,318330007.41567,-213684359.01167,   0.00066,   0.00101,  -0.00314,475050313.96829,   0.00037,275050318.30397,   0.00005,   0.00010,  -0.00036,  -4.33568,   1.00000
272851060.53043,318797181.29646,-213370616.87476,   0.00067,   0.00102,  -0.00314,475053950.05287,   0.00038,275053954.67906,   0.00005,   0.00010,  -0.00036,  -4.62619,   1.00000
273884307.65471,319247916.61358,-213060868.02362,   0.00067,   0.00102,  -0.00313,475057525.02053,   0.00038,275057532.22931,   0.00005,   0.00010,  -0.00037,  -7.20878,   1.00000
274923325.76732,319706424.65465,-212746075.23787,   0.00068,   0.00102,  -0.00313,475061003.52328,   0.00038,275061009.34561,   0.00005,   0.00010,  -0.00037,  -5.82233,   1.00000
275960378.56755,320153338.51593,-212433128.33802,   0.00068,   0.00102,  -0.00313,475064370.64039,   0.00039,275064371.24864,   0.00005,   0.00010,  -0.00037,  -0.60826,   1.00000
277011593.72609,320602173.98777,-212115347.63439,   0.00069,   0.00102,  -0.00313,475067805.64686,   0.00039,275067806.57407,   0.00005,   0.00010,  -0.00037,  -0.92721,   1.00000
278068600.01106,321058730.56741,-211792413.40056,   0.00069,   0.00102,  -0.00313,475071133.80794,   0.00039,275071143.03521,   0.00005,   0.00010,  -0.00038,  -9.22728,   1.00000
279139997.99236,321507364.42694,-211467209.83537,   0.00069,   0.00102,  -0.00313,475074416.59800,   0.00040,275074425.92938,   0.00005,   0.00010,  -0.00038,  -9.33137,   1.00000
280205460.18773,321939610.93390,-211145918.75827,   0.00070,   0.00102,  -0.00313,475077649.65079,   0.00040,275077651.09639,   0.00005,   0.00010,  -0.00038,  -1.44559,   1.00000
281276773.49908,322379564.25714,-210819366.81736,   0.00070,   0.00102,  -0.00313,475080771.40650,   0.00040,275080778.89291,   0.00005,   0.00010,  -0.00039,  -7.48640,   1.00000
282366056.13863,322826001.41579,-210485643.36868,   0.00071,   0.00102,  -0.00312,475083919.11702,   0.00041,275083926.65858,   0.00005,   0.00010,  -0.00039,  -7.54155,   1.00000
283449982.84571,323246391.52335,-210158363.22741,   0.00071,   0.00102,  -0.00312,475086888.03117,   0.00041,275086889.92850,   0.00005,   0.00011,  -0.00039,  -1.89734,   1.00000
284535141.04739,323679313.24662,-209825355.61184,   0.00072,   0.00102,  -0.00312,475089933.42189,   0.00041,275089940.18850,   0.00005,   0.00011,  -0.00039,  -6.76661,   1.00000
285638757.58553,324108959.92378,-209487631.80814,   0.00072,   0.00102,  -0.00312,475092875.91445,   0.00041,275092884.77997,   0.00005,   0.00011,  -0.00040,  -8.86552,   1.00000
286740676.97087,324527029.11099,-209151480.68440,   0.00073,   0.00102,  -0.00312,475095710.40804,   0.00042,275095717.90050,   0.00005,   0.00011,  -0.00040,  -7.49246,   1.00000
287844398.97345,324947936.71492,-208812094.64369,   0.00073,   0.00103,  -0.00312,475098504.16809,   0.00042,275098511.78876,   0.00006,   0.00011,  -0.00040,  -7.62067,   1.00000
288965857.45492,325375069.10424,-208465306.67525,   0.00074,   0.00103,  -0.00311,475101324.76420,   0.00042,275101329.12950,   0.00006,   0.00011,  -0.00040,  -4.36530,   1.00000
290081526.93230,325785823.60878,-208122279.76397,   0.00074,   0.00103,  -0.00311,475104089.61506,   0.00042,275104090.84570,   0.00006,   0.00011,  -0.00041,  -1.23064,   1.00000
291199808.65595,326189808.26774,-207778445.54450,   0.00075,   0.00103,  -0.00311,475106679.73054,   0.00043,275106687.83539,   0.00006,   0.00011,  -0.00041,  -8.10485,   1.00000
292335726.20591,326599903.17441,-207427096.76005,   0.00075,   0.00103,  -0.00311,475109308.58857,   0.00043,275109309.96507,   0.00006,   0.00011,  -0.00041,  -1.37650,   1.00000
293470117.88940,326998410.17416,-207077142.93172,   0.00076,   0.00103,  -0.00310,475111816.04047,   0.00043,275111823.04473,   0.00006,   0.00011,  -0.00041,  -7.00425,   1.00000
294606310.12310,327399662.82503,-206723791.80812,   0.00076,   0.00103,  -0.00310,475114290.33491,   0.00043,275114299.22972,   0.00006,   0.00011,  -0.00041,  -8.89481,   1.00000
295756766.50277,327792581.39053,-206367578.34244,   0.00077,   0.00103,  -0.00310,475116722.04202,   0.00044,275116730.44167,   0.00006,   0.00011,  -0.00042,  -8.39965,   1.00000
296904759.33055,328183415.10930,-206010241.22505,   0.00077,   0.00103,  -0.00310,475119175.21337,   0.00044,275119179.52172,   0.00006,   0.00011,  -0.00042,  -4.30835,   1.00000
298071199.62078,328570605.97228,-205647609.07732,   0.00078,   0.00103,  -0.00309,475121527.43033,   0.00044,275121531.19655,   0.00006,   0.00011,  -0.00042,  -3.76623,   1.00000
299223832.20816,328957305.14658,-205285702.02182,   0.00078,   0.00103,  -0.00309,475123776.77357,   0.00044,275123783.69592,   0.00006,   0.00011,  -0.00042,  -6.92235,   1.00000
300390690.73163,329335544.22781,-204920770.65345,   0.00078,   0.00103,  -0.00309,475125986.33688,   0.00044,275125993.56597,   0.00006,   0.00011,  -0.00042,  -7.22909,   1.00000
301574779.60139,329719466.12661,-204547985.34929,   0.00079,   0.00103,  -0.00309,475128228.62716,   0.00045,275128233.74956,   0.00006,   0.00012,  -0.00043,  -5.12240,   1.00000
302742138.11789,330088719.89708,-204180635.93221,   0.00079,   0.00103,  -0.00308,475130294.37649,   0.00045,275130303.44424,   0.00006,   0.00012,  -0.00043,  -9.06775,   1.00000
303919384.43985,330444654.08353,-203812540.50800,   0.00080,   0.00103,  -0.00308,475132382.38953,   0.00045,275132385.27096,   0.00006,   0.00012,  -0.00043,  -2.88142,   1.00000
305102723.96525,330807929.63665,-203438376.36769,   0.00081,   0.00103,  -0.00308,475134377.81056,   0.00045,275134381.08431,   0.00006,   0.00012,  -0.00043,  -3.27375,   1.00000
306303107.54814,331176685.48083,-203056196.28491,   0.00081,   0.00103,  -0.00307,475136400.77196,   0.00045,275136409.67679,   0.00006,   0.00012,  -0.00043,  -8.90484,   1.00000
307502303.38139,331533787.22609,-202675041.65725,   0.00082,   0.00103,  -0.00307,475138330.35113,   0.00046,275138334.22302,   0.00006,   0.00012,  -0.00043,  -3.87189,   1.00000
308696019.59791,331874497.65078,-202297333.56323,   0.00082,   0.00103,  -0.00307,475140202.23095,   0.00046,275140207.42307,   0.00006,   0.00012,  -0.00044,  -5.19212,   1.00000
309895878.26555,332222463.45487,-201913399.83129,   0.00083,   0.00103,  -0.00306,475141990.97996,   0.00046,275141996.79678,   0.00006,   0.00012,  -0.00044,  -5.81682,   1.00000
311109790.19618,332561604.52269,-201526034.62291,   0.00083,   0.00103,  -0.00306,475143745.87146,   0.00046,275143749.46818,   0.00006,   0.00012,  -0.00044,  -3.59672,   1.00000
312325435.46164,332903168.02285,-201134820.00669,   0.00084,   0.00103,  -0.00306,475145469.78165,   0.00046,275145471.75682,   0.00006,   0.00012,  -0.00044,  -1.97517,   1.00000
313550648.24492,333231053.17599,-200742567.74141,   0.00084,   0.00102,  -0.00305,475147205.17663,   0.00046,275147210.60534,   0.00006,   0.00012,  -0.00044,  -5.42871,   1.00000
314767037.31952,333563333.23283,-200348311.52122,   0.00085,   0.00102,  -0.00305,475148798.47095,   0.00046,275148801.37753,   0.00006,   0.00012,  -0.00044,  -2.90658,   1.00000
315997393.94621,333886612.68652,-199950440.34743,   0.00085,   0.00102,  -0.00304,475150354.53528,   0.00047,275150358.11951,   0.00007,   0.00012,  -0.00045,  -3.58424,   1.00000
317222398.71419,334193459.27820,-199555862.12579,   0.00086,   0.00102,  -0.00304,475151864.15481,   0.00047,275151865.59347,   0.00007,   0.00012,  -0.00045,  -1.43866,   1.00000
318468368.04944,334509969.26013,-199150307.49191,   0.00086,   0.00102,  -0.00304,475153356.18967,   0.00047,275153361.09603,   0.00007,   0.00012,  -0.00045,  -4.90635,   1.00000
319694257.20061,334807427.70202,-198752445.66646,   0.00087,   0.00102,  -0.00303,475154736.69348,   0.00047,275154740.35097,   0.00007,   0.00012,  -0.00045,  -3.65749,   1.00000
320941059.73950,335114453.56963,-198343512.90663,   0.00087,   0.00102,  -0.00303,475156100.97288,   0.00047,275156109.01449,   0.00007,   0.00012,  -0.00045,  -8.04161,   1.00000
322182571.85914,335405007.25328,-197937781.62045,   0.00088,   0.00102,  -0.00302,475157423.20575,   0.00047,275157429.65326,   0.00007,   0.00012,  -0.00045,  -6.44751,   1.00000
323444862.26048,335704973.71475,-197520859.09341,   0.00088,   0.00102,  -0.00302,475158740.47227,   0.00047,275158741.51725,   0.00007,   0.00012,  -0.00045,  -1.04498,   1.00000
324701834.75279,335988401.08005,-197107066.96765,   0.00089,   0.00102,  -0.00302,475159998.74945,   0.00048,275160006.38378,   0.00007,   0.00012,  -0.00045,  -7.63433,   1.00000
325958070.61806,336260019.02968,-196693789.26907,   0.00090,   0.00102,  -0.00301,475161169.90034,   0.00048,275161174.01303,   0.00007,   0.00012,  -0.00045,  -4.11269,   1.00000
327220521.27350,336538462.92280,-196273665.87851,   0.00090,   0.00102,  -0.00301,475162257.60779,   0.00048,275162266.48330,   0.00007,   0.00012,  -0.00046,  -8.87552,   1.00000
328494465.84866,336816682.24037,-195847411.11491,   0.00091,   0.00102,  -0.00300,475163446.33018,   0.00048,275163453.20040,   0.00007,   0.00012,  -0.00046,  -6.87022,   1.00000
329751101.07366,337066751.83504,-195430767.18802,   0.00091,   0.00102,  -0.00300,475164398.48760,   0.00048,275164403.53066,   0.00007,   0.00012,  -0.00046,  -5.04306,   1.00000
331025983.84332,337335138.99987,-195000615.16805,   0.00092,   0.00101,  -0.00299,475165467.45202,   0.00048,275165470.61314,   0.00007,   0.00012,  -0.00046,  -3.16112,   1.00000
332312164.13310,337579919.72844,-194570874.07796,   0.00092,   0.00101,  -0.00299,475166431.95857,   0.00048,275166441.70021,   0.00007,   0.00013,  -0.00046,  -9.74164,   1.00000
333585816.42139,337824452.93275,-194141325.50535,   0.00093,   0.00101,  -0.00298,475167312.41225,   0.00048,275167320.02428,   0.00007,   0.00013,  -0.00046,  -7.61203,   1.00000
334875192.20692,338073149.84664,-193702796.90662,   0.00093,   0.00101,  -0.00298,475168242.36927,   0.00048,275168245.95459,   0.00007,   0.00013,  -0.00046,  -3.58532,   1.00000
336161844.55277,338295943.39610,-193269101.74190,   0.00094,   0.00101,  -0.00297,475169001.28164,   0.00048,275169007.87890,   0.00007,   0.00013,  -0.00046,  -6.59726,   1.00000
337452229.45686,338534536.05663,-192826300.49547,   0.00094,   0.00101,  -0.00297,475169813.66280,   0.00048,275169819.34395,   0.00007,   0.00013,  -0.00046,  -5.68114,   1.00000
338753924.77425,338749293.63851,-192383628.92073,   0.00095,   0.00101,  -0.00296,475170532.32089,   0.00048,275170538.71043,   0.00007,   0.00013,  -0.00046,  -6.38954,   1.00000
340038702.65803,338959194.89797,-191943800.98514,   0.00096,   0.00101,  -0.00296,475171209.60133,   0.00049,275171214.88790,   0.00007,   0.00013,  -0.00046,  -5.28658,   1.00000
341343513.13146,339177566.30721,-191492011.44762,   0.00096,   0.00100,  -0.00295,475171889.66635,   0.00049,275171893.78363,   0.00007,   0.00013,  -0.00046,  -4.11728,   1.00000
342643205.94895,339379213.03817,-191043008.99628,   0.00097,   0.00100,  -0.00295,475172525.61213,   0.00049,275172530.29207,   0.00007,   0.00013,  -0.00046,  -4.67995,   1.00000
343960807.48628,339575285.35213,-190586509.59046,   0.00097,   0.00100,  -0.00294,475173100.11208,   0.00049,275173100.81914,   0.00007,   0.00013,  -0.00046,  -0.70707,   1.00000
345261603.77849,339766504.69710,-190132803.15243,   0.00098,   0.00100,  -0.00294,475173623.99406,   0.00049,275173628.74672,   0.00007,   0.00013,  -0.00046,  -4.75266,   1.00000
346575589.83326,339947452.62280,-189674314.21653,   0.00098,   0.00100,  -0.00293,475174133.90091,   0.00049,275174139.72360,   0.00007,   0.00013,  -0.00047,  -5.82270,   1.00000
347895738.02603,340134590.61108,-189208241.14738,   0.00099,   0.00100,  -0.00293,475174584.11859,   0.00049,275174585.85069,   0.00007,   0.00013,  -0.00047,  -1.73209,   1.00000
349208999.83634,340291053.22606,-188749366.41395,   0.00100,   0.00099,  -0.00292,475174913.14996,   0.00049,275174921.23686,   0.00007,   0.00013,  -0.00047,  -8.08690,   1.00000
350525539.43979,340462927.07709,-188281138.04805,   0.00100,   0.00099,  -0.00291,475175302.57214,   0.00049,275175310.09316,   0.00007,   0.00013,  -0.00047,  -7.52102,   1.00000
351855054.22565,340624252.77953,-187807909.70090,   0.00101,   0.00099,  -0.00291,475175681.90312,   0.00049,275175685.22872,   0.00007,   0.00013,  -0.00047,  -3.32560,   1.00000
353184213.58650,340773197.08333,-187334329.13873,   0.00101,   0.00099,  -0.00290,475175966.95903,   0.00049,275175974.74591,   0.00007,   0.00013,  -0.00047,  -7.78688,   1.00000
354508330.33355,340905222.68134,-186863277.40254,   0.00102,   0.00099,  -0.00290,475176219.05710,   0.00049,275176225.35041,   0.00007,   0.00013,  -0.00047,  -6.29331,   1.00000
355838589.93282,341043184.00727,-186384363.30378,   0.00103,   0.00099,  -0.00289,475176411.86439,   0.00049,275176414.93740,   0.00007,   0.00013,  -0.00047,  -3.07302,   1.00000
357165450.70415,341178002.30792,-185903416.51049,   0.00103,   0.00098,  -0.00288,475176634.82298,   0.00049,275176636.19170,   0.00007,   0.00013,  -0.00047,  -1.36871,   1.00000
358495263.55149,341291046.76822,-185423519.98485,   0.00104,   0.00098,  -0.00288,475176655.70267,   0.00049,275176658.02418,   0.00007,   0.00013,  -0.00047,  -2.32151,   1.00000
359836113.01920,341416267.12845,-184932281.62261,   0.00104,   0.00098,  -0.00287,475176850.83146,   0.00049,275176856.00012,   0.00007,   0.00013,  -0.00047,  -5.16866,   1.00000
361175165.84102,341515107.15475,-184444927.31596,   0.00105,   0.00098,  -0.00287,475176900.75292,   0.00049,275176901.96802,   0.00007,   0.00013,  -0.00047,  -1.21510,   1.00000
362515482.50742,341615142.63049,-183952450.64908,   0.00105,   0.00098,  -0.00286,475176929.96284,   0.00049,275176935.76620,   0.00007,   0.00013,  -0.00047,  -5.80336,   1.00000
363850526.98183,341697844.50058,-183456239.42850,   0.00106,   0.00097,  -0.00285,475169714.40418,   0.00049,275176935.76620,   0.00007,   0.00013,  -0.00047,-7221.36202,   0.00000
365206246.92376,341789407.28533,-182954120.93149,   0.00107,   0.00097,  -0.00285,475172185.79065,   0.00049,275176935.76620,   0.00007,   0.00013,  -0.00047,-4749.97555,   0.00000
366532430.48352,341851433.68790,-182446095.15804,   0.00107,   0.00097,  -0.00284,475151051.11110,   0.00049,275176935.76620,   0.00007,   0.00013,  -0.00047,-25884.65510,   0.00000
367879289.51080,341922321.00513,-181938069.38460,   0.00108,   0.00097,  -0.00283,475146596.33363,   0.00049,275176935.76620,   0.00007,   0.00013,  -0.00047,-30339.43257,   0.00000
369217287.62342,341972532.85483,-181418229.05828,   0.00108,   0.00096,  -0.00283,475123319.97987,   0.00049,275176935.76620,   0.00007,   0.00013,  -0.00047,-53615.78633,   0.00000
370546424.82139,342002069.23701,-180898388.73196,   0.00109,   0.00096,  -0.00282,475094838.33281,   0.00049,275176935.76620,   0.00007,   0.00013,  -0.00047,-82097.43339,   0.00000
371875562.01936,342031605.61918,-180372641.12921,   0.00110,   0.00096,  -0.00281,475064970.61498,   0.00049,275176935.76620,   0.00007,   0.00013,  -0.00047,-111965.15122,   0.00000
373195838.30268,342040466.53384,-179840986.25002,   0.00110,   0.00096,  -0.00281,475023238.20812,   0.00049,275176935.76620,   0.00007,   0.00013,  -0.00047,-153697.55808,   0.00000
374516114.58600,342049327.44849,-179303424.09439,   0.00111,   0.00095,  -0.00280,474980242.80565,   0.00049,275176935.76620,   0.00007,   0.00013,  -0.00047,-196692.96055,   0.00000
375848205.42219,342046373.81027,-178765861.93877,   0.00111,   0.00095,  -0.00279,474943975.40364,   0.00049,275176935.76620,   0.00007,   0.00013,  -0.00047,-232960.36256,   0.00000
377171435.34373,342022744.70453,-178216485.23027,   0.00112,   0.00095,  -0.00278,474889446.94271,   0.00049,275176935.76620,   0.00007,   0.00013,  -0.00047,-287488.82349,   0.00000
378494665.26527,341999115.59879,-177667108.52178,   0.00113,   0.00095,  -0.00278,474840573.53654,   0.00049,275176935.76620,   0.00007,   0.00013,  -0.00047,-336362.22966,   0.00000
379809034.27215,341954811.02552,-177111824.53685,   0.00113,   0.00094,  -0.00277,474780226.97901,   0.00049,275176935.76620,   0.00007,   0.00013,  -0.00047,-396708.78719,   0.00000
381114542.36438,341889830.98473,-176550633.27548,   0.00114,   0.00094,  -0.00276,474708481.89970,   0.00049,275176935.76620,   0.00007,   0.00013,  -0.00047,-468453.86650,   0.00000
382420050.45661,341824850.94394,-175983534.73768,   0.00115,   0.00094,  -0.00276,474635924.11983,   0.00049,275176935.76620,   0.00007,   0.00013,  -0.00047,-541011.64637,   0.00000
383725558.54884,341759870.90315,-175410528.92344,   0.00115,   0.00093,  -0.00275,474562616.79896,   0.00049,275176935.76620,   0.00007,   0.00013,  -0.00047,-614318.96724,   0.00000
385034020.27929,341662400.84197,-174831615.83277,   0.00116,   0.00093,  -0.00274,474479743.33070,   0.00049,275176935.76620,   0.00007,   0.00013,  -0.00047,-697192.43550,   0.00000
386321806.54221,341556069.86613,-174252702.74210,   0.00116,   0.00093,  -0.00273,474390706.44889,   0.00049,275176935.76620,   0.00007,   0.00013,  -0.00047,-786229.31731,   0.00000
387630268.27266,341458599.80495,-173667882.37499,   0.00117,   0.00093,  -0.00273,474313305.44413,   0.00049,275176935.76620,   0.00007,   0.00013,  -0.00047,-863630.32208,   0.00000
388929869.08845,341340454.27624,-173077154.73145,   0.00118,   0.00092,  -0.00272,474225004.68472,   0.00049,275176935.76620,   0.00007,   0.00013,  -0.00047,-951931.08148,   0.00000
390220608.98960,341201633.28001,-172480519.81147,   0.00118,   0.00092,  -0.00271,474125888.60944,   0.00049,275176935.76620,   0.00007,   0.00013,  -0.00047,-1051047.15676,   0.00000
391511348.89074,341062812.28377,-171883884.89149,   0.00119,   0.00092,  -0.00270,474032937.88053,   0.00049,275176935.76620,   0.00007,   0.00013,  -0.00047,-1143997.88567,   0.00000
392793227.87723,340903315.82002,-171275435.41864,   0.00119,   0.00091,  -0.00269,473922885.20585,   0.00049,275176935.76620,   0.00007,   0.00013,  -0.00047,-1254050.56035,   0.00000
394066245.94906,340723143.88874,-170666985.94579,   0.00120,   0.00091,  -0.00269,473808650.23032,   0.00049,275176935.76620,   0.00007,   0.00013,  -0.00047,-1368285.53588,   0.00000
395339264.02090,340542971.95746,-170052629.19651,   0.00121,   0.00091,  -0.00268,473694344.08169,   0.00049,275176935.76620,   0.00007,   0.00013,  -0.00047,-1482591.68451,   0.00000
396632957.56026,340371660.94083,-169432365.17079,   0.00121,   0.00090,  -0.00267,473592579.27892,   0.00049,275176935.76620,   0.00007,   0.00013,  -0.00047,-1584356.48728,   0.00000
397888253.80279,340150138.07450,-168812101.14507,   0.00122,   0.00090,  -0.00266,473463843.34617,   0.00049,275176935.76620,   0.00007,   0.00013,  -0.00047,-1713092.42003,   0.00000
399164225.51284,339937476.12282,-168180022.56648,   0.00122,   0.00090,  -0.00265,473341575.60270,   0.00049,275176935.76620,   0.00007,   0.00013,  -0.00047,-1835360.16350,   0.00000
400419521.75537,339715953.25649,-167547943.98789,   0.00123,   0.00089,  -0.00265,473213232.45217,   0.00049,275176935.76620,   0.00007,   0.00013,  -0.00047,-1963703.31403,   0.00000
401686632.55077,339482615.83730,-166909958.13286,   0.00124,   0.00089,  -0.00264,473087487.50336,   0.00049,275176935.76620,   0.00007,   0.00013,  -0.00047,-2089448.26285,   0.00000
402944882.43152,339228602.95057,-166271972.27783,   0.00124,   0.00089,  -0.00263,472958032.07018,   0.00049,275176935.76620,   0.00007,   0.00013,  -0.00047,-2218903.69602,   0.00000
404203132.31226,338974590.06385,-165622171.86993,   0.00125,   0.00088,  -0.00262,472822868.78562,   0.00049,275176935.76620,   0.00007,   0.00013,  -0.00047,-2354066.98058,   0.00000
405452521.27836,338699901.70960,-164972371.46204,   0.00126,   0.00088,  -0.00261,472684134.87402,   0.00049,275176935.76620,   0.00007,   0.00013,  -0.00047,-2492800.89218,   0.00000
406693049.32980,338404537.88783,-164316663.77770,   0.00126,   0.00087,  -0.00260,472535704.68347,   0.00049,275176935.76620,   0.00007,   0.00013,  -0.00047,-2641231.08273,   0.00000
407933577.38124,338109174.06606,-163655048.81694,   0.00127,   0.00087,  -0.00260,472388036.71381,   0.00049,275176935.76620,   0.00007,   0.00013,  -0.00047,-2788899.05240,   0.00000
409174105.43268,337813810.24429,-162993433.85617,   0.00127,   0.00087,  -0.00259,472247322.68120,   0.00049,275176935.76620,   0.00007,   0.00013,  -0.00047,-2929613.08500,   0.00000
410396911.65481,337477095.48747,-162320004.34253,   0.00128,   0.00086,  -0.00258,472080722.71747,   0.00049,275176935.76620,   0.00007,   0.00013,  -0.00047,-3096213.04873,   0.00000
411640393.34447,337149241.64530,-161646574.82889,   0.00129,   0.00086,  -0.00257,471934342.45652,   0.00049,275176935.76620,   0.00007,   0.00013,  -0.00047,-3242593.30968,   0.00000
412863199.56660,336812526.88848,-160973145.31525,   0.00129,   0.00086,  -0.00256,471782007.77281,   0.00049,275176935.76620,   0.00007,   0.00013,  -0.00047,-3394927.99340,   0.00000
414077144.87409,336455136.66414,-160287901.24874,   0.00130,   0.00085,  -0.00255,471614453.11486,   0.00049,275176935.76620,   0.00007,   0.00013,  -0.00047,-3562482.65134,   0.00000
415302904.73444,336085931.88692,-159602657.18223,   0.00131,   0.00085,  -0.00254,471457121.14574,   0.00049,275176935.76620,   0.00007,   0.00013,  -0.00047,-3719814.62046,   0.00000
416507989.12727,335707866.19505,-158911505.83928,   0.00131,   0.00084,  -0.00253,471287882.52330,   0.00049,275176935.76620,   0.00007,   0.00013,  -0.00047,-3889053.24290,   0.00000
417724888.07296,335317985.95032,-158214447.21990,   0.00132,   0.00084,  -0.00252,471123125.72692,   0.00049,275176935.76620,   0.00007,   0.00013,  -0.00047,-4053810.03929,   0.00000
418921111.55114,334919244.79092,-157517388.60052,   0.00132,   0.00083,  -0.00252,470952480.68300,   0.00049,275176935.76620,   0.00007,   0.00013,  -0.00047,-4224455.08321,   0.00000
420129149.58218,334508689.07866,-156814422.70471,   0.00133,   0.00083,  -0.00251,470786579.91911,   0.00049,275176935.76620,   0.00007,   0.00013,  -0.00047,-4390355.84709,   0.00000
421307651.23105,334068596.98422,-156105549.53246,   0.00134,   0.00083,  -0.00250,470598699.86629,   0.00049,275176935.76620,   0.00007,   0.00013,  -0.00047,-4578235.89991,   0.00000
422506828.34745,333637365.80444,-155390769.08377,   0.00134,   0.00082,  -0.00249,470426104.68196,   0.00049,275176935.76620,   0.00007,   0.00013,  -0.00047,-4750831.08424,   0.00000
423697144.54919,333185459.15713,-154675988.63508,   0.00135,   0.00082,  -0.00248,470251078.91786,   0.00049,275176935.76620,   0.00007,   0.00013,  -0.00047,-4925856.84834,   0.00000
424866785.28340,332724691.59516,-153955300.90996,   0.00136,   0.00081,  -0.00247,470064399.38218,   0.00049,275176935.76620,   0.00007,   0.00013,  -0.00047,-5112536.38402,   0.00000
426048240.57049,332252109.48033,-153234613.18484,   0.00136,   0.00081,  -0.00246,469889009.14059,   0.00049,275176935.76620,   0.00007,   0.00013,  -0.00047,-5287926.62561,   0.00000
427229695.85757,331779527.36549,-152502110.90684,   0.00137,   0.00080,  -0.00245,469709998.53785,   0.00049,275176935.76620,   0.00007,   0.00013,  -0.00047,-5466937.22836,   0.00000
428402290.23001,331286269.78313,-151769608.62885,   0.00137,   0.00080,  -0.00244,469528870.71441,   0.00049,275176935.76620,   0.00007,   0.00013,  -0.00047,-5648065.05179,   0.00000
429545348.22026,330763475.81860,-151031199.07442,   0.00138,   0.00079,  -0.00243,469326155.24366,   0.00049,275176935.76620,   0.00007,   0.00013,  -0.00047,-5850780.52254,   0.00000
430709081.67804,330249542.76872,-150292789.51999,   0.00139,   0.00079,  -0.00242,469145354.86721,   0.00049,275176935.76620,   0.00007,   0.00013,  -0.00047,-6031580.89899,   0.00000
431863954.22117,329714934.25131,-149548472.68913,   0.00139,   0.00079,  -0.00241,468956985.87749,   0.00049,275176935.76620,   0.00007,   0.00013,  -0.00047,-6219949.88872,   0.00000
433018826.76430,329180325.73390,-148798248.58183,   0.00140,   0.00078,  -0.00240,468771233.20707,   0.00049,275176935.76620,   0.00007,   0.00013,  -0.00047,-6405702.55913,   0.00000
434164838.39277,328625041.74897,-148048024.47453,   0.00141,   0.00078,  -0.00239,468583759.29049,   0.00049,275176935.76620,   0.00007,   0.00013,  -0.00047,-6593176.47572,   0.00000
435290174.55372,328060896.84939,-147291893.09079,   0.00141,   0.00077,  -0.00238,468385000.14584,   0.00049,275176935.76620,   0.00007,   0.00013,  -0.00047,-6791935.62036,   0.00000
436427325.26754,327484937.39693,-146529854.43062,   0.00142,   0.00077,  -0.00237,468193137.37696,   0.00049,275176935.76620,   0.00007,   0.00013,  -0.00047,-6983798.38924,   0.00000
437555615.06671,326888302.47696,-145761908.49401,   0.00143,   0.00076,  -0.00236,467994303.62741,   0.00049,275176935.76620,   0.00007,   0.00013,  -0.00047,-7182632.13879,   0.00000
438683904.86587,326291667.55698,-144993962.55741,   0.00143,   0.00076,  -0.00235,467804088.68531,   0.00049,275176935.76620,   0.00007,   0.00013,  -0.00047,-7372847.08090,   0.00000
439803333.75039,325674357.16947,-144220109.34437,   0.00144,   0.00075,  -0.00234,467607111.91497,   0.00049,275176935.76620,   0.00007,   0.00013,  -0.00047,-7569823.85123,   0.00000
440902087.16738,325048185.86732,-143446256.13133,   0.00144,   0.00075,  -0.00233,467404573.38327,   0.00049,275176935.76620,   0.00007,   0.00013,  -0.00047,-7772362.38293,   0.00000
442012655.13724,324410200.01229,-142666495.64185,   0.00145,   0.00074,  -0.00232,467209736.89407,   0.00049,275176935.76620,   0.00007,   0.00013,  -0.00047,-7967198.87213,   0.00000
443123223.10710,323772214.15727,-141880827.87594,   0.00146,   0.00074,  -0.00231,467018370.49897,   0.00049,275176935.76620,   0.00007,   0.00013,  -0.00047,-8158565.26723,   0.00000
444204254.69478,323104691.92006,-141095160.11002,   0.00146,   0.00073,  -0.00230,466811648.94033,   0.00049,275176935.76620,   0.00007,   0.00013,  -0.00047,-8365286.82587,   0.00000
445297100.83534,322425355.12999,-140303585.06768,   0.00147,   0.00073,  -0.00229,466613147.81776,   0.00049,275176935.76620,   0.00007,   0.00013,  -0.00047,-8563787.94844,   0.00000
446389946.97589,321746018.33991,-139506102.74889,   0.00148,   0.00072,  -0.00228,466418433.51740,   0.00049,275176935.76620,   0.00007,   0.00013,  -0.00047,-8758502.24880,   0.00000
447462117.64893,321057820.63519,-138708620.43011,   0.00148,   0.00072,  -0.00227,466218299.46665,   0.00049,275176935.76620,   0.00007,   0.00013,  -0.00047,-8958636.29955,   0.00000
448546102.87483,320357808.37759,-137905230.83489,   0.00149,   0.00071,  -0.00226,466026869.82005,   0.00049,275176935.76620,   0.00007,   0.00013,  -0.00047,-9150065.94615,   0.00000
449621227.18608,319637120.65246,-137101841.23967,   0.00149,   0.00071,  -0.00225,465834999.76628,   0.00049,275176935.76620,   0.00007,   0.00013,  -0.00047,-9341935.99992,   0.00000
450675676.02980,318907572.01269,-136292544.36802,   0.00150,   0.00070,  -0.00224,465632571.66464,   0.00049,275176935.76620,   0.00007,   0.00013,  -0.00047,-9544364.10156,   0.00000
451741939.42640,318166208.82004,-135477340.21993,   0.00151,   0.00069,  -0.00223,465439389.37152,   0.00049,275176935.76620,   0.00007,   0.00013,  -0.00047,-9737546.39469,   0.00000
452787527.35547,317415984.71274,-134662136.07184,   0.00151,   0.00069,  -0.00222,465240933.38070,   0.00049,275176935.76620,   0.00007,   0.00013,  -0.00047,-9936002.38550,   0.00000
453844929.83741,316653946.05257,-133841024.64731,   0.00152,   0.00068,  -0.00221,465052054.71726,   0.00049,275176935.76620,   0.00007,   0.00013,  -0.00047,-10124881.04894,   0.00000
454881656.85183,315883046.47775,-133019913.22279,   0.00153,   0.00068,  -0.00220,464857945.16231,   0.00049,275176935.76620,   0.00007,   0.00013,  -0.00047,-10318990.60390,   0.00000
455909522.95159,315091471.43540,-132186987.24539,   0.00153,   0.00067,  -0.00219,464653768.79144,   0.00049,275176935.76620,   0.00007,   0.00013,  -0.00047,-10523166.97476,   0.00000
456958064.51888,314308757.30771,-131359968.54443,   0.00154,   0.00067,  -0.00218,464479353.96148,   0.00049,275176935.76620,   0.00007,   0.00013,  -0.00047,-10697581.80472,   0.00000
457977069.70399,313496506.79783,-130527042.56704,   0.00154,   0.00066,  -0.00216,464285226.04890,   0.00049,275176935.76620,   0.00007,   0.00013,  -0.00047,-10891709.71730,   0.00000
458996074.88910,312684256.28796,-129688209.31321,   0.00155,   0.00066,  -0.00215,464095991.66850,   0.00049,275176935.76620,   0.00007,   0.00013,  -0.00047,-11080944.09771,   0.00000
460006219.15956,311851330.31057,-128843468.78294,   0.00156,   0.00065,  -0.00214,463902296.64226,   0.00049,275176935.76620,   0.00007,   0.00013,  -0.00047,-11274639.12394,   0.00000
461007502.51537,310997728.86565,-128004635.52911,   0.00156,   0.00064,  -0.00213,463714113.01961,   0.00049,275176935.76620,   0.00007,   0.00013,  -0.00047,-11462822.74659,   0.00000
462008785.87117,310144127.42073,-127153987.72241,   0.00157,   0.00064,  -0.00212,463526262.49451,   0.00049,275176935.76620,   0.00007,   0.00013,  -0.00047,-11650673.27170,   0.00000
463010069.22698,309290525.97581,-126303339.91570,   0.00158,   0.00063,  -0.00211,463348601.85636,   0.00049,275176935.76620,   0.00007,   0.00013,  -0.00047,-11828333.90984,   0.00000
464002491.66813,308416249.06336,-125446784.83257,   0.00158,   0.00063,  -0.00210,463167004.86832,   0.00049,275176935.76620,   0.00007,   0.00013,  -0.00047,-12009930.89788,   0.00000
464994914.10929,307541972.15092,-124590229.74943,   0.00159,   0.00062,  -0.00209,462995742.85700,   0.00049,275176935.76620,   0.00007,   0.00013,  -0.00047,-12181192.90920,   0.00000
465978475.63578,306647019.77095,-123727767.38986,   0.00159,   0.00061,  -0.00208,462820812.98162,   0.00049,275176935.76620,   0.00007,   0.00013,  -0.00047,-12356122.78458,   0.00000
466932500.78011,305722531.00881,-122865305.03028,   0.00160,   0.00061,  -0.00207,462631699.99794,   0.00049,275176935.76620,   0.00007,   0.00013,  -0.00047,-12545235.76826,   0.00000
467907201.39195,304806903.16131,-121996935.39428,   0.00161,   0.00060,  -0.00205,462463846.20083,   0.00049,275176935.76620,   0.00007,   0.00013,  -0.00047,-12713089.56537,   0.00000
468881902.00380,303891275.31382,-121128565.75827,   0.00161,   0.00060,  -0.00204,462306623.78450,   0.00049,275176935.76620,   0.00007,   0.00013,  -0.00047,-12870311.98170,   0.00000
469827066.23347,302946111.08415,-120254288.84582,   0.00162,   0.00059,  -0.00203,462130736.63899,   0.00049,275176935.76620,   0.00007,   0.00013,  -0.00047,-13046199.12721,   0.00000
470772230.46314,302000946.85448,-119380011.93338,   0.00162,   0.00058,  -0.00202,461965547.71024,   0.00049,275176935.76620,   0.00007,   0.00013,  -0.00047,-13211388.05597,   0.00000
471729209.24568,301043968.07194,-118499827.74450,   0.00163,   0.00058,  -0.00201,461813070.50334,   0.00049,275176935.76620,   0.00007,   0.00013,  -0.00047,-13363865.26286,   0.00000
472665512.56069,300078128.37475,-117613736.27919,   0.00164,   0.00057,  -0.00200,461651340.75544,   0.00049,275176935.76620,   0.00007,   0.00013,  -0.00047,-13525595.01076,   0.00000
473592954.96106,299091613.21003,-116727644.81387,   0.00164,   0.00056,  -0.00199,461491525.78189,   0.00049,275176935.76620,   0.00007,   0.00013,  -0.00047,-13685409.98431,   0.00000
474511536.44676,298084422.57779,-115841553.34856,   0.00165,   0.00056,  -0.00197,461333740.69429,   0.00049,275176935.76620,   0.00007,   0.00013,  -0.00047,-13843195.07191,   0.00000
475438978.84713,297097907.41308,-114949554.60681,   0.00166,   0.00055,  -0.00196,461191569.51450,   0.00049,275176935.76620,   0.00007,   0.00013,  -0.00047,-13985366.25170,   0.00000
476357560.33284,296090716.78084,-114051648.58862,   0.00166,   0.00055,  -0.00195,461047201.49294,   0.00049,275176935.76620,   0.00007,   0.00013,  -0.00047,-14129734.27327,   0.00000
477267280.90389,295062850.68107,-113159649.84687,   0.00167,   0.00054,  -0.00194,460909555.00350,   0.00049,275176935.76620,   0.00007,   0.00013,  -0.00047,-14267380.76270,   0.00000
478177001.47495,294034984.58131,-112255836.55225,   0.00167,   0.00053,  -0.00193,460774530.72150,   0.00049,275176935.76620,   0.00007,   0.00013,  -0.00047,-14402405.04470,   0.00000
479057185.66383,292977582.09936,-111352023.25763,   0.00168,   0.00053,  -0.00192,460626154.33399,   0.00049,275176935.76620,   0.00007,   0.00013,  -0.00047,-14550781.43221,   0.00000
479958045.32023,291929040.53207,-110448209.96301,   0.00169,   0.00052,  -0.00190,460505178.64592,   0.00049,275176935.76620,   0.00007,   0.00013,  -0.00047,-14671757.12028,   0.00000
480838229.50911,290871638.05013,-109538489.39195,   0.00169,   0.00051,  -0.00189,460375446.02183,   0.00049,275176935.76620,   0.00007,   0.00013,  -0.00047,-14801489.74438,   0.00000
481730228.25086,289802421.01532,-108622861.54446,   0.00170,   0.00051,  -0.00188,460260412.98804,   0.00049,275176935.76620,   0.00007,   0.00013,  -0.00047,-14916522.77816,   0.00000
482592690.61043,288703667.59833,-107707233.69697,   0.00170,   0.00050,  -0.00187,460132347.86518,   0.00049,275176935.76620,   0.00007,   0.00013,  -0.00047,-15044587.90102,   0.00000
483455152.97001,287604914.18134,-106791605.84947,   0.00171,   0.00049,  -0.00186,460016016.08398,   0.00049,275176935.76620,   0.00007,   0.00013,  -0.00047,-15160919.68223,   0.00000
484317615.32958,286506160.76435,-105870070.72555,   0.00172,   0.00049,  -0.00184,459907346.91037,   0.00049,275176935.76620,   0.00007,   0.00013,  -0.00047,-15269588.85583,   0.00000
485171216.77450,285386731.87983,-104948535.60162,   0.00172,   0.00048,  -0.00183,459801972.30638,   0.00049,275176935.76620,   0.00007,   0.00013,  -0.00047,-15374963.45982,   0.00000
486024818.21942,284267302.99532,-104021093.20126,   0.00173,   0.00047,  -0.00182,459704494.98105,   0.00049,275176935.76620,   0.00007,   0.00013,  -0.00047,-15472440.78515,   0.00000
486878419.66434,283147874.11081,-103093650.80090,   0.00173,   0.00047,  -0.00181,459619002.19236,   0.00049,275176935.76620,   0.00007,   0.00013,  -0.00047,-15557933.57384,   0.00000
487702484.72708,281998908.84411,-102160301.12410,   0.00174,   0.00046,  -0.00180,459516823.45910,   0.00049,275176935.76620,   0.00007,   0.00013,  -0.00047,-15660112.30710,   0.00000
488538364.34270,280838129.02455,-101226951.44730,   0.00175,   0.00045,  -0.00178,459434734.26361,   0.00049,275176935.76620,   0.00007,   0.00013,  -0.00047,-15742201.50259,   0.00000
489362429.40544,279689163.75786,-100293601.77050,   0.00175,   0.00045,  -0.00177,459356796.67394,   0.00049,275176935.76620,   0.00007,   0.00013,  -0.00047,-15820139.09226,   0.00000
490168772.63888,278498847.55612,-99354344.81727,   0.00176,   0.00044,  -0.00176,459270566.19673,   0.00049,275176935.76620,   0.00007,   0.00013,  -0.00047,-15906369.56947,   0.00000
490983976.78696,277329206.82191,-98415087.86403,   0.00176,   0.00043,  -0.00175,459204906.47561,   0.00049,275176935.76620,   0.00007,   0.00013,  -0.00047,-15972029.29059,   0.00000
491810995.48793,276147751.53482,-97469923.63436,   0.00177,   0.00043,  -0.00173,459156066.51370,   0.00049,275176935.76620,   0.00007,   0.00013,  -0.00047,-16020869.25250,   0.00000
492587802.33918,274927898.95090,-96524759.40470,   0.00178,   0.00042,  -0.00172,459078479.80858,   0.00049,275176935.76620,   0.00007,   0.00013,  -0.00047,-16098455.95763,   0.00000
493394145.57262,273737582.74916,-95573687.89859,   0.00178,   0.00041,  -0.00171,459034329.65157,   0.00049,275176935.76620,   0.00007,   0.00013,  -0.00047,-16142606.11463,   0.00000
494182766.97675,272505915.61238,-94622616.39249,   0.00179,   0.00040,  -0.00170,458986571.07214,   0.00049,275176935.76620,   0.00007,   0.00013,  -0.00047,-16190364.69406,   0.00000
494980249.29553,271294923.94311,-93665637.60995,   0.00179,   0.00040,  -0.00169,458955889.89643,   0.00049,275176935.76620,   0.00007,   0.00013,  -0.00047,-16221045.86977,   0.00000
495748195.23214,270054395.89167,-92714566.10384,   0.00180,   0.00039,  -0.00167,458916814.62113,   0.00049,275176935.76620,   0.00007,   0.00013,  -0.00047,-16260121.14507,   0.00000
496516141.16875,268813867.84023,-91751680.04487,   0.00181,   0.00038,  -0.00166,458883277.10303,   0.00049,275176935.76620,   0.00007,   0.00013,  -0.00047,-16293658.66317,   0.00000
497275226.19070,267552664.32127,-90794701.26233,   0.00181,   0.00038,  -0.00165,458858148.48609,   0.00049,275176935.76620,   0.00007,   0.00013,  -0.00047,-16318787.28011,   0.00000
498054986.68018,266300321.71696,-89825907.92692,   0.00182,   0.00037,  -0.00164,458855651.72782,   0.00049,275176935.76620,   0.00007,   0.00013,  -0.00047,-16321284.03838,   0.00000
498805210.78748,265018442.73047,-88863021.86794,   0.00182,   0.00036,  -0.00162,458845009.86040,   0.00049,275176935.76620,   0.00007,   0.00013,  -0.00047,-16331925.90581,   0.00000
499534759.42725,263727702.82933,-87894228.53253,   0.00183,   0.00035,  -0.00161,458827101.15741,   0.00049,275176935.76620,   0.00007,   0.00013,  -0.00047,-16349834.60879,   0.00000
500284983.53455,262445823.84284,-86925435.19712,   0.00184,   0.00035,  -0.00160,458839039.74642,   0.00049,275176935.76620,   0.00007,   0.00013,  -0.00047,-16337896.01979,   0.00000
501035207.64185,261163944.85635,-85950734.58527,   0.00184,   0.00034,  -0.00159,458860698.22684,   0.00049,275176935.76620,   0.00007,   0.00013,  -0.00047,-16316237.53936,   0.00000
501755895.36697,259852529.48768,-84976033.97343,   0.00185,   0.00033,  -0.00157,458870957.97158,   0.00049,275176935.76620,   0.00007,   0.00013,  -0.00047,-16305977.79462,   0.00000
502476583.09210,258541114.11902,-84001333.36158,   0.00185,   0.00032,  -0.00156,458894367.64253,   0.00049,275176935.76620,   0.00007,   0.00013,  -0.00047,-16282568.12368,   0.00000
503188409.90257,257209023.28283,-83020725.47330,   0.00186,   0.00032,  -0.00155,458920233.43326,   0.00049,275176935.76620,   0.00007,   0.00013,  -0.00047,-16256702.33294,   0.00000
503920912.18056,255885793.36129,-82040117.58502,   0.00187,   0.00031,  -0.00153,458976432.13181,   0.00049,275176935.76620,   0.00007,   0.00013,  -0.00047,-16200503.63439,   0.00000
504612063.52350,254544841.61045,-81059509.69674,   0.00187,   0.00030,  -0.00152,459011923.15282,   0.00049,275176935.76620,   0.00007,   0.00013,  -0.00047,-16165012.61338,   0.00000
505315029.41932,253192075.30673,-80072994.53202,   0.00188,   0.00029,  -0.00151,459067313.50946,   0.00049,275176935.76620,   0.00007,   0.00013,  -0.00047,-16109622.25674,   0.00000
506026856.22979,251859984.47054,-79086479.36730,   0.00188,   0.00029,  -0.00150,459143472.68336,   0.00049,275176935.76620,   0.00007,   0.00013,  -0.00047,-16033463.08284,   0.00000
506700285.74343,250477681.78465,-78094056.92615,   0.00189,   0.00028,  -0.00148,459198411.24900,   0.00049,275176935.76620,   0.00007,   0.00013,  -0.00047,-15978524.51720,   0.00000
507403251.63925,249124915.48094,-77101634.48500,   0.00189,   0.00027,  -0.00147,459291277.10948,   0.00049,275176935.76620,   0.00007,   0.00013,  -0.00047,-15885658.65672,   0.00000
508076681.15289,247742612.79505,-76109212.04385,   0.00190,   0.00026,  -0.00146,459373386.37605,   0.00049,275176935.76620,   0.00007,   0.00013,  -0.00047,-15803549.39015,   0.00000
508750110.66652,246360310.10916,-75116789.60269,   0.00191,   0.00026,  -0.00144,459469083.51820,   0.00049,275176935.76620,   0.00007,   0.00013,  -0.00047,-15707852.24800,   0.00000
509423540.18016,244978007.42327,-74118459.88510,   0.00191,   0.00025,  -0.00143,459575501.83854,   0.00049,275176935.76620,   0.00007,   0.00013,  -0.00047,-15601433.92767,   0.00000
510088108.77915,243575029.26985,-73120130.16752,   0.00192,   0.00024,  -0.00142,459688598.81746,   0.00049,275176935.76620,   0.00007,   0.00013,  -0.00047,-15488336.94874,   0.00000
510732001.91061,242163190.20178,-72115893.17349,   0.00192,   0.00023,  -0.00141,459795393.28721,   0.00049,275176935.76620,   0.00007,   0.00013,  -0.00047,-15381542.47899,   0.00000
511387709.59494,240739536.58084,-71111656.17947,   0.00193,   0.00023,  -0.00139,459926381.83807,   0.00049,275176935.76620,   0.00007,   0.00013,  -0.00047,-15250553.92813,   0.00000
512031602.72641,239327697.51278,-70107419.18545,   0.00193,   0.00022,  -0.00138,460060773.29803,   0.00049,275176935.76620,   0.00007,   0.00013,  -0.00047,-15116162.46817,   0.00000
512666634.94322,237895182.97718,-69103182.19142,   0.00194,   0.00021,  -0.00137,460202154.61097,   0.00049,275176935.76620,   0.00007,   0.00013,  -0.00047,-14974781.15523,   0.00000
513301667.16002,236462668.44159,-68093037.92096,   0.00195,   0.00020,  -0.00135,460354752.97157,   0.00049,275176935.76620,   0.00007,   0.00013,  -0.00047,-14822182.79463,   0.00000
513936699.37683,235030153.90600,-67082893.65051,   0.00195,   0.00019,  -0.00134,460521255.23208,   0.00049,275176935.76620,   0.00007,   0.00013,  -0.00047,-14655680.53412,   0.00000
514562870.67899,233576963.90288,-66072749.38005,   0.00196,   0.00019,  -0.00133,460695059.13245,   0.00049,275176935.76620,   0.00007,   0.00013,  -0.00047,-14481876.63375,   0.00000
515189041.98114,232123773.89977,-65056697.83315,   0.00196,   0.00018,  -0.00131,460880345.08895,   0.00049,275176935.76620,   0.00007,   0.00013,  -0.00047,-14296590.67725,   0.00000
515794537.81578,230661722.98200,-64040646.28626,   0.00197,   0.00017,  -0.00130,461062243.11107,   0.00049,275176935.76620,   0.00007,   0.00013,  -0.00047,-14114692.65513,   0.00000
516391172.73575,229178996.59671,-63024594.73936,   0.00197,   0.00016,  -0.00129,461251713.89133,   0.00049,275176935.76620,   0.00007,   0.00013,  -0.00047,-13925221.87487,   0.00000
517017344.03791,227725806.59359,-62008543.19247,   0.00198,   0.00016,  -0.00127,461479104.20448,   0.00049,275176935.76620,   0.00007,   0.00013,  -0.00047,-13697831.56173,   0.00000
517613978.95789,226243080.20830,-60986584.36914,   0.00199,   0.00015,  -0.00126,461694349.12666,   0.00049,275176935.76620,   0.00007,   0.00013,  -0.00047,-13482586.63954,   0.00000
518189938.41034,224751492.90835,-59964625.54581,   0.00199,   0.00014,  -0.00125,461906216.14889,   0.00049,275176935.76620,   0.00007,   0.00013,  -0.00047,-13270719.61731,   0.00000
518777712.41567,223248091.05553,-58936759.44605,   0.00200,   0.00013,  -0.00123,462141229.41177,   0.00049,275176935.76620,   0.00007,   0.00013,  -0.00047,-13035706.35443,   0.00000
519374347.33565,221765364.67024,-57914800.62272,   0.00200,   0.00012,  -0.00122,462398875.96523,   0.00049,275176935.76620,   0.00007,   0.00013,  -0.00047,-12778059.80098,   0.00000
519941445.87345,220253101.90277,-56886934.52295,   0.00201,   0.00012,  -0.00121,462644777.04993,   0.00049,275176935.76620,   0.00007,   0.00013,  -0.00047,-12532158.71627,   0.00000
520508544.41125,218740839.13530,-55859068.42319,   0.00201,   0.00011,  -0.00119,462904882.56708,   0.00049,275176935.76620,   0.00007,   0.00013,  -0.00047,-12272053.19912,   0.00000
521096318.41658,217237437.28248,-54825295.04699,   0.00202,   0.00010,  -0.00118,463194653.86075,   0.00049,275176935.76620,   0.00007,   0.00013,  -0.00047,-11982281.90545,   0.00000
521633880.57220,215695638.13283,-53797428.94722,   0.00202,   0.00009,  -0.00117,463459654.13681,   0.00049,275176935.76620,   0.00007,   0.00013,  -0.00047,-11717281.62939,   0.00000
522200979.11000,214183375.36536,-52763655.57102,   0.00203,   0.00008,  -0.00115,463760307.25917,   0.00049,275176935.76620,   0.00007,   0.00013,  -0.00047,-11416628.50703,   0.00000
522759216.73315,212650437.13037,-51729882.19482,   0.00204,   0.00008,  -0.00114,464069362.56839,   0.00049,275176935.76620,   0.00007,   0.00013,  -0.00047,-11107573.19781,   0.00000
523296778.88877,211108637.98072,-50690201.54218,   0.00204,   0.00007,  -0.00113,464373120.63867,   0.00049,275176935.76620,   0.00007,   0.00013,  -0.00047,-10803815.12753,   0.00000
523846155.59727,209555024.27820,-49656428.16598,   0.00205,   0.00006,  -0.00111,464705058.77885,   0.00049,275176935.76620,   0.00007,   0.00013,  -0.00047,-10471876.98735,   0.00000
524383717.75289,208013225.12856,-48616747.51335,   0.00205,   0.00005,  -0.00110,465037419.30556,   0.00049,275176935.76620,   0.00007,   0.00013,  -0.00047,-10139516.46064,   0.00000
524921279.90852,206471425.97891,-47577066.86071,   0.00206,   0.00004,  -0.00109,465384020.49316,   0.00049,275176935.76620,   0.00007,   0.00013,  -0.00047,-9792915.27304,   0.00000
525449981.14949,204908951.36174,-46531478.93164,   0.00206,   0.00004,  -0.00107,465737578.47362,   0.00049,275176935.76620,   0.00007,   0.00013,  -0.00047,-9439357.29258,   0.00000
525978682.39046,203346476.74456,-45491798.27900,   0.00207,   0.00003,  -0.00106,466107244.26762,   0.00049,275176935.76620,   0.00007,   0.00013,  -0.00047,-9069691.49858,   0.00000
526486708.16391,201775141.21274,-44446210.34993,   0.00207,   0.00002,  -0.00105,466471787.40166,   0.00049,275176935.76620,   0.00007,   0.00013,  -0.00047,-8705148.36455,   0.00000
527015409.40488,200212666.59557,-43400622.42086,   0.00208,   0.00001,  -0.00103,466868327.51981,   0.00049,275176935.76620,   0.00007,   0.00013,  -0.00047,-8308608.24639,   0.00000
527514574.26367,198620655.59622,-42355034.49179,   0.00208,   0.00000,  -0.00102,467256190.06456,   0.00049,275176935.76620,   0.00007,   0.00013,  -0.00047,-7920745.70164,   0.00000
528022600.03712,197049320.06439,-41309446.56272,   0.00209,  -0.00001,  -0.00100,467663572.98576,   0.00049,275176935.76620,   0.00007,   0.00013,  -0.00047,-7513362.78044,   0.00000
528521764.89591,195457309.06505,-40257951.35721,   0.00210,  -0.00001,  -0.00099,468078499.43061,   0.00049,275176935.76620,   0.00007,   0.00013,  -0.00047,-7098436.33559,   0.00000
529029790.66936,193885973.53322,-39206456.15171,   0.00210,  -0.00002,  -0.00098,468512830.95398,   0.00049,275176935.76620,   0.00007,   0.00013,  -0.00047,-6664104.81222,   0.00000
529508280.06063,192285101.61922,-38154960.94620,   0.00211,  -0.00003,  -0.00096,468938619.27999,   0.00049,275176935.76620,   0.00007,   0.00013,  -0.00047,-6238316.48621,   0.00000
530007444.91942,190693090.61987,-37103465.74069,   0.00211,  -0.00004,  -0.00095,469396410.58157,   0.00049,275176935.76620,   0.00007,   0.00013,  -0.00047,-5780525.18463,   0.00000
530485934.31069,189092218.70587,-36051970.53519,   0.00212,  -0.00005,  -0.00094,469850683.83896,   0.00049,275176935.76620,   0.00007,   0.00013,  -0.00047,-5326251.92724,   0.00000
530955562.78731,187470671.32434,-34994568.05324,   0.00212,  -0.00005,  -0.00092,470313008.37012,   0.00049,275176935.76620,   0.00007,   0.00013,  -0.00047,-4863927.39608,   0.00000
531434052.17858,185869799.41034,-33937165.57130,   0.00213,  -0.00006,  -0.00091,470794421.26110,   0.00049,275176935.76620,   0.00007,   0.00013,  -0.00047,-4382514.50511,   0.00000
531912541.56985,184268927.49634,-32879763.08936,   0.00213,  -0.00007,  -0.00090,471290008.83263,   0.00049,275176935.76620,   0.00007,   0.00013,  -0.00047,-3886926.93357,   0.00000
532382170.04647,182647380.11481,-31822360.60742,   0.00214,  -0.00008,  -0.00088,471795103.58974,   0.00049,275176935.76620,   0.00007,   0.00013,  -0.00047,-3381832.17647,   0.00000
532831123.05556,181016971.81863,-30764958.12547,   0.00214,  -0.00009,  -0.00087,472296645.49114,   0.00049,275176935.76620,   0.00007,   0.00013,  -0.00047,-2880290.27506,   0.00000
533309612.44683,179416099.90463,-29701648.36710,   0.00215,  -0.00010,  -0.00085,472833493.60370,   0.00049,275176935.76620,   0.00007,   0.00013,  -0.00047,-2343442.16250,   0.00000
533758565.45592,177785691.60845,-28644245.88515,   0.00215,  -0.00010,  -0.00084,473363286.59258,   0.00049,275176935.76620,   0.00007,   0.00013,  -0.00047,-1813649.17362,   0.00000
534207518.46502,176155283.31227,-27580936.12678,   0.00216,  -0.00011,  -0.00083,473906113.03666,   0.00049,275176935.76620,   0.00007,   0.00013,  -0.00047,-1270822.72954,   0.00000
534656471.47411,174524875.01610,-26517626.36840,   0.00216,  -0.00012,  -0.00081,474463037.70958,   0.00049,275176935.76620,   0.00007,   0.00013,  -0.00047,-713898.05662,   0.00000
535084749.01568,172885605.80526,-25454316.61002,   0.00217,  -0.00013,  -0.00080,475016249.23295,   0.00049,275176935.76620,   0.00007,   0.00013,  -0.00047,-160686.53325,   0.00000
535209359.23350,172433073.96158,-25157547.53862,   0.00217,  -0.00013,  -0.00079,475176951.01489,   0.00049,275176935.76620,   0.00007,   0.00013,  -0.00047,  -2.48014,   0.00000
535068768.73417,171145599.71906,-24361313.12760,   0.00217,  -0.00014,  -0.00078,475179080.97248,   0.00049,275179082.42924,   0.00007,   0.00013,  -0.00047,  -1.45676,   1.00000
534859362.84904,169358186.24774,-23266840.59745,   0.00218,  -0.00015,  -0.00077,475182027.54401,   0.00050,275182030.13722,   0.00008,   0.00013,  -0.00047,  -2.59321,   1.00000
534637439.02313,167574186.41273,-22166385.49888,   0.00218,  -0.00015,  -0.00076,475185133.63242,   0.00050,275185134.97480,   0.00008,   0.00013,  -0.00047,  -1.34238,   1.00000
534399682.82395,165784679.29546,-21067688.85514,   0.00219,  -0.00016,  -0.00074,475188218.91958,   0.00050,275188221.25302,   0.00008,   0.00013,  -0.00047,  -2.33343,   1.00000
534146565.46113,163994001.97318,-19975777.65136,   0.00219,  -0.00017,  -0.00073,475191380.65124,   0.00050,275191382.86626,   0.00008,   0.00012,  -0.00047,  -2.21501,   1.00000
533879851.41583,162202639.95484,-18878984.59796,   0.00220,  -0.00018,  -0.00072,475194611.72883,   0.00051,275194611.97576,   0.00009,   0.00012,  -0.00047,  -0.24692,   1.00000
533598204.01647,160405990.64519,-17778101.02014,   0.00221,  -0.00019,  -0.00070,475197810.67505,   0.00051,275197818.96574,   0.00009,   0.00012,  -0.00047,  -8.29069,   1.00000
533298053.33947,158593432.99210,-16683640.46903,   0.00221,  -0.00020,  -0.00069,475201171.26821,   0.00051,275201172.06540,   0.00009,   0.00012,  -0.00047,  -0.79719,   1.00000
532987070.27763,156795306.59569,-15590858.88652,   0.00222,  -0.00020,  -0.00067,475204523.12694,   0.00052,275204525.74262,   0.00010,   0.00012,  -0.00047,  -2.61568,   1.00000
532662554.49762,154996807.20736,-14493409.22419,   0.00222,  -0.00021,  -0.00066,475207942.56323,   0.00052,275207948.01806,   0.00010,   0.00012,  -0.00047,  -5.45483,   1.00000
532323922.65486,153197903.87548,-13397243.01277,   0.00223,  -0.00022,  -0.00065,475211432.53297,   0.00052,275211442.02121,   0.00010,   0.00012,  -0.00047,  -9.48825,   1.00000
531971283.14709,151398708.73583,-12302426.39999,   0.00223,  -0.00023,  -0.00063,475215002.74403,   0.00053,275215007.65994,   0.00011,   0.00012,  -0.00047,  -4.91591,   1.00000
531599176.65233,149579328.14180,-11214999.95066,   0.00224,  -0.00024,  -0.00062,475218624.43730,   0.00053,275218629.47663,   0.00011,   0.00012,  -0.00047,  -5.03933,   1.00000
531217741.35891,147774810.80277,-10117586.89486,   0.00224,  -0.00025,  -0.00060,475222241.60028,   0.00053,275222246.13617,   0.00011,   0.00012,  -0.00047,  -4.53588,   1.00000
530823573.65408,145975408.16100,-9027204.17230,   0.00225,  -0.00025,  -0.00059,475226019.44183,   0.00054,275226027.05659,   0.00012,   0.00012,  -0.00047,  -7.61476,   1.00000
530414290.71317,144170842.05937,-7938747.99551,   0.00225,  -0.00026,  -0.00058,475229784.12514,   0.00054,275229788.92892,   0.00012,   0.00012,  -0.00047,  -4.80378,   1.00000
529991450.26550,142366455.69870,-6851915.16445,   0.00226,  -0.00027,  -0.00056,475233613.03898,   0.00054,275233622.36652,   0.00012,   0.00012,  -0.00047,  -9.32754,   1.00000
529555401.42322,140562398.11612,-5760873.56189,   0.00226,  -0.00028,  -0.00055,475237516.16835,   0.00055,275237526.16528,   0.00013,   0.00011,  -0.00047,  -9.99693,   1.00000
529105739.90052,138758682.68626,-4677482.69491,   0.00227,  -0.00029,  -0.00053,475241493.43176,   0.00055,275241502.71199,   0.00013,   0.00011,  -0.00047,  -9.28023,   1.00000
528641352.65144,136949907.16428,-3590147.68192,   0.00227,  -0.00030,  -0.00052,475245452.49562,   0.00055,275245459.31830,   0.00013,   0.00011,  -0.00047,  -6.82268,   1.00000
528165382.58800,135147299.92244,-2504545.15615,   0.00228,  -0.00030,  -0.00051,475249573.28829,   0.00056,275249578.44774,   0.00014,   0.00011,  -0.00047,  -5.15945,   1.00000
527674605.67366,133339660.57415,-1420936.28887,   0.00228,  -0.00031,  -0.00049,475253678.49241,   0.00056,275253678.58916,   0.00014,   0.00011,  -0.00047,  -0.09675,   1.00000
527176562.03131,131552888.35723,-339277.33298,   0.00229,  -0.00032,  -0.00048,475257862.54217,   0.00056,275257865.19958,   0.00014,   0.00011,  -0.00047,  -2.65741,   1.00000
526659871.46606,129746774.07662,740368.92191,   0.00229,  -0.00033,  -0.00046,475262107.34291,   0.00057,275262108.46810,   0.00015,   0.00011,  -0.00047,  -1.12519,   1.00000
526136273.18149,127961767.43591,1817935.70869,   0.00230,  -0.00034,  -0.00045,475266429.62123,   0.00057,275266437.53179,   0.00015,   0.00011,  -0.00047,  -7.91056,   1.00000
525594127.55016,126157576.63695,2893389.24570,   0.00230,  -0.00034,  -0.00044,475270822.51677,   0.00058,275270823.70292,   0.00015,   0.00011,  -0.00047,  -1.18614,   1.00000
525043530.24429,124368671.32752,3966795.96934,   0.00230,  -0.00035,  -0.00042,475275199.46274,   0.00058,275275204.17297,   0.00016,   0.00010,  -0.00047,  -4.71022,   1.00000
524476155.17770,122566769.44096,5043725.72168,   0.00231,  -0.00036,  -0.00041,475279727.99152,   0.00058,275279734.22610,   0.00016,   0.00010,  -0.00047,  -6.23458,   1.00000
523900778.97287,120780271.95158,6112666.75263,   0.00231,  -0.00037,  -0.00039,475284247.39894,   0.00059,275284257.03241,   0.00017,   0.00010,  -0.00047,  -9.63347,   1.00000
523312952.61818,118995075.52740,7185191.37190,   0.00232,  -0.00038,  -0.00038,475288850.04975,   0.00059,275288852.04026,   0.00017,   0.00010,  -0.00047,  -1.99051,   1.00000
522713295.04258,117211342.86352,8249451.55135,   0.00232,  -0.00039,  -0.00037,475293510.17901,   0.00060,275293516.74094,   0.00017,   0.00010,  -0.00047,  -6.56193,   1.00000
522107716.64615,115449396.75008,9317138.10068,   0.00233,  -0.00039,  -0.00035,475298261.36144,   0.00060,275298265.99616,   0.00018,   0.00010,  -0.00047,  -4.63472,   1.00000
521481732.00772,113662257.79057,10382805.57463,   0.00233,  -0.00040,  -0.00034,475302979.75301,   0.00061,275302983.03695,   0.00018,   0.00010,  -0.00047,  -3.28394,   1.00000
520853067.29920,111903677.51373,11439591.62942,   0.00234,  -0.00041,  -0.00032,475307868.49255,   0.00061,275307871.44001,   0.00019,   0.00010,  -0.00047,  -2.94746,   1.00000
520203597.37630,110119867.03304,12500245.13629,   0.00234,  -0.00042,  -0.00031,475312723.63659,   0.00062,275312730.09962,   0.00019,   0.00009,  -0.00047,  -6.46303,   1.00000
519549159.58782,108358244.75155,13558244.80457,   0.00235,  -0.00043,  -0.00029,475317663.72134,   0.00062,275317670.66861,   0.00020,   0.00009,  -0.00047,  -6.94727,   1.00000
518883342.11148,106598507.15359,14613604.47642,   0.00235,  -0.00043,  -0.00028,475322676.82027,   0.00062,275322681.57183,   0.00020,   0.00009,  -0.00047,  -4.75156,   1.00000
518206261.65303,104840738.66403,15666276.40159,   0.00236,  -0.00044,  -0.00027,475327760.07390,   0.00063,275327762.76217,   0.00020,   0.00009,  -0.00047,  -2.68827,   1.00000
517518035.48885,103085022.66890,16716213.62122,   0.00236,  -0.00045,  -0.00025,475332910.63048,   0.00063,275332914.19014,   0.00021,   0.00009,  -0.00047,  -3.55966,   1.00000
516825685.60695,101351868.59045,17763295.80154,   0.00237,  -0.00046,  -0.00024,475338138.20402,   0.00064,275338145.46913,   0.00021,   0.00009,  -0.00047,  -7.26511,   1.00000
516113037.12294,99593499.23265,18808361.06915,   0.00237,  -0.00047,  -0.00022,475343341.33270,   0.00064,275343345.67995,   0.00022,   0.00009,  -0.00047,  -4.34726,   1.00000
515399159.61832,97864859.92137,19849743.47391,   0.00238,  -0.00048,  -0.00021,475348708.77178,   0.00065,275348716.25944,   0.00022,   0.00008,  -0.00047,  -7.48766,   1.00000
514672082.27993,96131476.40419,20889023.57132,   0.00238,  -0.00048,  -0.00020,475354057.32749,   0.00065,275354065.01921,   0.00023,   0.00008,  -0.00047,  -7.69172,   1.00000
513940810.25086,94420865.56293,21931157.95848,   0.00239,  -0.00049,  -0.00018,475359492.60656,   0.00066,275359495.96361,   0.00023,   0.00008,  -0.00047,  -3.35705,   1.00000
513192855.79703,92692274.13871,22964545.06271,   0.00239,  -0.00050,  -0.00017,475364978.76933,   0.00066,275364983.20578,   0.00024,   0.00008,  -0.00047,  -4.43645,   1.00000
512439102.33359,90979426.63758,23995773.52564,   0.00240,  -0.00051,  -0.00015,475370450.69719,   0.00067,275370456.50677,   0.00024,   0.00008,  -0.00046,  -5.80958,   1.00000
511678104.44735,89276447.25122,25023032.94366,   0.00240,  -0.00052,  -0.00014,475376082.52460,   0.00067,275376089.53472,   0.00025,   0.00008,  -0.00046,  -7.01011,   1.00000
510903274.23819,87568632.34592,26054051.04432,   0.00240,  -0.00052,  -0.00012,475381700.04703,   0.00068,275381704.98936,   0.00025,   0.00007,  -0.00046,  -4.94233,   1.00000
510122512.06056,85871027.77222,27075093.55241,   0.00241,  -0.00053,  -0.00011,475387471.85202,   0.00068,275387475.06688,   0.00026,   0.00007,  -0.00046,  -3.21486,   1.00000
509329041.17070,84168689.48439,28094055.95377,   0.00241,  -0.00054,  -0.00010,475393216.71382,   0.00069,275393222.26775,   0.00026,   0.00007,  -0.00046,  -5.55394,   1.00000
508532402.42858,82489620.77217,29115600.49162,   0.00242,  -0.00055,  -0.00008,475399044.38712,   0.00069,275399050.06802,   0.00027,   0.00007,  -0.00046,  -5.68090,   1.00000
507727426.38977,80813474.58957,30128114.12672,   0.00242,  -0.00056,  -0.00007,475404932.13170,   0.00070,275404939.84992,   0.00027,   0.00007,  -0.00046,  -7.71822,   1.00000
506920855.39176,79160793.71525,31137322.69049,   0.00243,  -0.00056,  -0.00005,475410902.50657,   0.00071,275410902.99221,   0.00028,   0.00007,  -0.00046,  -0.48564,   1.00000
506092970.27424,77482661.69501,32150379.10046,   0.00243,  -0.00057,  -0.00004,475416835.68347,   0.00071,275416842.58436,   0.00028,   0.00006,  -0.00046,  -6.90089,   1.00000
505268264.15725,75835978.68081,33153014.91473,   0.00244,  -0.00058,  -0.00003,475422936.24945,   0.00072,275422939.85010,   0.00029,   0.00006,  -0.00046,  -3.60065,   1.00000
504430052.52031,74184420.23035,34159415.91927,   0.00244,  -0.00059,  -0.00001,475429019.08214,   0.00072,275429019.40184,   0.00029,   0.00006,  -0.00046,  -0.31970,   1.00000
503592205.43210,72556595.97699,35156606.70495,   0.00245,  -0.00059,   0.00000,475435162.55116,   0.00073,275435163.79662,   0.00030,   0.00006,  -0.00045,  -1.24546,   1.00000
502736426.46970,70911223.31692,36156300.18399,   0.00245,  -0.00060,   0.00002,475441368.84990,   0.00073,275441376.80444,   0.00030,   0.00006,  -0.00045,  -7.95454,   1.00000
501881439.28066,69289710.07526,37146737.91170,   0.00246,  -0.00061,   0.00003,475447645.91832,   0.00074,275447653.40933,   0.00031,   0.00005,  -0.00045,  -7.49101,   1.00000
501018092.62159,67671416.92309,38133765.10778,   0.00246,  -0.00062,   0.00005,475453991.14387,   0.00075,275453995.65736,   0.00031,   0.00005,  -0.00045,  -4.51349,   1.00000
500149499.22701,66068795.88506,39124521.38761,   0.00246,  -0.00063,   0.00006,475460320.85939,   0.00075,275460324.05846,   0.00032,   0.00005,  -0.00045,  -3.19907,   1.00000
499277936.20854,64477680.04810,40104561.45047,   0.00247,  -0.00063,   0.00007,475466795.19239,   0.00076,275466800.82749,   0.00032,   0.00005,  -0.00045,  -5.63510,   1.00000
498393127.93160,62881603.46506,41088398.28037,   0.00247,  -0.00064,   0.00009,475473255.19236,   0.00076,275473259.59133,   0.00033,   0.00004,  -0.00045,  -4.39897,   1.00000
497501921.26840,61288937.43276,42062975.83676,   0.00248,  -0.00065,   0.00010,475479771.60003,   0.00077,275479775.06597,   0.00033,   0.00004,  -0.00044,  -3.46594,   1.00000
496615185.49536,59728643.66539,43032392.82106,   0.00248,  -0.00066,   0.00012,475486448.15719,   0.00078,275486448.76988,   0.00034,   0.00004,  -0.00044,  -0.61269,   1.00000
495715339.78685,58163350.38242,44005614.51165,   0.00249,  -0.00066,   0.00013,475493102.74218,   0.00078,275493104.20603,   0.00034,   0.00004,  -0.00044,  -1.46385,   1.00000
494814028.13730,56613724.67497,44971151.70762,   0.00249,  -0.00067,   0.00014,475499720.89002,   0.00079,275499725.94103,   0.00035,   0.00004,  -0.00044,  -5.05101,   1.00000
493909443.33110,55076034.24713,45931447.00960,   0.00250,  -0.00068,   0.00016,475506496.08321,   0.00079,275506501.84055,   0.00036,   0.00003,  -0.00044,  -5.75734,   1.00000
492995954.52428,53541821.23279,46893857.41957,   0.00250,  -0.00069,   0.00017,475513341.68839,   0.00080,275513350.25189,   0.00036,   0.00003,  -0.00044,  -8.56349,   1.00000
492081477.01949,52023209.75839,47848652.84877,   0.00250,  -0.00069,   0.00019,475520154.37873,   0.00081,275520162.58292,   0.00037,   0.00003,  -0.00044,  -8.20419,   1.00000
491151392.90650,50487494.32456,48799864.00076,   0.00251,  -0.00070,   0.00020,475527028.52180,   0.00081,275527036.21903,   0.00037,   0.00003,  -0.00043,  -7.69723,   1.00000
490231763.69271,48996636.20024,49747404.22846,   0.00251,  -0.00071,   0.00022,475533971.23146,   0.00082,275533974.13110,   0.00038,   0.00002,  -0.00043,  -2.89964,   1.00000
489296710.04166,47488706.86203,50691317.06258,   0.00252,  -0.00072,   0.00023,475540964.14706,   0.00083,275540973.06985,   0.00038,   0.00002,  -0.00043,  -8.92280,   1.00000
488361925.96971,46005038.82039,51637227.59297,   0.00252,  -0.00072,   0.00024,475548036.26084,   0.00083,275548044.71799,   0.00039,   0.00002,  -0.00043,  -8.45715,   1.00000
487431359.43324,44545630.91735,52573767.79326,   0.00253,  -0.00073,   0.00026,475555158.88049,   0.00084,275555167.14985,   0.00040,   0.00002,  -0.00043,  -8.26935,   1.00000
486494510.17768,43089839.65484,53506623.92212,   0.00253,  -0.00074,   0.00027,475562349.94858,   0.00085,275562349.99142,   0.00040,   0.00001,  -0.00042,  -0.04283,   1.00000
485546811.44828,41628771.78216,54437745.41474,   0.00253,  -0.00075,   0.00029,475569498.30899,   0.00085,275569502.61530,   0.00041,   0.00001,  -0.00042,  -4.30631,   1.00000
484592952.74290,40171370.01092,55365167.78276,   0.00254,  -0.00075,   0.00030,475576714.54577,   0.00086,275576715.64357,   0.00041,   0.00001,  -0.00042,  -1.09780,   1.00000
483655814.93209,38767929.80637,56286887.60302,   0.00254,  -0.00076,   0.00031,475584068.45002,   0.00087,275584077.44113,   0.00042,   0.00001,  -0.00042,  -8.99111,   1.00000
482699044.79491,37338455.43698,57206907.43705,   0.00255,  -0.00077,   0.00033,475591402.46888,   0.00087,275591408.72229,   0.00042,   0.00000,  -0.00042,  -6.25341,   1.00000
481747653.05433,35933278.34858,58117609.20534,   0.00255,  -0.00077,   0.00034,475598779.12427,   0.00088,275598785.85451,   0.00043,   0.00000,  -0.00041,  -6.73024,   1.00000
480783607.63067,34522679.20182,59032316.80833,   0.00256,  -0.00078,   0.00036,475606137.23667,   0.00089,275606143.08747,   0.00044,  -0.00000,  -0.00041,  -5.85080,   1.00000
479828149.49411,33145586.05937,59941193.87935,   0.00256,  -0.00079,   0.00037,475613643.48643,   0.00089,275613647.46262,   0.00044,  -0.00000,  -0.00041,  -3.97619,   1.00000
478867309.87441,31772186.46329,60846313.93832,   0.00256,  -0.00080,   0.00038,475621207.05258,   0.00090,275621209.68497,   0.00045,  -0.00001,  -0.00041,  -2.63238,   1.00000
477907488.77665,30413787.41527,61744338.69513,   0.00257,  -0.00080,   0.00040,475628720.33617,   0.00091,275628723.93159,   0.00045,  -0.00001,  -0.00040,  -3.59542,   1.00000
476945499.81371,29068434.97871,62641988.67154,   0.00257,  -0.00081,   0.00041,475636395.46309,   0.00091,275636398.29800,   0.00046,  -0.00001,  -0.00040,  -2.83491,   1.00000
475973195.87788,27717450.36067,63538103.89460,   0.00258,  -0.00082,   0.00043,475644035.76467,   0.00092,275644039.31842,   0.00047,  -0.00001,  -0.00040,  -3.55374,   1.00000
475007522.39876,26390714.75865,64424970.54266,   0.00258,  -0.00082,   0.00044,475651719.87213,   0.00093,275651720.55093,   0.00047,  -0.00002,  -0.00040,  -0.67881,   1.00000
474044131.71099,25088353.83356,65313719.42513,   0.00259,  -0.00083,   0.00046,475659461.41547,   0.00093,275659467.81478,   0.00048,  -0.00002,  -0.00039,  -6.39932,   1.00000
473072870.79579,23780092.61724,66195486.46606,   0.00259,  -0.00084,   0.00047,475667157.25501,   0.00094,275667166.72934,   0.00048,  -0.00002,  -0.00039,  -9.47433,   1.00000
472102463.75198,22484996.19194,67071164.41520,   0.00259,  -0.00084,   0.00048,475675007.25054,   0.00095,275675010.87218,   0.00049,  -0.00003,  -0.00039,  -3.62164,   1.00000
471134695.17867,21214294.37992,67948701.51865,   0.00260,  -0.00085,   0.00050,475682914.64507,   0.00096,275682919.93521,   0.00050,  -0.00003,  -0.00039,  -5.29014,   1.00000
470159256.03730,19937565.87261,68819344.81280,   0.00260,  -0.00086,   0.00051,475690769.40172,   0.00096,275690779.23201,   0.00050,  -0.00003,  -0.00038,  -9.83029,   1.00000
469189063.61744,18685085.43986,69686359.34690,   0.00261,  -0.00086,   0.00053,475698684.18153,   0.00097,275698688.07911,   0.00051,  -0.00003,  -0.00038,  -3.89758,   1.00000
468220397.21383,17445876.79034,70547172.98922,   0.00261,  -0.00087,   0.00054,475706731.58350,   0.00098,275706740.37418,   0.00051,  -0.00004,  -0.00038,  -8.79068,   1.00000
467251505.71533,16221213.68495,71406832.01612,   0.00262,  -0.00088,   0.00055,475714744.17298,   0.00099,275714750.91750,   0.00052,  -0.00004,  -0.00037,  -6.74452,   1.00000
466288296.59332,15020720.14003,72262886.42569,   0.00262,  -0.00088,   0.00057,475722803.56258,   0.00099,275722808.88837,   0.00053,  -0.00004,  -0.00037,  -5.32579,   1.00000
465315237.08474,13814037.81153,73117717.58215,   0.00262,  -0.00089,   0.00058,475730824.20396,   0.00100,275730829.37073,   0.00053,  -0.00005,  -0.00037,  -5.16677,   1.00000
464344298.41019,12620701.19867,73966263.76394,   0.00263,  -0.00090,   0.00060,475738986.67951,   0.00101,275738991.67595,   0.00054,  -0.00005,  -0.00037,  -4.99644,   1.00000
463379425.60165,11451506.76050,74811223.87997,   0.00263,  -0.00090,   0.00061,475747195.58638,   0.00102,275747199.76060,   0.00055,  -0.00005,  -0.00036,  -4.17422,   1.00000
462417219.21308,10296381.86362,75649778.14601,   0.00264,  -0.00091,   0.00062,475755339.05100,   0.00102,275755347.29243,   0.00055,  -0.00005,  -0.00036,  -8.24144,   1.00000
461448868.95211,9144922.19284,76490050.01117,   0.00264,  -0.00092,   0.00064,475763552.10197,   0.00103,275763561.44808,   0.00056,  -0.00006,  -0.00036,  -9.34611,   1.00000
460479658.68842,7996768.39890,77321182.90394,   0.00264,  -0.00092,   0.00065,475771805.76899,   0.00104,275771809.76506,   0.00056,  -0.00006,  -0.00035,  -3.99607,   1.00000
459514328.47580,6872858.32333,78154204.71539,   0.00265,  -0.00093,   0.00067,475780113.62711,   0.00105,275780117.96935,   0.00057,  -0.00006,  -0.00035,  -4.34223,   1.00000
458558312.37775,5772730.28553,78978320.99760,   0.00265,  -0.00094,   0.00068,475788442.87239,   0.00105,275788452.13642,   0.00058,  -0.00007,  -0.00035,  -9.26403,   1.00000
457599141.24749,4676001.82857,79798751.98909,   0.00266,  -0.00094,   0.00069,475796833.84756,   0.00106,275796835.02778,   0.00058,  -0.00007,  -0.00034,  -1.18022,   1.00000
456644154.35304,3603432.07598,80621080.31832,   0.00266,  -0.00095,   0.00071,475805273.20481,   0.00107,275805276.37758,   0.00059,  -0.00007,  -0.00034,  -3.17277,   1.00000
455692367.38329,2544462.19181,81437321.43731,   0.00266,  -0.00095,   0.00072,475813648.34143,   0.00108,275813652.05645,   0.00060,  -0.00008,  -0.00034,  -3.71502,   1.00000
454744224.04889,1498868.25937,82247134.48237,   0.00267,  -0.00096,   0.00074,475822159.65632,   0.00109,275822164.40471,   0.00060,  -0.00008,  -0.00033,  -4.74839,   1.00000
453786589.22197,446485.08590,83056063.55192,   0.00267,  -0.00097,   0.00075,475830629.57379,   0.00109,275830635.12999,   0.00061,  -0.00008,  -0.00033,  -5.55619,   1.00000
452846359.25960,-561577.77559,83861842.46739,   0.00268,  -0.00097,   0.00076,475839126.99721,   0.00110,275839136.77531,   0.00061,  -0.00009,  -0.00033,  -9.77811,   1.00000
451896116.75609,-1587203.59454,84658404.87686,   0.00268,  -0.00098,   0.00078,475847672.31147,   0.00111,275847674.97594,   0.00062,  -0.00009,  -0.00032,  -2.66447,   1.00000
450960727.49402,-2568313.50496,85457192.80983,   0.00268,  -0.00098,   0.00079,475856257.61529,   0.00112,275856260.57961,   0.00063,  -0.00009,  -0.00032,  -2.96431,   1.00000
450022782.51842,-3546275.40889,86252349.47247,   0.00269,  -0.00099,   0.00081,475864885.18333,   0.00112,275864891.83990,   0.00063,  -0.00010,  -0.00032,  -6.65657,   1.00000
449085240.93119,-4521375.85939,87038598.49873,   0.00269,  -0.00100,   0.00082,475873546.76942,   0.00113,275873549.76056,   0.00064,  -0.00010,  -0.00031,  -2.99114,   1.00000
448155866.03111,-5462326.25562,87830020.83501,   0.00270,  -0.00100,   0.00083,475882158.20672,   0.00114,275882164.75919,   0.00065,  -0.00010,  -0.00031,  -6.55247,   1.00000
447223836.34022,-6410742.23568,88609353.07412,   0.00270,  -0.00101,   0.00085,475890897.68554,   0.00115,275890903.00634,   0.00065,  -0.00011,  -0.00030,  -5.32080,   1.00000
446303008.54212,-7325431.70447,89388677.53318,   0.00270,  -0.00101,   0.00086,475899576.17692,   0.00116,275899578.00568,   0.00066,  -0.00011,  -0.00030,  -1.82876,   1.00000
445379962.38450,-8237144.17222,90164446.15445,   0.00271,  -0.00102,   0.00088,475908292.05881,   0.00117,275908296.58872,   0.00067,  -0.00011,  -0.00030,  -4.52991,   1.00000
444465086.29619,-9125425.34687,90936992.10413,   0.00271,  -0.00102,   0.00089,475917039.92100,   0.00117,275917048.69340,   0.00067,  -0.00011,  -0.00029,  -8.77239,   1.00000
443548133.96459,-10010788.72905,91705998.67051,   0.00272,  -0.00103,   0.00090,475925834.84320,   0.00118,275925843.62423,   0.00068,  -0.00012,  -0.00029,  -8.78104,   1.00000
442639531.85267,-10872791.76367,92471815.55741,   0.00272,  -0.00103,   0.00092,475934670.13145,   0.00119,275934670.98965,   0.00068,  -0.00012,  -0.00029,  -0.85819,   1.00000
441739347.97572,-11711500.71099,93234459.30091,   0.00272,  -0.00104,   0.00093,475943520.48348,   0.00120,275943530.23786,   0.00069,  -0.00012,  -0.00028,  -9.75438,   1.00000
440832898.42758,-12558193.03944,93991471.17150,   0.00273,  -0.00104,   0.00094,475952316.04019,   0.00121,275952322.65661,   0.00070,  -0.00013,  -0.00028,  -6.61643,   1.00000
439939437.53749,-13370857.29177,94747474.13622,   0.00273,  -0.00105,   0.00096,475961245.82515,   0.00121,275961254.33294,   0.00070,  -0.00013,  -0.00027,  -8.50778,   1.00000
439047102.62325,-14170820.14531,95503453.64276,   0.00274,  -0.00106,   0.00097,475970121.92483,   0.00122,275970128.32673,   0.00071,  -0.00013,  -0.00027,  -6.40190,   1.00000
438156113.45752,-14968490.09616,96250808.45174,   0.00274,  -0.00106,   0.00099,475979017.69266,   0.00123,275979022.08482,   0.00072,  -0.00014,  -0.00027,  -4.39216,   1.00000
437281577.25758,-15732595.54532,96991988.99033,   0.00274,  -0.00107,   0.00100,475988029.62972,   0.00124,275988032.57707,   0.00072,  -0.00014,  -0.00026,  -2.94735,   1.00000
436400546.44180,-16494702.45619,97736427.88312,   0.00275,  -0.00107,   0.00101,475996887.92592,   0.00125,275996896.08463,   0.00073,  -0.00014,  -0.00026,  -8.15871,   1.00000
435536171.76849,-17223337.46464,98474704.37436,   0.00275,  -0.00108,   0.00103,476005870.70061,   0.00126,276005875.19479,   0.00074,  -0.00015,  -0.00025,  -4.49418,   1.00000
434670286.59728,-17949495.10168,99209580.08861,   0.00275,  -0.00108,   0.00104,476014891.52039,   0.00126,276014893.10118,   0.00074,  -0.00015,  -0.00025,  -1.58080,   1.00000
433813474.88766,-18652786.98384,99941483.72562,   0.00276,  -0.00109,   0.00106,476023936.69017,   0.00127,276023937.94836,   0.00075,  -0.00015,  -0.00024,  -1.25818,   1.00000
432947333.72678,-19364226.36462,100673213.31736,   0.00276,  -0.00109,   0.00107,476032924.13131,   0.00128,276032933.73679,   0.00075,  -0.00016,  -0.00024,  -9.60547,   1.00000
432090349.10522,-20052859.06090,101402006.51237,   0.00277,  -0.00110,   0.00108,476041946.25345,   0.00129,276041955.85152,   0.00076,  -0.00016,  -0.00024,  -9.59807,   1.00000
431253830.96023,-20708617.85675,102119587.03868,   0.00277,  -0.00110,   0.00110,476051062.94060,   0.00130,276051068.38141,   0.00077,  -0.00017,  -0.00023,  -5.44081,   1.00000
430415343.00678,-21351882.07065,102842607.27149,   0.00277,  -0.00110,   0.00111,476060136.55848,   0.00131,276060141.02161,   0.00077,  -0.00017,  -0.00023,  -4.46313,   1.00000
429578844.99245,-21993379.90524,103557258.86298,   0.00278,  -0.00111,   0.00112,476069218.86583,   0.00131,276069227.86354,   0.00078,  -0.00017,  -0.00022,  -8.99771,   1.00000
428754225.37946,-22602561.39965,104272843.93617,   0.00278,  -0.00111,   0.00114,476078232.24200,   0.00132,276078239.22269,   0.00079,  -0.00018,  -0.00022,  -6.98069,   1.00000
427925960.81610,-23219353.52723,104981369.40161,   0.00278,  -0.00112,   0.00115,476087380.89828,   0.00133,276087386.19309,   0.00079,  -0.00018,  -0.00021,  -5.29481,   1.00000
427117854.33799,-23793290.88948,105687584.10371,   0.00279,  -0.00112,   0.00117,476096542.56152,   0.00134,276096543.61725,   0.00080,  -0.00018,  -0.00021,  -1.05573,   1.00000
426300352.67285,-24375865.85619,106393877.86935,   0.00279,  -0.00113,   0.00118,476105645.29385,   0.00135,276105649.59630,   0.00081,  -0.00019,  -0.00020,  -4.30245,   1.00000
425503080.78338,-24915713.72041,107097915.36588,   0.00280,  -0.00113,   0.00119,476114763.39371,   0.00136,276114765.07254,   0.00081,  -0.00019,  -0.00020,  -1.67883,   1.00000
424702450.21091,-25463314.34536,107794847.51123,   0.00280,  -0.00114,   0.00121,476124008.04358,   0.00137,276124015.05208,   0.00082,  -0.00019,  -0.00019,  -7.00851,   1.00000
423917156.04792,-25979496.97262,108488006.38878,   0.00280,  -0.00114,   0.00122,476133160.48931,   0.00137,276133162.57365,   0.00082,  -0.00020,  -0.00019,  -2.08435,   1.00000
423127483.65998,-26493327.02918,109182921.52619,   0.00281,  -0.00114,   0.00123,476142362.81192,   0.00138,276142368.32802,   0.00083,  -0.00020,  -0.00019,  -5.51609,   1.00000
422353131.99949,-26975892.48494,109874165.84387,   0.00281,  -0.00115,   0.00125,476151463.84769,   0.00139,276151470.61725,   0.00084,  -0.00020,  -0.00018,  -6.76957,   1.00000
421575683.81478,-27466347.69378,110558297.81272,   0.00281,  -0.00115,   0.00126,476160701.23034,   0.00140,276160706.16661,   0.00084,  -0.00021,  -0.00018,  -4.93627,   1.00000
420818786.14861,-27914399.42515,111240349.36238,   0.00282,  -0.00116,   0.00128,476169942.49092,   0.00141,276169947.89048,   0.00085,  -0.00021,  -0.00017,  -5.39955,   1.00000
420063093.40608,-28351229.32838,111923266.11300,   0.00282,  -0.00116,   0.00129,476179117.80344,   0.00142,276179122.45240,   0.00086,  -0.00021,  -0.00017,  -4.64896,   1.00000
419306521.71696,-28786469.80876,112603058.01460,   0.00283,  -0.00116,   0.00130,476188324.66700,   0.00143,276188329.68858,   0.00086,  -0.00022,  -0.00016,  -5.02158,   1.00000
418559843.99494,-29199812.25815,113280288.05185,   0.00283,  -0.00117,   0.00132,476197555.52477,   0.00143,276197555.62753,   0.00087,  -0.00022,  -0.00016,  -0.10276,   1.00000
417831856.14980,-29580579.47016,113951471.93695,   0.00283,  -0.00117,   0.00133,476206880.45342,   0.00144,276206885.97424,   0.00087,  -0.00022,  -0.00015,  -5.52082,   1.00000
417088968.19820,-29981989.64629,114621749.80416,   0.00284,  -0.00118,   0.00134,476216044.25554,   0.00145,276216050.27344,   0.00088,  -0.00023,  -0.00015,  -6.01790,   1.00000
416372136.69837,-30329990.17735,115291420.08820,   0.00284,  -0.00118,   0.00136,476225326.89576,   0.00146,276225329.93032,   0.00089,  -0.00023,  -0.00014,  -3.03456,   1.00000
415658072.22432,-30677248.59850,115953201.85119,   0.00284,  -0.00118,   0.00137,476234614.09166,   0.00147,276234614.83696,   0.00089,  -0.00023,  -0.00014,  -0.74529,   1.00000
414945095.35998,-31013657.28616,116616089.65996,   0.00285,  -0.00119,   0.00138,476243825.35039,   0.00148,276243830.62310,   0.00090,  -0.00024,  -0.00013,  -5.27271,   1.00000
414251133.30114,-31317727.36494,117272978.18326,   0.00285,  -0.00119,   0.00140,476253146.73800,   0.00149,276253148.62825,   0.00090,  -0.00024,  -0.00013,  -1.89026,   1.00000
413558209.88934,-31611089.30637,117931032.84077,   0.00285,  -0.00119,   0.00141,476262390.87385,   0.00149,276262396.94799,   0.00091,  -0.00024,  -0.00012,  -6.07414,   1.00000
412864572.91366,-31903305.61704,118586087.50845,   0.00286,  -0.00120,   0.00143,476271667.82864,   0.00150,276271675.49441,   0.00092,  -0.00025,  -0.00012,  -7.66578,   1.00000
412191791.96171,-32153797.44384,119239358.41563,   0.00286,  -0.00120,   0.00144,476280951.98477,   0.00151,276280955.31078,   0.00092,  -0.00025,  -0.00011,  -3.32601,   1.00000
411518304.09206,-32403271.20337,119889647.13334,   0.00286,  -0.00120,   0.00145,476290256.32424,   0.00152,276290264.91105,   0.00093,  -0.00025,  -0.00011,  -8.58681,   1.00000
410849380.68145,-32642838.09788,120536481.20504,   0.00287,  -0.00121,   0.00147,476299473.23663,   0.00153,276299476.89899,   0.00094,  -0.00026,  -0.00010,  -3.66236,   1.00000
410196121.41354,-32849743.60098,121182071.48372,   0.00287,  -0.00121,   0.00148,476308812.05282,   0.00154,276308816.41562,   0.00094,  -0.00026,  -0.00010,  -4.36281,   1.00000
409536611.91062,-33067169.20059,121823662.20591,   0.00288,  -0.00121,   0.00149,476318070.86635,   0.00155,276318072.16125,   0.00095,  -0.00026,  -0.00009,  -1.29490,   1.00000
408898000.32840,-33243116.25036,122463587.41479,   0.00288,  -0.00122,   0.00151,476327318.06769,   0.00155,276327327.63778,   0.00095,  -0.00027,  -0.00009,  -9.57010,   1.00000
408258735.75176,-33418280.59286,123100610.81848,   0.00288,  -0.00122,   0.00152,476336606.75293,   0.00156,276336611.63476,   0.00096,  -0.00027,  -0.00008,  -4.88183,   1.00000
407629603.03883,-33572380.66628,123735369.58224,   0.00289,  -0.00122,   0.00153,476345902.97202,   0.00157,276345909.45535,   0.00097,  -0.00027,  -0.00008,  -6.48333,   1.00000
407021383.72606,-33685199.55148,124368519.22294,   0.00289,  -0.00122,   0.00155,476355205.42213,   0.00158,276355206.05346,   0.00097,  -0.00028,  -0.00007,  -0.63133,   1.00000
406401717.13593,-33817702.39910,124998142.69634,   0.00289,  -0.00123,   0.00156,476364536.92920,   0.00159,276364545.48580,   0.00098,  -0.00028,  -0.00006,  -8.55660,   1.00000
405797257.64465,-33920416.03388,125625291.32556,   0.00290,  -0.00123,   0.00157,476373763.13399,   0.00160,276373769.70837,   0.00098,  -0.00028,  -0.00006,  -6.57438,   1.00000
405208662.58916,-33990864.14147,126251124.80880,   0.00290,  -0.00123,   0.00159,476383113.91973,   0.00161,276383120.44405,   0.00099,  -0.00029,  -0.00005,  -6.52432,   1.00000
404624418.04723,-34051988.15354,126873909.14933,   0.00290,  -0.00123,   0.00160,476392369.72872,   0.00162,276392370.07547,   0.00100,  -0.00029,  -0.00005,  -0.34675,   1.00000
404035734.50502,-34112016.41083,127498468.68984,   0.00291,  -0.00124,   0.00161,476401675.67021,   0.00162,276401676.09920,   0.00100,  -0.00029,  -0.00004,  -0.42899,   1.00000
403460940.00575,-34151987.13818,128116252.67388,   0.00291,  -0.00124,   0.00163,476410961.00660,   0.00163,276410965.60950,   0.00101,  -0.00030,  -0.00004,  -4.60289,   1.00000
402896258.07584,-34171304.06803,128731891.18027,   0.00291,  -0.00124,   0.00164,476420258.54948,   0.00164,276420267.29508,   0.00101,  -0.00030,  -0.00003,  -8.74560,   1.00000
402342772.11269,-34160500.55633,129349874.43499,   0.00292,  -0.00124,   0.00165,476429477.05743,   0.00165,276429481.42894,   0.00102,  -0.00030,  -0.00003,  -4.37151,   1.00000
401798258.65378,-34138716.16115,129961228.95233,   0.00292,  -0.00125,   0.00167,476438802.36286,   0.00166,276438807.20413,   0.00102,  -0.00031,  -0.00002,  -4.84127,   1.00000
401247190.35422,-34128158.84416,130569097.34000,   0.00292,  -0.00125,   0.00168,476448039.54049,   0.00167,276448045.06669,   0.00103,  -0.00031,  -0.00002,  -5.52620,   1.00000
400713095.89561,-34076138.34343,131180079.31021,   0.00293,  -0.00125,   0.00169,476457304.42707,   0.00168,276457309.73036,   0.00104,  -0.00031,  -0.00001,  -5.30329,   1.00000
400192880.93965,-34004400.51317,131784441.10963,   0.00293,  -0.00125,   0.00171,476466553.88470,   0.00168,276466555.95536,   0.00104,  -0.00032,  -0.00000,  -2.07066,   1.00000
399668077.40710,-33931940.22200,132390554.71747,   0.00293,  -0.00125,   0.00172,476475853.44059,   0.00169,276475858.75754,   0.00105,  -0.00032,   0.00000,  -5.31695,   1.00000
399167892.21192,-33819538.19593,132990765.47472,   0.00294,  -0.00126,   0.00174,476485122.76732,   0.00170,276485127.83832,   0.00105,  -0.00032,   0.00001,  -5.07099,   1.00000
398657098.61017,-33717924.46762,133592139.90204,   0.00294,  -0.00126,   0.00175,476494333.83087,   0.00171,276494338.47913,   0.00106,  -0.00033,   0.00001,  -4.64825,   1.00000
398176873.70692,-33565056.86677,134188226.09821,   0.00294,  -0.00126,   0.00176,476503625.66999,   0.00172,276503630.13065,   0.00107,  -0.00033,   0.00002,  -4.46066,   1.00000
397685945.85308,-33423078.75198,134785505.82407,   0.00295,  -0.00126,   0.00178,476512854.12870,   0.00173,276512863.29529,   0.00107,  -0.00033,   0.00002,  -9.16659,   1.00000
397204942.40157,-33260960.73829,135380740.76765,   0.00295,  -0.00126,   0.00179,476522098.84132,   0.00174,276522107.71119,   0.00108,  -0.00034,   0.00003,  -8.86987,   1.00000
396733835.97465,-33078758.60350,135973934.44648,   0.00295,  -0.00126,   0.00180,476531359.10926,   0.00175,276531363.35084,   0.00108,  -0.00034,   0.00003,  -4.24158,   1.00000
396276552.30139,-32877211.24087,136560677.20335,   0.00296,  -0.00127,   0.00182,476540596.92473,   0.00175,276540598.71170,   0.00109,  -0.00034,   0.00004,  -1.78697,   1.00000
395815118.78024,-32665671.00398,137153787.01376,   0.00296,  -0.00127,   0.00183,476549792.40608,   0.00176,276549792.44840,   0.00109,  -0.00035,   0.00005,  -0.04232,   1.00000
395377514.24758,-32424199.36473,137736484.68491,   0.00296,  -0.00127,   0.00184,476559046.14581,   0.00177,276559049.98361,   0.00110,  -0.00035,   0.00005,  -3.83780,   1.00000
394935621.14689,-32172824.07459,138325551.25123,   0.00296,  -0.00127,   0.00186,476568257.55230,   0.00178,276568266.30383,   0.00111,  -0.00035,   0.00006,  -8.75153,   1.00000
394496837.61917,-31922594.96168,138907538.67214,   0.00297,  -0.00127,   0.00187,476577467.59730,   0.00179,276577476.32407,   0.00111,  -0.00036,   0.00006,  -8.72677,   1.00000
394078434.64083,-31632201.63999,139488211.28416,   0.00297,  -0.00127,   0.00188,476586676.89924,   0.00180,276586683.08509,   0.00112,  -0.00036,   0.00007,  -6.18586,   1.00000
393669707.49662,-31322063.32251,140066878.93223,   0.00297,  -0.00127,   0.00190,476595897.46353,   0.00181,276595901.07504,   0.00112,  -0.00036,   0.00007,  -3.61151,   1.00000
393260021.00888,-31012554.10517,140642859.68786,   0.00298,  -0.00127,   0.00191,476605142.92075,   0.00181,276605144.56607,   0.00113,  -0.00036,   0.00008,  -1.64532,   1.00000
392864421.12301,-30674302.06786,141217266.83279,   0.00298,  -0.00127,   0.00192,476614264.86424,   0.00182,276614268.42597,   0.00113,  -0.00037,   0.00009,  -3.56173,   1.00000
392463751.33099,-30336067.52809,141793310.32954,   0.00298,  -0.00127,   0.00193,476623445.21351,   0.00183,276623450.61747,   0.00114,  -0.00037,   0.00009,  -5.40396,   1.00000
392076724.31783,-29978884.27598,142363060.75669,   0.00299,  -0.00128,   0.00195,476632601.91042,   0.00184,276632611.33612,   0.00114,  -0.00037,   0.00010,  -9.42570,   1.00000
391705707.10927,-29581112.21075,142935783.00458,   0.00299,  -0.00128,   0.00196,476641802.45398,   0.00185,276641802.69057,   0.00115,  -0.00038,   0.00010,  -0.23659,   1.00000
391337674.74793,-29184878.27974,143501543.59732,   0.00299,  -0.00128,   0.00197,476650977.38865,   0.00186,276650986.53016,   0.00116,  -0.00038,   0.00011,  -9.14151,   1.00000
390968796.03313,-28779698.42607,144069437.72443,   0.00300,  -0.00128,   0.00199,476660091.90578,   0.00187,276660098.04180,   0.00116,  -0.00038,   0.00011,  -6.13602,   1.00000
390626037.62150,-28323518.48141,144636107.80731,   0.00300,  -0.00128,   0.00200,476669317.04052,   0.00187,276669325.41601,   0.00117,  -0.00039,   0.00012,  -8.37549,   1.00000
390275874.79408,-27879537.33241,145199994.83482,   0.00300,  -0.00128,   0.00201,476678459.09954,   0.00188,276678460.97113,   0.00117,  -0.00039,   0.00013,  -1.87159,   1.00000
389939172.35420,-27416854.14369,145757664.09986,   0.00300,  -0.00128,   0.00203,476687567.88100,   0.00189,276687574.75920,   0.00118,  -0.00039,   0.00013,  -6.87821,   1.00000
389607600.59663,-26934189.01768,146317548.02625,   0.00301,  -0.00128,   0.00204,476696729.92285,   0.00190,276696734.73374,   0.00118,  -0.00040,   0.00014,  -4.81089,   1.00000
389274834.50998,-26442711.30091,146879584.73151,   0.00301,  -0.00128,   0.00205,476705813.95876,   0.00191,276705823.54471,   0.00119,  -0.00040,   0.00014,  -9.58595,   1.00000
388961684.40057,-25921535.37755,147435404.00518,   0.00301,  -0.00128,   0.00207,476715006.11295,   0.00192,276715008.93090,   0.00119,  -0.00040,   0.00015,  -2.81795,   1.00000
388651399.02285,-25392267.51873,147989227.76412,   0.00302,  -0.00128,   0.00208,476724083.83712,   0.00193,276724088.89572,   0.00120,  -0.00040,   0.00016,  -5.05860,   1.00000
388345993.50515,-24843184.29327,148545175.30986,   0.00302,  -0.00128,   0.00209,476733209.33940,   0.00193,276733216.64845,   0.00120,  -0.00041,   0.00016,  -7.30904,   1.00000
388053837.80185,-24275634.75405,149094935.68711,   0.00302,  -0.00128,   0.00211,476742320.59832,   0.00194,276742322.88761,   0.00121,  -0.00041,   0.00017,  -2.28929,   1.00000
387770660.60373,-23689016.20486,149642655.00640,   0.00303,  -0.00128,   0.00212,476751437.09140,   0.00195,276751442.56975,   0.00121,  -0.00041,   0.00017,  -5.47835,   1.00000
387485897.05711,-23093734.51525,150192574.50006,   0.00303,  -0.00128,   0.00213,476760490.95109,   0.00196,276760492.16791,   0.00122,  -0.00042,   0.00018,  -1.21682,   1.00000
387220549.43815,-22469099.48053,150736168.66413,   0.00303,  -0.00128,   0.00215,476769639.36004,   0.00197,276769639.48725,   0.00123,  -0.00042,   0.00019,  -0.12721,   1.00000
386953461.93980,-21835861.53062,151281959.17591,   0.00303,  -0.00128,   0.00216,476778714.17042,   0.00198,276778717.31242,   0.00123,  -0.00042,   0.00019,  -3.14200,   1.00000
386695141.67422,-21183705.22109,151825659.73551,   0.00304,  -0.00128,   0.00217,476787804.70494,   0.00199,276787809.69534,   0.00124,  -0.00042,   0.00020,  -4.99039,   1.00000
386434945.55421,-20522961.18143,152371553.21430,   0.00304,  -0.00127,   0.00219,476796832.15676,   0.00199,276796833.25681,   0.00124,  -0.00043,   0.00020,  -1.10005,   1.00000
386198308.44836,-19833697.38554,152906977.52844,   0.00304,  -0.00127,   0.00220,476805915.13904,   0.00200,276805919.72128,   0.00125,  -0.00043,   0.00021,  -4.58225,   1.00000
385955345.68424,-19135293.15881,153448647.21083,   0.00305,  -0.00127,   0.00221,476814973.53260,   0.00201,276814973.80496,   0.00125,  -0.00043,   0.00022,  -0.27236,   1.00000
385725240.81338,-18418716.36035,153984150.07669,   0.00305,  -0.00127,   0.00222,476824002.89938,   0.00202,276824007.47323,   0.00126,  -0.00044,   0.00022,  -4.57384,   1.00000
385499290.18281,-17682819.30068,154521517.84907,   0.00305,  -0.00127,   0.00224,476833091.92406,   0.00203,276833093.46316,   0.00126,  -0.00044,   0.00023,  -1.53910,   1.00000
385286097.21772,-16928834.19511,155052711.96442,   0.00305,  -0.00127,   0.00225,476842151.09039,   0.00204,276842159.37391,   0.00127,  -0.00044,   0.00024,  -8.28352,   1.00000
385070600.50638,-16166379.20834,155586106.75660,   0.00306,  -0.00127,   0.00226,476851157.47774,   0.00205,276851158.11663,   0.00127,  -0.00044,   0.00024,  -0.63889,   1.00000
384874097.81840,-15375154.60270,156112928.51952,   0.00306,  -0.00127,   0.00228,476860256.95159,   0.00205,276860257.51616,   0.00128,  -0.00045,   0.00025,  -0.56456,   1.00000
384675118.19406,-14575512.42410,156641930.63271,   0.00306,  -0.00127,   0.00229,476869282.27926,   0.00206,276869290.58685,   0.00128,  -0.00045,   0.00025,  -8.30758,   1.00000
384474236.31616,-13777801.39258,157168152.02324,   0.00306,  -0.00126,   0.00230,476878349.16448,   0.00207,276878351.90801,   0.00129,  -0.00045,   0.00026,  -2.74353,   1.00000
384280866.78686,-12951165.55620,157697103.32115,   0.00307,  -0.00126,   0.00232,476887336.36069,   0.00208,276887337.01543,   0.00129,  -0.00045,   0.00027,  -0.65474,   1.00000
384106289.23729,-12095997.18749,158219351.43910,   0.00307,  -0.00126,   0.00233,476896417.14249,   0.00209,276896424.39984,   0.00130,  -0.00046,   0.00027,  -7.25735,   1.00000
383928938.90402,-11232472.31474,158743749.68551,   0.00307,  -0.00126,   0.00234,476905445.48368,   0.00210,276905446.98785,   0.00130,  -0.00046,   0.00028,  -1.50417,   1.00000
383763942.78430,-10351087.51270,159261945.55649,   0.00307,  -0.00126,   0.00236,476914441.86284,   0.00210,276914451.22788,   0.00131,  -0.00046,   0.00028,  -9.36504,   1.00000
383602359.59343,-9450846.46254,159781705.31308,   0.00308,  -0.00126,   0.00237,476923511.52565,   0.00211,276923512.86994,   0.00131,  -0.00047,   0.00029,  -1.34428,   1.00000
383442223.90509,-8542782.82276,160299718.50359,   0.00308,  -0.00125,   0.00238,476932470.18055,   0.00212,276932473.07261,   0.00132,  -0.00047,   0.00030,  -2.89205,   1.00000
383300623.24893,-7606498.41510,160810886.89548,   0.00308,  -0.00125,   0.00239,476941533.33164,   0.00213,276941537.36244,   0.00132,  -0.00047,   0.00030,  -4.03080,   1.00000
383151356.71957,-6661440.65641,161327999.61635,   0.00309,  -0.00125,   0.00241,476950571.18480,   0.00214,276950577.28283,   0.00133,  -0.00047,   0.00031,  -6.09803,   1.00000
383014173.62781,-5698682.16366,161838859.95433,   0.00309,  -0.00125,   0.00242,476959597.86110,   0.00215,276959600.27228,   0.00133,  -0.00048,   0.00032,  -2.41117,   1.00000
382873663.53678,-4727639.06669,162351806.56584,   0.00309,  -0.00125,   0.00243,476968561.41274,   0.00216,276968561.48335,   0.00134,  -0.00048,   0.00032,  -0.07060,   1.00000
382751442.77030,-3728631.67401,162857751.09957,   0.00309,  -0.00124,   0.00245,476977620.09272,   0.00216,276977628.81703,   0.00134,  -0.00048,   0.00033,  -8.72431,   1.00000
382625732.28271,-2721392.64171,163365755.78531,   0.00310,  -0.00124,   0.00246,476986626.98766,   0.00217,276986635.22506,   0.00135,  -0.00048,   0.00034,  -8.23739,   1.00000
382517090.65479,-1675590.31403,163871674.60178,   0.00310,  -0.00124,   0.00247,476995651.33063,   0.00218,276995656.99074,   0.00135,  -0.00049,   0.00034,  -5.66011,   1.00000
382405847.99767,-632393.80683,164374595.63660,   0.00310,  -0.00124,   0.00248,477004702.98185,   0.00219,277004710.86670,   0.00136,  -0.00049,   0.00035,  -7.88485,   1.00000
382295447.61080,418594.80662,164875788.87966,   0.00310,  -0.00123,   0.00250,477013663.19285,   0.00220,277013665.94589,   0.00136,  -0.00049,   0.00035,  -2.75304,   1.00000
382187544.41214,1487918.43076,165378121.38099,   0.00310,  -0.00123,   0.00251,477022681.02074,   0.00221,277022685.37797,   0.00137,  -0.00049,   0.00036,  -4.35723,   1.00000
382086645.31772,2575107.85320,165877814.24882,   0.00311,  -0.00123,   0.00252,477031727.63407,   0.00222,277031730.32061,   0.00137,  -0.00050,   0.00037,  -2.68654,   1.00000
381997276.51544,3679731.53314,166371137.75253,   0.00311,  -0.00123,   0.00254,477040751.60998,   0.00222,277040761.46925,   0.00138,  -0.00050,   0.00037,  -9.85926,   1.00000
381919741.80645,4823047.17413,166865835.11459,   0.00311,  -0.00122,   0.00255,477049845.21489,   0.00223,277049852.25711,   0.00138,  -0.00050,   0.00038,  -7.04222,   1.00000
381833022.47890,5953520.55052,167358391.78515,   0.00311,  -0.00122,   0.00256,477058848.17165,   0.00224,277058853.10484,   0.00139,  -0.00050,   0.00039,  -4.93318,   1.00000
381753011.53019,7101700.37732,167848207.79955,   0.00312,  -0.00122,   0.00258,477067880.95528,   0.00225,277067881.42814,   0.00139,  -0.00051,   0.00039,  -0.47287,   1.00000
381674957.08613,8267853.77353,168338887.62179,   0.00312,  -0.00121,   0.00259,477076975.75521,   0.00226,277076978.31390,   0.00140,  -0.00051,   0.00040,  -2.55869,   1.00000
381606627.90885,9462364.95367,168828083.84614,   0.00312,  -0.00121,   0.00260,477085966.38126,   0.00227,277085974.20833,   0.00140,  -0.00051,   0.00041,  -7.82707,   1.00000
381546205.54391,10663283.32568,169309420.23728,   0.00312,  -0.00121,   0.00261,477095081.32859,   0.00228,277095088.95026,   0.00141,  -0.00051,   0.00041,  -7.62167,   1.00000
381481188.24363,11872248.12759,169792579.07908,   0.00313,  -0.00120,   0.00263,477104147.61089,   0.00228,277104149.66587,   0.00141,  -0.00052,   0.00042,  -2.05498,   1.00000
381420880.62379,13109874.69638,170277795.60688,   0.00313,  -0.00120,   0.00264,477113152.27002,   0.00229,277113152.32802,   0.00142,  -0.00052,   0.00043,  -0.05801,   1.00000
381368349.82036,14353674.06835,170755043.54357,   0.00313,  -0.00120,   0.00265,477122273.52887,   0.00230,277122275.04410,   0.00142,  -0.00052,   0.00043,  -1.51523,   1.00000
381320276.42011,15626080.99473,171234268.30513,   0.00313,  -0.00119,   0.00267,477131334.13985,   0.00231,277131341.43772,   0.00143,  -0.00052,   0.00044,  -7.29788,   1.00000
381268895.26369,16895167.39233,171710207.70606,   0.00313,  -0.00119,   0.00268,477140442.28216,   0.00232,277140444.68271,   0.00143,  -0.00052,   0.00045,  -2.40055,   1.00000
381232737.65858,18202121.23011,172183275.35382,   0.00314,  -0.00119,   0.00269,477149571.83978,   0.00233,277149577.35395,   0.00144,  -0.00053,   0.00045,  -5.51417,   1.00000
381186908.76041,19496198.60130,172654255.58229,   0.00314,  -0.00118,   0.00270,477158612.41816,   0.00233,277158622.07204,   0.00144,  -0.00053,   0.00046,  -9.65388,   1.00000
381151318.66117,20828265.16215,173125792.80734,   0.00314,  -0.00118,   0.00272,477167731.53719,   0.00234,277167739.65894,   0.00145,  -0.00053,   0.00047,  -8.12175,   1.00000
381112208.58861,22156791.18559,173593941.49160,   0.00314,  -0.00118,   0.00273,477176890.54974,   0.00235,277176895.67919,   0.00145,  -0.00053,   0.00047,  -5.12945,   1.00000
381092654.43325,23522839.40791,174055508.43567,   0.00314,  -0.00117,   0.00274,477186037.07298,   0.00236,277186042.80828,   0.00146,  -0.00054,   0.00048,  -5.73530,   1.00000
381053621.76529,24876256.35144,174521952.04125,   0.00315,  -0.00117,   0.00276,477195178.56396,   0.00237,277195187.19465,   0.00146,  -0.00054,   0.00049,  -8.63068,   1.00000
381044984.44583,26276205.54183,174976891.61184,   0.00315,  -0.00116,   0.00277,477204401.29093,   0.00238,277204408.32600,   0.00147,  -0.00054,   0.00049,  -7.03507,   1.00000
381014685.26907,27675009.83212,175441582.50355,   0.00315,  -0.00116,   0.00278,477213535.02697,   0.00239,277213542.18325,   0.00147,  -0.00054,   0.00050,  -7.15628,   1.00000
380996526.17454,29078936.01886,175894468.47494,   0.00315,  -0.00115,   0.00279,477222753.00877,   0.00240,277222757.79265,   0.00148,  -0.00054,   0.00051,  -4.78389,   1.00000
380981448.66389,30511301.70876,176348841.30604,   0.00315,  -0.00115,   0.00281,477231919.84854,   0.00240,277231927.44764,   0.00148,  -0.00055,   0.00051,  -7.59910,   1.00000
380966538.28239,31960400.61749,176803105.58567,   0.00316,  -0.00115,   0.00282,477241177.75748,   0.00241,277241180.33267,   0.00149,  -0.00055,   0.00052,  -2.57519,   1.00000
380952566.01754,33405462.93013,177250373.35318,   0.00316,  -0.00114,   0.00283,477250427.18494,   0.00242,277250431.83346,   0.00149,  -0.00055,   0.00053,  -4.64851,   1.00000
380941291.83257,34878905.04596,177698969.60308,   0.00316,  -0.00114,   0.00285,477259638.02563,   0.00243,277259640.47486,   0.00150,  -0.00055,   0.00054,  -2.44924,   1.00000
380945861.06513,36377668.89886,178138995.19846,   0.00316,  -0.00113,   0.00286,477268966.39726,   0.00244,277268975.76210,   0.00150,  -0.00055,   0.00054,  -9.36484,   1.00000
380932914.05309,37875290.27358,178585166.87934,   0.00316,  -0.00113,   0.00287,477278182.42166,   0.00245,277278186.14333,   0.00150,  -0.00056,   0.00055,  -3.72167,   1.00000
380926933.65142,39377435.42093,179022710.76184,   0.00317,  -0.00112,   0.00288,477287521.70678,   0.00246,277287523.73206,   0.00151,  -0.00056,   0.00056,  -2.02528,   1.00000
380923108.15192,40907844.63249,179461353.16846,   0.00317,  -0.00112,   0.00290,477296820.22255,   0.00247,277296822.81048,   0.00151,  -0.00056,   0.00056,  -2.58793,   1.00000
380918730.26255,42454402.41788,179899451.55289,   0.00317,  -0.00111,   0.00291,477306208.10284,   0.00247,277306211.40809,   0.00152,  -0.00056,   0.00057,  -3.30525,   1.00000
380928567.58486,44017346.13289,180327018.23349,   0.00317,  -0.00111,   0.00292,477315552.08948,   0.00248,277315558.74128,   0.00152,  -0.00056,   0.00058,  -6.65180,   1.00000
380926531.25224,45587676.87524,180758922.95764,   0.00317,  -0.00110,   0.00294,477324907.75281,   0.00249,277324912.96075,   0.00153,  -0.00057,   0.00059,  -5.20794,   1.00000
380920098.77814,47153445.52424,181186985.70543,   0.00317,  -0.00110,   0.00295,477334311.90120,   0.00250,277334312.45350,   0.00153,  -0.00057,   0.00059,  -0.55230,   1.00000
380926264.71439,48755836.23190,181610836.46631,   0.00318,  -0.00109,   0.00296,477343754.44020,   0.00251,277343763.28761,   0.00154,  -0.00057,   0.00060,  -8.84741,   1.00000
380936364.83016,50374090.58113,182030579.87078,   0.00318,  -0.00109,   0.00297,477353261.35742,   0.00252,277353263.60021,   0.00154,  -0.00057,   0.00061,  -2.24279,   1.00000
380939147.04050,51999707.89518,182451174.33111,   0.00318,  -0.00108,   0.00299,477362725.86115,   0.00253,277362730.22684,   0.00155,  -0.00057,   0.00062,  -4.36569,   1.00000
380945676.51346,53641060.43673,182867547.29879,   0.00318,  -0.00107,   0.00300,477372246.07986,   0.00254,277372248.09257,   0.00155,  -0.00058,   0.00062,  -2.01272,   1.00000
380949736.80441,55290003.05639,183281473.31013,   0.00318,  -0.00107,   0.00301,477381681.33400,   0.00255,277381689.09543,   0.00156,  -0.00058,   0.00063,  -7.76143,   1.00000
380963472.88656,56962553.35670,183689239.54413,   0.00318,  -0.00106,   0.00303,477391305.09505,   0.00256,277391311.84376,   0.00156,  -0.00058,   0.00064,  -6.74871,   1.00000
380958338.98668,58634063.91673,184102745.96984,   0.00319,  -0.00106,   0.00304,477400813.90591,   0.00256,277400819.98592,   0.00157,  -0.00058,   0.00064,  -6.08000,   1.00000
380967744.60638,60329231.40029,184506729.33241,   0.00319,  -0.00105,   0.00305,477410459.54006,   0.00257,277410466.98007,   0.00157,  -0.00058,   0.00065,  -7.44001,   1.00000
380966171.81269,62011340.29186,184908510.39457,   0.00319,  -0.00105,   0.00306,477420023.79400,   0.00258,277420033.78660,   0.00158,  -0.00058,   0.00066,  -9.99260,   1.00000
380970912.03797,63728961.47782,185308560.75558,   0.00319,  -0.00104,   0.00308,477429705.65368,   0.00259,277429707.78728,   0.00158,  -0.00059,   0.00067,  -2.13359,   1.00000
380978713.20434,65461725.24693,185703989.35981,   0.00319,  -0.00103,   0.00309,477439429.17492,   0.00260,277439439.01500,   0.00159,  -0.00059,   0.00068,  -9.84008,   1.00000
380983422.91739,67201943.06909,186096743.97636,   0.00319,  -0.00103,   0.00310,477449094.40564,   0.00261,277449098.26662,   0.00159,  -0.00059,   0.00068,  -3.86098,   1.00000
380997084.98014,68964684.25402,186482773.87501,   0.00319,  -0.00102,   0.00312,477458938.15764,   0.00262,277458946.14858,   0.00160,  -0.00059,   0.00069,  -7.99094,   1.00000
380996263.13503,70726858.47213,186871191.87670,   0.00320,  -0.00101,   0.00313,477468636.99231,   0.00263,277468639.35305,   0.00160,  -0.00059,   0.00070,  -2.36075,   1.00000
381004201.43569,72511253.01750,187252720.79157,   0.00320,  -0.00101,   0.00314,477478518.47629,   0.00264,277478523.19987,   0.00161,  -0.00059,   0.00071,  -4.72358,   1.00000
381000821.46967,74282476.17597,187631970.79166,   0.00320,  -0.00100,   0.00315,477488321.50436,   0.00265,277488329.27663,   0.00161,  -0.00060,   0.00071,  -7.77227,   1.00000
380991489.21556,76080518.89955,188013979.38644,   0.00320,  -0.00099,   0.00317,477498166.85413,   0.00266,277498168.03403,   0.00161,  -0.00060,   0.00072,  -1.17990,   1.00000
380995778.30261,77900847.54042,188385778.02527,   0.00320,  -0.00099,   0.00318,477508151.95071,   0.00267,277508154.30180,   0.00162,  -0.00060,   0.00073,  -2.35109,   1.00000
380996312.12410,79728434.02391,188754634.85964,   0.00320,  -0.00098,   0.00319,477518073.22081,   0.00268,277518073.97882,   0.00162,  -0.00060,   0.00074,  -0.75801,   1.00000
380993862.21395,81569681.44647,189121385.39133,   0.00320,  -0.00097,   0.00320,477528096.80597,   0.00268,277528105.04437,   0.00163,  -0.00060,   0.00075,  -8.23839,   1.00000
380979871.91237,83397691.69600,189485794.14413,   0.00320,  -0.00097,   0.00322,477538055.47804,   0.00269,277538060.16477,   0.00163,  -0.00060,   0.00075,  -4.68672,   1.00000
380970375.57543,85259641.85248,189847293.02504,   0.00321,  -0.00096,   0.00323,477548133.51508,   0.00270,277548139.28992,   0.00164,  -0.00061,   0.00076,  -5.77484,   1.00000
380968002.11348,87136287.72647,190200463.28452,   0.00321,  -0.00095,   0.00324,477558229.46242,   0.00271,277558239.22984,   0.00164,  -0.00061,   0.00077,  -9.76743,   1.00000
380943504.91647,88998141.52487,190557228.29274,   0.00321,  -0.00095,   0.00326,477568352.10599,   0.00272,277568358.12881,   0.00165,  -0.00061,   0.00078,  -6.02282,   1.00000
380933503.42867,90895029.83794,190904823.43588,   0.00321,  -0.00094,   0.00327,477578509.94000,   0.00273,277578511.32695,   0.00165,  -0.00061,   0.00079,  -1.38694,   1.00000
380919886.86364,92804756.04817,191249869.38355,   0.00321,  -0.00093,   0.00328,477588780.64373,   0.00274,277588781.90384,   0.00166,  -0.00061,   0.00080,  -1.26011,   1.00000
380894435.15721,94701108.87097,191592482.72786,   0.00321,  -0.00092,   0.00329,477598977.90556,   0.00275,277598978.89652,   0.00166,  -0.00061,   0.00080,  -0.99097,   1.00000
380872566.77805,96630470.07248,191931573.16281,   0.00321,  -0.00092,   0.00331,477609307.94458,   0.00276,277609308.46107,   0.00167,  -0.00061,   0.00081,  -0.51649,   1.00000
380850055.83811,98553664.79038,192262930.72109,   0.00321,  -0.00091,   0.00332,477619644.40905,   0.00277,277619649.28152,   0.00167,  -0.00062,   0.00082,  -4.87247,   1.00000
380819521.76664,100502300.80104,192595839.27449,   0.00321,  -0.00090,   0.00333,477630039.27193,   0.00278,277630041.44055,   0.00168,  -0.00062,   0.00083,  -2.16862,   1.00000
380788273.26488,102444639.12426,192920964.75785,   0.00322,  -0.00089,   0.00335,477640441.99928,   0.00279,277640445.65969,   0.00168,  -0.00062,   0.00084,  -3.66041,   1.00000
380752903.86298,104398999.84930,193243148.61013,   0.00322,  -0.00089,   0.00336,477650966.78526,   0.00280,277650972.44584,   0.00169,  -0.00062,   0.00085,  -5.66058,   1.00000
380719610.13986,106380438.50561,193560813.24927,   0.00322,  -0.00088,   0.00337,477661454.84483,   0.00281,277661459.50493,   0.00169,  -0.00062,   0.00085,  -4.66010,   1.00000
380674889.77705,108353266.17195,193876380.22908,   0.00322,  -0.00087,   0.00338,477672049.39383,   0.00282,277672055.41440,   0.00170,  -0.00062,   0.00086,  -6.02058,   1.00000
380625020.02083,110332825.26837,194188354.92953,   0.00322,  -0.00086,   0.00340,477682589.11283,   0.00283,277682597.21105,   0.00170,  -0.00062,   0.00087,  -8.09821,   1.00000
380570639.09856,112323806.88862,194497080.85779,   0.00322,  -0.00086,   0.00341,477693258.64079,   0.00284,277693265.69578,   0.00171,  -0.00062,   0.00088,  -7.05499,   1.00000
380522273.46555,114328278.36832,194796795.95268,   0.00322,  -0.00085,   0.00342,477703961.22728,   0.00285,277703965.56897,   0.00171,  -0.00063,   0.00089,  -4.34169,   1.00000
380457818.85840,116336993.88536,195098445.84188,   0.00322,  -0.00084,   0.00343,477714705.48891,   0.00286,277714710.30783,   0.00172,  -0.00063,   0.00090,  -4.81892,   1.00000
380410575.22757,118365749.79974,195385636.94103,   0.00322,  -0.00083,   0.00345,477725564.38882,   0.00287,277725571.84581,   0.00172,  -0.00063,   0.00091,  -7.45699,   1.00000
380335639.96222,120391764.13593,195679977.20484,   0.00322,  -0.00082,   0.00346,477736389.31431,   0.00288,277736396.48049,   0.00173,  -0.00063,   0.00092,  -7.16618,   1.00000
380261043.98948,122429601.91255,195967870.84832,   0.00322,  -0.00081,   0.00347,477747297.19426,   0.00289,277747304.53503,   0.00173,  -0.00063,   0.00093,  -7.34076,   1.00000
380192038.10702,124480395.71117,196246478.41938,   0.00322,  -0.00081,   0.00349,477758244.59930,   0.00290,277758248.15773,   0.00174,  -0.00063,   0.00093,  -3.55843,   1.00000
380111271.58203,126521329.46152,196522650.80986,   0.00322,  -0.00080,   0.00350,477769294.75695,   0.00291,277769304.61329,   0.00174,  -0.00063,   0.00094,  -9.85633,   1.00000
380025751.45983,128587194.65072,196796255.03560,   0.00322,  -0.00079,   0.00351,477780379.58209,   0.00292,277780383.81376,   0.00175,  -0.00063,   0.00095,  -4.23167,   1.00000
379939123.46467,130645673.90296,197061809.98548,   0.00322,  -0.00078,   0.00352,477791479.29382,   0.00294,277791479.35691,   0.00175,  -0.00063,   0.00096,  -0.06309,   1.00000
379835671.85030,132707487.65241,197328801.38197,   0.00323,  -0.00077,   0.00354,477802621.09107,   0.00295,277802627.23946,   0.00176,  -0.00063,   0.00097,  -6.14839,   1.00000
379738481.59002,134800246.71226,197587556.77340,   0.00323,  -0.00076,   0.00355,477813883.93866,   0.00296,277813885.68091,   0.00176,  -0.00064,   0.00098,  -1.74225,   1.00000
379634705.78643,136883832.76299,197840921.68448,   0.00323,  -0.00075,   0.00356,477825209.47563,   0.00297,277825210.59776,   0.00177,  -0.00064,   0.00099,  -1.12213,   1.00000
379519184.84101,138971831.19298,198092781.64914,   0.00323,  -0.00074,   0.00358,477836536.75894,   0.00298,277836541.91103,   0.00177,  -0.00064,   0.00100,  -5.15209,   1.00000
379408709.65086,141071928.46301,198334976.18639,   0.00323,  -0.00074,   0.00359,477847912.99080,   0.00299,277847914.55580,   0.00178,  -0.00064,   0.00101,  -1.56500,   1.00000
379292394.89320,143180803.60822,198572867.66261,   0.00323,  -0.00073,   0.00360,477859419.45061,   0.00300,277859427.73800,   0.00178,  -0.00064,   0.00102,  -8.28739,   1.00000
379164052.18734,145293753.09495,198809084.05662,   0.00323,  -0.00072,   0.00361,477870945.64208,   0.00301,277870950.02891,   0.00179,  -0.00064,   0.00103,  -4.38684,   1.00000
379029081.30087,147396993.87029,199039818.35371,   0.00323,  -0.00071,   0.00363,477882536.79272,   0.00302,277882539.99571,   0.00179,  -0.00064,   0.00104,  -3.20299,   1.00000
378887982.83911,149523914.04097,199267104.74531,   0.00323,  -0.00070,   0.00364,477894159.13313,   0.00303,277894166.32422,   0.00180,  -0.00064,   0.00105,  -7.19108,   1.00000
378740205.64078,151640872.85394,199488849.99378,   0.00323,  -0.00069,   0.00365,477905854.88776,   0.00304,277905861.13651,   0.00180,  -0.00064,   0.00106,  -6.24875,   1.00000
378597576.88648,153787099.21684,199701549.92593,   0.00323,  -0.00068,   0.00367,477917671.90428,   0.00306,277917677.90943,   0.00181,  -0.00064,   0.00107,  -6.00515,   1.00000
378436621.72604,155917210.83397,199914077.98979,   0.00323,  -0.00067,   0.00368,477929478.58050,   0.00307,277929481.08215,   0.00181,  -0.00064,   0.00108,  -2.50165,   1.00000
378263196.45530,158050845.44778,200124613.15644,   0.00323,  -0.00066,   0.00369,477941293.37278,   0.00308,277941298.49567,   0.00182,  -0.00064,   0.00109,  -5.12289,   1.00000
378100432.20357,160199366.51205,200322258.42520,   0.00323,  -0.00065,   0.00370,477953288.31190,   0.00309,277953296.15485,   0.00182,  -0.00064,   0.00110,  -7.84295,   1.00000
377913928.79954,162329715.92237,200522347.28118,   0.00323,  -0.00064,   0.00372,477965321.78022,   0.00310,277965330.43074,   0.00183,  -0.00064,   0.00111,  -8.65051,   1.00000
377725846.60230,164484683.62127,200715753.69891,   0.00323,  -0.00063,   0.00373,477977354.39268,   0.00311,277977360.57058,   0.00183,  -0.00064,   0.00112,  -6.17790,   1.00000
377542675.05338,166634419.99645,200898065.79313,   0.00323,  -0.00062,   0.00374,477989534.66666,   0.00312,277989543.25485,   0.00184,  -0.00064,   0.00113,  -8.58819,   1.00000
377340542.64601,168800957.92796,201081585.14209,   0.00323,  -0.00061,   0.00376,478001689.44037,   0.00314,278001691.90738,   0.00184,  -0.00065,   0.00114,  -2.46701,   1.00000
377137901.35274,170959841.79804,201256549.78066,   0.00323,  -0.00060,   0.00377,478014042.34802,   0.00315,278014043.65702,   0.00185,  -0.00065,   0.00115,  -1.30900,   1.00000
376927698.26788,173123465.59579,201426582.29464,   0.00323,  -0.00059,   0.00378,478026357.87469,   0.00316,278026365.18274,   0.00185,  -0.00065,   0.00116,  -7.30806,   1.00000
376704439.30327,175289686.74674,201594223.86508,   0.00323,  -0.00058,   0.00379,478038700.31231,   0.00317,278038707.38473,   0.00186,  -0.00065,   0.00117,  -7.07242,   1.00000
376480791.81889,177447678.91504,201753291.76424,   0.00323,  -0.00057,   0.00381,478051247.15837,   0.00318,278051252.49449,   0.00186,  -0.00065,   0.00118,  -5.33612,   1.00000
376242952.42935,179624120.92637,201910571.84588,   0.00323,  -0.00056,   0.00382,478063710.77070,   0.00320,278063720.36957,   0.00187,  -0.00065,   0.00119,  -9.59887,   1.00000
376004740.85013,181791880.20325,202059222.73861,   0.00323,  -0.00055,   0.00383,478076387.75233,   0.00321,278076391.65067,   0.00187,  -0.00065,   0.00121,  -3.89834,   1.00000
375753257.81118,183961739.15998,202205309.74138,   0.00323,  -0.00054,   0.00385,478089083.00789,   0.00322,278089086.36255,   0.00188,  -0.00065,   0.00122,  -3.35466,   1.00000
375493843.10736,186135883.30368,202346210.38534,   0.00323,  -0.00053,   0.00386,478101748.24488,   0.00323,278101755.40906,   0.00188,  -0.00065,   0.00123,  -7.16418,   1.00000
375227423.00030,188314676.69587,202481556.08617,   0.00323,  -0.00052,   0.00387,478114575.43776,   0.00324,278114581.32437,   0.00189,  -0.00065,   0.00124,  -5.88662,   1.00000
374959353.17404,190500190.48984,202608739.21230,   0.00323,  -0.00051,   0.00388,478127508.64110,   0.00326,278127514.65265,   0.00189,  -0.00065,   0.00125,  -6.01154,   1.00000
374672751.49043,192668366.02986,202735534.40007,   0.00323,  -0.00050,   0.00390,478140433.21800,   0.00327,278140439.18976,   0.00190,  -0.00065,   0.00126,  -5.97176,   1.00000
374389912.55176,194845453.83252,202851590.33295,   0.00323,  -0.00049,   0.00391,478153414.89952,   0.00328,278153421.53893,   0.00190,  -0.00065,   0.00127,  -6.63941,   1.00000
374099952.57906,197026352.89131,202961938.40877,   0.00323,  -0.00048,   0.00392,478166554.98662,   0.00329,278166562.79474,   0.00191,  -0.00065,   0.00128,  -7.80812,   1.00000
373796303.62324,199208467.07864,203069402.26950,   0.00323,  -0.00047,   0.00394,478179723.25063,   0.00331,278179732.79229,   0.00191,  -0.00065,   0.00130,  -9.54166,   1.00000
373478907.70969,201391680.20246,203173914.52887,   0.00323,  -0.00046,   0.00395,478192928.89995,   0.00332,278192932.59266,   0.00192,  -0.00065,   0.00131,  -3.69271,   1.00000
373154959.08471,203561954.19321,203272585.34961,   0.00322,  -0.00045,   0.00396,478206202.23962,   0.00333,278206205.30224,   0.00192,  -0.00065,   0.00132,  -3.06262,   1.00000
372823840.80550,205735221.59772,203365363.56619,   0.00322,  -0.00044,   0.00397,478219630.99503,   0.00334,278219639.34154,   0.00193,  -0.00064,   0.00133,  -8.34651,   1.00000
372496300.73496,207916488.13751,203447200.29855,   0.00322,  -0.00042,   0.00399,478233130.73813,   0.00336,278233134.42861,   0.00193,  -0.00064,   0.00134,  -3.69047,   1.00000
372142792.82170,210093769.13279,203531340.83132,   0.00322,  -0.00041,   0.00400,478246576.75703,   0.00337,278246581.80666,   0.00194,  -0.00064,   0.00135,  -5.04963,   1.00000
