# sigma_xx, sigma_yy, sigma_xy, epsilon_xx, epsilon_yy, epsilon_xy, vonMises, epsPlastic, hardening, epsilonP__xx, epsilonP__yy, epsilonP__xy, yieldValue, iteration
   0.00000,   0.00000,   0.00000,   0.00000,   0.00000,   0.00000,   0.00000,   0.00000,274640135.82653,   0.00000,   0.00000,   0.00000,-474640135.82653,   0.00000
   0.00000,   0.00000,   0.00000,   0.00000,   0.00000,   0.00000,   0.00000,   0.00000,274640135.82653,   0.00000,   0.00000,   0.00000,-474640135.82653,   0.00000
-1517817.10304,-1560273.52550,-281273.79881,  -0.00000,  -0.00000,  -0.00000,1614731.32128,   0.00000,274640135.82653,   0.00000,   0.00000,   0.00000,-473025404.50525,   0.00000
-3054208.89091,-3128507.63022,-557240.54482,  -0.00001,  -0.00001,  -0.00001,3239164.58312,   0.00000,274640135.82653,   0.00000,   0.00000,   0.00000,-471400971.24341,   0.00000
-4582640.09956,-4678167.05010,-827900.23802,  -0.00001,  -0.00001,  -0.00001,4848065.35918,   0.00000,274640135.82653,   0.00000,   0.00000,   0.00000,-469792070.46735,   0.00000
-6084536.04418,-6201291.20595,-1098559.93122,  -0.00002,  -0.00002,  -0.00001,6431649.35287,   0.00000,274640135.82653,   0.00000,   0.00000,   0.00000,-468208486.47366,   0.00000
-7605006.67362,-7732375.94101,-1363912.57161,  -0.00002,  -0.00002,  -0.00002,8025071.09461,   0.00000,274640135.82653,   0.00000,   0.00000,   0.00000,-466615064.73192,   0.00000
-9106902.61823,-9255500.09685,-1623958.15920,  -0.00002,  -0.00002,  -0.00002,9603267.13073,   0.00000,274640135.82653,   0.00000,   0.00000,   0.00000,-465036868.69580,   0.00000
-10619412.66847,-10768010.14708,-1884003.74678,  -0.00003,  -0.00003,  -0.00002,11181253.72820,   0.00000,274640135.82653,   0.00000,   0.00000,   0.00000,-463458882.09833,   0.00000
-12123962.13949,-12261945.51249,-2138742.28156,  -0.00003,  -0.00003,  -0.00003,12743824.31619,   0.00000,274640135.82653,   0.00000,   0.00000,   0.00000,-461896311.51034,   0.00000
-13609936.92568,-13747920.29868,-2388173.76352,  -0.00004,  -0.00004,  -0.00003,14291168.22761,   0.00000,274640135.82653,   0.00000,   0.00000,   0.00000,-460348967.59892,   0.00000
-15106525.81749,-15223280.97926,-2637605.24549,  -0.00004,  -0.00004,  -0.00003,15838415.42582,   0.00000,274640135.82653,   0.00000,   0.00000,   0.00000,-458801720.40071,   0.00000
-16584540.02447,-16690681.08062,-2881729.67465,  -0.00004,  -0.00004,  -0.00004,17370424.06202,   0.00000,274640135.82653,   0.00000,   0.00000,   0.00000,-457269711.76451,   0.00000
-18073168.33706,-18147467.07637,-3125854.10381,  -0.00005,  -0.00005,  -0.00004,18902397.71299,   0.00000,274640135.82653,   0.00000,   0.00000,   0.00000,-455737738.11354,   0.00000
-19561796.64966,-19604253.07212,-3364671.48016,  -0.00005,  -0.00005,  -0.00004,20431819.72124,   0.00000,274640135.82653,   0.00000,   0.00000,   0.00000,-454208316.10529,   0.00000
-21023889.69821,-21034503.80383,-3598181.80371,  -0.00005,  -0.00005,  -0.00005,21933260.98338,   0.00000,274640135.82653,   0.00000,   0.00000,   0.00000,-452706874.84315,   0.00000
-22496596.85239,-22454140.42992,-3831692.12725,  -0.00006,  -0.00006,  -0.00005,23434784.85373,   0.00000,274640135.82653,   0.00000,   0.00000,   0.00000,-451205350.97279,   0.00000
-23950729.32173,-23865816.47681,-4059895.39799,  -0.00006,  -0.00006,  -0.00005,24921058.81774,   0.00000,274640135.82653,   0.00000,   0.00000,   0.00000,-449719077.00879,   0.00000
-25423436.47590,-25285453.10290,-4282791.61592,  -0.00007,  -0.00007,  -0.00006,26417590.01524,   0.00000,274640135.82653,   0.00000,   0.00000,   0.00000,-448222545.81129,   0.00000
-26869608.36604,-26678554.46496,-4505687.83385,  -0.00007,  -0.00007,  -0.00006,27888751.86176,   0.00000,274640135.82653,   0.00000,   0.00000,   0.00000,-446751383.96477,   0.00000
-28326394.36179,-28061041.72140,-4728584.05178,  -0.00007,  -0.00007,  -0.00006,29360127.16987,   0.00000,274640135.82653,   0.00000,   0.00000,   0.00000,-445280008.65666,   0.00000
-29764605.67271,-29435568.39862,-4940866.16409,  -0.00008,  -0.00008,  -0.00006,30813679.21912,   0.00000,274640135.82653,   0.00000,   0.00000,   0.00000,-443826456.60740,   0.00000
-31194856.40442,-30791520.39102,-5158455.32921,  -0.00008,  -0.00008,  -0.00007,32257227.42521,   0.00000,274640135.82653,   0.00000,   0.00000,   0.00000,-442382908.40132,   0.00000
-32625107.13613,-32147472.38342,-5365430.38872,  -0.00009,  -0.00008,  -0.00007,33695791.95375,   0.00000,274640135.82653,   0.00000,   0.00000,   0.00000,-440944343.87278,   0.00000
-34065971.97345,-33492810.27021,-5577712.50103,  -0.00009,  -0.00009,  -0.00007,35137249.18868,   0.00000,274640135.82653,   0.00000,   0.00000,   0.00000,-439502886.63785,   0.00000
-35480301.54674,-34811612.89295,-5779380.50773,  -0.00009,  -0.00009,  -0.00008,36548288.39283,   0.00000,274640135.82653,   0.00000,   0.00000,   0.00000,-438091847.43370,   0.00000
-36902591.69924,-36148990.20053,-5981048.51442,  -0.00010,  -0.00009,  -0.00008,37972070.85378,   0.00000,274640135.82653,   0.00000,   0.00000,   0.00000,-436668064.97275,   0.00000
-38308960.69331,-37449218.13845,-6182716.52112,  -0.00010,  -0.00010,  -0.00008,39370772.58149,   0.00000,274640135.82653,   0.00000,   0.00000,   0.00000,-435269363.24504,   0.00000
-39715329.68739,-38749446.07636,-6379077.47501,  -0.00011,  -0.00010,  -0.00008,40767117.20950,   0.00000,274640135.82653,   0.00000,   0.00000,   0.00000,-433873018.61703,   0.00000
-41113738.10225,-40031099.32945,-6570131.37609,  -0.00011,  -0.00010,  -0.00009,42148548.24767,   0.00000,274640135.82653,   0.00000,   0.00000,   0.00000,-432491587.57886,   0.00000
-42512146.51711,-41312752.58254,-6761185.27717,  -0.00011,  -0.00011,  -0.00009,43530141.46177,   0.00000,274640135.82653,   0.00000,   0.00000,   0.00000,-431109994.36476,   0.00000
-43884019.66794,-42567870.57160,-6952239.17826,  -0.00012,  -0.00011,  -0.00009,44886327.61326,   0.00000,274640135.82653,   0.00000,   0.00000,   0.00000,-429753808.21327,   0.00000
-45274467.50359,-43830949.13986,-7137986.02653,  -0.00012,  -0.00011,  -0.00009,46253207.03795,   0.00000,274640135.82653,   0.00000,   0.00000,   0.00000,-428386928.78858,   0.00000
-46656954.76003,-45075453.02330,-7323732.87480,  -0.00012,  -0.00011,  -0.00010,47607727.41797,   0.00000,274640135.82653,   0.00000,   0.00000,   0.00000,-427032408.40856,   0.00000
-48020867.33164,-46311996.32752,-7504172.67027,  -0.00013,  -0.00012,  -0.00010,48946913.01820,   0.00000,274640135.82653,   0.00000,   0.00000,   0.00000,-425693222.80833,   0.00000
-49376819.32404,-47529964.94692,-7679305.41293,  -0.00013,  -0.00012,  -0.00010,50271309.48789,   0.00000,274640135.82653,   0.00000,   0.00000,   0.00000,-424368826.33864,   0.00000
-50743385.42206,-48737319.46070,-7854438.15559,  -0.00014,  -0.00012,  -0.00010,51596487.11582,   0.00000,274640135.82653,   0.00000,   0.00000,   0.00000,-423043648.71071,   0.00000
-52091376.83525,-49936713.39527,-8029570.89825,  -0.00014,  -0.00013,  -0.00010,52908758.78676,   0.00000,274640135.82653,   0.00000,   0.00000,   0.00000,-421731377.03977,   0.00000
-53431407.66922,-51117532.64501,-8199396.58810,  -0.00014,  -0.00013,  -0.00011,54206328.56646,   0.00000,274640135.82653,   0.00000,   0.00000,   0.00000,-420433807.26007,   0.00000
-54771438.50320,-52298351.89475,-8369222.27795,  -0.00015,  -0.00013,  -0.00011,55504087.83691,   0.00000,274640135.82653,   0.00000,   0.00000,   0.00000,-419136047.98962,   0.00000
-56103508.75796,-53460596.45967,-8533740.91499,  -0.00015,  -0.00013,  -0.00011,56787201.27907,   0.00000,274640135.82653,   0.00000,   0.00000,   0.00000,-417852934.54746,   0.00000
-57435579.01273,-54622841.02458,-8698259.55203,  -0.00015,  -0.00014,  -0.00011,58070518.80482,   0.00000,274640135.82653,   0.00000,   0.00000,   0.00000,-416569617.02171,   0.00000
-58741114.00345,-55758550.32546,-8857471.13627,  -0.00016,  -0.00014,  -0.00012,59326043.45663,   0.00000,274640135.82653,   0.00000,   0.00000,   0.00000,-415314092.36990,   0.00000
-60065223.67901,-56902220.20554,-9016682.72050,  -0.00016,  -0.00014,  -0.00012,60594974.02671,   0.00000,274640135.82653,   0.00000,   0.00000,   0.00000,-414045161.79982,   0.00000
-61362798.09052,-58019354.82159,-9170587.25193,  -0.00017,  -0.00014,  -0.00012,61836134.90337,   0.00000,274640135.82653,   0.00000,   0.00000,   0.00000,-412804000.92316,   0.00000
-62652411.92282,-59117914.75281,-9324491.78336,  -0.00017,  -0.00015,  -0.00012,63065133.46065,   0.00000,274640135.82653,   0.00000,   0.00000,   0.00000,-411575002.36588,   0.00000
-63960600.43995,-60224435.26324,-9478396.31478,  -0.00017,  -0.00015,  -0.00012,64307619.77342,   0.00000,274640135.82653,   0.00000,   0.00000,   0.00000,-410332516.05311,   0.00000
-65242253.69305,-61304420.50964,-9626993.79340,  -0.00018,  -0.00015,  -0.00013,65522378.72719,   0.00000,274640135.82653,   0.00000,   0.00000,   0.00000,-409117757.09934,   0.00000
-66505332.26131,-62376445.17682,-9775591.27202,  -0.00018,  -0.00015,  -0.00013,66724062.18504,   0.00000,274640135.82653,   0.00000,   0.00000,   0.00000,-407916073.64149,   0.00000
-67779024.93519,-63437855.73838,-9918881.69783,  -0.00018,  -0.00016,  -0.00013,67924622.91635,   0.00000,274640135.82653,   0.00000,   0.00000,   0.00000,-406715512.91018,   0.00000
-69052717.60907,-64499266.29995,-10062172.12364,  -0.00019,  -0.00016,  -0.00013,69125432.83166,   0.00000,274640135.82653,   0.00000,   0.00000,   0.00000,-405514702.99487,   0.00000
-70299875.01891,-65534141.59748,-10205462.54946,  -0.00019,  -0.00016,  -0.00013,70300843.35456,   0.00000,274640135.82653,   0.00000,   0.00000,   0.00000,-404339292.47196,   0.00000
-71557646.53436,-66558402.78939,-10343445.92246,  -0.00020,  -0.00016,  -0.00013,71475280.47772,   0.00000,274640135.82653,   0.00000,   0.00000,   0.00000,-403164855.34881,   0.00000
-72796843.36499,-67574703.40209,-10481429.29546,  -0.00020,  -0.00017,  -0.00014,72636608.71088,   0.00000,274640135.82653,   0.00000,   0.00000,   0.00000,-402003527.11565,   0.00000
-74028079.61641,-68572429.32996,-10619412.66847,  -0.00020,  -0.00017,  -0.00014,73785941.44040,   0.00000,274640135.82653,   0.00000,   0.00000,   0.00000,-400854194.38613,   0.00000
-75259315.86782,-69570155.25783,-10752088.98866,  -0.00021,  -0.00017,  -0.00014,74933244.22997,   0.00000,274640135.82653,   0.00000,   0.00000,   0.00000,-399706891.59655,   0.00000
-76482591.54003,-70549306.50087,-10884765.30886,  -0.00021,  -0.00017,  -0.00014,76068600.69293,   0.00000,274640135.82653,   0.00000,   0.00000,   0.00000,-398571535.13360,   0.00000
-77687292.52740,-71520497.16471,-11012134.57625,  -0.00021,  -0.00017,  -0.00014,77188499.62113,   0.00000,274640135.82653,   0.00000,   0.00000,   0.00000,-397451636.20540,   0.00000
-78902607.62040,-72481073.72292,-11139503.84363,  -0.00022,  -0.00018,  -0.00014,78309944.80338,   0.00000,274640135.82653,   0.00000,   0.00000,   0.00000,-396330191.02315,   0.00000
-80091387.44935,-73415115.01710,-11266873.11102,  -0.00022,  -0.00018,  -0.00015,79406034.55760,   0.00000,274640135.82653,   0.00000,   0.00000,   0.00000,-395234101.26893,   0.00000
-81280167.27830,-74349156.31128,-11388935.32560,  -0.00022,  -0.00018,  -0.00015,80500151.04681,   0.00000,274640135.82653,   0.00000,   0.00000,   0.00000,-394139984.77972,   0.00000
-82468947.10726,-75283197.60546,-11510997.54018,  -0.00023,  -0.00018,  -0.00015,81594547.79826,   0.00000,274640135.82653,   0.00000,   0.00000,   0.00000,-393045588.02827,   0.00000
-83649766.35700,-76198664.21481,-11633059.75476,  -0.00023,  -0.00018,  -0.00015,82677104.56463,   0.00000,274640135.82653,   0.00000,   0.00000,   0.00000,-391963031.26190,   0.00000
-84804050.34270,-77087595.56012,-11749814.91653,  -0.00024,  -0.00019,  -0.00015,83732063.51696,   0.00000,274640135.82653,   0.00000,   0.00000,   0.00000,-390908072.30957,   0.00000
-85968948.43402,-77965912.79982,-11866570.07831,  -0.00024,  -0.00019,  -0.00015,84788811.60113,   0.00000,274640135.82653,   0.00000,   0.00000,   0.00000,-389851324.22540,   0.00000
-87123232.41972,-78854844.14513,-11983325.24008,  -0.00024,  -0.00019,  -0.00016,85844367.37471,   0.00000,274640135.82653,   0.00000,   0.00000,   0.00000,-388795768.45181,   0.00000
-88261595.24700,-79706626.12078,-12100080.40185,  -0.00025,  -0.00019,  -0.00016,86876103.19945,   0.00000,274640135.82653,   0.00000,   0.00000,   0.00000,-387764032.62708,   0.00000
-89399958.07428,-80558408.09644,-12211528.51081,  -0.00025,  -0.00019,  -0.00016,87905947.45565,   0.00000,274640135.82653,   0.00000,   0.00000,   0.00000,-386734188.37088,   0.00000
-90538320.90156,-81410190.07210,-12322976.61978,  -0.00025,  -0.00019,  -0.00016,88936111.58669,   0.00000,274640135.82653,   0.00000,   0.00000,   0.00000,-385704024.23984,   0.00000
-91660762.57042,-82224822.67810,-12429117.67594,  -0.00026,  -0.00020,  -0.00016,89940401.42867,   0.00000,274640135.82653,   0.00000,   0.00000,   0.00000,-384699734.39786,   0.00000
-92772590.13366,-83050069.38972,-12535258.73209,  -0.00026,  -0.00020,  -0.00016,90943364.75039,   0.00000,274640135.82653,   0.00000,   0.00000,   0.00000,-383696771.07614,   0.00000
-93876457.11769,-83856741.41651,-12641399.78825,  -0.00026,  -0.00020,  -0.00016,91934669.51138,   0.00000,274640135.82653,   0.00000,   0.00000,   0.00000,-382705466.31515,   0.00000
-94972363.52250,-84644838.75847,-12747540.84441,  -0.00027,  -0.00020,  -0.00017,92914356.03481,   0.00000,274640135.82653,   0.00000,   0.00000,   0.00000,-381725779.79172,   0.00000
-96060309.34811,-85414361.41560,-12848374.84775,  -0.00027,  -0.00020,  -0.00017,93880287.58169,   0.00000,274640135.82653,   0.00000,   0.00000,   0.00000,-380759848.24484,   0.00000
-97156215.75292,-86202458.75757,-12954515.90391,  -0.00027,  -0.00020,  -0.00017,94860676.36650,   0.00000,274640135.82653,   0.00000,   0.00000,   0.00000,-379779459.46003,   0.00000
-98236200.99932,-86953406.72987,-13050042.85445,  -0.00028,  -0.00020,  -0.00017,95813280.09794,   0.00000,274640135.82653,   0.00000,   0.00000,   0.00000,-378826855.72859,   0.00000
-99297611.56088,-87696394.12297,-13150876.85780,  -0.00028,  -0.00021,  -0.00017,96754676.43138,   0.00000,274640135.82653,   0.00000,   0.00000,   0.00000,-377885459.39515,   0.00000
-100351061.54324,-88420806.83124,-13246403.80834,  -0.00028,  -0.00021,  -0.00017,97682416.26351,   0.00000,274640135.82653,   0.00000,   0.00000,   0.00000,-376957719.56302,   0.00000
-101404511.52559,-89145219.53951,-13347237.81169,  -0.00029,  -0.00021,  -0.00017,98612696.71726,   0.00000,274640135.82653,   0.00000,   0.00000,   0.00000,-376027439.10927,   0.00000
-102457961.50795,-89869632.24778,-13437457.70942,  -0.00029,  -0.00021,  -0.00017,99539043.41622,   0.00000,274640135.82653,   0.00000,   0.00000,   0.00000,-375101092.41031,   0.00000
-103476915.64705,-90548935.00718,-13532984.65996,  -0.00029,  -0.00021,  -0.00018,100430484.48809,   0.00000,274640135.82653,   0.00000,   0.00000,   0.00000,-374209651.33844,   0.00000
-104522405.05019,-91254773.03062,-13623204.55770,  -0.00030,  -0.00021,  -0.00018,101345811.53723,   0.00000,274640135.82653,   0.00000,   0.00000,   0.00000,-373294324.28930,   0.00000
-105533398.61008,-91915501.10519,-13718731.50824,  -0.00030,  -0.00021,  -0.00018,102226283.95681,   0.00000,274640135.82653,   0.00000,   0.00000,   0.00000,-372413851.86972,   0.00000
-106544392.16997,-92576229.17977,-13808951.40597,  -0.00030,  -0.00021,  -0.00018,103105038.97223,   0.00000,274640135.82653,   0.00000,   0.00000,   0.00000,-371535096.85430,   0.00000
-107555385.72987,-93236957.25434,-13893864.25090,  -0.00031,  -0.00021,  -0.00018,103982078.68304,   0.00000,274640135.82653,   0.00000,   0.00000,   0.00000,-370658057.14349,   0.00000
-108558418.71055,-93879110.64409,-13984084.14863,  -0.00031,  -0.00022,  -0.00018,104849958.10782,   0.00000,274640135.82653,   0.00000,   0.00000,   0.00000,-369790177.71871,   0.00000
-109534916.42719,-94494728.76980,-14068996.99355,  -0.00031,  -0.00022,  -0.00018,105690536.43819,   0.00000,274640135.82653,   0.00000,   0.00000,   0.00000,-368949599.38834,   0.00000
-110511414.14383,-95110346.89551,-14153909.83848,  -0.00032,  -0.00022,  -0.00018,106531550.71934,   0.00000,274640135.82653,   0.00000,   0.00000,   0.00000,-368108585.10719,   0.00000
-111479951.28126,-95707390.33639,-14238822.68341,  -0.00032,  -0.00022,  -0.00019,107361357.59641,   0.00000,274640135.82653,   0.00000,   0.00000,   0.00000,-367278778.23012,   0.00000
-112448488.41868,-96304433.77727,-14323735.52833,  -0.00032,  -0.00022,  -0.00019,108191620.30857,   0.00000,274640135.82653,   0.00000,   0.00000,   0.00000,-366448515.51796,   0.00000
-113409064.97690,-96882902.53332,-14403341.32045,  -0.00033,  -0.00022,  -0.00019,109008633.40692,   0.00000,274640135.82653,   0.00000,   0.00000,   0.00000,-365631502.41961,   0.00000
-114351066.85029,-97453410.71016,-14482947.11257,  -0.00033,  -0.00022,  -0.00019,109812110.15700,   0.00000,274640135.82653,   0.00000,   0.00000,   0.00000,-364828025.66953,   0.00000
-115285108.14447,-98005344.20218,-14562552.90468,  -0.00033,  -0.00022,  -0.00019,110604479.06071,   0.00000,274640135.82653,   0.00000,   0.00000,   0.00000,-364035656.76582,   0.00000
-116237724.12347,-98565238.27340,-14642158.69680,  -0.00034,  -0.00022,  -0.00019,111411373.58733,   0.00000,274640135.82653,   0.00000,   0.00000,   0.00000,-363228762.23920,   0.00000
-117145230.15361,-99090636.50138,-14721764.48892,  -0.00034,  -0.00022,  -0.00019,112179119.35815,   0.00000,274640135.82653,   0.00000,   0.00000,   0.00000,-362461016.46838,   0.00000
-118063350.28937,-99605420.62374,-14796063.22823,  -0.00034,  -0.00022,  -0.00019,112947843.24865,   0.00000,274640135.82653,   0.00000,   0.00000,   0.00000,-361692292.57788,   0.00000
-118962895.74029,-100112244.16689,-14875669.02034,  -0.00035,  -0.00022,  -0.00019,113705083.95099,   0.00000,274640135.82653,   0.00000,   0.00000,   0.00000,-360935051.87554,   0.00000
-119881015.87605,-100627028.28925,-14949967.75965,  -0.00035,  -0.00022,  -0.00019,114474848.86183,   0.00000,274640135.82653,   0.00000,   0.00000,   0.00000,-360165286.96470,   0.00000
-120764640.16855,-101096702.46274,-15024266.49896,  -0.00035,  -0.00022,  -0.00020,115208161.25707,   0.00000,274640135.82653,   0.00000,   0.00000,   0.00000,-359431974.56946,   0.00000
-121656225.04027,-101584951.32106,-15098565.23827,  -0.00036,  -0.00022,  -0.00020,115953429.20368,   0.00000,274640135.82653,   0.00000,   0.00000,   0.00000,-358686706.62284,   0.00000
-122513314.06873,-102028090.23051,-15167556.92478,  -0.00036,  -0.00023,  -0.00020,116660225.47186,   0.00000,274640135.82653,   0.00000,   0.00000,   0.00000,-357979910.35467,   0.00000
-123396938.36124,-102497764.40400,-15241855.66408,  -0.00036,  -0.00023,  -0.00020,117395179.97207,   0.00000,274640135.82653,   0.00000,   0.00000,   0.00000,-357244955.85446,   0.00000
-124246066.81049,-102922328.62863,-15310847.35059,  -0.00036,  -0.00023,  -0.00020,118091754.44929,   0.00000,274640135.82653,   0.00000,   0.00000,   0.00000,-356548381.37724,   0.00000
-125103155.83895,-103365467.53808,-15385146.08990,  -0.00037,  -0.00023,  -0.00020,118802278.79578,   0.00000,274640135.82653,   0.00000,   0.00000,   0.00000,-355837857.03075,   0.00000
-125944323.70899,-103771457.07788,-15454137.77640,  -0.00037,  -0.00023,  -0.00020,119488715.44982,   0.00000,274640135.82653,   0.00000,   0.00000,   0.00000,-355151420.37671,   0.00000
-126766916.89421,-104169486.03847,-15523129.46290,  -0.00037,  -0.00023,  -0.00020,120161520.90331,   0.00000,274640135.82653,   0.00000,   0.00000,   0.00000,-354478614.92322,   0.00000
-127608084.76425,-104575475.57827,-15586814.09659,  -0.00038,  -0.00023,  -0.00020,120847108.19384,   0.00000,274640135.82653,   0.00000,   0.00000,   0.00000,-353793027.63269,   0.00000
-128422717.37025,-104954929.85403,-15655805.78310,  -0.00038,  -0.00023,  -0.00020,121509864.24286,   0.00000,274640135.82653,   0.00000,   0.00000,   0.00000,-353130271.58367,   0.00000
-129229389.39704,-105315809.44496,-15724797.46960,  -0.00038,  -0.00023,  -0.00020,122162043.29059,   0.00000,274640135.82653,   0.00000,   0.00000,   0.00000,-352478092.53594,   0.00000
-130036061.42383,-105676689.03589,-15788482.10329,  -0.00039,  -0.00023,  -0.00021,122812816.72143,   0.00000,274640135.82653,   0.00000,   0.00000,   0.00000,-351827319.10510,   0.00000
-130824158.76579,-106029608.04761,-15852166.73699,  -0.00039,  -0.00023,  -0.00021,123449899.12180,   0.00000,274640135.82653,   0.00000,   0.00000,   0.00000,-351190236.70473,   0.00000
-131622870.21337,-106371912.95372,-15921158.42349,  -0.00039,  -0.00023,  -0.00021,124092857.13618,   0.00000,274640135.82653,   0.00000,   0.00000,   0.00000,-350547278.69035,   0.00000
-132395046.39691,-106687682.59579,-15984843.05718,  -0.00039,  -0.00023,  -0.00021,124709000.73186,   0.00000,274640135.82653,   0.00000,   0.00000,   0.00000,-349931135.09467,   0.00000
-133167222.58045,-107003452.23785,-16048527.69087,  -0.00040,  -0.00023,  -0.00021,125325819.93631,   0.00000,274640135.82653,   0.00000,   0.00000,   0.00000,-349314315.89022,   0.00000
-133931438.18478,-107300647.19509,-16106905.27176,  -0.00040,  -0.00023,  -0.00021,125930243.46055,   0.00000,274640135.82653,   0.00000,   0.00000,   0.00000,-348709892.36598,   0.00000
-134695653.78910,-107597842.15233,-16170589.90545,  -0.00040,  -0.00023,  -0.00021,126537413.53520,   0.00000,274640135.82653,   0.00000,   0.00000,   0.00000,-348102722.29133,   0.00000
-135433334.12939,-107868501.84553,-16234274.53915,  -0.00041,  -0.00023,  -0.00021,127119887.66813,   0.00000,274640135.82653,   0.00000,   0.00000,   0.00000,-347520248.15840,   0.00000
-136171014.46968,-108139161.53873,-16292652.12003,  -0.00041,  -0.00023,  -0.00021,127701040.12374,   0.00000,274640135.82653,   0.00000,   0.00000,   0.00000,-346939095.70279,   0.00000
-136900734.23076,-108391246.54710,-16356336.75373,  -0.00041,  -0.00023,  -0.00021,128274008.98262,   0.00000,274640135.82653,   0.00000,   0.00000,   0.00000,-346366126.84391,   0.00000
-137630453.99183,-108643331.55547,-16414714.33461,  -0.00041,  -0.00023,  -0.00021,128845693.96129,   0.00000,274640135.82653,   0.00000,   0.00000,   0.00000,-345794441.86524,   0.00000
-138352213.17370,-108876841.87902,-16473091.91550,  -0.00042,  -0.00023,  -0.00021,129407255.67778,   0.00000,274640135.82653,   0.00000,   0.00000,   0.00000,-345232880.14875,   0.00000
-139055397.67073,-109102391.62335,-16531469.49639,  -0.00042,  -0.00023,  -0.00021,129955097.92393,   0.00000,274640135.82653,   0.00000,   0.00000,   0.00000,-344685037.90260,   0.00000
-139750621.58856,-109309366.68285,-16589847.07727,  -0.00042,  -0.00022,  -0.00022,130492877.26829,   0.00000,274640135.82653,   0.00000,   0.00000,   0.00000,-344147258.55824,   0.00000
-140445845.50639,-109516341.74236,-16648224.65816,  -0.00043,  -0.00022,  -0.00022,131031444.96138,   0.00000,274640135.82653,   0.00000,   0.00000,   0.00000,-343608690.86515,   0.00000
-141133108.84500,-109704742.11704,-16706602.23905,  -0.00043,  -0.00022,  -0.00022,131560044.16359,   0.00000,274640135.82653,   0.00000,   0.00000,   0.00000,-343080091.66294,   0.00000
-141820372.18361,-109893142.49171,-16764979.81993,  -0.00043,  -0.00022,  -0.00022,132089469.71462,   0.00000,274640135.82653,   0.00000,   0.00000,   0.00000,-342550666.11191,   0.00000
-142481100.25819,-110055007.60235,-16823357.40082,  -0.00043,  -0.00022,  -0.00022,132594442.26565,   0.00000,274640135.82653,   0.00000,   0.00000,   0.00000,-342045693.56088,   0.00000
-143133867.75355,-110198298.02816,-16881734.98170,  -0.00044,  -0.00022,  -0.00022,133089591.24493,   0.00000,274640135.82653,   0.00000,   0.00000,   0.00000,-341550544.58160,   0.00000
-143786635.24891,-110341588.45398,-16934805.50978,  -0.00044,  -0.00022,  -0.00022,133583606.02969,   0.00000,274640135.82653,   0.00000,   0.00000,   0.00000,-341056529.79684,   0.00000
-144439402.74428,-110484878.87979,-16993183.09067,  -0.00044,  -0.00022,  -0.00022,134080514.70364,   0.00000,274640135.82653,   0.00000,   0.00000,   0.00000,-340559621.12289,   0.00000
-145084209.66043,-110609594.62077,-17046253.61875,  -0.00044,  -0.00022,  -0.00022,134565705.08808,   0.00000,274640135.82653,   0.00000,   0.00000,   0.00000,-340074430.73845,   0.00000
-145710441.89175,-110726349.78254,-17104631.19963,  -0.00045,  -0.00022,  -0.00022,135039169.43616,   0.00000,274640135.82653,   0.00000,   0.00000,   0.00000,-339600966.39037,   0.00000
-146347288.22869,-110832490.83870,-17157701.72771,  -0.00045,  -0.00022,  -0.00022,135515665.15078,   0.00000,274640135.82653,   0.00000,   0.00000,   0.00000,-339124470.67575,   0.00000
-146965559.88080,-110930671.31564,-17210772.25579,  -0.00045,  -0.00022,  -0.00022,135978430.11552,   0.00000,274640135.82653,   0.00000,   0.00000,   0.00000,-338661705.71101,   0.00000
-147575870.95370,-111010277.10776,-17269149.83668,  -0.00046,  -0.00022,  -0.00022,136433689.35326,   0.00000,274640135.82653,   0.00000,   0.00000,   0.00000,-338206446.47327,   0.00000
-148178221.44739,-111071308.21505,-17322220.36475,  -0.00046,  -0.00022,  -0.00023,136877499.50181,   0.00000,274640135.82653,   0.00000,   0.00000,   0.00000,-337762636.32471,   0.00000
-148761997.25625,-111124378.74313,-17375290.89283,  -0.00046,  -0.00022,  -0.00023,137307600.13145,   0.00000,274640135.82653,   0.00000,   0.00000,   0.00000,-337332535.69507,   0.00000
-149345773.06511,-111177449.27121,-17428361.42091,  -0.00046,  -0.00021,  -0.00023,137738688.81148,   0.00000,274640135.82653,   0.00000,   0.00000,   0.00000,-336901447.01505,   0.00000
-149940162.97959,-111219905.69367,-17481431.94899,  -0.00047,  -0.00021,  -0.00023,138175216.66179,   0.00000,274640135.82653,   0.00000,   0.00000,   0.00000,-336464919.16474,   0.00000
-150515978.20924,-111254401.53692,-17534502.47707,  -0.00047,  -0.00021,  -0.00023,138598026.00169,   0.00000,274640135.82653,   0.00000,   0.00000,   0.00000,-336042109.82484,   0.00000
-151065258.17485,-111262362.11613,-17587573.00515,  -0.00047,  -0.00021,  -0.00023,138996820.70289,   0.00000,274640135.82653,   0.00000,   0.00000,   0.00000,-335643315.12363,   0.00000
-151633112.82529,-111278283.27456,-17640643.53322,  -0.00047,  -0.00021,  -0.00023,139411483.25602,   0.00000,274640135.82653,   0.00000,   0.00000,   0.00000,-335228652.57051,   0.00000
-152193006.89652,-111275629.74815,-17693714.06130,  -0.00048,  -0.00021,  -0.00023,139817048.28176,   0.00000,274640135.82653,   0.00000,   0.00000,   0.00000,-334823087.54476,   0.00000
-152734326.28291,-111265015.64254,-17741477.53657,  -0.00048,  -0.00021,  -0.00023,140206886.43412,   0.00000,274640135.82653,   0.00000,   0.00000,   0.00000,-334433249.39241,   0.00000
-153267685.09010,-111235826.85210,-17794548.06465,  -0.00048,  -0.00021,  -0.00023,140589731.52446,   0.00000,274640135.82653,   0.00000,   0.00000,   0.00000,-334050404.30207,   0.00000
-153801043.89729,-111206638.06165,-17847618.59273,  -0.00048,  -0.00021,  -0.00023,140973731.23733,   0.00000,274640135.82653,   0.00000,   0.00000,   0.00000,-333666404.58920,   0.00000
-154326442.12526,-111158874.58638,-17900689.12081,  -0.00049,  -0.00020,  -0.00023,141348846.92062,   0.00000,274640135.82653,   0.00000,   0.00000,   0.00000,-333291288.90591,   0.00000
-154833265.66841,-111103150.53190,-17948452.59608,  -0.00049,  -0.00020,  -0.00023,141708247.62355,   0.00000,274640135.82653,   0.00000,   0.00000,   0.00000,-332931888.20298,   0.00000
-155350703.31717,-111036812.37180,-18001523.12416,  -0.00049,  -0.00020,  -0.00023,142075797.83743,   0.00000,274640135.82653,   0.00000,   0.00000,   0.00000,-332564337.98910,   0.00000
-155849566.28111,-110962513.63249,-18054593.65223,  -0.00049,  -0.00020,  -0.00023,142429674.48677,   0.00000,274640135.82653,   0.00000,   0.00000,   0.00000,-332210461.33976,   0.00000
-156348429.24505,-110888214.89318,-18102357.12750,  -0.00050,  -0.00020,  -0.00024,142782755.64636,   0.00000,274640135.82653,   0.00000,   0.00000,   0.00000,-331857380.18017,   0.00000
-156839331.62977,-110795341.46905,-18155427.65558,  -0.00050,  -0.00020,  -0.00024,143129224.80643,   0.00000,274640135.82653,   0.00000,   0.00000,   0.00000,-331510911.02010,   0.00000
-157322273.43528,-110683893.36008,-18208498.18366,  -0.00050,  -0.00020,  -0.00024,143467168.54538,   0.00000,274640135.82653,   0.00000,   0.00000,   0.00000,-331172967.28115,   0.00000
-157786640.55597,-110564484.67190,-18256261.65893,  -0.00050,  -0.00020,  -0.00024,143789442.85586,   0.00000,274640135.82653,   0.00000,   0.00000,   0.00000,-330850692.97067,   0.00000
-158269582.36148,-110453036.56294,-18309332.18701,  -0.00050,  -0.00019,  -0.00024,144130055.69582,   0.00000,274640135.82653,   0.00000,   0.00000,   0.00000,-330510080.13071,   0.00000
-158725988.90295,-110315053.18994,-18357095.66228,  -0.00051,  -0.00019,  -0.00024,144445261.21866,   0.00000,274640135.82653,   0.00000,   0.00000,   0.00000,-330194874.60787,   0.00000
-159182395.44443,-110177069.81693,-18410166.19036,  -0.00051,  -0.00019,  -0.00024,144763857.69188,   0.00000,274640135.82653,   0.00000,   0.00000,   0.00000,-329876278.13465,   0.00000
-159630841.40669,-110020511.75910,-18457929.66563,  -0.00051,  -0.00019,  -0.00024,145072179.18838,   0.00000,274640135.82653,   0.00000,   0.00000,   0.00000,-329567956.63815,   0.00000
-160079287.36895,-109863953.70127,-18511000.19371,  -0.00051,  -0.00019,  -0.00024,145383955.56562,   0.00000,274640135.82653,   0.00000,   0.00000,   0.00000,-329256180.26091,   0.00000
-160519772.75200,-109688820.95861,-18558763.66898,  -0.00052,  -0.00019,  -0.00024,145685597.78062,   0.00000,274640135.82653,   0.00000,   0.00000,   0.00000,-328954538.04591,   0.00000
-160941683.45022,-109505727.63674,-18611834.19706,  -0.00052,  -0.00018,  -0.00024,145975665.16472,   0.00000,274640135.82653,   0.00000,   0.00000,   0.00000,-328664470.66181,   0.00000
-161374208.25406,-109312020.20926,-18659597.67233,  -0.00052,  -0.00018,  -0.00024,146270823.79549,   0.00000,274640135.82653,   0.00000,   0.00000,   0.00000,-328369312.03104,   0.00000
-161788158.37307,-109110352.20256,-18707361.14760,  -0.00052,  -0.00018,  -0.00024,146552414.81650,   0.00000,274640135.82653,   0.00000,   0.00000,   0.00000,-328087721.01003,   0.00000
-162202108.49208,-108908684.19586,-18760431.67568,  -0.00053,  -0.00018,  -0.00024,146837558.79494,   0.00000,274640135.82653,   0.00000,   0.00000,   0.00000,-327802577.03159,   0.00000
-162608098.03188,-108688441.50434,-18808195.15095,  -0.00053,  -0.00018,  -0.00024,147112863.90260,   0.00000,274640135.82653,   0.00000,   0.00000,   0.00000,-327527271.92393,   0.00000
-163014087.57168,-108468198.81281,-18861265.67902,  -0.00053,  -0.00018,  -0.00025,147391792.40905,   0.00000,274640135.82653,   0.00000,   0.00000,   0.00000,-327248343.41748,   0.00000
-163412116.53227,-108229381.43646,-18909029.15429,  -0.00053,  -0.00017,  -0.00025,147661033.09552,   0.00000,274640135.82653,   0.00000,   0.00000,   0.00000,-326979102.73100,   0.00000
-163783610.22881,-107964028.79607,-18962099.68237,  -0.00053,  -0.00017,  -0.00025,147909593.18275,   0.00000,274640135.82653,   0.00000,   0.00000,   0.00000,-326730542.64378,   0.00000
-164181639.18940,-107725211.41972,-19009863.15764,  -0.00054,  -0.00017,  -0.00025,148182167.35237,   0.00000,274640135.82653,   0.00000,   0.00000,   0.00000,-326457968.47416,   0.00000
-164553132.88595,-107459858.77932,-19057626.63291,  -0.00054,  -0.00017,  -0.00025,148432064.48902,   0.00000,274640135.82653,   0.00000,   0.00000,   0.00000,-326208071.33751,   0.00000
-164916666.00329,-107175931.45411,-19110697.16099,  -0.00054,  -0.00017,  -0.00025,148676648.99178,   0.00000,274640135.82653,   0.00000,   0.00000,   0.00000,-325963486.83475,   0.00000
-165280199.12062,-106892004.12889,-19158460.63626,  -0.00054,  -0.00016,  -0.00025,148920961.86592,   0.00000,274640135.82653,   0.00000,   0.00000,   0.00000,-325719173.96061,   0.00000
-165643732.23796,-106608076.80367,-19211531.16434,  -0.00055,  -0.00016,  -0.00025,149169089.05689,   0.00000,274640135.82653,   0.00000,   0.00000,   0.00000,-325471046.76964,   0.00000
-165999304.77608,-106305574.79362,-19259294.63961,  -0.00055,  -0.00016,  -0.00025,149408012.49875,   0.00000,274640135.82653,   0.00000,   0.00000,   0.00000,-325232123.32777,   0.00000
-166336302.62938,-105995112.20436,-19307058.11488,  -0.00055,  -0.00016,  -0.00025,149633491.57833,   0.00000,274640135.82653,   0.00000,   0.00000,   0.00000,-325006644.24820,   0.00000
-166683914.58829,-105674035.50949,-19360128.64296,  -0.00055,  -0.00016,  -0.00025,149869313.06138,   0.00000,274640135.82653,   0.00000,   0.00000,   0.00000,-324770822.76515,   0.00000
-167012951.86238,-105344998.23540,-19407892.11823,  -0.00055,  -0.00015,  -0.00025,150089688.03082,   0.00000,274640135.82653,   0.00000,   0.00000,   0.00000,-324550447.79571,   0.00000
-167341989.13646,-105015960.96132,-19460962.64631,  -0.00056,  -0.00015,  -0.00025,150314007.29073,   0.00000,274640135.82653,   0.00000,   0.00000,   0.00000,-324326128.53580,   0.00000
-167681640.51616,-104676309.58162,-19508726.12158,  -0.00056,  -0.00015,  -0.00025,150544804.70828,   0.00000,274640135.82653,   0.00000,   0.00000,   0.00000,-324095331.11824,   0.00000
-168002717.21104,-104328697.62271,-19556489.59685,  -0.00056,  -0.00015,  -0.00025,150762244.31300,   0.00000,274640135.82653,   0.00000,   0.00000,   0.00000,-323877891.51353,   0.00000
-168315833.32670,-103962510.97897,-19609560.12493,  -0.00056,  -0.00014,  -0.00025,150975134.74818,   0.00000,274640135.82653,   0.00000,   0.00000,   0.00000,-323665001.07835,   0.00000
-168610374.75753,-103588363.75601,-19657323.60020,  -0.00057,  -0.00014,  -0.00026,151172635.95463,   0.00000,274640135.82653,   0.00000,   0.00000,   0.00000,-323467499.87190,   0.00000
-168923490.87320,-103222177.11227,-19710394.12828,  -0.00057,  -0.00014,  -0.00026,151389603.45190,   0.00000,274640135.82653,   0.00000,   0.00000,   0.00000,-323250532.37463,   0.00000
-169228646.40965,-102837415.78371,-19758157.60355,  -0.00057,  -0.00014,  -0.00026,151598108.67234,   0.00000,274640135.82653,   0.00000,   0.00000,   0.00000,-323042027.15419,   0.00000
-169507266.68206,-102426119.19110,-19805921.07882,  -0.00057,  -0.00014,  -0.00026,151784964.27176,   0.00000,274640135.82653,   0.00000,   0.00000,   0.00000,-322855171.55477,   0.00000
-169812422.21851,-102041357.86253,-19858991.60690,  -0.00057,  -0.00013,  -0.00026,151999822.21033,   0.00000,274640135.82653,   0.00000,   0.00000,   0.00000,-322640313.61620,   0.00000
-170091042.49092,-101630061.26992,-19906755.08217,  -0.00058,  -0.00013,  -0.00026,152191017.18979,   0.00000,274640135.82653,   0.00000,   0.00000,   0.00000,-322449118.63674,   0.00000
-170361702.18412,-101200189.99249,-19959825.61024,  -0.00058,  -0.00013,  -0.00026,152378263.91019,   0.00000,274640135.82653,   0.00000,   0.00000,   0.00000,-322261871.91634,   0.00000
-170640322.45653,-100788893.39988,-20007589.08552,  -0.00058,  -0.00013,  -0.00026,152573858.42304,   0.00000,274640135.82653,   0.00000,   0.00000,   0.00000,-322066277.40349,   0.00000
-170903021.57052,-100340447.43762,-20060659.61359,  -0.00058,  -0.00012,  -0.00026,152757496.42320,   0.00000,274640135.82653,   0.00000,   0.00000,   0.00000,-321882639.40333,   0.00000
-171173681.26372,-99910576.16019,-20108423.08886,  -0.00058,  -0.00012,  -0.00026,152949459.96922,   0.00000,274640135.82653,   0.00000,   0.00000,   0.00000,-321690675.85731,   0.00000
-171436380.37770,-99462130.19793,-20161493.61694,  -0.00059,  -0.00012,  -0.00026,153137773.75072,   0.00000,274640135.82653,   0.00000,   0.00000,   0.00000,-321502362.07581,   0.00000
-171691118.91248,-98995109.55084,-20209257.09221,  -0.00059,  -0.00012,  -0.00026,153318404.37277,   0.00000,274640135.82653,   0.00000,   0.00000,   0.00000,-321321731.45376,   0.00000
-171935243.34164,-98538703.00936,-20262327.62029,  -0.00059,  -0.00011,  -0.00026,153495973.15568,   0.00000,274640135.82653,   0.00000,   0.00000,   0.00000,-321144162.67085,   0.00000
-172189981.87641,-98071682.36228,-20310091.09556,  -0.00059,  -0.00011,  -0.00026,153681433.27139,   0.00000,274640135.82653,   0.00000,   0.00000,   0.00000,-320958702.55514,   0.00000
-172418185.14715,-97578126.45115,-20363161.62364,  -0.00059,  -0.00011,  -0.00026,153848148.87518,   0.00000,274640135.82653,   0.00000,   0.00000,   0.00000,-320791986.95135,   0.00000
-172664963.10272,-97092531.11923,-20410925.09891,  -0.00060,  -0.00011,  -0.00027,154030803.31326,   0.00000,274640135.82653,   0.00000,   0.00000,   0.00000,-320609332.51326,   0.00000
-172893166.37345,-96598975.20810,-20463995.62699,  -0.00060,  -0.00010,  -0.00027,154202566.93323,   0.00000,274640135.82653,   0.00000,   0.00000,   0.00000,-320437568.89330,   0.00000
-173113409.06498,-96086844.61215,-20511759.10226,  -0.00060,  -0.00010,  -0.00027,154367126.20542,   0.00000,274640135.82653,   0.00000,   0.00000,   0.00000,-320273009.62111,   0.00000
-173341612.33571,-95593288.70102,-20564829.63034,  -0.00060,  -0.00010,  -0.00027,154543952.56071,   0.00000,274640135.82653,   0.00000,   0.00000,   0.00000,-320096183.26582,   0.00000
-173572469.13285,-95070543.99945,-20612593.10561,  -0.00060,  -0.00009,  -0.00027,154721744.74537,   0.00000,274640135.82653,   0.00000,   0.00000,   0.00000,-319918391.08116,   0.00000
-173792711.82438,-94558413.40349,-20665663.63369,  -0.00061,  -0.00009,  -0.00027,154896243.00710,   0.00000,274640135.82653,   0.00000,   0.00000,   0.00000,-319743892.81943,   0.00000
-174004993.93669,-94027708.12271,-20713427.10896,  -0.00061,  -0.00009,  -0.00027,155063842.38674,   0.00000,274640135.82653,   0.00000,   0.00000,   0.00000,-319576293.43979,   0.00000
-174190740.78497,-93470467.57789,-20766497.63703,  -0.00061,  -0.00009,  -0.00027,155213384.62859,   0.00000,274640135.82653,   0.00000,   0.00000,   0.00000,-319426751.19794,   0.00000
-174403022.89728,-92939762.29710,-20814261.11231,  -0.00061,  -0.00008,  -0.00027,155386417.41328,   0.00000,274640135.82653,   0.00000,   0.00000,   0.00000,-319253718.41325,   0.00000
-174607344.43038,-92390482.33149,-20867331.64038,  -0.00061,  -0.00008,  -0.00027,155557082.04161,   0.00000,274640135.82653,   0.00000,   0.00000,   0.00000,-319083053.78492,   0.00000
-174803705.38427,-91822627.68106,-20915095.11565,  -0.00062,  -0.00008,  -0.00027,155721284.43038,   0.00000,274640135.82653,   0.00000,   0.00000,   0.00000,-318918851.39615,   0.00000
-174981491.65333,-91246812.45141,-20968165.64373,  -0.00062,  -0.00007,  -0.00027,155874923.46044,   0.00000,274640135.82653,   0.00000,   0.00000,   0.00000,-318765212.36609,   0.00000
-175177852.60722,-90678957.80097,-21021236.17181,  -0.00062,  -0.00007,  -0.00027,156047061.61375,   0.00000,274640135.82653,   0.00000,   0.00000,   0.00000,-318593074.21278,   0.00000
-175374213.56111,-90111103.15053,-21068999.64708,  -0.00062,  -0.00007,  -0.00027,156219941.37568,   0.00000,274640135.82653,   0.00000,   0.00000,   0.00000,-318420194.45085,   0.00000
-175544039.25096,-89516713.23606,-21122070.17516,  -0.00062,  -0.00006,  -0.00027,156375355.43894,   0.00000,274640135.82653,   0.00000,   0.00000,   0.00000,-318264780.38759,   0.00000
-175732439.62564,-88930283.90079,-21169833.65043,  -0.00063,  -0.00006,  -0.00028,156547231.06886,   0.00000,274640135.82653,   0.00000,   0.00000,   0.00000,-318092904.75766,   0.00000
-175902265.31549,-88335893.98631,-21222904.17851,  -0.00063,  -0.00006,  -0.00028,156708609.31656,   0.00000,274640135.82653,   0.00000,   0.00000,   0.00000,-317931526.50997,   0.00000
-176064130.42613,-87722929.38701,-21270667.65378,  -0.00063,  -0.00006,  -0.00028,156864122.69637,   0.00000,274640135.82653,   0.00000,   0.00000,   0.00000,-317776013.13015,   0.00000
-176244570.22160,-87117925.36692,-21323738.18186,  -0.00063,  -0.00005,  -0.00028,157040522.05748,   0.00000,274640135.82653,   0.00000,   0.00000,   0.00000,-317599613.76905,   0.00000
-176406435.33223,-86504960.76761,-21371501.65713,  -0.00063,  -0.00005,  -0.00028,157202195.10460,   0.00000,274640135.82653,   0.00000,   0.00000,   0.00000,-317437940.72193,   0.00000
-176560339.86366,-85873421.48348,-21424572.18521,  -0.00064,  -0.00005,  -0.00028,157362621.12595,   0.00000,274640135.82653,   0.00000,   0.00000,   0.00000,-317277514.70058,   0.00000
-176714244.39509,-85241882.19935,-21472335.66048,  -0.00064,  -0.00004,  -0.00028,157524066.24224,   0.00000,274640135.82653,   0.00000,   0.00000,   0.00000,-317116069.58429,   0.00000
-176886723.61134,-84618303.49443,-21525406.18855,  -0.00064,  -0.00004,  -0.00028,157706515.87141,   0.00000,274640135.82653,   0.00000,   0.00000,   0.00000,-316933619.95512,   0.00000
-177032667.56356,-83968189.52547,-21573169.66382,  -0.00064,  -0.00004,  -0.00028,157868029.07084,   0.00000,274640135.82653,   0.00000,   0.00000,   0.00000,-316772106.75569,   0.00000
-177178611.51577,-83318075.55651,-21626240.19190,  -0.00064,  -0.00003,  -0.00028,158035008.60994,   0.00000,274640135.82653,   0.00000,   0.00000,   0.00000,-316605127.21659,   0.00000
-177324555.46799,-82667961.58755,-21674003.66717,  -0.00065,  -0.00003,  -0.00028,158203089.76091,   0.00000,274640135.82653,   0.00000,   0.00000,   0.00000,-316437046.06562,   0.00000
-177462538.84099,-81999272.93377,-21727074.19525,  -0.00065,  -0.00003,  -0.00028,158370551.41305,   0.00000,274640135.82653,   0.00000,   0.00000,   0.00000,-316269584.41348,   0.00000
-177608482.79321,-81349158.96481,-21774837.67052,  -0.00065,  -0.00002,  -0.00028,158545226.32636,   0.00000,274640135.82653,   0.00000,   0.00000,   0.00000,-316094909.50017,   0.00000
-177738505.58700,-80661895.62619,-21827908.19860,  -0.00065,  -0.00002,  -0.00028,158713470.49597,   0.00000,274640135.82653,   0.00000,   0.00000,   0.00000,-315926665.33056,   0.00000
-177876488.96000,-79993206.97241,-21875671.67387,  -0.00065,  -0.00002,  -0.00028,158888900.56613,   0.00000,274640135.82653,   0.00000,   0.00000,   0.00000,-315751235.26039,   0.00000
-178006511.75380,-79305943.63379,-21923435.14914,  -0.00066,  -0.00001,  -0.00029,159061898.52074,   0.00000,274640135.82653,   0.00000,   0.00000,   0.00000,-315578237.30579,   0.00000
-178136534.54759,-78618680.29518,-21976505.67722,  -0.00066,  -0.00001,  -0.00029,159240582.07264,   0.00000,274640135.82653,   0.00000,   0.00000,   0.00000,-315399553.75389,   0.00000
-178266557.34138,-77931416.95656,-22024269.15249,  -0.00066,  -0.00001,  -0.00029,159420547.92506,   0.00000,274640135.82653,   0.00000,   0.00000,   0.00000,-315219587.90147,   0.00000
-178388619.55596,-77225578.93312,-22077339.68057,  -0.00066,  -0.00000,  -0.00029,159600601.47274,   0.00000,274640135.82653,   0.00000,   0.00000,   0.00000,-315039534.35379,   0.00000
-178518642.34975,-76538315.59451,-22125103.15584,  -0.00066,  -0.00000,  -0.00029,159787558.34465,   0.00000,274640135.82653,   0.00000,   0.00000,   0.00000,-314852577.48188,   0.00000
-178632743.98512,-75813902.88624,-22172866.63111,  -0.00066,   0.00000,  -0.00029,159967082.96906,   0.00000,274640135.82653,   0.00000,   0.00000,   0.00000,-314673052.85747,   0.00000
-178736231.51487,-75100104.28359,-22220630.10638,  -0.00067,   0.00001,  -0.00029,160140019.04738,   0.00000,274640135.82653,   0.00000,   0.00000,   0.00000,-314500116.77915,   0.00000
-178850333.15024,-74375691.57532,-22273700.63446,  -0.00067,   0.00001,  -0.00029,160329102.68755,   0.00000,274640135.82653,   0.00000,   0.00000,   0.00000,-314311033.13898,   0.00000
-178964434.78561,-73651278.86705,-22321464.10973,  -0.00067,   0.00001,  -0.00029,160519667.27853,   0.00000,274640135.82653,   0.00000,   0.00000,   0.00000,-314120468.54800,   0.00000
-179078536.42098,-72926866.15878,-22369227.58500,  -0.00067,   0.00002,  -0.00029,160713909.12172,   0.00000,274640135.82653,   0.00000,   0.00000,   0.00000,-313926226.70481,   0.00000
-179192638.05634,-72202453.45051,-22416991.06027,  -0.00067,   0.00002,  -0.00029,160911814.90033,   0.00000,274640135.82653,   0.00000,   0.00000,   0.00000,-313728320.92620,   0.00000
-179298779.11250,-71459466.05742,-22470061.58835,  -0.00068,   0.00002,  -0.00029,161110593.89026,   0.00000,274640135.82653,   0.00000,   0.00000,   0.00000,-313529541.93627,   0.00000
-179404920.16866,-70716478.66432,-22517825.06362,  -0.00068,   0.00003,  -0.00029,161310938.44749,   0.00000,274640135.82653,   0.00000,   0.00000,   0.00000,-313329197.37904,   0.00000
-179511061.22481,-69973491.27122,-22565588.53889,  -0.00068,   0.00003,  -0.00029,161515052.75162,   0.00000,274640135.82653,   0.00000,   0.00000,   0.00000,-313125083.07491,   0.00000
-179609241.70176,-69211929.19330,-22613352.01416,  -0.00068,   0.00004,  -0.00029,161718149.24789,   0.00000,274640135.82653,   0.00000,   0.00000,   0.00000,-312921986.57864,   0.00000
-179696808.07309,-68460981.22099,-22661115.48943,  -0.00068,   0.00004,  -0.00029,161914197.78423,   0.00000,274640135.82653,   0.00000,   0.00000,   0.00000,-312725938.04230,   0.00000
-179794988.55003,-67699419.14307,-22708878.96470,  -0.00069,   0.00004,  -0.00030,162124990.42974,   0.00000,274640135.82653,   0.00000,   0.00000,   0.00000,-312515145.39679,   0.00000
-179885208.44777,-66919282.38032,-22756642.43997,  -0.00069,   0.00005,  -0.00030,162335097.36917,   0.00000,274640135.82653,   0.00000,   0.00000,   0.00000,-312305038.45736,   0.00000
-179983388.92471,-66157720.30240,-22804405.91524,  -0.00069,   0.00005,  -0.00030,162553672.14652,   0.00000,274640135.82653,   0.00000,   0.00000,   0.00000,-312086463.68001,   0.00000
-180073608.82244,-65377583.53965,-22852169.39051,  -0.00069,   0.00005,  -0.00030,162771682.29549,   0.00000,274640135.82653,   0.00000,   0.00000,   0.00000,-311868453.53104,   0.00000
-180163828.72018,-64597446.77689,-22899932.86578,  -0.00069,   0.00006,  -0.00030,162993658.61317,   0.00000,274640135.82653,   0.00000,   0.00000,   0.00000,-311646477.21336,   0.00000
-180254048.61791,-63817310.01414,-22942389.28824,  -0.00070,   0.00006,  -0.00030,163217346.74169,   0.00000,274640135.82653,   0.00000,   0.00000,   0.00000,-311422789.08484,   0.00000
-180336307.93643,-63018598.56657,-22990152.76352,  -0.00070,   0.00006,  -0.00030,163443041.15160,   0.00000,274640135.82653,   0.00000,   0.00000,   0.00000,-311197094.67493,   0.00000
-180426527.83417,-62238461.80381,-23037916.23879,  -0.00070,   0.00007,  -0.00030,163676892.89228,   0.00000,274640135.82653,   0.00000,   0.00000,   0.00000,-310963242.93425,   0.00000
-180508787.15269,-61439750.35624,-23085679.71406,  -0.00070,   0.00007,  -0.00030,163910634.69764,   0.00000,274640135.82653,   0.00000,   0.00000,   0.00000,-310729501.12889,   0.00000
-180591046.47121,-60641038.90866,-23128136.13652,  -0.00070,   0.00008,  -0.00030,164146169.71870,   0.00000,274640135.82653,   0.00000,   0.00000,   0.00000,-310493966.10783,   0.00000
-180665345.21052,-59823752.77625,-23175899.61179,  -0.00071,   0.00008,  -0.00030,164384112.30288,   0.00000,274640135.82653,   0.00000,   0.00000,   0.00000,-310256023.52365,   0.00000
-180766179.21387,-59033001.90789,-23218356.03425,  -0.00071,   0.00008,  -0.00030,164643289.66047,   0.00000,274640135.82653,   0.00000,   0.00000,   0.00000,-309996846.16606,   0.00000
-180840477.95318,-58215715.77548,-23266119.50952,  -0.00071,   0.00009,  -0.00030,164889439.06586,   0.00000,274640135.82653,   0.00000,   0.00000,   0.00000,-309750696.76067,   0.00000
-180914776.69249,-57398429.64307,-23308575.93198,  -0.00071,   0.00009,  -0.00030,165137461.54564,   0.00000,274640135.82653,   0.00000,   0.00000,   0.00000,-309502674.28089,   0.00000
-180989075.43179,-56581143.51067,-23356339.40726,  -0.00071,   0.00010,  -0.00030,165391832.16617,   0.00000,274640135.82653,   0.00000,   0.00000,   0.00000,-309248303.66036,   0.00000
-181063374.17110,-55763857.37826,-23398795.82972,  -0.00072,   0.00010,  -0.00030,165648036.57474,   0.00000,274640135.82653,   0.00000,   0.00000,   0.00000,-308992099.25179,   0.00000
-181148287.01603,-54935957.14024,-23441252.25218,  -0.00072,   0.00010,  -0.00030,165920413.64964,   0.00000,274640135.82653,   0.00000,   0.00000,   0.00000,-308719722.17689,   0.00000
-181214625.17613,-54100096.32301,-23483708.67464,  -0.00072,   0.00011,  -0.00031,166181484.65477,   0.00000,274640135.82653,   0.00000,   0.00000,   0.00000,-308458651.17176,   0.00000
-181280963.33623,-53264235.50578,-23526165.09711,  -0.00072,   0.00011,  -0.00031,166446735.80698,   0.00000,274640135.82653,   0.00000,   0.00000,   0.00000,-308193400.01955,   0.00000
-181365876.18115,-52436335.26775,-23568621.51957,  -0.00072,   0.00012,  -0.00031,166731605.19440,   0.00000,274640135.82653,   0.00000,   0.00000,   0.00000,-307908530.63213,   0.00000
-181432214.34125,-51600474.45052,-23611077.94203,  -0.00072,   0.00012,  -0.00031,167005143.71846,   0.00000,274640135.82653,   0.00000,   0.00000,   0.00000,-307634992.10807,   0.00000
-181509166.60696,-50753999.52767,-23653534.36449,  -0.00073,   0.00012,  -0.00031,167295244.81577,   0.00000,274640135.82653,   0.00000,   0.00000,   0.00000,-307344891.01076,   0.00000
-181567544.18785,-49899564.02561,-23695990.78696,  -0.00073,   0.00013,  -0.00031,167574157.41786,   0.00000,274640135.82653,   0.00000,   0.00000,   0.00000,-307065978.40867,   0.00000
-181644496.45356,-49053089.10276,-23738447.20942,  -0.00073,   0.00013,  -0.00031,167872709.51698,   0.00000,274640135.82653,   0.00000,   0.00000,   0.00000,-306767426.30955,   0.00000
-181721448.71928,-48206614.17991,-23780903.63188,  -0.00073,   0.00014,  -0.00031,168175446.90395,   0.00000,274640135.82653,   0.00000,   0.00000,   0.00000,-306464688.92258,   0.00000
-181779826.30016,-47352178.67785,-23818053.00154,  -0.00073,   0.00014,  -0.00031,168464720.95550,   0.00000,274640135.82653,   0.00000,   0.00000,   0.00000,-306175414.87103,   0.00000
-181856778.56587,-46505703.75501,-23860509.42400,  -0.00074,   0.00014,  -0.00031,168775776.26010,   0.00000,274640135.82653,   0.00000,   0.00000,   0.00000,-305864359.56643,   0.00000
-181925770.25238,-45640654.14733,-23897658.79365,  -0.00074,   0.00015,  -0.00031,169086186.07029,   0.00000,274640135.82653,   0.00000,   0.00000,   0.00000,-305553949.75624,   0.00000
-181976187.25405,-44767643.96044,-23940115.21612,  -0.00074,   0.00015,  -0.00031,169387770.69997,   0.00000,274640135.82653,   0.00000,   0.00000,   0.00000,-305252365.12656,   0.00000
-182045178.94055,-43902594.35277,-23977264.58577,  -0.00074,   0.00016,  -0.00031,169706679.22196,   0.00000,274640135.82653,   0.00000,   0.00000,   0.00000,-304933456.60457,   0.00000
-182114170.62705,-43037544.74509,-24014413.95543,  -0.00074,   0.00016,  -0.00031,170029794.05580,   0.00000,274640135.82653,   0.00000,   0.00000,   0.00000,-304610341.77073,   0.00000
-182183162.31356,-42172495.13741,-24051563.32508,  -0.00075,   0.00016,  -0.00031,170357091.26725,   0.00000,274640135.82653,   0.00000,   0.00000,   0.00000,-304283044.55928,   0.00000
-182244193.42085,-41288870.84491,-24088712.69474,  -0.00075,   0.00017,  -0.00031,170686432.28079,   0.00000,274640135.82653,   0.00000,   0.00000,   0.00000,-303953703.54574,   0.00000
-182313185.10735,-40423821.23723,-24125862.06439,  -0.00075,   0.00017,  -0.00031,171022100.45630,   0.00000,274640135.82653,   0.00000,   0.00000,   0.00000,-303618035.37023,   0.00000
-182374216.21464,-39540196.94473,-24163011.43405,  -0.00075,   0.00018,  -0.00031,171359921.95449,   0.00000,274640135.82653,   0.00000,   0.00000,   0.00000,-303280213.87204,   0.00000
-182453822.00676,-38664533.23144,-24200160.80370,  -0.00075,   0.00018,  -0.00031,171717194.18704,   0.00000,274640135.82653,   0.00000,   0.00000,   0.00000,-302922941.63949,   0.00000
-182514853.11405,-37780908.93893,-24232003.12055,  -0.00076,   0.00018,  -0.00032,172061214.59438,   0.00000,274640135.82653,   0.00000,   0.00000,   0.00000,-302578921.23215,   0.00000
-182575884.22134,-36897284.64643,-24269152.49020,  -0.00076,   0.00019,  -0.00032,172411670.23021,   0.00000,274640135.82653,   0.00000,   0.00000,   0.00000,-302228465.59632,   0.00000
-182628954.74941,-35995085.66910,-24300994.80705,  -0.00076,   0.00019,  -0.00032,172762413.38660,   0.00000,274640135.82653,   0.00000,   0.00000,   0.00000,-301877722.43993,   0.00000
-182708560.54153,-35119421.95581,-24338144.17670,  -0.00076,   0.00020,  -0.00032,173136387.41458,   0.00000,274640135.82653,   0.00000,   0.00000,   0.00000,-301503748.41195,   0.00000
-182761631.06961,-34217222.97848,-24369986.49355,  -0.00076,   0.00020,  -0.00032,173495606.23385,   0.00000,274640135.82653,   0.00000,   0.00000,   0.00000,-301144529.59268,   0.00000
-182841236.86173,-33341559.26519,-24401828.81040,  -0.00077,   0.00020,  -0.00032,173875568.39387,   0.00000,274640135.82653,   0.00000,   0.00000,   0.00000,-300764567.43266,   0.00000
-182894307.38981,-32439360.28785,-24433671.12724,  -0.00077,   0.00021,  -0.00032,174243158.52776,   0.00000,274640135.82653,   0.00000,   0.00000,   0.00000,-300396977.29877,   0.00000
-182965952.60271,-31545121.88974,-24465513.44409,  -0.00077,   0.00021,  -0.00032,174629995.40337,   0.00000,274640135.82653,   0.00000,   0.00000,   0.00000,-300010140.42316,   0.00000
-183037597.81562,-30650883.49162,-24497355.76094,  -0.00077,   0.00022,  -0.00032,175020959.04642,   0.00000,274640135.82653,   0.00000,   0.00000,   0.00000,-299619176.78010,   0.00000
-183101282.44931,-29738070.40867,-24529198.07779,  -0.00078,   0.00022,  -0.00032,175414931.83830,   0.00000,274640135.82653,   0.00000,   0.00000,   0.00000,-299225203.98823,   0.00000
-183154352.97739,-28835871.43134,-24555733.34182,  -0.00078,   0.00023,  -0.00032,175796931.83070,   0.00000,274640135.82653,   0.00000,   0.00000,   0.00000,-298843203.99583,   0.00000
-183225998.19029,-27941633.03322,-24587575.65867,  -0.00078,   0.00023,  -0.00032,176200210.82884,   0.00000,274640135.82653,   0.00000,   0.00000,   0.00000,-298439924.99769,   0.00000
-183289682.82399,-27028819.95027,-24614110.92271,  -0.00078,   0.00023,  -0.00032,176604429.36511,   0.00000,274640135.82653,   0.00000,   0.00000,   0.00000,-298035706.46142,   0.00000
-183353367.45768,-26116006.86733,-24640646.18675,  -0.00078,   0.00024,  -0.00032,177012795.30756,   0.00000,274640135.82653,   0.00000,   0.00000,   0.00000,-297627340.51897,   0.00000
-183417052.09138,-25203193.78438,-24672488.50360,  -0.00079,   0.00024,  -0.00032,177427493.73895,   0.00000,274640135.82653,   0.00000,   0.00000,   0.00000,-297212642.08758,   0.00000
-183488697.30428,-24308955.38626,-24699023.76764,  -0.00079,   0.00025,  -0.00032,177844691.00584,   0.00000,274640135.82653,   0.00000,   0.00000,   0.00000,-296795444.82069,   0.00000
-183570956.62280,-23404102.88253,-24720251.97887,  -0.00079,   0.00025,  -0.00032,178277893.09334,   0.00000,274640135.82653,   0.00000,   0.00000,   0.00000,-296362242.73319,   0.00000
-183626680.67729,-22472715.11475,-24746787.24291,  -0.00079,   0.00026,  -0.00032,178701989.73541,   0.00000,274640135.82653,   0.00000,   0.00000,   0.00000,-295938146.09112,   0.00000
-183690365.31098,-21559902.03181,-24773322.50695,  -0.00079,   0.00026,  -0.00032,179130639.27623,   0.00000,274640135.82653,   0.00000,   0.00000,   0.00000,-295509496.55030,   0.00000
-183772624.62950,-20655049.52807,-24794550.71818,  -0.00080,   0.00026,  -0.00032,179575848.06022,   0.00000,274640135.82653,   0.00000,   0.00000,   0.00000,-295064287.76631,   0.00000
-183836309.26320,-19742236.44512,-24821085.98222,  -0.00080,   0.00027,  -0.00032,180012398.31385,   0.00000,274640135.82653,   0.00000,   0.00000,   0.00000,-294627737.51268,   0.00000
-183910608.00250,-18818809.25656,-24842314.19345,  -0.00080,   0.00027,  -0.00032,180465238.72726,   0.00000,274640135.82653,   0.00000,   0.00000,   0.00000,-294174897.09927,   0.00000
-183974292.63620,-17905996.17361,-24863542.40468,  -0.00080,   0.00028,  -0.00032,180907460.57778,   0.00000,274640135.82653,   0.00000,   0.00000,   0.00000,-293732675.24875,   0.00000
-184048591.37551,-16982568.98505,-24884770.61591,  -0.00080,   0.00028,  -0.00032,181368214.31228,   0.00000,274640135.82653,   0.00000,   0.00000,   0.00000,-293271921.51425,   0.00000
-184122890.11482,-16059141.79649,-24905998.82714,  -0.00081,   0.00029,  -0.00032,181832905.25060,   0.00000,274640135.82653,   0.00000,   0.00000,   0.00000,-292807230.57593,   0.00000
-184205149.43334,-15154289.29276,-24921919.98556,  -0.00081,   0.00029,  -0.00032,182299198.36713,   0.00000,274640135.82653,   0.00000,   0.00000,   0.00000,-292340937.45939,   0.00000
-184279448.17265,-14230862.10419,-24943148.19680,  -0.00081,   0.00029,  -0.00032,182771603.27952,   0.00000,274640135.82653,   0.00000,   0.00000,   0.00000,-291868532.54701,   0.00000
-184353746.91196,-13307434.91563,-24959069.35522,  -0.00081,   0.00030,  -0.00032,183245686.89403,   0.00000,274640135.82653,   0.00000,   0.00000,   0.00000,-291394448.93250,   0.00000
-184428045.65127,-12384007.72707,-24974990.51364,  -0.00081,   0.00030,  -0.00032,183723596.14695,   0.00000,274640135.82653,   0.00000,   0.00000,   0.00000,-290916539.67958,   0.00000
-184502344.39058,-11460580.53851,-24990911.67207,  -0.00082,   0.00031,  -0.00032,184205301.26213,   0.00000,274640135.82653,   0.00000,   0.00000,   0.00000,-290434834.56440,   0.00000
-184576643.12989,-10537153.34994,-25006832.83049,  -0.00082,   0.00031,  -0.00033,184690772.53879,   0.00000,274640135.82653,   0.00000,   0.00000,   0.00000,-289949363.28774,   0.00000
-184642981.28999,-9595151.47655,-25022753.98891,  -0.00082,   0.00032,  -0.00033,185180546.35550,   0.00000,274640135.82653,   0.00000,   0.00000,   0.00000,-289459589.47103,   0.00000
-184717280.02929,-8671724.28799,-25038675.14734,  -0.00082,   0.00032,  -0.00033,185673532.79158,   0.00000,274640135.82653,   0.00000,   0.00000,   0.00000,-288966603.03495,   0.00000
-184810153.45343,-7756257.67864,-25049289.25295,  -0.00083,   0.00033,  -0.00033,186182485.36605,   0.00000,274640135.82653,   0.00000,   0.00000,   0.00000,-288457650.46048,   0.00000
-184884452.19274,-6832830.49008,-25059903.35857,  -0.00083,   0.00033,  -0.00033,186680637.40531,   0.00000,274640135.82653,   0.00000,   0.00000,   0.00000,-287959498.42122,   0.00000
-184969365.03767,-5898789.19590,-25070517.46418,  -0.00083,   0.00033,  -0.00033,187197646.78575,   0.00000,274640135.82653,   0.00000,   0.00000,   0.00000,-287442489.04077,   0.00000
-185043663.77698,-4975362.00734,-25081131.56980,  -0.00083,   0.00034,  -0.00033,187703068.69926,   0.00000,274640135.82653,   0.00000,   0.00000,   0.00000,-286937067.12727,   0.00000
-185128576.62190,-4041320.71316,-25091745.67542,  -0.00083,   0.00034,  -0.00033,188227376.61397,   0.00000,274640135.82653,   0.00000,   0.00000,   0.00000,-286412759.21256,   0.00000
-185202875.36121,-3117893.52460,-25102359.78103,  -0.00084,   0.00035,  -0.00033,188739950.34437,   0.00000,274640135.82653,   0.00000,   0.00000,   0.00000,-285900185.48216,   0.00000
-185287788.20614,-2183852.23042,-25107666.83384,  -0.00084,   0.00035,  -0.00033,189269324.82803,   0.00000,274640135.82653,   0.00000,   0.00000,   0.00000,-285370810.99850,   0.00000
-185380661.63027,-1268385.62107,-25112973.88665,  -0.00084,   0.00036,  -0.00033,189801076.69668,   0.00000,274640135.82653,   0.00000,   0.00000,   0.00000,-284839059.12985,   0.00000
-185465574.47520,-334344.32689,-25123587.99226,  -0.00084,   0.00036,  -0.00033,190339606.38737,   0.00000,274640135.82653,   0.00000,   0.00000,   0.00000,-284300529.43916,   0.00000
-185558447.89934,581122.28246,-25128895.04507,  -0.00085,   0.00036,  -0.00033,190878211.26899,   0.00000,274640135.82653,   0.00000,   0.00000,   0.00000,-283761924.55754,   0.00000
-185643360.74426,1515163.57664,-25128895.04507,  -0.00085,   0.00037,  -0.00033,191419479.85012,   0.00000,274640135.82653,   0.00000,   0.00000,   0.00000,-283220655.97641,   0.00000
-185728273.58919,2449204.87081,-25134202.09788,  -0.00085,   0.00037,  -0.00033,191966302.12757,   0.00000,274640135.82653,   0.00000,   0.00000,   0.00000,-282673833.69896,   0.00000
-185821147.01332,3364671.48016,-25134202.09788,  -0.00085,   0.00038,  -0.00033,192512937.61868,   0.00000,274640135.82653,   0.00000,   0.00000,   0.00000,-282127198.20785,   0.00000
-185906059.85825,4298712.77434,-25134202.09788,  -0.00085,   0.00038,  -0.00033,193064453.28741,   0.00000,274640135.82653,   0.00000,   0.00000,   0.00000,-281575682.53912,   0.00000
-185990972.70317,5232754.06852,-25134202.09788,  -0.00086,   0.00039,  -0.00033,193619350.80623,   0.00000,274640135.82653,   0.00000,   0.00000,   0.00000,-281020785.02030,   0.00000
-186102420.81214,6140260.09866,-25134202.09788,  -0.00086,   0.00039,  -0.00033,194189895.30942,   0.00000,274640135.82653,   0.00000,   0.00000,   0.00000,-280450240.51711,   0.00000
-186187333.65706,7074301.39284,-25134202.09788,  -0.00086,   0.00040,  -0.00033,194751376.41011,   0.00000,274640135.82653,   0.00000,   0.00000,   0.00000,-279888759.41642,   0.00000
-186290821.18682,8000382.10780,-25128895.04507,  -0.00086,   0.00040,  -0.00033,195328077.91907,   0.00000,274640135.82653,   0.00000,   0.00000,   0.00000,-279312057.90746,   0.00000
-186375734.03174,8934423.40198,-25128895.04507,  -0.00087,   0.00040,  -0.00033,195896099.95007,   0.00000,274640135.82653,   0.00000,   0.00000,   0.00000,-278744035.87646,   0.00000
-186487182.14071,9841929.43212,-25123587.99226,  -0.00087,   0.00041,  -0.00033,196477251.57169,   0.00000,274640135.82653,   0.00000,   0.00000,   0.00000,-278162884.25484,   0.00000
-186572094.98563,10775970.72630,-25118280.93945,  -0.00087,   0.00041,  -0.00033,197049607.25257,   0.00000,274640135.82653,   0.00000,   0.00000,   0.00000,-277590528.57396,   0.00000
-186675582.51538,11702051.44126,-25107666.83384,  -0.00087,   0.00042,  -0.00033,197636998.52591,   0.00000,274640135.82653,   0.00000,   0.00000,   0.00000,-277003137.30062,   0.00000
-186779070.04514,12628132.15623,-25102359.78103,  -0.00087,   0.00042,  -0.00033,198229530.87004,   0.00000,274640135.82653,   0.00000,   0.00000,   0.00000,-276410604.95649,   0.00000
-186871943.46927,13543598.76558,-25091745.67542,  -0.00088,   0.00043,  -0.00033,198807087.52335,   0.00000,274640135.82653,   0.00000,   0.00000,   0.00000,-275833048.30318,   0.00000
-186975430.99903,14469679.48055,-25081131.56980,  -0.00088,   0.00043,  -0.00033,199403729.80789,   0.00000,274640135.82653,   0.00000,   0.00000,   0.00000,-275236406.01864,   0.00000
-187078918.52878,15395760.19551,-25070517.46418,  -0.00088,   0.00043,  -0.00033,200003414.70826,   0.00000,274640135.82653,   0.00000,   0.00000,   0.00000,-274636721.11827,   0.00000
-187190366.63774,16303266.22565,-25059903.35857,  -0.00088,   0.00044,  -0.00033,200603690.15248,   0.00000,274640135.82653,   0.00000,   0.00000,   0.00000,-274036445.67405,   0.00000
-187293854.16750,17229346.94062,-25043982.20014,  -0.00089,   0.00044,  -0.00033,201207336.17723,   0.00000,274640135.82653,   0.00000,   0.00000,   0.00000,-273432799.64930,   0.00000
-187397341.69725,18155427.65558,-25033368.09453,  -0.00089,   0.00045,  -0.00033,201815932.62935,   0.00000,274640135.82653,   0.00000,   0.00000,   0.00000,-272824203.19718,   0.00000
-187508789.80621,19062933.68572,-25017446.93611,  -0.00089,   0.00045,  -0.00033,202422892.16999,   0.00000,274640135.82653,   0.00000,   0.00000,   0.00000,-272217243.65654,   0.00000
-187612277.33597,19989014.40069,-25001525.77768,  -0.00089,   0.00046,  -0.00033,203035318.82643,   0.00000,274640135.82653,   0.00000,   0.00000,   0.00000,-271604817.00010,   0.00000
-187723725.44493,20896520.43083,-24980297.56645,  -0.00089,   0.00046,  -0.00032,203645967.61212,   0.00000,274640135.82653,   0.00000,   0.00000,   0.00000,-270994168.21441,   0.00000
-187827212.97468,21822601.14579,-24964376.40803,  -0.00090,   0.00047,  -0.00032,204264109.61303,   0.00000,274640135.82653,   0.00000,   0.00000,   0.00000,-270376026.21350,   0.00000
-187957235.76847,22722146.59672,-24943148.19680,  -0.00090,   0.00047,  -0.00032,204893855.97093,   0.00000,274640135.82653,   0.00000,   0.00000,   0.00000,-269746279.85560,   0.00000
-188068683.87744,23629652.62686,-24921919.98556,  -0.00090,   0.00047,  -0.00032,205512759.44810,   0.00000,274640135.82653,   0.00000,   0.00000,   0.00000,-269127376.37843,   0.00000
-188172171.40719,24555733.34182,-24900691.77433,  -0.00090,   0.00048,  -0.00032,206137306.54105,   0.00000,274640135.82653,   0.00000,   0.00000,   0.00000,-268502829.28548,   0.00000
-188283619.51616,25463239.37196,-24874156.51029,  -0.00091,   0.00048,  -0.00032,206759715.12186,   0.00000,274640135.82653,   0.00000,   0.00000,   0.00000,-267880420.70467,   0.00000
-188413642.30995,26362784.82289,-24852928.29906,  -0.00091,   0.00049,  -0.00032,207400119.27949,   0.00000,274640135.82653,   0.00000,   0.00000,   0.00000,-267240016.54704,   0.00000
-188517129.83970,27288865.53786,-24826393.03502,  -0.00091,   0.00049,  -0.00032,208030907.33472,   0.00000,274640135.82653,   0.00000,   0.00000,   0.00000,-266609228.49181,   0.00000
-188647152.63349,28188410.98878,-24799857.77098,  -0.00091,   0.00050,  -0.00032,208674619.96485,   0.00000,274640135.82653,   0.00000,   0.00000,   0.00000,-265965515.86167,   0.00000
-188758600.74246,29095917.01892,-24773322.50695,  -0.00092,   0.00050,  -0.00032,209307522.19959,   0.00000,274640135.82653,   0.00000,   0.00000,   0.00000,-265332613.62694,   0.00000
-188888623.53625,29995462.46985,-24741480.19010,  -0.00092,   0.00050,  -0.00032,209954433.18600,   0.00000,274640135.82653,   0.00000,   0.00000,   0.00000,-264685702.64053,   0.00000
-189000071.64521,30902968.49999,-24709637.87325,  -0.00092,   0.00051,  -0.00032,210590556.33156,   0.00000,274640135.82653,   0.00000,   0.00000,   0.00000,-264049579.49497,   0.00000
-189130094.43900,31802513.95092,-24677795.55640,  -0.00092,   0.00051,  -0.00032,211242480.96349,   0.00000,274640135.82653,   0.00000,   0.00000,   0.00000,-263397654.86304,   0.00000
-189241542.54797,32710019.98105,-24645953.23956,  -0.00092,   0.00052,  -0.00032,211883624.90845,   0.00000,274640135.82653,   0.00000,   0.00000,   0.00000,-262756510.91808,   0.00000
-189379525.92097,33590990.74715,-24614110.92271,  -0.00093,   0.00052,  -0.00032,212536982.12284,   0.00000,274640135.82653,   0.00000,   0.00000,   0.00000,-262103153.70369,   0.00000
-189509548.71476,34490536.19808,-24576961.55306,  -0.00093,   0.00053,  -0.00032,213194355.48033,   0.00000,274640135.82653,   0.00000,   0.00000,   0.00000,-261445780.34620,   0.00000
-189620996.82373,35398042.22822,-24539812.18340,  -0.00093,   0.00053,  -0.00032,213840976.02875,   0.00000,274640135.82653,   0.00000,   0.00000,   0.00000,-260799159.79778,   0.00000
-189758980.19673,36279012.99432,-24502662.81375,  -0.00093,   0.00054,  -0.00032,214499527.53417,   0.00000,274640135.82653,   0.00000,   0.00000,   0.00000,-260140608.29235,   0.00000
-189889002.99052,37178558.44525,-24465513.44409,  -0.00094,   0.00054,  -0.00032,215164035.34244,   0.00000,274640135.82653,   0.00000,   0.00000,   0.00000,-259476100.48409,   0.00000
-190008411.67870,38067489.79056,-24423057.02163,  -0.00094,   0.00054,  -0.00032,215812257.99792,   0.00000,274640135.82653,   0.00000,   0.00000,   0.00000,-258827877.82861,   0.00000
-190146395.05170,38948460.55666,-24380600.59917,  -0.00094,   0.00055,  -0.00032,216475829.03244,   0.00000,274640135.82653,   0.00000,   0.00000,   0.00000,-258164306.79409,   0.00000
-190276417.84550,39848006.00758,-24338144.17670,  -0.00094,   0.00055,  -0.00032,217145459.07801,   0.00000,274640135.82653,   0.00000,   0.00000,   0.00000,-257494676.74852,   0.00000
-190395826.53367,40736937.35290,-24295687.75424,  -0.00095,   0.00056,  -0.00032,217800489.01332,   0.00000,274640135.82653,   0.00000,   0.00000,   0.00000,-256839646.81320,   0.00000
-190533809.90668,41617908.11899,-24247924.27897,  -0.00095,   0.00056,  -0.00032,218468961.37330,   0.00000,274640135.82653,   0.00000,   0.00000,   0.00000,-256171174.45323,   0.00000
-190671793.27968,42498878.88509,-24200160.80370,  -0.00095,   0.00057,  -0.00031,219139609.05585,   0.00000,274640135.82653,   0.00000,   0.00000,   0.00000,-255500526.77068,   0.00000
-190809776.65268,43379849.65119,-24152397.32843,  -0.00095,   0.00057,  -0.00031,219812412.15024,   0.00000,274640135.82653,   0.00000,   0.00000,   0.00000,-254827723.67628,   0.00000
-190937145.92007,44250206.31168,-24104633.85316,  -0.00096,   0.00057,  -0.00031,220470366.87464,   0.00000,274640135.82653,   0.00000,   0.00000,   0.00000,-254169768.95189,   0.00000
-191075129.29307,45131177.07778,-24056870.37789,  -0.00096,   0.00058,  -0.00031,221147400.41703,   0.00000,274640135.82653,   0.00000,   0.00000,   0.00000,-253492735.40950,   0.00000
-191213112.66608,46012147.84388,-24003799.84981,  -0.00096,   0.00058,  -0.00031,221824807.98149,   0.00000,274640135.82653,   0.00000,   0.00000,   0.00000,-252815327.84504,   0.00000
-191359056.61829,46874543.92515,-23950729.32173,  -0.00096,   0.00059,  -0.00031,222500094.89457,   0.00000,274640135.82653,   0.00000,   0.00000,   0.00000,-252140040.93196,   0.00000
-191486425.88568,47744900.58563,-23892351.74085,  -0.00096,   0.00059,  -0.00031,223162856.70545,   0.00000,274640135.82653,   0.00000,   0.00000,   0.00000,-251477279.12107,   0.00000
-191624409.25868,48625871.35173,-23839281.21277,  -0.00097,   0.00059,  -0.00031,223846437.20002,   0.00000,274640135.82653,   0.00000,   0.00000,   0.00000,-250793698.62651,   0.00000
-191770353.21090,49488267.43301,-23780903.63188,  -0.00097,   0.00060,  -0.00031,224526019.96700,   0.00000,274640135.82653,   0.00000,   0.00000,   0.00000,-250114115.85953,   0.00000
-191916297.16311,50350663.51428,-23722526.05100,  -0.00097,   0.00060,  -0.00031,225207553.29521,   0.00000,274640135.82653,   0.00000,   0.00000,   0.00000,-249432582.53132,   0.00000
-192043666.43050,51221020.17476,-23664148.47011,  -0.00097,   0.00061,  -0.00031,225878310.16928,   0.00000,274640135.82653,   0.00000,   0.00000,   0.00000,-248761825.65724,   0.00000
-192197570.96193,52064841.57121,-23600463.83642,  -0.00098,   0.00061,  -0.00031,226557577.17165,   0.00000,274640135.82653,   0.00000,   0.00000,   0.00000,-248082558.65488,   0.00000
-192343514.91414,52927237.65248,-23542086.25553,  -0.00098,   0.00062,  -0.00031,227244847.28066,   0.00000,274640135.82653,   0.00000,   0.00000,   0.00000,-247395288.54587,   0.00000
-192478844.76074,53779019.62813,-23478401.62184,  -0.00098,   0.00062,  -0.00031,227915155.77322,   0.00000,274640135.82653,   0.00000,   0.00000,   0.00000,-246724980.05331,   0.00000
-192624788.71296,54641415.70941,-23409409.93533,  -0.00098,   0.00062,  -0.00030,228602900.49342,   0.00000,274640135.82653,   0.00000,   0.00000,   0.00000,-246037235.33311,   0.00000
-192760118.55956,55493197.68506,-23345725.30164,  -0.00099,   0.00063,  -0.00030,229276911.90133,   0.00000,274640135.82653,   0.00000,   0.00000,   0.00000,-245363223.92520,   0.00000
-192914023.09099,56337019.08151,-23276733.61514,  -0.00099,   0.00063,  -0.00030,229963692.80275,   0.00000,274640135.82653,   0.00000,   0.00000,   0.00000,-244676443.02378,   0.00000
-193049352.93759,57188801.05716,-23207741.92864,  -0.00099,   0.00064,  -0.00030,230639698.51614,   0.00000,274640135.82653,   0.00000,   0.00000,   0.00000,-244000437.31039,   0.00000
-193203257.46901,58032622.45361,-23133443.18933,  -0.00099,   0.00064,  -0.00030,231328433.71356,   0.00000,274640135.82653,   0.00000,   0.00000,   0.00000,-243311702.11297,   0.00000
-193338587.31561,58884404.42927,-23064451.50282,  -0.00099,   0.00064,  -0.00030,232008010.13508,   0.00000,274640135.82653,   0.00000,   0.00000,   0.00000,-242632125.69145,   0.00000
-193500452.42625,59709651.14088,-22990152.76352,  -0.00100,   0.00065,  -0.00030,232695409.08831,   0.00000,274640135.82653,   0.00000,   0.00000,   0.00000,-241944726.73822,   0.00000
-193635782.27285,60561433.11654,-22915854.02421,  -0.00100,   0.00065,  -0.00030,233376890.31181,   0.00000,274640135.82653,   0.00000,   0.00000,   0.00000,-241263245.51472,   0.00000
-193797647.38349,61386679.82816,-22841555.28490,  -0.00100,   0.00066,  -0.00030,234067632.67607,   0.00000,274640135.82653,   0.00000,   0.00000,   0.00000,-240572503.15046,   0.00000
-193940937.80930,62219887.11899,-22761949.49278,  -0.00100,   0.00066,  -0.00030,234746041.50833,   0.00000,274640135.82653,   0.00000,   0.00000,   0.00000,-239894094.31820,   0.00000
-194084228.23511,63053094.40982,-22682343.70066,  -0.00101,   0.00067,  -0.00029,235426119.36211,   0.00000,274640135.82653,   0.00000,   0.00000,   0.00000,-239214016.46442,   0.00000
-194227518.66092,63886301.70065,-22602737.90854,  -0.00101,   0.00067,  -0.00029,236107851.81521,   0.00000,274640135.82653,   0.00000,   0.00000,   0.00000,-238532284.01132,   0.00000
-194370809.08674,64719508.99147,-22523132.11643,  -0.00101,   0.00067,  -0.00029,236791224.57663,   0.00000,274640135.82653,   0.00000,   0.00000,   0.00000,-237848911.24990,   0.00000
-194540634.77659,65526181.01826,-22438219.27150,  -0.00101,   0.00068,  -0.00029,237481925.37564,   0.00000,274640135.82653,   0.00000,   0.00000,   0.00000,-237158210.45089,   0.00000
-194683925.20240,66359388.30909,-22353306.42658,  -0.00102,   0.00068,  -0.00029,238166992.38899,   0.00000,274640135.82653,   0.00000,   0.00000,   0.00000,-236473143.43754,   0.00000
-194835176.20742,67174020.91510,-22268393.58165,  -0.00102,   0.00069,  -0.00029,238848490.12157,   0.00000,274640135.82653,   0.00000,   0.00000,   0.00000,-235791645.70496,   0.00000
-194967852.52762,67996614.10031,-22178173.68392,  -0.00102,   0.00069,  -0.00029,239517788.57213,   0.00000,274640135.82653,   0.00000,   0.00000,   0.00000,-235122347.25440,   0.00000
-195119103.53264,68811246.70631,-22093260.83899,  -0.00102,   0.00069,  -0.00029,240202367.87021,   0.00000,274640135.82653,   0.00000,   0.00000,   0.00000,-234437767.95632,   0.00000
-195270354.53766,69625879.31231,-22003040.94126,  -0.00102,   0.00070,  -0.00029,240886998.40709,   0.00000,274640135.82653,   0.00000,   0.00000,   0.00000,-233753137.41944,   0.00000
-195429566.12190,70421937.23349,-21907513.99072,  -0.00103,   0.00070,  -0.00028,241566369.15157,   0.00000,274640135.82653,   0.00000,   0.00000,   0.00000,-233073766.67496,   0.00000
-195562242.44209,71244530.41870,-21817294.09298,  -0.00103,   0.00071,  -0.00028,242241814.88462,   0.00000,274640135.82653,   0.00000,   0.00000,   0.00000,-232398320.94191,   0.00000
-195721454.02633,72040588.33987,-21721767.14244,  -0.00103,   0.00071,  -0.00028,242924120.12128,   0.00000,274640135.82653,   0.00000,   0.00000,   0.00000,-231716015.70525,   0.00000
-195862090.92574,72844606.84026,-21626240.19190,  -0.00103,   0.00071,  -0.00028,243595720.83767,   0.00000,274640135.82653,   0.00000,   0.00000,   0.00000,-231044414.98886,   0.00000
-196021302.50997,73640664.76143,-21530713.24136,  -0.00104,   0.00072,  -0.00028,244280888.33655,   0.00000,274640135.82653,   0.00000,   0.00000,   0.00000,-230359247.48998,   0.00000
-196161939.40938,74444683.26182,-21429879.23801,  -0.00104,   0.00072,  -0.00028,244953975.18437,   0.00000,274640135.82653,   0.00000,   0.00000,   0.00000,-229686160.64216,   0.00000
-196310536.88800,75230127.07738,-21329045.23466,  -0.00104,   0.00073,  -0.00028,245622983.57831,   0.00000,274640135.82653,   0.00000,   0.00000,   0.00000,-229017152.24822,   0.00000
-196469748.47223,76026184.99855,-21228211.23132,  -0.00104,   0.00073,  -0.00028,246310980.61270,   0.00000,274640135.82653,   0.00000,   0.00000,   0.00000,-228329155.21383,   0.00000
-196618345.95085,76811628.81411,-21127377.22797,  -0.00104,   0.00073,  -0.00027,246982740.08186,   0.00000,274640135.82653,   0.00000,   0.00000,   0.00000,-227657395.74467,   0.00000
-196766943.42947,77597072.62967,-21021236.17181,  -0.00105,   0.00074,  -0.00027,247654500.50072,   0.00000,274640135.82653,   0.00000,   0.00000,   0.00000,-226985635.32581,   0.00000
-196896966.22326,78390477.02444,-20915095.11565,  -0.00105,   0.00074,  -0.00027,248315631.63450,   0.00000,274640135.82653,   0.00000,   0.00000,   0.00000,-226324504.19203,   0.00000
-197053524.28109,79157346.15517,-20808954.05950,  -0.00105,   0.00074,  -0.00027,248984434.49681,   0.00000,274640135.82653,   0.00000,   0.00000,   0.00000,-225655701.32972,   0.00000
-197202121.75971,79942789.97073,-20697505.95053,  -0.00105,   0.00075,  -0.00027,249658916.43235,   0.00000,274640135.82653,   0.00000,   0.00000,   0.00000,-224981219.39418,   0.00000
-197340105.13272,80717619.68067,-20591364.89438,  -0.00106,   0.00075,  -0.00027,250318372.67606,   0.00000,274640135.82653,   0.00000,   0.00000,   0.00000,-224321763.15047,   0.00000
-197496663.19055,81484488.81141,-20479916.78541,  -0.00106,   0.00076,  -0.00027,250989739.83992,   0.00000,274640135.82653,   0.00000,   0.00000,   0.00000,-223650395.98661,   0.00000
-197634646.56355,82259318.52135,-20363161.62364,  -0.00106,   0.00076,  -0.00026,251649191.14186,   0.00000,274640135.82653,   0.00000,   0.00000,   0.00000,-222990944.68467,   0.00000
-197780590.51577,83015573.54646,-20251713.51468,  -0.00106,   0.00076,  -0.00026,252305394.89848,   0.00000,274640135.82653,   0.00000,   0.00000,   0.00000,-222334740.92805,   0.00000
-197937148.57360,83782442.67720,-20134958.35290,  -0.00106,   0.00077,  -0.00026,252979287.55943,   0.00000,274640135.82653,   0.00000,   0.00000,   0.00000,-221660848.26710,   0.00000
-198083092.52581,84538697.70231,-20018203.19113,  -0.00107,   0.00077,  -0.00026,253636698.86232,   0.00000,274640135.82653,   0.00000,   0.00000,   0.00000,-221003436.96421,   0.00000
-198210461.79320,85302913.30664,-19901448.02936,  -0.00107,   0.00077,  -0.00026,254283516.81280,   0.00000,274640135.82653,   0.00000,   0.00000,   0.00000,-220356619.01373,   0.00000
-198356405.74542,86059168.33175,-19779385.81478,  -0.00107,   0.00078,  -0.00026,254942157.70553,   0.00000,274640135.82653,   0.00000,   0.00000,   0.00000,-219697978.12100,   0.00000
-198502349.69763,86815423.35687,-19657323.60020,  -0.00107,   0.00078,  -0.00026,255602028.95872,   0.00000,274640135.82653,   0.00000,   0.00000,   0.00000,-219038106.86781,   0.00000
-198637679.54423,87561064.27637,-19535261.38562,  -0.00107,   0.00079,  -0.00025,256245338.78770,   0.00000,274640135.82653,   0.00000,   0.00000,   0.00000,-218394797.03883,   0.00000
-198791584.07566,88298744.61666,-19413199.17104,  -0.00108,   0.00079,  -0.00025,256901588.98027,   0.00000,274640135.82653,   0.00000,   0.00000,   0.00000,-217738546.84626,   0.00000
-198926913.92226,89044385.53616,-19285829.90365,  -0.00108,   0.00079,  -0.00025,257546062.28823,   0.00000,274640135.82653,   0.00000,   0.00000,   0.00000,-217094073.53830,   0.00000
-199062243.76886,89790026.45566,-19158460.63626,  -0.00108,   0.00080,  -0.00025,258191730.54415,   0.00000,274640135.82653,   0.00000,   0.00000,   0.00000,-216448405.28238,   0.00000
-199197573.61546,90535667.37516,-19031091.36887,  -0.00108,   0.00080,  -0.00025,258838584.80568,   0.00000,274640135.82653,   0.00000,   0.00000,   0.00000,-215801551.02085,   0.00000
-199340864.04127,91262733.60983,-18903722.10149,  -0.00108,   0.00080,  -0.00025,259480463.47091,   0.00000,274640135.82653,   0.00000,   0.00000,   0.00000,-215159672.35562,   0.00000
-199457619.20304,92016335.10854,-18771045.78129,  -0.00109,   0.00081,  -0.00024,260116826.43124,   0.00000,274640135.82653,   0.00000,   0.00000,   0.00000,-214523309.39529,   0.00000
-199600909.62885,92743401.34322,-18638369.46110,  -0.00109,   0.00081,  -0.00024,260759842.26115,   0.00000,274640135.82653,   0.00000,   0.00000,   0.00000,-213880293.56538,   0.00000
-199733585.94905,93459853.47227,-18505693.14090,  -0.00109,   0.00081,  -0.00024,261386119.14042,   0.00000,274640135.82653,   0.00000,   0.00000,   0.00000,-213254016.68611,   0.00000
-199858301.69003,94194880.28616,-18367709.76790,  -0.00109,   0.00082,  -0.00024,262018631.61765,   0.00000,274640135.82653,   0.00000,   0.00000,   0.00000,-212621504.20888,   0.00000
-199990978.01023,94911332.41521,-18229726.39489,  -0.00110,   0.00082,  -0.00024,262646018.95629,   0.00000,274640135.82653,   0.00000,   0.00000,   0.00000,-211994116.87024,   0.00000
-200123654.33042,95627784.54427,-18091743.02189,  -0.00110,   0.00083,  -0.00024,263274505.78178,   0.00000,274640135.82653,   0.00000,   0.00000,   0.00000,-211365630.04475,   0.00000
-200256330.65062,96344236.67333,-17953759.64889,  -0.00110,   0.00083,  -0.00023,263904084.23884,   0.00000,274640135.82653,   0.00000,   0.00000,   0.00000,-210736051.58769,   0.00000
-200370432.28599,97068649.38160,-17810469.22307,  -0.00110,   0.00083,  -0.00023,264522132.35774,   0.00000,274640135.82653,   0.00000,   0.00000,   0.00000,-210118003.46879,   0.00000
-200511069.18539,97766526.82583,-17672485.85007,  -0.00110,   0.00084,  -0.00023,265147513.14354,   0.00000,274640135.82653,   0.00000,   0.00000,   0.00000,-209492622.68298,   0.00000
-200625170.82076,98490939.53409,-17529195.42426,  -0.00110,   0.00084,  -0.00023,265767763.24859,   0.00000,274640135.82653,   0.00000,   0.00000,   0.00000,-208872372.57794,   0.00000
-200747233.03534,99196777.55754,-17380597.94564,  -0.00111,   0.00084,  -0.00023,266381655.57089,   0.00000,274640135.82653,   0.00000,   0.00000,   0.00000,-208258480.25564,   0.00000
-200877255.82913,99884040.89615,-17237307.51983,  -0.00111,   0.00085,  -0.00022,266991198.13793,   0.00000,274640135.82653,   0.00000,   0.00000,   0.00000,-207648937.68859,   0.00000
-200980743.35889,100597839.49880,-17088710.04121,  -0.00111,   0.00085,  -0.00022,267595749.42122,   0.00000,274640135.82653,   0.00000,   0.00000,   0.00000,-207044386.40531,   0.00000
-201110766.15268,101285102.83742,-16940112.56259,  -0.00111,   0.00085,  -0.00022,268206336.97153,   0.00000,274640135.82653,   0.00000,   0.00000,   0.00000,-206433798.85499,   0.00000
-201222214.26164,101980326.75524,-16786208.03116,  -0.00111,   0.00086,  -0.00022,268805513.44509,   0.00000,274640135.82653,   0.00000,   0.00000,   0.00000,-205834622.38144,   0.00000
-201333662.37061,102675550.67307,-16637610.55254,  -0.00112,   0.00086,  -0.00022,269406731.94484,   0.00000,274640135.82653,   0.00000,   0.00000,   0.00000,-205233403.88169,   0.00000
-201445110.47957,103370774.59089,-16483706.02112,  -0.00112,   0.00086,  -0.00021,270008007.98502,   0.00000,274640135.82653,   0.00000,   0.00000,   0.00000,-204632127.84150,   0.00000
-201564519.16775,104047423.82389,-16329801.48969,  -0.00112,   0.00087,  -0.00021,270603728.71691,   0.00000,274640135.82653,   0.00000,   0.00000,   0.00000,-204036407.10962,   0.00000
-201665353.17110,104732033.63610,-16170589.90545,  -0.00112,   0.00087,  -0.00021,271188126.62873,   0.00000,274640135.82653,   0.00000,   0.00000,   0.00000,-203452009.19780,   0.00000
-201766187.17445,105416643.44831,-16016685.37403,  -0.00112,   0.00087,  -0.00021,271774501.83420,   0.00000,274640135.82653,   0.00000,   0.00000,   0.00000,-202865633.99233,   0.00000
-201885595.86262,106093292.68131,-15857473.78979,  -0.00113,   0.00088,  -0.00021,272372294.11918,   0.00000,274640135.82653,   0.00000,   0.00000,   0.00000,-202267841.70735,   0.00000
-201975815.76035,106767288.38790,-15698262.20556,  -0.00113,   0.00088,  -0.00020,272941752.94238,   0.00000,274640135.82653,   0.00000,   0.00000,   0.00000,-201698382.88415,   0.00000
-202084610.34292,107433323.51529,-15533743.56852,  -0.00113,   0.00088,  -0.00020,273522616.29923,   0.00000,274640135.82653,   0.00000,   0.00000,   0.00000,-201117519.52730,   0.00000
-202193404.92548,108099358.64267,-15374531.98428,  -0.00113,   0.00089,  -0.00020,274105363.73764,   0.00000,274640135.82653,   0.00000,   0.00000,   0.00000,-200534772.08889,   0.00000
-202283624.82321,108773354.34926,-15210013.34724,  -0.00113,   0.00089,  -0.00020,274676918.22944,   0.00000,274640135.82653,   0.00000,   0.00000,   0.00000,-199963217.59709,   0.00000
-202373844.72094,109447350.05586,-15045494.71020,  -0.00113,   0.00089,  -0.00020,275249481.77959,   0.00000,274640135.82653,   0.00000,   0.00000,   0.00000,-199390654.04694,   0.00000
-202472025.19789,110102771.07762,-14875669.02034,  -0.00114,   0.00090,  -0.00019,275815389.00703,   0.00000,274640135.82653,   0.00000,   0.00000,   0.00000,-198824746.81950,   0.00000
-202551630.99000,110766152.67860,-14711150.38330,  -0.00114,   0.00090,  -0.00019,276371891.68993,   0.00000,274640135.82653,   0.00000,   0.00000,   0.00000,-198268244.13660,   0.00000
-202657772.04616,111402999.01554,-14541324.69345,  -0.00114,   0.00090,  -0.00019,276932906.51644,   0.00000,274640135.82653,   0.00000,   0.00000,   0.00000,-197707229.31009,   0.00000
-202737377.83828,112066380.61652,-14371499.00360,  -0.00114,   0.00091,  -0.00019,277490508.19457,   0.00000,274640135.82653,   0.00000,   0.00000,   0.00000,-197149627.63196,   0.00000
-202824944.20961,112711187.53267,-14201673.31375,  -0.00114,   0.00091,  -0.00018,278042213.85700,   0.00000,274640135.82653,   0.00000,   0.00000,   0.00000,-196597921.96953,   0.00000
-202893935.89611,113363955.02803,-14026540.57109,  -0.00114,   0.00091,  -0.00018,278582889.04485,   0.00000,274640135.82653,   0.00000,   0.00000,   0.00000,-196057246.78168,   0.00000
-202981502.26744,114008761.94419,-13851407.82843,  -0.00115,   0.00091,  -0.00018,279135705.93953,   0.00000,274640135.82653,   0.00000,   0.00000,   0.00000,-195504429.88699,   0.00000
-203058454.53315,114642954.75472,-13676275.08578,  -0.00115,   0.00092,  -0.00018,279671388.86300,   0.00000,274640135.82653,   0.00000,   0.00000,   0.00000,-194968746.96353,   0.00000
-203127446.21965,115295722.25008,-13501142.34312,  -0.00115,   0.00092,  -0.00018,280214973.06765,   0.00000,274640135.82653,   0.00000,   0.00000,   0.00000,-194425162.75888,   0.00000
-203185823.80054,115937875.63983,-13326009.60046,  -0.00115,   0.00092,  -0.00017,280741429.73305,   0.00000,274640135.82653,   0.00000,   0.00000,   0.00000,-193898706.09348,   0.00000
-203262776.06625,116572068.45037,-13145569.80499,  -0.00115,   0.00093,  -0.00017,281279191.44234,   0.00000,274640135.82653,   0.00000,   0.00000,   0.00000,-193360944.38419,   0.00000
-203329114.22635,117195647.15529,-12965130.00953,  -0.00115,   0.00093,  -0.00017,281799785.87639,   0.00000,274640135.82653,   0.00000,   0.00000,   0.00000,-192840349.95014,   0.00000
-203395452.38645,117819225.86021,-12784690.21406,  -0.00116,   0.00093,  -0.00017,282321305.76535,   0.00000,274640135.82653,   0.00000,   0.00000,   0.00000,-192318830.06118,   0.00000
-203461790.54655,118442804.56513,-12598943.36579,  -0.00116,   0.00094,  -0.00016,282843036.65043,   0.00000,274640135.82653,   0.00000,   0.00000,   0.00000,-191797099.17610,   0.00000
-203509554.02182,119074343.84926,-12418503.57032,  -0.00116,   0.00094,  -0.00016,283355363.89183,   0.00000,274640135.82653,   0.00000,   0.00000,   0.00000,-191284771.93470,   0.00000
-203557317.49709,119705883.13339,-12232756.72205,  -0.00116,   0.00094,  -0.00016,283867943.65280,   0.00000,274640135.82653,   0.00000,   0.00000,   0.00000,-190772192.17373,   0.00000
-203613041.55157,120318847.73269,-12047009.87377,  -0.00116,   0.00094,  -0.00016,284374354.84434,   0.00000,274640135.82653,   0.00000,   0.00000,   0.00000,-190265780.98219,   0.00000
-203668765.60605,120931812.33200,-11855955.97269,  -0.00116,   0.00095,  -0.00015,284881016.09906,   0.00000,274640135.82653,   0.00000,   0.00000,   0.00000,-189759119.72747,   0.00000
-203705914.97571,121552737.51051,-11670209.12442,  -0.00116,   0.00095,  -0.00015,285378276.58705,   0.00000,274640135.82653,   0.00000,   0.00000,   0.00000,-189261859.23948,   0.00000
-203751024.92457,122155088.00420,-11479155.22333,  -0.00117,   0.00095,  -0.00015,285868646.54533,   0.00000,274640135.82653,   0.00000,   0.00000,   0.00000,-188771489.28120,   0.00000
-203796134.87344,122757438.49789,-11288101.32225,  -0.00117,   0.00096,  -0.00015,286359928.20773,   0.00000,274640135.82653,   0.00000,   0.00000,   0.00000,-188280207.61880,   0.00000
-203841244.82231,123359788.99158,-11097047.42117,  -0.00117,   0.00096,  -0.00014,286852116.88990,   0.00000,274640135.82653,   0.00000,   0.00000,   0.00000,-187788018.93663,   0.00000
-203867780.08635,123970100.06448,-10905993.52009,  -0.00117,   0.00096,  -0.00014,287334280.32266,   0.00000,274640135.82653,   0.00000,   0.00000,   0.00000,-187305855.50387,   0.00000
-203894315.35038,124580411.13738,-10709632.56620,  -0.00117,   0.00096,  -0.00014,287816776.77890,   0.00000,274640135.82653,   0.00000,   0.00000,   0.00000,-186823359.04763,   0.00000
-203928811.19364,125172147.52545,-10513271.61231,  -0.00117,   0.00097,  -0.00014,288292942.04053,   0.00000,274640135.82653,   0.00000,   0.00000,   0.00000,-186347193.78600,   0.00000
-203944732.35206,125771844.49274,-10316910.65842,  -0.00117,   0.00097,  -0.00013,288759124.22010,   0.00000,274640135.82653,   0.00000,   0.00000,   0.00000,-185881011.60643,   0.00000
-203960653.51048,126371541.46002,-10120549.70453,  -0.00117,   0.00097,  -0.00013,289226232.26755,   0.00000,274640135.82653,   0.00000,   0.00000,   0.00000,-185413903.55898,   0.00000
-203984535.24812,126952663.74248,-9924188.75064,  -0.00118,   0.00098,  -0.00013,289686931.23922,   0.00000,274640135.82653,   0.00000,   0.00000,   0.00000,-184953204.58731,   0.00000
-204008416.98575,127533786.02494,-9722520.74394,  -0.00118,   0.00098,  -0.00013,290147977.43028,   0.00000,274640135.82653,   0.00000,   0.00000,   0.00000,-184492158.39625,   0.00000
-204013724.03856,128122868.88661,-9520852.73725,  -0.00118,   0.00098,  -0.00012,290599092.65930,   0.00000,274640135.82653,   0.00000,   0.00000,   0.00000,-184041043.16723,   0.00000
-204019031.09137,128711951.74828,-9319184.73055,  -0.00118,   0.00098,  -0.00012,291051131.01996,   0.00000,274640135.82653,   0.00000,   0.00000,   0.00000,-183589004.80657,   0.00000
-204024338.14418,129301034.60994,-9117516.72385,  -0.00118,   0.00099,  -0.00012,291504088.21773,   0.00000,274640135.82653,   0.00000,   0.00000,   0.00000,-183136047.60880,   0.00000
-204019031.09137,129879503.36600,-8910541.66434,  -0.00118,   0.00099,  -0.00012,291939264.46382,   0.00000,274640135.82653,   0.00000,   0.00000,   0.00000,-182700871.36271,   0.00000
-204013724.03856,130457972.12205,-8708873.65765,  -0.00118,   0.00099,  -0.00011,292375840.74368,   0.00000,274640135.82653,   0.00000,   0.00000,   0.00000,-182264295.08285,   0.00000
-204008416.98575,131036440.87810,-8501898.59814,  -0.00118,   0.00099,  -0.00011,292812852.77348,   0.00000,274640135.82653,   0.00000,   0.00000,   0.00000,-181827283.05305,   0.00000
-204011070.51216,131596334.94933,-8294923.53864,  -0.00118,   0.00100,  -0.00011,293243309.73040,   0.00000,274640135.82653,   0.00000,   0.00000,   0.00000,-181396826.09613,   0.00000
-203995149.35373,132164189.59977,-8087948.47913,  -0.00119,   0.00100,  -0.00011,293663910.45009,   0.00000,274640135.82653,   0.00000,   0.00000,   0.00000,-180976225.37644,   0.00000
-203979228.19531,132732044.25021,-7875666.36682,  -0.00119,   0.00100,  -0.00010,294084986.71490,   0.00000,274640135.82653,   0.00000,   0.00000,   0.00000,-180555149.11163,   0.00000
-203944732.35206,133307859.47986,-7668691.30731,  -0.00119,   0.00100,  -0.00010,294496691.75459,   0.00000,274640135.82653,   0.00000,   0.00000,   0.00000,-180143444.07194,   0.00000
-203918197.08802,133865100.02468,-7456409.19500,  -0.00119,   0.00101,  -0.00010,294901373.46668,   0.00000,274640135.82653,   0.00000,   0.00000,   0.00000,-179738762.35985,   0.00000
-203883701.24477,134440915.25433,-7244127.08269,  -0.00119,   0.00101,  -0.00009,295314521.92543,   0.00000,274640135.82653,   0.00000,   0.00000,   0.00000,-179325613.90110,   0.00000
-203865126.55994,134979581.11432,-7031844.97037,  -0.00119,   0.00101,  -0.00009,295713454.31522,   0.00000,274640135.82653,   0.00000,   0.00000,   0.00000,-178926681.51131,   0.00000
-203820016.61108,135544782.23836,-6819562.85806,  -0.00119,   0.00101,  -0.00009,296110192.73823,   0.00000,274640135.82653,   0.00000,   0.00000,   0.00000,-178529943.08830,   0.00000
-203774906.66221,136109983.36239,-6607280.74575,  -0.00119,   0.00102,  -0.00009,296507854.51338,   0.00000,274640135.82653,   0.00000,   0.00000,   0.00000,-178132281.31315,   0.00000
-203737757.29255,136656609.80160,-6389691.58063,  -0.00119,   0.00102,  -0.00008,296898464.84065,   0.00000,274640135.82653,   0.00000,   0.00000,   0.00000,-177741670.98588,   0.00000
-203682033.23807,137211196.82001,-6172102.41551,  -0.00119,   0.00102,  -0.00008,297279369.10049,   0.00000,274640135.82653,   0.00000,   0.00000,   0.00000,-177360766.72604,   0.00000
-203626309.18359,137765783.83843,-5954513.25038,  -0.00120,   0.00102,  -0.00008,297661202.99310,   0.00000,274640135.82653,   0.00000,   0.00000,   0.00000,-176978932.83343,   0.00000
-203578545.70832,138301796.17202,-5736924.08526,  -0.00120,   0.00103,  -0.00007,298036283.90609,   0.00000,274640135.82653,   0.00000,   0.00000,   0.00000,-176603851.92044,   0.00000
-203512207.54822,138845769.08483,-5519334.92014,  -0.00120,   0.00103,  -0.00007,298401682.90908,   0.00000,274640135.82653,   0.00000,   0.00000,   0.00000,-176238452.91745,   0.00000
-203445869.38812,139389741.99763,-5301745.75502,  -0.00120,   0.00103,  -0.00007,298767994.79513,   0.00000,274640135.82653,   0.00000,   0.00000,   0.00000,-175872141.03140,   0.00000
-203379531.22803,139933714.91043,-5078849.53709,  -0.00120,   0.00103,  -0.00007,299134945.75276,   0.00000,274640135.82653,   0.00000,   0.00000,   0.00000,-175505190.07377,   0.00000
-203302578.96231,140467073.71762,-4855953.31916,  -0.00120,   0.00104,  -0.00006,299484551.53065,   0.00000,274640135.82653,   0.00000,   0.00000,   0.00000,-175155584.29588,   0.00000
-203217666.11739,141019007.20963,-4633057.10123,  -0.00120,   0.00104,  -0.00006,299842841.15888,   0.00000,274640135.82653,   0.00000,   0.00000,   0.00000,-174797294.66765,   0.00000
-203140713.85167,141552366.01682,-4410160.88331,  -0.00120,   0.00104,  -0.00006,300194302.38801,   0.00000,274640135.82653,   0.00000,   0.00000,   0.00000,-174445833.43852,   0.00000
-203053147.48034,142075110.71839,-4187264.66538,  -0.00120,   0.00104,  -0.00005,300528394.25492,   0.00000,274640135.82653,   0.00000,   0.00000,   0.00000,-174111741.57161,   0.00000
-202957620.52980,142616430.10479,-3964368.44745,  -0.00120,   0.00104,  -0.00005,300871204.70566,   0.00000,274640135.82653,   0.00000,   0.00000,   0.00000,-173768931.12087,   0.00000
-202870054.15847,143139174.80636,-3741472.22952,  -0.00120,   0.00105,  -0.00005,301207121.80658,   0.00000,274640135.82653,   0.00000,   0.00000,   0.00000,-173433014.01995,   0.00000
-202763913.10232,143669880.08714,-3513268.95878,  -0.00120,   0.00105,  -0.00005,301533306.88094,   0.00000,274640135.82653,   0.00000,   0.00000,   0.00000,-173106828.94559,   0.00000
-202657772.04616,144200585.36792,-3285065.68805,  -0.00120,   0.00105,  -0.00004,301860440.79890,   0.00000,274640135.82653,   0.00000,   0.00000,   0.00000,-172779695.02763,   0.00000
-202533056.30518,144739251.22792,-3056862.41731,  -0.00120,   0.00105,  -0.00004,302178102.92005,   0.00000,274640135.82653,   0.00000,   0.00000,   0.00000,-172462032.90647,   0.00000
-202434875.82823,145251381.82387,-2828659.14657,  -0.00120,   0.00106,  -0.00004,302499243.39481,   0.00000,274640135.82653,   0.00000,   0.00000,   0.00000,-172140892.43172,   0.00000
-202299545.98163,145779433.57825,-2600455.87584,  -0.00120,   0.00106,  -0.00003,302800511.71918,   0.00000,274640135.82653,   0.00000,   0.00000,   0.00000,-171839624.10735,   0.00000
-202182790.81986,146299524.75342,-2372252.60510,  -0.00121,   0.00106,  -0.00003,303113115.52672,   0.00000,274640135.82653,   0.00000,   0.00000,   0.00000,-171527020.29981,   0.00000
-202055421.55247,146809001.82297,-2144049.33436,  -0.00121,   0.00106,  -0.00003,303408341.98929,   0.00000,274640135.82653,   0.00000,   0.00000,   0.00000,-171231793.83724,   0.00000
-201920091.70587,147337053.57735,-1910539.01082,  -0.00121,   0.00106,  -0.00002,303712351.80564,   0.00000,274640135.82653,   0.00000,   0.00000,   0.00000,-170927784.02089,   0.00000
-201792722.43848,147846530.64690,-1682335.74008,  -0.00121,   0.00107,  -0.00002,304009447.44598,   0.00000,274640135.82653,   0.00000,   0.00000,   0.00000,-170630688.38055,   0.00000
-201646778.48627,148363968.29567,-1448825.41654,  -0.00121,   0.00107,  -0.00002,304297065.21400,   0.00000,274640135.82653,   0.00000,   0.00000,   0.00000,-170343070.61253,   0.00000
-201500834.53405,148881405.94443,-1215315.09299,  -0.00121,   0.00107,  -0.00002,304585649.48244,   0.00000,274640135.82653,   0.00000,   0.00000,   0.00000,-170054486.34409,   0.00000
-201344276.47622,149388229.48758,-981804.76945,  -0.00121,   0.00107,  -0.00001,304856880.48857,   0.00000,274640135.82653,   0.00000,   0.00000,   0.00000,-169783255.33796,   0.00000
-201187718.41839,149895053.03073,-748294.44590,  -0.00121,   0.00107,  -0.00001,305129068.62617,   0.00000,274640135.82653,   0.00000,   0.00000,   0.00000,-169511067.20036,   0.00000
-201031160.36056,150401876.57387,-514784.12236,  -0.00121,   0.00108,  -0.00001,305402211.33611,   0.00000,274640135.82653,   0.00000,   0.00000,   0.00000,-169237924.49042,   0.00000
-200856027.61790,150916660.69623,-281273.79882,  -0.00121,   0.00108,  -0.00000,305666060.62793,   0.00000,274640135.82653,   0.00000,   0.00000,   0.00000,-168974075.19860,   0.00000
-200680894.87524,151431444.81859,-42456.42246,  -0.00121,   0.00108,  -0.00000,305930886.49867,   0.00000,274640135.82653,   0.00000,   0.00000,   0.00000,-168709249.32786,   0.00000
-200513722.71180,151927654.25612,191053.90108,  -0.00121,   0.00108,   0.00000,306188592.48192,   0.00000,274640135.82653,   0.00000,   0.00000,   0.00000,-168451543.34461,   0.00000
-200327975.86352,152431824.27287,429871.27743,  -0.00121,   0.00108,   0.00001,306437060.66082,   0.00000,274640135.82653,   0.00000,   0.00000,   0.00000,-168203075.16571,   0.00000
-200142229.01525,152935994.28961,663381.60098,  -0.00121,   0.00109,   0.00001,306686486.82943,   0.00000,274640135.82653,   0.00000,   0.00000,   0.00000,-167953648.99710,   0.00000
-199956482.16698,153440164.30635,902198.97733,  -0.00121,   0.00109,   0.00001,306936925.36050,   0.00000,274640135.82653,   0.00000,   0.00000,   0.00000,-167703210.46603,   0.00000
-199760121.21309,153933720.21748,1141016.35368,  -0.00121,   0.00109,   0.00001,307170019.06346,   0.00000,274640135.82653,   0.00000,   0.00000,   0.00000,-167470116.76307,   0.00000
-199563760.25920,154427276.12861,1379833.73004,  -0.00121,   0.00109,   0.00002,307404095.21584,   0.00000,274640135.82653,   0.00000,   0.00000,   0.00000,-167236040.61069,   0.00000
-199348824.62048,154928792.61895,1613344.05358,  -0.00121,   0.00109,   0.00002,307628942.08038,   0.00000,274640135.82653,   0.00000,   0.00000,   0.00000,-167011193.74615,   0.00000
-199133888.98176,155430309.10929,1857468.48274,  -0.00121,   0.00110,   0.00002,307854964.58052,   0.00000,274640135.82653,   0.00000,   0.00000,   0.00000,-166785171.24601,   0.00000
-198918953.34305,155931825.59963,2096285.85909,  -0.00121,   0.00110,   0.00003,308081909.59270,   0.00000,274640135.82653,   0.00000,   0.00000,   0.00000,-166558226.23383,   0.00000
-198711978.28354,156414767.40514,2335103.23544,  -0.00121,   0.00110,   0.00003,308301598.69997,   0.00000,274640135.82653,   0.00000,   0.00000,   0.00000,-166338537.12656,   0.00000
-198486428.53921,156905669.78987,2573920.61180,  -0.00121,   0.00110,   0.00003,308512192.21053,   0.00000,274640135.82653,   0.00000,   0.00000,   0.00000,-166127943.61600,   0.00000
-198242304.11005,157404532.75380,2812737.98815,  -0.00121,   0.00110,   0.00004,308713734.39767,   0.00000,274640135.82653,   0.00000,   0.00000,   0.00000,-165926401.42886,   0.00000
-198016754.36571,157895435.13853,3056862.41731,  -0.00121,   0.00110,   0.00004,308926493.30532,   0.00000,274640135.82653,   0.00000,   0.00000,   0.00000,-165713642.52120,   0.00000
-197772629.93655,158394298.10246,3295679.79366,  -0.00121,   0.00111,   0.00004,309130083.04269,   0.00000,274640135.82653,   0.00000,   0.00000,   0.00000,-165510052.78384,   0.00000
-197517891.40178,158882546.96078,3539804.22282,  -0.00121,   0.00111,   0.00005,309316532.77928,   0.00000,274640135.82653,   0.00000,   0.00000,   0.00000,-165323603.04725,   0.00000
-197273766.97262,159381409.92472,3778621.59917,  -0.00121,   0.00111,   0.00005,309522176.95988,   0.00000,274640135.82653,   0.00000,   0.00000,   0.00000,-165117958.86665,   0.00000
-197000453.75302,159877619.36225,4022746.02833,  -0.00121,   0.00111,   0.00005,309700731.30036,   0.00000,274640135.82653,   0.00000,   0.00000,   0.00000,-164939404.52617,   0.00000
-196753675.79745,160347293.53574,4261563.40469,  -0.00121,   0.00111,   0.00006,309881696.23154,   0.00000,274640135.82653,   0.00000,   0.00000,   0.00000,-164758439.59499,   0.00000
-196480362.57785,160843502.97328,4505687.83385,  -0.00121,   0.00111,   0.00006,310062346.59901,   0.00000,274640135.82653,   0.00000,   0.00000,   0.00000,-164577789.22752,   0.00000
-196215009.93746,161321137.72598,4744505.21020,  -0.00121,   0.00112,   0.00006,310235393.26301,   0.00000,274640135.82653,   0.00000,   0.00000,   0.00000,-164404742.56352,   0.00000
-195923122.03303,161825307.74272,4988629.63936,  -0.00121,   0.00112,   0.00006,310408245.32725,   0.00000,274640135.82653,   0.00000,   0.00000,   0.00000,-164231890.49928,   0.00000
-195639194.70781,162310903.07464,5232754.06852,  -0.00121,   0.00112,   0.00007,310573732.43413,   0.00000,274640135.82653,   0.00000,   0.00000,   0.00000,-164066403.39240,   0.00000
-195355267.38259,162796498.40656,5476878.49768,  -0.00121,   0.00112,   0.00007,310740281.35560,   0.00000,274640135.82653,   0.00000,   0.00000,   0.00000,-163899854.47093,   0.00000
-195060725.95175,163271479.63286,5721002.92684,  -0.00121,   0.00112,   0.00007,310889539.60884,   0.00000,274640135.82653,   0.00000,   0.00000,   0.00000,-163750596.21769,   0.00000
-194758223.94171,163765035.54399,5959820.30319,  -0.00121,   0.00112,   0.00008,311048064.61396,   0.00000,274640135.82653,   0.00000,   0.00000,   0.00000,-163592071.21257,   0.00000
-194463682.51087,164240016.77029,6203944.73235,  -0.00121,   0.00113,   0.00008,311199441.18188,   0.00000,274640135.82653,   0.00000,   0.00000,   0.00000,-163440694.64464,   0.00000
-194142605.81600,164741533.26063,6448069.16151,  -0.00120,   0.00113,   0.00008,311350618.29899,   0.00000,274640135.82653,   0.00000,   0.00000,   0.00000,-163289517.52754,   0.00000
-193829489.70034,165224475.06614,6692193.59067,  -0.00120,   0.00113,   0.00009,311494350.33659,   0.00000,274640135.82653,   0.00000,   0.00000,   0.00000,-163145785.48994,   0.00000
-193524334.16389,165688842.18682,6936318.01983,  -0.00120,   0.00113,   0.00009,311630583.74363,   0.00000,274640135.82653,   0.00000,   0.00000,   0.00000,-163009552.08290,   0.00000
-193192643.36340,166179744.57155,7180442.44899,  -0.00120,   0.00113,   0.00009,311766716.22244,   0.00000,274640135.82653,   0.00000,   0.00000,   0.00000,-162873419.60409,   0.00000
-192860952.56291,166670646.95627,7419259.82534,  -0.00120,   0.00113,   0.00010,311903586.97140,   0.00000,274640135.82653,   0.00000,   0.00000,   0.00000,-162736548.85513,   0.00000
-192518647.65680,167150935.23538,7663384.25450,  -0.00120,   0.00114,   0.00010,312023587.61230,   0.00000,274640135.82653,   0.00000,   0.00000,   0.00000,-162616548.21423,   0.00000
-192176342.75070,167631223.51449,7907508.68367,  -0.00120,   0.00114,   0.00010,312144702.59254,   0.00000,274640135.82653,   0.00000,   0.00000,   0.00000,-162495433.23399,   0.00000
-191834037.84459,168111511.79360,8151633.11283,  -0.00120,   0.00114,   0.00011,312266930.61551,   0.00000,274640135.82653,   0.00000,   0.00000,   0.00000,-162373205.21102,   0.00000
-191491732.93849,168591800.07271,8395757.54199,  -0.00120,   0.00114,   0.00011,312390270.37473,   0.00000,274640135.82653,   0.00000,   0.00000,   0.00000,-162249865.45180,   0.00000
-191130853.34756,169080048.93103,8639881.97115,  -0.00120,   0.00114,   0.00011,312505076.38364,   0.00000,274640135.82653,   0.00000,   0.00000,   0.00000,-162135059.44289,   0.00000
-190769973.75662,169568297.78935,8884006.40031,  -0.00120,   0.00114,   0.00012,312621027.65277,   0.00000,274640135.82653,   0.00000,   0.00000,   0.00000,-162019108.17376,   0.00000
-190398480.06008,170045932.54205,9122823.77666,  -0.00120,   0.00114,   0.00012,312719307.39989,   0.00000,274640135.82653,   0.00000,   0.00000,   0.00000,-161920828.42664,   0.00000
-190026986.36353,170523567.29476,9366948.20582,  -0.00120,   0.00115,   0.00012,312819183.07928,   0.00000,274640135.82653,   0.00000,   0.00000,   0.00000,-161820952.74725,   0.00000
-189647532.08777,171019776.73229,9611072.63498,  -0.00120,   0.00115,   0.00012,312928981.09253,   0.00000,274640135.82653,   0.00000,   0.00000,   0.00000,-161711154.73400,   0.00000
-189257463.70639,171505372.06420,9855197.06414,  -0.00120,   0.00115,   0.00013,313021607.35622,   0.00000,274640135.82653,   0.00000,   0.00000,   0.00000,-161618528.47031,   0.00000
-188867395.32502,171990967.39612,10094014.44049,  -0.00119,   0.00115,   0.00013,313114897.91580,   0.00000,274640135.82653,   0.00000,   0.00000,   0.00000,-161525237.91073,   0.00000
-188485287.52285,172457988.04321,10338138.86965,  -0.00119,   0.00115,   0.00013,313201031.38446,   0.00000,274640135.82653,   0.00000,   0.00000,   0.00000,-161439104.44207,   0.00000
-188076644.45665,172951543.95434,10576956.24600,  -0.00119,   0.00115,   0.00014,313287125.16968,   0.00000,274640135.82653,   0.00000,   0.00000,   0.00000,-161353010.65685,   0.00000
-187675961.96966,173426525.18064,10821080.67516,  -0.00119,   0.00116,   0.00014,313366085.66138,   0.00000,274640135.82653,   0.00000,   0.00000,   0.00000,-161274050.16515,   0.00000
-187248744.21863,173928041.67098,11059898.05152,  -0.00119,   0.00116,   0.00014,313445094.57476,   0.00000,274640135.82653,   0.00000,   0.00000,   0.00000,-161195041.25177,   0.00000
-186848061.73164,174403022.89728,11304022.48068,  -0.00119,   0.00116,   0.00015,313526429.71495,   0.00000,274640135.82653,   0.00000,   0.00000,   0.00000,-161113706.11158,   0.00000
-186428804.55982,174885964.70279,11542839.85703,  -0.00119,   0.00116,   0.00015,313598935.91873,   0.00000,274640135.82653,   0.00000,   0.00000,   0.00000,-161041199.90780,   0.00000
-185990972.70317,175376867.08752,11781657.23338,  -0.00119,   0.00116,   0.00015,313663233.22513,   0.00000,274640135.82653,   0.00000,   0.00000,   0.00000,-160976902.60140,   0.00000
-185571715.53136,175859808.89303,12025781.66254,  -0.00119,   0.00116,   0.00016,313738742.73386,   0.00000,274640135.82653,   0.00000,   0.00000,   0.00000,-160901393.09267,   0.00000
-185133883.67471,176350711.27775,12264599.03889,  -0.00119,   0.00116,   0.00016,313805483.52292,   0.00000,274640135.82653,   0.00000,   0.00000,   0.00000,-160834652.30361,   0.00000
-184677477.13324,176849574.24169,12503416.41524,  -0.00119,   0.00116,   0.00016,313864113.81196,   0.00000,274640135.82653,   0.00000,   0.00000,   0.00000,-160776022.01457,   0.00000
-184247605.85580,177321901.94159,12742233.79160,  -0.00118,   0.00117,   0.00017,313924300.80564,   0.00000,274640135.82653,   0.00000,   0.00000,   0.00000,-160715835.02089,   0.00000
-183791199.31433,177820764.90552,12981051.16795,  -0.00118,   0.00117,   0.00017,313985420.18736,   0.00000,274640135.82653,   0.00000,   0.00000,   0.00000,-160654715.63916,   0.00000
-183324178.66724,178309013.76384,13219868.54430,  -0.00118,   0.00117,   0.00017,314029468.59118,   0.00000,274640135.82653,   0.00000,   0.00000,   0.00000,-160610667.23535,   0.00000
-182867772.12577,178807876.72778,13458685.92065,  -0.00118,   0.00117,   0.00017,314093116.12644,   0.00000,274640135.82653,   0.00000,   0.00000,   0.00000,-160547019.70009,   0.00000
-182400751.47868,179296125.58610,13692196.24420,  -0.00118,   0.00117,   0.00018,314139000.36172,   0.00000,274640135.82653,   0.00000,   0.00000,   0.00000,-160501135.46481,   0.00000
-181915156.14676,179792335.02363,13931013.62055,  -0.00118,   0.00117,   0.00018,314177621.56215,   0.00000,274640135.82653,   0.00000,   0.00000,   0.00000,-160462514.26438,   0.00000
-181448135.49967,180280583.88195,14164523.94410,  -0.00118,   0.00117,   0.00018,314226020.29269,   0.00000,274640135.82653,   0.00000,   0.00000,   0.00000,-160414115.53383,   0.00000
-180962540.16776,180776793.31948,14403341.32045,  -0.00118,   0.00118,   0.00019,314267221.31475,   0.00000,274640135.82653,   0.00000,   0.00000,   0.00000,-160372914.51178,   0.00000
-180476944.83584,181273002.75701,14636851.64399,  -0.00117,   0.00118,   0.00019,314308986.73562,   0.00000,274640135.82653,   0.00000,   0.00000,   0.00000,-160331149.09091,   0.00000
-179972774.81910,181777172.77376,14870361.96754,  -0.00117,   0.00118,   0.00019,314342910.52242,   0.00000,274640135.82653,   0.00000,   0.00000,   0.00000,-160297225.30411,   0.00000
-179468604.80235,182281342.79050,15103872.29108,  -0.00117,   0.00118,   0.00020,314378159.52429,   0.00000,274640135.82653,   0.00000,   0.00000,   0.00000,-160261976.30224,   0.00000
-178972395.36482,182766938.12242,15337382.61463,  -0.00117,   0.00118,   0.00020,314405493.90704,   0.00000,274640135.82653,   0.00000,   0.00000,   0.00000,-160234641.91949,   0.00000
-178468225.34808,183271108.13916,15570892.93817,  -0.00117,   0.00118,   0.00020,314443371.82599,   0.00000,274640135.82653,   0.00000,   0.00000,   0.00000,-160196764.00054,   0.00000
-177945480.64651,183783238.73512,15804403.26171,  -0.00117,   0.00118,   0.00021,314473539.68395,   0.00000,274640135.82653,   0.00000,   0.00000,   0.00000,-160166596.14258,   0.00000
-177430696.52415,184276794.64625,16032606.53245,  -0.00117,   0.00118,   0.00021,314494964.28104,   0.00000,274640135.82653,   0.00000,   0.00000,   0.00000,-160145171.54549,   0.00000
-176907951.82257,184788925.24220,16266116.85600,  -0.00117,   0.00119,   0.00021,314527837.03042,   0.00000,274640135.82653,   0.00000,   0.00000,   0.00000,-160112298.79610,   0.00000
-176374593.01539,185290441.73254,16494320.12673,  -0.00116,   0.00119,   0.00021,314542936.49410,   0.00000,274640135.82653,   0.00000,   0.00000,   0.00000,-160097199.33243,   0.00000
-175841234.20820,185791958.22288,16722523.39747,  -0.00116,   0.00119,   0.00022,314559385.48128,   0.00000,274640135.82653,   0.00000,   0.00000,   0.00000,-160080750.34525,   0.00000
-175299914.82180,186312049.39805,16950726.66821,  -0.00116,   0.00119,   0.00022,314586566.27537,   0.00000,274640135.82653,   0.00000,   0.00000,   0.00000,-160053569.55116,   0.00000
-174766556.01462,186813565.88839,17178929.93894,  -0.00116,   0.00119,   0.00022,314605734.10192,   0.00000,274640135.82653,   0.00000,   0.00000,   0.00000,-160034401.72461,   0.00000
-174214622.52260,187323042.95794,17407133.20968,  -0.00116,   0.00119,   0.00023,314617379.05296,   0.00000,274640135.82653,   0.00000,   0.00000,   0.00000,-160022756.77357,   0.00000
-173662689.03059,187832520.02749,17630029.42761,  -0.00116,   0.00119,   0.00023,314629527.33244,   0.00000,274640135.82653,   0.00000,   0.00000,   0.00000,-160010608.49409,   0.00000
-173102794.95936,188360571.78187,17858232.69834,  -0.00115,   0.00119,   0.00023,314653418.04221,   0.00000,274640135.82653,   0.00000,   0.00000,   0.00000,-159986717.78432,   0.00000
-172532286.78252,188878009.43063,18081128.91627,  -0.00115,   0.00120,   0.00024,314659544.56768,   0.00000,274640135.82653,   0.00000,   0.00000,   0.00000,-159980591.25885,   0.00000
-171980353.29051,189387486.50018,18304025.13420,  -0.00115,   0.00120,   0.00024,314675866.25960,   0.00000,274640135.82653,   0.00000,   0.00000,   0.00000,-159964269.56693,   0.00000
-171409845.11366,189904924.14895,18526921.35213,  -0.00115,   0.00120,   0.00024,314684809.44743,   0.00000,274640135.82653,   0.00000,   0.00000,   0.00000,-159955326.37910,   0.00000
-170820762.25199,190430322.37692,18744510.51725,  -0.00115,   0.00120,   0.00024,314685499.10163,   0.00000,274640135.82653,   0.00000,   0.00000,   0.00000,-159954636.72490,   0.00000
-170250254.07515,190947760.02569,18967406.73518,  -0.00115,   0.00120,   0.00025,314697296.27963,   0.00000,274640135.82653,   0.00000,   0.00000,   0.00000,-159942839.54690,   0.00000
-169653210.63427,191491732.93849,19184995.90030,  -0.00115,   0.00120,   0.00025,314710462.43861,   0.00000,274640135.82653,   0.00000,   0.00000,   0.00000,-159929673.38792,   0.00000
-169064127.77260,192017131.16646,19407892.11823,  -0.00114,   0.00120,   0.00025,314716484.45606,   0.00000,274640135.82653,   0.00000,   0.00000,   0.00000,-159923651.37046,   0.00000
-168475044.91093,192542529.39444,19625481.28335,  -0.00114,   0.00120,   0.00026,314722983.29984,   0.00000,274640135.82653,   0.00000,   0.00000,   0.00000,-159917152.52669,   0.00000
-167867387.36444,193075888.20163,19837763.39566,  -0.00114,   0.00121,   0.00026,314721327.25716,   0.00000,274640135.82653,   0.00000,   0.00000,   0.00000,-159918808.56936,   0.00000
-167259729.81794,193609247.00881,20055352.56079,  -0.00114,   0.00121,   0.00026,314722162.53396,   0.00000,274640135.82653,   0.00000,   0.00000,   0.00000,-159917973.29257,   0.00000
-166670646.95627,194134645.23679,20267634.67310,  -0.00114,   0.00121,   0.00026,314732017.75797,   0.00000,274640135.82653,   0.00000,   0.00000,   0.00000,-159908118.06856,   0.00000
-166044414.72495,194675964.62319,20479916.78541,  -0.00114,   0.00121,   0.00027,314726256.36385,   0.00000,274640135.82653,   0.00000,   0.00000,   0.00000,-159913879.46268,   0.00000
-165428796.59924,195227898.11520,20692198.89773,  -0.00113,   0.00121,   0.00027,314740268.28517,   0.00000,274640135.82653,   0.00000,   0.00000,   0.00000,-159899867.54136,   0.00000
-164802564.36792,195769217.50160,20904481.01004,  -0.00113,   0.00121,   0.00027,314737561.77312,   0.00000,274640135.82653,   0.00000,   0.00000,   0.00000,-159902574.05341,   0.00000
-164176332.13659,196310536.88800,21116763.12235,  -0.00113,   0.00121,   0.00027,314736384.75304,   0.00000,274640135.82653,   0.00000,   0.00000,   0.00000,-159903751.07349,   0.00000
-163550099.90527,196851856.27440,21323738.18186,  -0.00113,   0.00121,   0.00028,314735658.43110,   0.00000,274640135.82653,   0.00000,   0.00000,   0.00000,-159904477.39543,   0.00000
-162915907.09473,197411750.34562,21530713.24136,  -0.00113,   0.00122,   0.00028,314746280.63852,   0.00000,274640135.82653,   0.00000,   0.00000,   0.00000,-159893855.18801,   0.00000
-162271100.17858,197961030.31123,21737688.30087,  -0.00112,   0.00122,   0.00028,314740234.05681,   0.00000,274640135.82653,   0.00000,   0.00000,   0.00000,-159899901.76971,   0.00000
-161644867.94726,198502349.69763,21944663.36037,  -0.00112,   0.00122,   0.00029,314744081.79227,   0.00000,274640135.82653,   0.00000,   0.00000,   0.00000,-159896054.03426,   0.00000
-160992100.45190,199070204.34807,22146331.36707,  -0.00112,   0.00122,   0.00029,314749921.33683,   0.00000,274640135.82653,   0.00000,   0.00000,   0.00000,-159890214.48970,   0.00000
-160347293.53574,199619484.31368,22347999.37377,  -0.00112,   0.00122,   0.00029,314747416.72749,   0.00000,274640135.82653,   0.00000,   0.00000,   0.00000,-159892719.09904,   0.00000
-159694526.04038,200187338.96412,22549667.38047,  -0.00112,   0.00122,   0.00029,314756409.05447,   0.00000,274640135.82653,   0.00000,   0.00000,   0.00000,-159883726.77206,   0.00000
-159023183.86019,200763154.19377,22751335.38716,  -0.00112,   0.00122,   0.00030,314758769.30479,   0.00000,274640135.82653,   0.00000,   0.00000,   0.00000,-159881366.52174,   0.00000
-158359802.25921,201320394.73859,22947696.34105,  -0.00111,   0.00122,   0.00030,314751610.81861,   0.00000,274640135.82653,   0.00000,   0.00000,   0.00000,-159888525.00792,   0.00000
-157707034.76385,201888249.38903,23144057.29494,  -0.00111,   0.00123,   0.00030,314764218.71679,   0.00000,274640135.82653,   0.00000,   0.00000,   0.00000,-159875917.10974,   0.00000
-157035692.58366,202464064.61867,23340418.24883,  -0.00111,   0.00123,   0.00030,314770259.37965,   0.00000,274640135.82653,   0.00000,   0.00000,   0.00000,-159869876.44688,   0.00000
-156345775.71864,203047840.42754,23536779.20272,  -0.00111,   0.00123,   0.00031,314769819.28498,   0.00000,274640135.82653,   0.00000,   0.00000,   0.00000,-159870316.54155,   0.00000
-155674433.53845,203623655.65719,23727833.10380,  -0.00111,   0.00123,   0.00031,314777937.34882,   0.00000,274640135.82653,   0.00000,   0.00000,   0.00000,-159862198.47770,   0.00000
-155003091.35826,204199470.88684,23918887.00489,  -0.00110,   0.00123,   0.00031,314787660.09632,   0.00000,274640135.82653,   0.00000,   0.00000,   0.00000,-159852475.73021,   0.00000
-154313174.49324,204783246.69570,24109940.90597,  -0.00110,   0.00123,   0.00031,314790969.66324,   0.00000,274640135.82653,   0.00000,   0.00000,   0.00000,-159849166.16328,   0.00000
-153623257.62823,205367022.50456,24300994.80705,  -0.00110,   0.00123,   0.00032,314795942.26910,   0.00000,274640135.82653,   0.00000,   0.00000,   0.00000,-159844193.55743,   0.00000
-152925380.18400,205969372.99825,24486741.65532,  -0.00110,   0.00124,   0.00032,314811532.09565,   0.00000,274640135.82653,   0.00000,   0.00000,   0.00000,-159828603.73088,   0.00000
-152235463.31898,206553148.80711,24672488.50360,  -0.00110,   0.00124,   0.00032,314818596.89288,   0.00000,274640135.82653,   0.00000,   0.00000,   0.00000,-159821538.93365,   0.00000
-151537585.87475,207155499.30080,24858235.35187,  -0.00109,   0.00124,   0.00032,314837546.49415,   0.00000,274640135.82653,   0.00000,   0.00000,   0.00000,-159802589.33238,   0.00000
-150839708.43052,207757849.79448,25038675.14734,  -0.00109,   0.00124,   0.00033,314856921.53292,   0.00000,274640135.82653,   0.00000,   0.00000,   0.00000,-159783214.29361,   0.00000
-150131216.88067,208349586.18256,25219114.94280,  -0.00109,   0.00124,   0.00033,314859842.67636,   0.00000,274640135.82653,   0.00000,   0.00000,   0.00000,-159780293.15017,   0.00000
-149433339.43644,208951936.67625,25399554.73827,  -0.00109,   0.00124,   0.00033,314882569.53638,   0.00000,274640135.82653,   0.00000,   0.00000,   0.00000,-159757566.29015,   0.00000
-148708926.72818,209580822.43397,25574687.48093,  -0.00109,   0.00124,   0.00033,314908239.18556,   0.00000,274640135.82653,   0.00000,   0.00000,   0.00000,-159731896.64097,   0.00000
-147992474.59912,210191133.50687,25755127.27639,  -0.00108,   0.00124,   0.00033,314926611.88350,   0.00000,274640135.82653,   0.00000,   0.00000,   0.00000,-159713523.94303,   0.00000
-147276022.47006,210801444.57977,25924952.96624,  -0.00108,   0.00125,   0.00034,314944096.11720,   0.00000,274640135.82653,   0.00000,   0.00000,   0.00000,-159696039.70933,   0.00000
-146551609.76179,211430330.33750,26100085.70890,  -0.00108,   0.00125,   0.00034,314975011.06574,   0.00000,274640135.82653,   0.00000,   0.00000,   0.00000,-159665124.76079,   0.00000
-145835157.63274,212040641.41040,26269911.39875,  -0.00108,   0.00125,   0.00034,314995923.64160,   0.00000,274640135.82653,   0.00000,   0.00000,   0.00000,-159644212.18493,   0.00000
-145110744.92447,212669527.16813,26439737.08860,  -0.00107,   0.00125,   0.00034,315028996.57094,   0.00000,274640135.82653,   0.00000,   0.00000,   0.00000,-159611139.25559,   0.00000
-144386332.21620,213298412.92586,26609562.77845,  -0.00107,   0.00125,   0.00035,315063815.58538,   0.00000,274640135.82653,   0.00000,   0.00000,   0.00000,-159576320.24115,   0.00000
-143661919.50793,213927298.68359,26774081.41550,  -0.00107,   0.00125,   0.00035,315099027.14817,   0.00000,274640135.82653,   0.00000,   0.00000,   0.00000,-159541108.67836,   0.00000
-142918932.11483,214564145.02053,26938600.05254,  -0.00107,   0.00125,   0.00035,315128444.41604,   0.00000,274640135.82653,   0.00000,   0.00000,   0.00000,-159511691.41049,   0.00000
-142186558.82735,215211605.46308,27097811.63677,  -0.00107,   0.00126,   0.00035,315176338.61725,   0.00000,274640135.82653,   0.00000,   0.00000,   0.00000,-159463797.20928,   0.00000
-141443571.43426,215848451.80002,27257023.22101,  -0.00106,   0.00126,   0.00035,315207947.07670,   0.00000,274640135.82653,   0.00000,   0.00000,   0.00000,-159432188.74983,   0.00000
-140692623.46195,216503872.82179,27416234.80524,  -0.00106,   0.00126,   0.00036,315251945.10597,   0.00000,274640135.82653,   0.00000,   0.00000,   0.00000,-159388190.72056,   0.00000
-139960250.17447,217151333.26434,27575446.38948,  -0.00106,   0.00126,   0.00036,315305159.84918,   0.00000,274640135.82653,   0.00000,   0.00000,   0.00000,-159334975.97735,   0.00000
-139209302.20216,217806754.28611,27729350.92091,  -0.00106,   0.00126,   0.00036,315351373.89717,   0.00000,274640135.82653,   0.00000,   0.00000,   0.00000,-159288761.92936,   0.00000
-138450393.65064,218480749.99270,27877948.39953,  -0.00106,   0.00126,   0.00036,315408680.09912,   0.00000,274640135.82653,   0.00000,   0.00000,   0.00000,-159231455.72741,   0.00000
-137718020.36316,219128210.43526,28031852.93095,  -0.00105,   0.00127,   0.00036,315465819.74027,   0.00000,274640135.82653,   0.00000,   0.00000,   0.00000,-159174316.08626,   0.00000
-136959111.81164,219802206.14185,28180450.40957,  -0.00105,   0.00127,   0.00037,315526760.22224,   0.00000,274640135.82653,   0.00000,   0.00000,   0.00000,-159113375.60429,   0.00000
-136200203.26012,220476201.84845,28329047.88819,  -0.00105,   0.00127,   0.00037,315589542.47273,   0.00000,274640135.82653,   0.00000,   0.00000,   0.00000,-159050593.35380,   0.00000
-135441294.70860,221150197.55504,28472338.31400,  -0.00105,   0.00127,   0.00037,315652729.15040,   0.00000,274640135.82653,   0.00000,   0.00000,   0.00000,-158987406.67613,   0.00000
-134674425.57787,221842767.94646,28615628.73981,  -0.00105,   0.00127,   0.00037,315728561.52271,   0.00000,274640135.82653,   0.00000,   0.00000,   0.00000,-158911574.30382,   0.00000
-133915517.02635,222516763.65306,28753612.11282,  -0.00104,   0.00127,   0.00037,315793973.79826,   0.00000,274640135.82653,   0.00000,   0.00000,   0.00000,-158846162.02827,   0.00000
-133148647.89562,223209334.04448,28891595.48582,  -0.00104,   0.00128,   0.00038,315872067.67276,   0.00000,274640135.82653,   0.00000,   0.00000,   0.00000,-158768068.15377,   0.00000
-132381778.76489,223901904.43590,29029578.85882,  -0.00104,   0.00128,   0.00038,315952021.48936,   0.00000,274640135.82653,   0.00000,   0.00000,   0.00000,-158688114.33717,   0.00000
-131614909.63416,224594474.82732,29162255.17902,  -0.00104,   0.00128,   0.00038,316032364.56268,   0.00000,274640135.82653,   0.00000,   0.00000,   0.00000,-158607771.26385,   0.00000
-130858654.60904,225297659.32436,29294931.49922,  -0.00103,   0.00128,   0.00038,316132488.68711,   0.00000,274640135.82653,   0.00000,   0.00000,   0.00000,-158507647.13942,   0.00000
-130083824.89910,226008804.40061,29427607.81941,  -0.00103,   0.00128,   0.00038,316227486.48749,   0.00000,274640135.82653,   0.00000,   0.00000,   0.00000,-158412649.33904,   0.00000
-129308995.18916,226719949.47686,29554977.08680,  -0.00103,   0.00128,   0.00038,316322889.77501,   0.00000,274640135.82653,   0.00000,   0.00000,   0.00000,-158317246.05152,   0.00000
-128534165.47921,227431094.55311,29682346.35419,  -0.00103,   0.00129,   0.00039,316420172.33852,   0.00000,274640135.82653,   0.00000,   0.00000,   0.00000,-158219963.48801,   0.00000
-127759335.76927,228142239.62936,29804408.56877,  -0.00103,   0.00129,   0.00039,316517833.12424,   0.00000,274640135.82653,   0.00000,   0.00000,   0.00000,-158122302.70229,   0.00000
-126995120.16494,228863998.81122,29926470.78335,  -0.00102,   0.00129,   0.00039,316635251.49400,   0.00000,274640135.82653,   0.00000,   0.00000,   0.00000,-158004884.33253,   0.00000
-126212329.87579,229593718.57230,30043225.94512,  -0.00102,   0.00129,   0.00039,316746226.87880,   0.00000,274640135.82653,   0.00000,   0.00000,   0.00000,-157893908.94773,   0.00000
-125429539.58663,230323438.33337,30159981.10689,  -0.00102,   0.00129,   0.00039,316859104.10448,   0.00000,274640135.82653,   0.00000,   0.00000,   0.00000,-157781031.72205,   0.00000
-124657363.40309,231063772.20007,30276736.26866,  -0.00102,   0.00129,   0.00039,316991747.48188,   0.00000,274640135.82653,   0.00000,   0.00000,   0.00000,-157648388.34465,   0.00000
-123866612.53473,231812066.64597,30388184.37763,  -0.00102,   0.00130,   0.00040,317118073.64595,   0.00000,274640135.82653,   0.00000,   0.00000,   0.00000,-157522062.18058,   0.00000
-123094436.35119,232552400.51266,30499632.48659,  -0.00101,   0.00130,   0.00040,317252972.64721,   0.00000,274640135.82653,   0.00000,   0.00000,   0.00000,-157387163.17932,   0.00000
-122303685.48282,233300694.95857,30605773.54275,  -0.00101,   0.00130,   0.00040,317381601.06159,   0.00000,274640135.82653,   0.00000,   0.00000,   0.00000,-157258534.76494,   0.00000
-121523548.72007,234059603.51008,30711914.59891,  -0.00101,   0.00130,   0.00040,317529982.22903,   0.00000,274640135.82653,   0.00000,   0.00000,   0.00000,-157110153.59750,   0.00000
-120743411.95732,234818512.06160,30812748.60225,  -0.00101,   0.00130,   0.00040,317678721.20156,   0.00000,274640135.82653,   0.00000,   0.00000,   0.00000,-156961414.62497,   0.00000
-119963275.19457,235577420.61312,30913582.60560,  -0.00101,   0.00131,   0.00040,317829350.76125,   0.00000,274640135.82653,   0.00000,   0.00000,   0.00000,-156810785.06528,   0.00000
-119175177.85261,236354903.84947,31009109.55614,  -0.00100,   0.00131,   0.00040,317991660.14046,   0.00000,274640135.82653,   0.00000,   0.00000,   0.00000,-156648475.68607,   0.00000
-118387080.51064,237132387.08582,31104636.50669,  -0.00100,   0.00131,   0.00040,318155899.01038,   0.00000,274640135.82653,   0.00000,   0.00000,   0.00000,-156484236.81615,   0.00000
-117598983.16868,237909870.32216,31200163.45723,  -0.00100,   0.00131,   0.00041,318322064.38444,   0.00000,274640135.82653,   0.00000,   0.00000,   0.00000,-156318071.44209,   0.00000
-116821499.93234,238697967.66413,31290383.35496,  -0.00100,   0.00131,   0.00041,318506360.21632,   0.00000,274640135.82653,   0.00000,   0.00000,   0.00000,-156133775.61021,   0.00000
-116025442.01116,239494025.58530,31380603.25269,  -0.00099,   0.00132,   0.00041,318686238.24071,   0.00000,274640135.82653,   0.00000,   0.00000,   0.00000,-155953897.58582,   0.00000
-115247958.77481,240282122.92726,31465516.09762,  -0.00099,   0.00132,   0.00041,318872781.69751,   0.00000,274640135.82653,   0.00000,   0.00000,   0.00000,-155767354.12902,   0.00000
-114470475.53847,241070220.26923,31545121.88974,  -0.00099,   0.00132,   0.00041,319059630.42690,   0.00000,274640135.82653,   0.00000,   0.00000,   0.00000,-155580505.39963,   0.00000
-113685031.72291,241876892.29602,31630034.73466,  -0.00099,   0.00132,   0.00041,319261455.44095,   0.00000,274640135.82653,   0.00000,   0.00000,   0.00000,-155378680.38558,   0.00000
-112891627.32814,242702139.00763,31704333.47397,  -0.00099,   0.00132,   0.00041,319473600.64856,   0.00000,274640135.82653,   0.00000,   0.00000,   0.00000,-155166535.17797,   0.00000
-112106183.51258,243508811.03442,31783939.26609,  -0.00098,   0.00133,   0.00041,319677708.44355,   0.00000,274640135.82653,   0.00000,   0.00000,   0.00000,-154962427.38298,   0.00000
-111312779.11781,244334057.74604,31852930.95259,  -0.00098,   0.00133,   0.00041,319892164.95755,   0.00000,274640135.82653,   0.00000,   0.00000,   0.00000,-154747970.86898,   0.00000
-110537949.40787,245151343.87845,31921922.63909,  -0.00098,   0.00133,   0.00041,320114626.26150,   0.00000,274640135.82653,   0.00000,   0.00000,   0.00000,-154525509.56503,   0.00000
-109755159.11871,245987204.69568,31990914.32559,  -0.00098,   0.00133,   0.00042,320350621.06678,   0.00000,274640135.82653,   0.00000,   0.00000,   0.00000,-154289514.75975,   0.00000
-108972368.82956,246823065.51291,32054598.95929,  -0.00098,   0.00134,   0.00042,320586944.38725,   0.00000,274640135.82653,   0.00000,   0.00000,   0.00000,-154053191.43928,   0.00000
-108189578.54040,247658926.33015,32118283.59298,  -0.00098,   0.00134,   0.00042,320825179.77873,   0.00000,274640135.82653,   0.00000,   0.00000,   0.00000,-153814956.04780,   0.00000
-107398827.67203,248513361.83221,32176661.17387,  -0.00097,   0.00134,   0.00042,321075466.96841,   0.00000,274640135.82653,   0.00000,   0.00000,   0.00000,-153564668.85812,   0.00000
-106626651.48850,249359836.75506,32235038.75475,  -0.00097,   0.00134,   0.00042,321333578.34753,   0.00000,274640135.82653,   0.00000,   0.00000,   0.00000,-153306557.47900,   0.00000
-105827940.04092,250232846.94194,32288109.28283,  -0.00097,   0.00134,   0.00042,321597921.80236,   0.00000,274640135.82653,   0.00000,   0.00000,   0.00000,-153042214.02417,   0.00000
-105047803.27817,251097896.54962,32341179.81091,  -0.00097,   0.00135,   0.00042,321870055.76817,   0.00000,274640135.82653,   0.00000,   0.00000,   0.00000,-152770080.05836,   0.00000
-104267666.51542,251962946.15730,32388943.28618,  -0.00097,   0.00135,   0.00042,322142502.47769,   0.00000,274640135.82653,   0.00000,   0.00000,   0.00000,-152497633.34884,   0.00000
-103498143.85828,252838609.87059,32431399.70864,  -0.00096,   0.00135,   0.00042,322432849.29098,   0.00000,274640135.82653,   0.00000,   0.00000,   0.00000,-152207286.53555,   0.00000
-102728621.20115,253714273.58388,32473856.13111,  -0.00096,   0.00135,   0.00042,322725074.53633,   0.00000,274640135.82653,   0.00000,   0.00000,   0.00000,-151915061.29020,   0.00000
-101940523.85918,254597897.87638,32516312.55357,  -0.00096,   0.00136,   0.00042,323013521.13645,   0.00000,274640135.82653,   0.00000,   0.00000,   0.00000,-151626614.69008,   0.00000
-101181615.30766,255484175.69529,32553461.92322,  -0.00096,   0.00136,   0.00042,323325483.89962,   0.00000,274640135.82653,   0.00000,   0.00000,   0.00000,-151314651.92690,   0.00000
-100396171.49210,256396988.77824,32585304.24007,  -0.00096,   0.00136,   0.00042,323644078.14374,   0.00000,274640135.82653,   0.00000,   0.00000,   0.00000,-150996057.68279,   0.00000
-99637262.94058,257283266.59714,32617146.55692,  -0.00096,   0.00136,   0.00042,323958174.26002,   0.00000,274640135.82653,   0.00000,   0.00000,   0.00000,-150681961.56651,   0.00000
-98843858.54581,258214654.36492,32648988.87376,  -0.00095,   0.00137,   0.00042,324292642.98618,   0.00000,274640135.82653,   0.00000,   0.00000,   0.00000,-150347492.84035,   0.00000
-98095564.09991,259111546.28944,32670217.08500,  -0.00095,   0.00137,   0.00042,324624792.13361,   0.00000,274640135.82653,   0.00000,   0.00000,   0.00000,-150015343.69292,   0.00000
-97320734.38997,260034973.47800,32696752.34903,  -0.00095,   0.00137,   0.00043,324966983.24966,   0.00000,274640135.82653,   0.00000,   0.00000,   0.00000,-149673152.57687,   0.00000
-96556518.78564,260969014.77218,32712673.50746,  -0.00095,   0.00138,   0.00043,325325382.64406,   0.00000,274640135.82653,   0.00000,   0.00000,   0.00000,-149314753.18247,   0.00000
-95792303.18131,261903056.06636,32733901.71869,  -0.00095,   0.00138,   0.00043,325687270.30955,   0.00000,274640135.82653,   0.00000,   0.00000,   0.00000,-148952865.51698,   0.00000
-95028087.57699,262837097.36054,32744515.82430,  -0.00094,   0.00138,   0.00043,326047839.79290,   0.00000,274640135.82653,   0.00000,   0.00000,   0.00000,-148592296.03363,   0.00000
-94274486.07827,263781752.76033,32755129.92992,  -0.00094,   0.00138,   0.00043,326427750.96967,   0.00000,274640135.82653,   0.00000,   0.00000,   0.00000,-148212384.85686,   0.00000
-93520884.57956,264726408.16012,32765744.03554,  -0.00094,   0.00139,   0.00043,326809511.54949,   0.00000,274640135.82653,   0.00000,   0.00000,   0.00000,-147830624.27704,   0.00000
-92759322.50164,265689638.24475,32765744.03554,  -0.00094,   0.00139,   0.00043,327202152.44934,   0.00000,274640135.82653,   0.00000,   0.00000,   0.00000,-147437983.37719,   0.00000
-92016335.10854,266644907.75015,32771051.08834,  -0.00094,   0.00139,   0.00043,327603457.41571,   0.00000,274640135.82653,   0.00000,   0.00000,   0.00000,-147036678.41082,   0.00000
-91265387.13623,267618751.94039,32765744.03554,  -0.00094,   0.00140,   0.00043,328015667.65419,   0.00000,274640135.82653,   0.00000,   0.00000,   0.00000,-146624468.17234,   0.00000
-90514439.16393,268592596.13063,32760436.98273,  -0.00094,   0.00140,   0.00043,328429738.74117,   0.00000,274640135.82653,   0.00000,   0.00000,   0.00000,-146210397.08536,   0.00000
-89782065.87645,269558479.74165,32755129.92992,  -0.00093,   0.00140,   0.00043,328850735.36419,   0.00000,274640135.82653,   0.00000,   0.00000,   0.00000,-145789400.46234,   0.00000
-89033771.43054,270561512.72233,32744515.82430,  -0.00093,   0.00140,   0.00043,329296623.81061,   0.00000,274640135.82653,   0.00000,   0.00000,   0.00000,-145343512.01591,   0.00000
-88293437.56385,271545971.01818,32728594.66588,  -0.00093,   0.00141,   0.00043,329730428.46736,   0.00000,274640135.82653,   0.00000,   0.00000,   0.00000,-144909707.35917,   0.00000
-87563717.80277,272541043.41965,32712673.50746,  -0.00093,   0.00141,   0.00043,330183417.30530,   0.00000,274640135.82653,   0.00000,   0.00000,   0.00000,-144456718.52123,   0.00000
-86826037.46249,273554690.50595,32691445.29623,  -0.00093,   0.00141,   0.00042,330649045.16998,   0.00000,274640135.82653,   0.00000,   0.00000,   0.00000,-143991090.65655,   0.00000
-86088357.12220,274568337.59224,32670217.08500,  -0.00093,   0.00142,   0.00042,331116510.60374,   0.00000,274640135.82653,   0.00000,   0.00000,   0.00000,-143523625.22279,   0.00000
-85369251.46674,275574024.09933,32643681.82096,  -0.00093,   0.00142,   0.00042,331589097.98696,   0.00000,274640135.82653,   0.00000,   0.00000,   0.00000,-143051037.83957,   0.00000
-84642185.23206,276598285.29124,32611839.50411,  -0.00092,   0.00142,   0.00042,332074374.91160,   0.00000,274640135.82653,   0.00000,   0.00000,   0.00000,-142565760.91493,   0.00000
-83925733.10301,277633160.58876,32579997.18726,  -0.00092,   0.00143,   0.00042,332578766.19181,   0.00000,274640135.82653,   0.00000,   0.00000,   0.00000,-142061369.63472,   0.00000
-83209280.97395,278668035.88629,32542847.81761,  -0.00092,   0.00143,   0.00042,333083377.54035,   0.00000,274640135.82653,   0.00000,   0.00000,   0.00000,-141556758.28618,   0.00000
-82484868.26568,279721485.86865,32500391.39514,  -0.00092,   0.00143,   0.00042,333600778.45359,   0.00000,274640135.82653,   0.00000,   0.00000,   0.00000,-141039357.37294,   0.00000
-81779030.24224,280766975.27179,32457934.97268,  -0.00092,   0.00144,   0.00042,334124688.97176,   0.00000,274640135.82653,   0.00000,   0.00000,   0.00000,-140515446.85477,   0.00000
-81091766.90363,281804504.09572,32415478.55022,  -0.00092,   0.00144,   0.00042,334654998.61145,   0.00000,274640135.82653,   0.00000,   0.00000,   0.00000,-139985137.21508,   0.00000
-80377968.30097,282868568.18369,32362408.02214,  -0.00092,   0.00144,   0.00042,335191917.89222,   0.00000,274640135.82653,   0.00000,   0.00000,   0.00000,-139448217.93431,   0.00000
-79674783.80394,283943246.37727,32309337.49406,  -0.00092,   0.00145,   0.00042,335747874.11551,   0.00000,274640135.82653,   0.00000,   0.00000,   0.00000,-138892261.71102,   0.00000
-78990173.99173,285009963.99165,32256266.96598,  -0.00092,   0.00145,   0.00042,336310145.67298,   0.00000,274640135.82653,   0.00000,   0.00000,   0.00000,-138329990.15355,   0.00000
-78297603.60030,286095256.29085,32197889.38510,  -0.00091,   0.00145,   0.00042,336885285.53980,   0.00000,274640135.82653,   0.00000,   0.00000,   0.00000,-137754850.28673,   0.00000
-77623607.89371,287172588.01084,32134204.75140,  -0.00091,   0.00146,   0.00042,337465129.34208,   0.00000,274640135.82653,   0.00000,   0.00000,   0.00000,-137175006.48445,   0.00000
-76941651.60790,288268494.41565,32065213.06490,  -0.00091,   0.00146,   0.00042,338057880.18973,   0.00000,274640135.82653,   0.00000,   0.00000,   0.00000,-136582255.63679,   0.00000
-76251734.74289,289382975.50530,31996221.37840,  -0.00091,   0.00147,   0.00042,338665117.77628,   0.00000,274640135.82653,   0.00000,   0.00000,   0.00000,-135975018.05025,   0.00000
-75580392.56270,290489496.01573,31921922.63909,  -0.00091,   0.00147,   0.00041,339276996.88388,   0.00000,274640135.82653,   0.00000,   0.00000,   0.00000,-135363138.94265,   0.00000
-74909050.38251,291596016.52616,31847623.89978,  -0.00091,   0.00147,   0.00041,339890565.94824,   0.00000,274640135.82653,   0.00000,   0.00000,   0.00000,-134749569.87829,   0.00000
-74248322.30793,292713151.14221,31768018.10766,  -0.00091,   0.00148,   0.00041,340521487.61919,   0.00000,274640135.82653,   0.00000,   0.00000,   0.00000,-134118648.20734,   0.00000
-73579633.65414,293848860.44309,31683105.26274,  -0.00091,   0.00148,   0.00041,341165449.96634,   0.00000,274640135.82653,   0.00000,   0.00000,   0.00000,-133474685.86019,   0.00000
-72929519.68519,294976609.16475,31598192.41781,  -0.00091,   0.00148,   0.00041,341815380.74349,   0.00000,274640135.82653,   0.00000,   0.00000,   0.00000,-132824755.08304,   0.00000
-72290019.82184,296114971.99203,31507972.52008,  -0.00091,   0.00149,   0.00041,342482609.47895,   0.00000,274640135.82653,   0.00000,   0.00000,   0.00000,-132157526.34758,   0.00000
-71631945.27367,297261295.39852,31412445.56954,  -0.00091,   0.00149,   0.00041,343145804.84051,   0.00000,274640135.82653,   0.00000,   0.00000,   0.00000,-131494330.98602,   0.00000
-71003059.51594,298410272.33141,31311611.56619,  -0.00090,   0.00150,   0.00041,343830508.35647,   0.00000,274640135.82653,   0.00000,   0.00000,   0.00000,-130809627.47006,   0.00000
-70366213.17900,299577823.94914,31210777.56284,  -0.00090,   0.00150,   0.00041,344529783.17004,   0.00000,274640135.82653,   0.00000,   0.00000,   0.00000,-130110352.65649,   0.00000
-69729366.84206,300745375.56686,31109943.55949,  -0.00090,   0.00150,   0.00040,345230699.54572,   0.00000,274640135.82653,   0.00000,   0.00000,   0.00000,-129409436.28081,   0.00000
-69103134.61074,301923541.29020,30998495.45053,  -0.00090,   0.00151,   0.00040,345947468.95267,   0.00000,274640135.82653,   0.00000,   0.00000,   0.00000,-128692666.87386,   0.00000
-68495477.06424,303093746.43432,30887047.34156,  -0.00090,   0.00151,   0.00040,346669914.10202,   0.00000,274640135.82653,   0.00000,   0.00000,   0.00000,-127970221.72451,   0.00000
-67879858.93854,304282526.26328,30775599.23260,  -0.00090,   0.00152,   0.00040,347406963.83819,   0.00000,274640135.82653,   0.00000,   0.00000,   0.00000,-127233171.98834,   0.00000
-67264240.81283,305471306.09223,30653537.01802,  -0.00090,   0.00152,   0.00040,348142801.77445,   0.00000,274640135.82653,   0.00000,   0.00000,   0.00000,-126497334.05208,   0.00000
-66659236.79274,306670700.02680,30531474.80344,  -0.00090,   0.00153,   0.00040,348897291.15632,   0.00000,274640135.82653,   0.00000,   0.00000,   0.00000,-125742844.67021,   0.00000
-66064846.87826,307880708.06699,30409412.58886,  -0.00090,   0.00153,   0.00040,349670392.44135,   0.00000,274640135.82653,   0.00000,   0.00000,   0.00000,-124969743.38518,   0.00000
-65462496.38457,309109290.79200,30276736.26866,  -0.00090,   0.00153,   0.00039,350455418.27027,   0.00000,274640135.82653,   0.00000,   0.00000,   0.00000,-124184717.55626,   0.00000
-64886681.15492,310311338.25297,30144059.94847,  -0.00090,   0.00154,   0.00039,351232791.68403,   0.00000,274640135.82653,   0.00000,   0.00000,   0.00000,-123407344.14250,   0.00000
-64313519.45168,311542574.50439,30006076.57546,  -0.00090,   0.00154,   0.00039,352040477.54889,   0.00000,274640135.82653,   0.00000,   0.00000,   0.00000,-122599658.27763,   0.00000
-63740357.74843,312773810.75580,29868093.20246,  -0.00090,   0.00155,   0.00039,352849703.79352,   0.00000,274640135.82653,   0.00000,   0.00000,   0.00000,-121790432.03301,   0.00000
-63159235.46597,314023621.69205,29724802.77665,  -0.00090,   0.00155,   0.00039,353672316.65752,   0.00000,274640135.82653,   0.00000,   0.00000,   0.00000,-120967819.16901,   0.00000
-62596687.86834,315265472.04908,29576205.29803,  -0.00090,   0.00156,   0.00038,354498932.73102,   0.00000,274640135.82653,   0.00000,   0.00000,   0.00000,-120141203.09551,   0.00000
-62044754.37633,316517936.51173,29422300.76660,  -0.00090,   0.00156,   0.00038,355342719.99442,   0.00000,274640135.82653,   0.00000,   0.00000,   0.00000,-119297415.83211,   0.00000
-61503434.98993,317781015.07999,29268396.23518,  -0.00090,   0.00157,   0.00038,356204979.07437,   0.00000,274640135.82653,   0.00000,   0.00000,   0.00000,-118435156.75216,   0.00000
-60962115.60353,319044093.64825,29109184.65094,  -0.00090,   0.00157,   0.00038,357067430.66742,   0.00000,274640135.82653,   0.00000,   0.00000,   0.00000,-117572705.15911,   0.00000
-60412835.63792,320325746.90134,28949973.06671,  -0.00090,   0.00158,   0.00038,357944666.61420,   0.00000,274640135.82653,   0.00000,   0.00000,   0.00000,-116695469.21233,   0.00000
-59892744.46275,321610053.68084,28780147.37686,  -0.00090,   0.00158,   0.00037,358841423.02518,   0.00000,274640135.82653,   0.00000,   0.00000,   0.00000,-115798712.80135,   0.00000
-59372653.28759,322894360.46033,28610321.68701,  -0.00090,   0.00158,   0.00037,359739664.76985,   0.00000,274640135.82653,   0.00000,   0.00000,   0.00000,-114900471.05668,   0.00000
-58844601.53321,324197241.92466,28435188.94435,  -0.00090,   0.00159,   0.00037,360651460.87501,   0.00000,274640135.82653,   0.00000,   0.00000,   0.00000,-113988674.95152,   0.00000
-58327163.88444,325510737.49459,28260056.20169,  -0.00090,   0.00159,   0.00037,361581676.43375,   0.00000,274640135.82653,   0.00000,   0.00000,   0.00000,-113058459.39278,   0.00000
-57828300.92051,326816272.48532,28079616.40622,  -0.00090,   0.00160,   0.00037,362515672.31240,   0.00000,274640135.82653,   0.00000,   0.00000,   0.00000,-112124463.51413,   0.00000
-57340052.06219,328132421.58166,27893869.55795,  -0.00090,   0.00160,   0.00036,363466782.08204,   0.00000,274640135.82653,   0.00000,   0.00000,   0.00000,-111173353.74449,   0.00000
-56851803.20387,329448570.67800,27702815.65687,  -0.00090,   0.00161,   0.00036,364418127.34995,   0.00000,274640135.82653,   0.00000,   0.00000,   0.00000,-110222008.47658,   0.00000
-56374168.45116,330775333.87996,27511761.75579,  -0.00090,   0.00161,   0.00036,365387799.28771,   0.00000,274640135.82653,   0.00000,   0.00000,   0.00000,-109252336.53882,   0.00000
-55888573.11925,332120671.76674,27315400.80190,  -0.00090,   0.00162,   0.00036,366371146.55968,   0.00000,274640135.82653,   0.00000,   0.00000,   0.00000,-108268989.26685,   0.00000
-55413591.89295,333476623.75914,27113732.79520,  -0.00090,   0.00163,   0.00035,367371645.35844,   0.00000,274640135.82653,   0.00000,   0.00000,   0.00000,-107268490.46808,   0.00000
-54957185.35147,334824615.17233,26912064.78850,  -0.00090,   0.00163,   0.00035,368376996.12878,   0.00000,274640135.82653,   0.00000,   0.00000,   0.00000,-106263139.69775,   0.00000
-54511392.91562,336183220.69114,26705089.72900,  -0.00090,   0.00164,   0.00035,369399446.28938,   0.00000,274640135.82653,   0.00000,   0.00000,   0.00000,-105240689.53715,   0.00000
-54065600.47976,337541826.20994,26492807.61668,  -0.00090,   0.00164,   0.00034,370422166.83630,   0.00000,274640135.82653,   0.00000,   0.00000,   0.00000,-104217968.99023,   0.00000
-53630422.14952,338911045.83436,26275218.45156,  -0.00090,   0.00165,   0.00034,371462007.40014,   0.00000,274640135.82653,   0.00000,   0.00000,   0.00000,-103178128.42639,   0.00000
-53187283.24006,340298840.14361,26057629.28644,  -0.00091,   0.00165,   0.00034,372516789.72983,   0.00000,274640135.82653,   0.00000,   0.00000,   0.00000,-102123346.09670,   0.00000
-52773333.12105,341689287.97926,25834733.06851,  -0.00091,   0.00166,   0.00034,373591992.85459,   0.00000,274640135.82653,   0.00000,   0.00000,   0.00000,-101048142.97194,   0.00000
-52359383.00204,343079735.81491,25606529.79777,  -0.00091,   0.00166,   0.00033,374667501.26987,   0.00000,274640135.82653,   0.00000,   0.00000,   0.00000,-99972634.55666,   0.00000
-51937472.30382,344488758.33539,25378326.52704,  -0.00091,   0.00167,   0.00033,375757979.77652,   0.00000,274640135.82653,   0.00000,   0.00000,   0.00000,-98882156.05001,   0.00000
-51552710.97525,345881859.69744,25139509.15069,  -0.00091,   0.00167,   0.00033,376854182.91726,   0.00000,274640135.82653,   0.00000,   0.00000,   0.00000,-97785952.90927,   0.00000
-51159989.06747,347293535.74433,24900691.77433,  -0.00091,   0.00168,   0.00032,377965357.26913,   0.00000,274640135.82653,   0.00000,   0.00000,   0.00000,-96674778.55740,   0.00000
-50777881.26531,348715825.89683,24661874.39798,  -0.00091,   0.00169,   0.00032,379094705.06179,   0.00000,274640135.82653,   0.00000,   0.00000,   0.00000,-95545430.76474,   0.00000
-50387812.88393,350156690.73415,24412442.91601,  -0.00091,   0.00169,   0.00032,380236994.08825,   0.00000,274640135.82653,   0.00000,   0.00000,   0.00000,-94403141.73828,   0.00000
-50034893.87221,351581634.41305,24163011.43405,  -0.00091,   0.00170,   0.00031,381386994.26084,   0.00000,274640135.82653,   0.00000,   0.00000,   0.00000,-93253141.56569,   0.00000
-49674014.28128,353025152.77678,23908272.89927,  -0.00091,   0.00170,   0.00031,382550989.02976,   0.00000,274640135.82653,   0.00000,   0.00000,   0.00000,-92089146.79677,   0.00000
-49323748.79596,354479285.24613,23653534.36449,  -0.00092,   0.00171,   0.00031,383733126.20432,   0.00000,274640135.82653,   0.00000,   0.00000,   0.00000,-90907009.62221,   0.00000
-48965522.73143,355951992.40030,23388181.72410,  -0.00092,   0.00172,   0.00030,384928356.73455,   0.00000,274640135.82653,   0.00000,   0.00000,   0.00000,-89711779.09198,   0.00000
-48644446.03656,357408778.39605,23122829.08371,  -0.00092,   0.00172,   0.00030,386131149.62787,   0.00000,274640135.82653,   0.00000,   0.00000,   0.00000,-88508986.19866,   0.00000
-48323369.34169,358865564.39180,22852169.39051,  -0.00092,   0.00173,   0.00030,387334351.02047,   0.00000,274640135.82653,   0.00000,   0.00000,   0.00000,-87305784.80605,   0.00000
-48004946.17322,360351539.17799,22581509.69731,  -0.00092,   0.00173,   0.00029,388569345.96973,   0.00000,274640135.82653,   0.00000,   0.00000,   0.00000,-86070789.85680,   0.00000
-47686523.00475,361837513.96418,22300235.89850,  -0.00092,   0.00174,   0.00029,389803880.79787,   0.00000,274640135.82653,   0.00000,   0.00000,   0.00000,-84836255.02866,   0.00000
-47397288.62672,363326142.27678,22018962.09968,  -0.00092,   0.00175,   0.00029,391059543.72430,   0.00000,274640135.82653,   0.00000,   0.00000,   0.00000,-83580592.10223,   0.00000
-47100093.66948,364833345.27420,21732381.24806,  -0.00093,   0.00175,   0.00028,392329405.68856,   0.00000,274640135.82653,   0.00000,   0.00000,   0.00000,-82310730.13797,   0.00000
-46821473.39707,366332587.69241,21445800.39644,  -0.00093,   0.00176,   0.00028,393603625.17328,   0.00000,274640135.82653,   0.00000,   0.00000,   0.00000,-81036510.65325,   0.00000
-46534892.54545,367850404.79545,21148605.43920,  -0.00093,   0.00176,   0.00027,394891233.28889,   0.00000,274640135.82653,   0.00000,   0.00000,   0.00000,-79748902.53764,   0.00000
-46277500.48427,369370875.42490,20851410.48196,  -0.00093,   0.00177,   0.00027,396199893.34531,   0.00000,274640135.82653,   0.00000,   0.00000,   0.00000,-78440242.48122,   0.00000
-46020108.42309,370891346.05434,20548908.47191,  -0.00093,   0.00178,   0.00027,397509086.47984,   0.00000,274640135.82653,   0.00000,   0.00000,   0.00000,-77131049.34669,   0.00000
-45765369.88831,372441005.47422,20246406.46187,  -0.00093,   0.00178,   0.00026,398850125.91276,   0.00000,274640135.82653,   0.00000,   0.00000,   0.00000,-75790009.91377,   0.00000
-45529206.03836,373982704.31490,19938597.39901,  -0.00094,   0.00179,   0.00026,400194640.55310,   0.00000,274640135.82653,   0.00000,   0.00000,   0.00000,-74445495.27343,   0.00000
-45311616.87324,375516442.57636,19620174.23054,  -0.00094,   0.00180,   0.00026,401541843.59168,   0.00000,274640135.82653,   0.00000,   0.00000,   0.00000,-73098292.23485,   0.00000
-45086067.12891,377068755.52265,19307058.11488,  -0.00094,   0.00180,   0.00025,402904994.43841,   0.00000,274640135.82653,   0.00000,   0.00000,   0.00000,-71735141.38812,   0.00000
-44881745.59581,378642296.68017,18983327.89360,  -0.00094,   0.00181,   0.00025,404301357.11883,   0.00000,274640135.82653,   0.00000,   0.00000,   0.00000,-70338778.70770,   0.00000
-44685384.64192,380197263.15287,18659597.67233,  -0.00094,   0.00182,   0.00024,405685278.52166,   0.00000,274640135.82653,   0.00000,   0.00000,   0.00000,-68954857.30487,   0.00000
-44491677.21443,381781418.41600,18330560.39824,  -0.00095,   0.00182,   0.00024,407100337.45658,   0.00000,274640135.82653,   0.00000,   0.00000,   0.00000,-67539798.36995,   0.00000
-44316544.47178,383357613.09993,17996216.07135,  -0.00095,   0.00183,   0.00023,408518900.08149,   0.00000,274640135.82653,   0.00000,   0.00000,   0.00000,-66121235.74504,   0.00000
-44133451.14991,384952382.46868,17656564.69165,  -0.00095,   0.00184,   0.00023,409951995.08670,   0.00000,274640135.82653,   0.00000,   0.00000,   0.00000,-64688140.73983,   0.00000
-43960971.93365,386557765.94305,17316913.31195,  -0.00095,   0.00184,   0.00023,411403153.88138,   0.00000,274640135.82653,   0.00000,   0.00000,   0.00000,-63236981.94514,   0.00000
-43825642.08705,388147228.25899,16971954.87944,  -0.00096,   0.00185,   0.00022,412860631.41153,   0.00000,274640135.82653,   0.00000,   0.00000,   0.00000,-61779504.41499,   0.00000
-43682351.66124,389755265.25977,16621689.39412,  -0.00096,   0.00186,   0.00022,414332695.88364,   0.00000,274640135.82653,   0.00000,   0.00000,   0.00000,-60307439.94289,   0.00000
-43549675.34104,391373916.36615,16266116.85600,  -0.00096,   0.00187,   0.00021,415822177.50080,   0.00000,274640135.82653,   0.00000,   0.00000,   0.00000,-58817958.32573,   0.00000
-43409038.44164,393011142.15737,15910544.31787,  -0.00096,   0.00187,   0.00021,417326939.60208,   0.00000,274640135.82653,   0.00000,   0.00000,   0.00000,-57313196.22445,   0.00000
-43305550.91188,394632446.79016,15549664.72694,  -0.00097,   0.00188,   0.00020,418838024.22259,   0.00000,274640135.82653,   0.00000,   0.00000,   0.00000,-55802111.60394,   0.00000
-43194102.80292,396272326.10778,15183478.08320,  -0.00097,   0.00189,   0.00020,420363805.01630,   0.00000,274640135.82653,   0.00000,   0.00000,   0.00000,-54276330.81023,   0.00000
-43111843.48440,397914858.95180,14817291.43946,  -0.00097,   0.00189,   0.00019,421910376.16929,   0.00000,274640135.82653,   0.00000,   0.00000,   0.00000,-52729759.65724,   0.00000
-43029584.16588,399557391.79583,14440490.69010,  -0.00097,   0.00190,   0.00019,423457230.64515,   0.00000,274640135.82653,   0.00000,   0.00000,   0.00000,-51182905.18138,   0.00000
-42949978.37376,401229113.43029,14063689.94075,  -0.00098,   0.00191,   0.00018,425036052.55951,   0.00000,274640135.82653,   0.00000,   0.00000,   0.00000,-49604083.26702,   0.00000
-42870372.58164,402900835.06476,13681582.13858,  -0.00098,   0.00192,   0.00018,426615772.94246,   0.00000,274640135.82653,   0.00000,   0.00000,   0.00000,-48024362.88407,   0.00000
-42827916.15918,404556635.54080,13299474.33642,  -0.00098,   0.00192,   0.00017,428202344.08990,   0.00000,274640135.82653,   0.00000,   0.00000,   0.00000,-46437791.73663,   0.00000
-42769538.57829,406249585.38650,12906752.42864,  -0.00099,   0.00193,   0.00017,429817192.70670,   0.00000,274640135.82653,   0.00000,   0.00000,   0.00000,-44822943.11983,   0.00000
-42748310.36706,407926614.07377,12514030.52086,  -0.00099,   0.00194,   0.00016,431438891.26268,   0.00000,274640135.82653,   0.00000,   0.00000,   0.00000,-43201244.56385,   0.00000
-42719121.57662,409622217.44587,12116001.56027,  -0.00099,   0.00195,   0.00016,433075487.83386,   0.00000,274640135.82653,   0.00000,   0.00000,   0.00000,-41564647.99267,   0.00000
-42708507.47100,411309860.23876,11717972.59969,  -0.00100,   0.00195,   0.00015,434716206.99541,   0.00000,274640135.82653,   0.00000,   0.00000,   0.00000,-39923928.83112,   0.00000
-42700546.89179,413026691.82210,11309329.53348,  -0.00100,   0.00196,   0.00015,436388076.47273,   0.00000,274640135.82653,   0.00000,   0.00000,   0.00000,-38252059.35380,   0.00000
-42711160.99741,414735562.82622,10900686.46728,  -0.00100,   0.00197,   0.00014,438064085.08130,   0.00000,274640135.82653,   0.00000,   0.00000,   0.00000,-36576050.74522,   0.00000
-42721775.10302,416444433.83034,10486736.34827,  -0.00101,   0.00198,   0.00014,439741147.60725,   0.00000,274640135.82653,   0.00000,   0.00000,   0.00000,-34898988.21928,   0.00000
-42753617.41987,418174533.04569,10067479.17645,  -0.00101,   0.00199,   0.00013,441452543.65780,   0.00000,274640135.82653,   0.00000,   0.00000,   0.00000,-33187592.16873,   0.00000
-42785459.73672,419904632.26104,9648222.00463,  -0.00101,   0.00199,   0.00013,443165401.46945,   0.00000,274640135.82653,   0.00000,   0.00000,   0.00000,-31474734.35708,   0.00000
-42846490.84401,421637385.00280,9223657.78001,  -0.00102,   0.00200,   0.00012,444898658.29668,   0.00000,274640135.82653,   0.00000,   0.00000,   0.00000,-29741477.52985,   0.00000
-42899561.37209,423388712.42938,8793786.50257,  -0.00102,   0.00201,   0.00011,446647015.29821,   0.00000,274640135.82653,   0.00000,   0.00000,   0.00000,-27993120.52832,   0.00000
-42971206.58499,425132079.27675,8358608.17233,  -0.00102,   0.00202,   0.00011,448399204.75151,   0.00000,274640135.82653,   0.00000,   0.00000,   0.00000,-26240931.07502,   0.00000
-43045505.32430,426904634.91457,7923429.84209,  -0.00103,   0.00203,   0.00010,450183463.48654,   0.00000,274640135.82653,   0.00000,   0.00000,   0.00000,-24456672.33999,   0.00000
-43138378.74844,428669229.97317,7482944.45904,  -0.00103,   0.00203,   0.00010,451971578.11145,   0.00000,274640135.82653,   0.00000,   0.00000,   0.00000,-22668557.71508,   0.00000
-43231252.17257,430433825.03178,7037152.02318,  -0.00104,   0.00204,   0.00009,453760924.55746,   0.00000,274640135.82653,   0.00000,   0.00000,   0.00000,-20879211.26907,   0.00000
-43345353.80794,432219648.30161,6586052.53452,  -0.00104,   0.00205,   0.00009,455584773.57902,   0.00000,274640135.82653,   0.00000,   0.00000,   0.00000,-19055362.24751,   0.00000
-43459455.44331,434005471.57144,6134953.04585,  -0.00104,   0.00206,   0.00008,457410131.08797,   0.00000,274640135.82653,   0.00000,   0.00000,   0.00000,-17230004.73856,   0.00000
-43610706.44833,435775373.68286,5678546.50438,  -0.00105,   0.00207,   0.00007,459242070.80325,   0.00000,274640135.82653,   0.00000,   0.00000,   0.00000,-15398065.02328,   0.00000
-43746036.29493,437582425.16392,5216832.91010,  -0.00105,   0.00208,   0.00007,461103282.56686,   0.00000,274640135.82653,   0.00000,   0.00000,   0.00000,-13536853.25966,   0.00000
-43899940.82636,439381516.06578,4749812.26301,  -0.00106,   0.00208,   0.00006,462968493.71194,   0.00000,274640135.82653,   0.00000,   0.00000,   0.00000,-11671642.11459,   0.00000
-44064459.46340,441191221.07324,4282791.61592,  -0.00106,   0.00209,   0.00006,464851857.83061,   0.00000,274640135.82653,   0.00000,   0.00000,   0.00000,-9788277.99592,   0.00000
-44239592.20606,443011540.18633,3810463.91602,  -0.00107,   0.00210,   0.00005,466753227.13722,   0.00000,274640135.82653,   0.00000,   0.00000,   0.00000,-7886908.68931,   0.00000
-44433299.63355,444823898.72020,3332829.16332,  -0.00107,   0.00211,   0.00004,468658655.97006,   0.00000,274640135.82653,   0.00000,   0.00000,   0.00000,-5981479.85647,   0.00000
-44611085.90261,446673406.62373,2849887.35780,  -0.00107,   0.00212,   0.00004,470593489.60373,   0.00000,274640135.82653,   0.00000,   0.00000,   0.00000,-4046646.22280,   0.00000
-44833982.12054,448488418.68401,2366945.55229,  -0.00108,   0.00213,   0.00003,472521191.78377,   0.00000,274640135.82653,   0.00000,   0.00000,   0.00000,-2118944.04275,   0.00000
-45040957.18004,450340580.11394,1878696.69397,  -0.00108,   0.00214,   0.00002,474478329.54752,   0.00000,274640135.82653,   0.00000,   0.00000,   0.00000,-161806.27901,   0.00000
-45061077.76791,450491921.92701,1838018.11416,  -0.00108,   0.00214,   0.00002,474640136.21968,   0.00000,274640135.82653,   0.00000,   0.00000,   0.00000,   0.39315,   0.00000
-44977560.81315,450552599.61030,1379762.01108,  -0.00109,   0.00215,   0.00002,474640136.21968,   0.00001,274648390.04301,  -0.00000,   0.00001,   0.00000,   0.00000,   2.00000
-44876260.80808,450623128.47473,882427.50697,  -0.00109,   0.00215,   0.00001,476627873.72781,   0.00002,274657455.19792,  -0.00001,   0.00002,   0.00000,   0.00000,   2.00000
-44782821.07758,450687686.13261,376629.94980,  -0.00110,   0.00216,   0.00001,476655086.29082,   0.00002,274666602.00138,  -0.00001,   0.00003,   0.00000,   0.00000,   2.00000
-44697206.36516,450746224.27840,-126986.30963,  -0.00110,   0.00217,  -0.00000,476682457.72593,   0.00003,274675830.79354,  -0.00002,   0.00003,   0.00000,   0.00000,   2.00000
-44629700.00353,450792833.85726,-628410.23751,  -0.00111,   0.00218,  -0.00001,476695913.27218,   0.00004,274685077.51618,  -0.00002,   0.00004,   0.00000,  -0.00000,   2.00000
-44569924.14057,450833452.90362,-1138175.68179,  -0.00111,   0.00219,  -0.00001,476723430.44879,   0.00005,274694406.45797,  -0.00003,   0.00005,   0.00000,  -0.00000,   2.00000
-44510100.02768,450872475.52525,-1645697.48820,  -0.00112,   0.00220,  -0.00002,476734389.42474,   0.00006,274703741.43961,  -0.00004,   0.00006,  -0.00000,   0.00000,   2.00000
-44476038.31580,450895216.63786,-2156176.10208,  -0.00112,   0.00221,  -0.00003,476764660.21079,   0.00007,274713170.86101,  -0.00004,   0.00007,  -0.00000,   0.00000,   2.00000
-44431520.93781,450922289.23794,-2669582.29997,  -0.00113,   0.00222,  -0.00004,476789800.88332,   0.00008,274722670.75525,  -0.00005,   0.00008,  -0.00000,  -0.00000,   2.00000
-44412720.14743,450933163.07308,-3180549.61049,  -0.00113,   0.00223,  -0.00004,476820200.23669,   0.00008,274732264.89699,  -0.00005,   0.00009,  -0.00000,  -0.00000,   2.00000
-44383404.20765,450948382.67423,-3694367.00641,  -0.00114,   0.00224,  -0.00005,476845546.00990,   0.00009,274741929.67687,  -0.00006,   0.00010,  -0.00000,   0.00000,   2.00000
-44371963.95624,450951673.64204,-4211089.39204,  -0.00114,   0.00225,  -0.00006,476859640.64950,   0.00010,274751613.34781,  -0.00006,   0.00011,  -0.00000,   0.00000,   2.00000
-44368055.54416,450949134.77493,-4725269.88580,  -0.00115,   0.00226,  -0.00006,476887619.62943,   0.00011,274761379.31891,  -0.00007,   0.00012,  -0.00000,   0.00000,   2.00000
-44381888.61547,450934550.05300,-5247599.05829,  -0.00115,   0.00227,  -0.00007,476902034.16971,   0.00012,274771165.22545,  -0.00007,   0.00013,  -0.00000,   0.00000,   2.00000
-44403180.62004,450914351.96105,-5762013.93171,  -0.00116,   0.00227,  -0.00008,476929965.34039,   0.00013,274781032.77361,  -0.00008,   0.00014,  -0.00000,   0.00000,   2.00000
-44431805.79379,450888061.14244,-6284350.51415,  -0.00116,   0.00228,  -0.00008,476958543.35117,   0.00014,274790984.53789,  -0.00008,   0.00015,  -0.00000,   0.00000,   2.00000
-44449702.55309,450866118.57515,-6809288.00435,  -0.00117,   0.00229,  -0.00009,476984435.89230,   0.00015,274801007.79947,  -0.00009,   0.00016,  -0.00000,  -0.00000,   2.00000
-44503354.50508,450822179.86344,-7331637.61003,  -0.00118,   0.00230,  -0.00010,477001469.17836,   0.00016,274811061.83237,  -0.00009,   0.00017,  -0.00000,   0.00000,   2.00000
-44546212.83612,450782872.20756,-7851248.75727,  -0.00118,   0.00231,  -0.00011,477027243.68283,   0.00017,274821186.38822,  -0.00010,   0.00018,  -0.00000,   0.00000,   2.00000
-44596281.19620,450737408.03259,-8378605.61542,  -0.00119,   0.00232,  -0.00011,477056261.71898,   0.00017,274831395.95746,  -0.00011,   0.00019,  -0.00000,  -0.00000,   2.00000
-44663911.98907,450680317.58676,-8903343.00192,  -0.00119,   0.00233,  -0.00012,477070883.62342,   0.00018,274841624.42229,  -0.00011,   0.00020,  -0.00000,   0.00000,   2.00000
-44738680.21083,450617339.92857,-9430455.48309,  -0.00120,   0.00234,  -0.00013,477099806.07284,   0.00019,274851937.02004,  -0.00012,   0.00021,  -0.00001,   0.00000,   2.00000
-44820545.77192,450548474.82699,-9959888.56618,  -0.00121,   0.00235,  -0.00014,477128850.46322,   0.00020,274862333.91524,  -0.00012,   0.00022,  -0.00001,   0.00000,   2.00000
-44919830.72177,450468067.53085,-10486630.02891,  -0.00121,   0.00236,  -0.00014,477143697.89247,   0.00021,274872749.92800,  -0.00013,   0.00023,  -0.00001,   0.00000,   2.00000
-45026094.19803,450381822.57559,-11015624.72194,  -0.00122,   0.00237,  -0.00015,477172894.03497,   0.00022,274883250.49179,  -0.00013,   0.00024,  -0.00001,   0.00000,   2.00000
-45121249.83712,450300038.22832,-11546883.73317,  -0.00122,   0.00238,  -0.00016,477199562.80766,   0.00023,274893823.62134,  -0.00014,   0.00025,  -0.00001,   0.00000,   2.00000
-45251799.96503,450196458.02470,-12075313.84090,  -0.00123,   0.00239,  -0.00017,477217270.20028,   0.00024,274904428.16911,  -0.00015,   0.00026,  -0.00001,   0.00000,   2.00000
-45371122.62210,450097394.84664,-12605947.50607,  -0.00124,   0.00240,  -0.00017,477244085.97580,   0.00025,274915105.51548,  -0.00015,   0.00027,  -0.00001,  -0.00000,   2.00000
-45497296.04194,449992511.37091,-13138661.23523,  -0.00124,   0.00241,  -0.00018,477273657.49311,   0.00026,274925867.90012,  -0.00016,   0.00028,  -0.00001,  -0.00000,   2.00000
-45630354.96934,449882221.59251,-13668134.06623,  -0.00125,   0.00242,  -0.00019,477302893.52344,   0.00027,274936713.39649,  -0.00016,   0.00029,  -0.00001,   0.00000,   2.00000
-45780501.48004,449760138.76145,-14200032.85647,  -0.00126,   0.00243,  -0.00020,477318727.34495,   0.00028,274947580.50977,  -0.00017,   0.00030,  -0.00001,   0.00000,   2.00000
-45929616.20027,449636588.17432,-14734417.15427,  -0.00126,   0.00244,  -0.00021,477331962.27975,   0.00029,274958457.27855,  -0.00018,   0.00031,  -0.00001,  -0.00000,   2.00000
-46093112.63946,449502970.62440,-15270177.25423,  -0.00127,   0.00245,  -0.00021,477378471.61124,   0.00030,274969495.47297,  -0.00018,   0.00032,  -0.00001,   0.00000,   2.00000
-46255587.51276,449368361.77353,-15803090.85648,  -0.00128,   0.00246,  -0.00022,477391422.50216,   0.00031,274980541.24829,  -0.00019,   0.00033,  -0.00002,   0.00000,   2.00000
-46442678.96773,449217696.43862,-16337752.25803,  -0.00128,   0.00248,  -0.00023,477424212.30535,   0.00032,274991685.11899,  -0.00019,   0.00034,  -0.00002,   0.00000,   2.00000
-46628635.11816,449066120.51651,-16869542.34522,  -0.00129,   0.00249,  -0.00024,477437283.59999,   0.00033,275002836.68946,  -0.00020,   0.00035,  -0.00002,   0.00000,   2.00000
-46821047.98058,448908868.26500,-17403108.91236,  -0.00130,   0.00250,  -0.00025,477467544.29427,   0.00034,275014074.31818,  -0.00021,   0.00036,  -0.00002,  -0.00000,   2.00000
-47030212.72533,448739879.70181,-17938934.60525,  -0.00130,   0.00251,  -0.00025,477484013.36396,   0.00035,275025334.76523,  -0.00021,   0.00037,  -0.00002,   0.00000,   2.00000
-47217328.94652,448581660.47478,-18475996.20092,  -0.00131,   0.00252,  -0.00026,477525673.02439,   0.00036,275036732.68077,  -0.00022,   0.00038,  -0.00002,   0.00000,   2.00000
-47439321.98334,448401895.12480,-19009880.37052,  -0.00132,   0.00253,  -0.00027,477544448.38081,   0.00037,275048163.19782,  -0.00023,   0.00040,  -0.00002,   0.00000,   2.00000
-47659881.10419,448220780.88828,-19546066.21088,  -0.00132,   0.00254,  -0.00028,477558494.96176,   0.00038,275059604.60293,  -0.00023,   0.00041,  -0.00002,   0.00000,   2.00000
-47904786.49443,448024307.63193,-20078451.07426,  -0.00133,   0.00255,  -0.00029,477591263.07315,   0.00039,275071142.24313,  -0.00024,   0.00042,  -0.00003,  -0.00000,   2.00000
-48137769.36606,447832656.71496,-20612496.55997,  -0.00134,   0.00256,  -0.00030,477619357.67180,   0.00040,275082754.31419,  -0.00025,   0.00043,  -0.00003,  -0.00000,   2.00000
-48387244.94786,447629318.57849,-21148662.14719,  -0.00135,   0.00257,  -0.00030,477636397.32586,   0.00041,275094390.13783,  -0.00025,   0.00044,  -0.00003,   0.00000,   2.00000
-48624874.02617,447431457.43759,-21681159.12305,  -0.00135,   0.00258,  -0.00031,477663920.70384,   0.00043,275106097.32437,  -0.00026,   0.00045,  -0.00003,  -0.00000,   2.00000
-48886574.83624,447217700.42866,-22214954.21783,  -0.00136,   0.00259,  -0.00032,477697728.90293,   0.00044,275117904.23927,  -0.00027,   0.00046,  -0.00003,  -0.00000,   2.00000
-49146594.28605,447002675.18559,-22750934.16519,  -0.00137,   0.00260,  -0.00033,477712309.35203,   0.00045,275129722.80345,  -0.00027,   0.00047,  -0.00003,  -0.00000,   2.00000
-49412676.56884,446782854.62065,-23283010.10971,  -0.00137,   0.00262,  -0.00034,477742782.27631,   0.00046,275141625.37064,  -0.00028,   0.00049,  -0.00004,   0.00000,   2.00000
-49695031.40034,446551399.64267,-23817107.99941,  -0.00138,   0.00263,  -0.00035,477760268.69558,   0.00047,275153552.43982,  -0.00029,   0.00050,  -0.00004,   0.00000,   2.00000
-49983165.91590,446314526.91427,-24352477.90179,  -0.00139,   0.00264,  -0.00036,477791685.18834,   0.00048,275165567.35415,  -0.00029,   0.00051,  -0.00004,   0.00000,   2.00000
-50277176.46016,446072991.82929,-24883834.64489,  -0.00140,   0.00265,  -0.00036,477822392.30538,   0.00049,275177666.47493,  -0.00030,   0.00052,  -0.00004,   0.00000,   2.00000
-50569297.74247,445830270.75836,-25417297.56441,  -0.00141,   0.00266,  -0.00037,477837383.75184,   0.00050,275189777.82530,  -0.00031,   0.00053,  -0.00004,   0.00000,   2.00000
-50867248.23757,445582952.16724,-25946692.98588,  -0.00141,   0.00267,  -0.00038,477868184.51883,   0.00051,275201973.34856,  -0.00031,   0.00054,  -0.00004,   0.00000,   2.00000
-51181246.73304,445324055.15826,-26478015.03782,  -0.00142,   0.00268,  -0.00039,477886123.00443,   0.00052,275214194.13144,  -0.00032,   0.00056,  -0.00005,   0.00000,   2.00000
-51500769.15733,445059865.32728,-27010437.10607,  -0.00143,   0.00269,  -0.00040,477917957.88058,   0.00054,275226503.33533,  -0.00033,   0.00057,  -0.00005,   0.00000,   2.00000
-51825928.70626,444791217.03862,-27538685.49178,  -0.00144,   0.00271,  -0.00041,477948994.36481,   0.00055,275238896.91420,  -0.00033,   0.00058,  -0.00005,   0.00000,   2.00000
-52148988.63423,444521471.60558,-28068964.89991,  -0.00144,   0.00272,  -0.00042,477964396.70479,   0.00056,275251303.28706,  -0.00034,   0.00059,  -0.00005,   0.00000,   2.00000
-52477637.72537,444247335.87594,-28595018.41614,  -0.00145,   0.00273,  -0.00043,477995526.29338,   0.00057,275263793.99373,  -0.00035,   0.00060,  -0.00006,  -0.00000,   2.00000
-52822106.21239,443961681.38198,-29122906.24241,  -0.00146,   0.00274,  -0.00044,478013920.96302,   0.00058,275276310.72085,  -0.00035,   0.00062,  -0.00006,   0.00000,   2.00000
-53171836.10518,443670869.60137,-29651726.38159,  -0.00147,   0.00275,  -0.00045,478046174.44991,   0.00059,275288916.43184,  -0.00036,   0.00063,  -0.00006,   0.00000,   2.00000
-53519479.92787,443379906.39015,-30177293.60025,  -0.00148,   0.00276,  -0.00045,478060893.55071,   0.00060,275301530.89367,  -0.00037,   0.00064,  -0.00006,   0.00000,   2.00000
-53890271.01281,443073363.57267,-30703548.14081,  -0.00148,   0.00277,  -0.00046,478096172.02698,   0.00062,275314247.69748,  -0.00038,   0.00065,  -0.00006,   0.00000,   2.00000
-54248368.83023,442773155.31979,-31225614.47994,  -0.00149,   0.00279,  -0.00047,478124762.80123,   0.00063,275327035.87052,  -0.00038,   0.00067,  -0.00007,   0.00000,   2.00000
-54604119.96959,442471968.53488,-31749623.58177,  -0.00150,   0.00280,  -0.00048,478140699.76489,   0.00064,275339837.48746,  -0.00039,   0.00068,  -0.00007,  -0.00000,   2.00000
-54993389.26917,442148819.34721,-32275152.43409,  -0.00151,   0.00281,  -0.00049,478162534.45987,   0.00065,275352679.43353,  -0.00040,   0.00069,  -0.00007,   0.00000,   2.00000
-55359323.07752,441838591.42454,-32795453.08741,  -0.00152,   0.00282,  -0.00050,478204968.54652,   0.00066,275365655.13722,  -0.00040,   0.00070,  -0.00007,  -0.00000,   2.00000
-55751472.98675,441511440.56107,-33313222.47303,  -0.00153,   0.00283,  -0.00051,478209276.91293,   0.00068,275378590.61268,  -0.00041,   0.00071,  -0.00008,  -0.00000,   2.00000
-56148242.83406,441178388.63583,-33836894.38361,  -0.00154,   0.00284,  -0.00052,478243252.92541,   0.00069,275391621.01946,  -0.00042,   0.00073,  -0.00008,   0.00000,   2.00000
-56532308.79875,440852955.59890,-34351028.87515,  -0.00154,   0.00286,  -0.00053,478270985.56035,   0.00070,275404717.44979,  -0.00043,   0.00074,  -0.00008,  -0.00000,   2.00000
-56931511.58462,440515115.34478,-34872021.93724,  -0.00155,   0.00287,  -0.00054,478291482.86568,   0.00071,275417846.73375,  -0.00043,   0.00075,  -0.00009,  -0.00000,   2.00000
-57335654.19782,440173450.28825,-35388403.25665,  -0.00156,   0.00288,  -0.00055,478323429.57810,   0.00072,275431060.79526,  -0.00044,   0.00077,  -0.00009,   0.00000,   2.00000
-57755236.70142,439821473.07900,-35901212.40856,  -0.00157,   0.00289,  -0.00056,478341783.21264,   0.00074,275444297.46194,  -0.00045,   0.00078,  -0.00009,   0.00000,   2.00000
-58161483.86511,439475290.51921,-36414810.67831,  -0.00158,   0.00290,  -0.00057,478372025.47083,   0.00075,275457610.63548,  -0.00046,   0.00079,  -0.00009,   0.00000,   2.00000
-58582897.74906,439117758.41583,-36929996.19336,  -0.00159,   0.00292,  -0.00058,478391726.70612,   0.00076,275470952.07007,  -0.00046,   0.00080,  -0.00010,   0.00000,   2.00000
-59009048.73166,438756594.32708,-37440476.71557,  -0.00160,   0.00293,  -0.00059,478423897.91945,   0.00077,275484378.33831,  -0.00047,   0.00082,  -0.00010,   0.00000,   2.00000
-59432589.39701,438395803.02519,-37947595.94753,  -0.00161,   0.00294,  -0.00060,478439463.10038,   0.00079,275497813.51936,  -0.00048,   0.00083,  -0.00010,  -0.00000,   2.00000
-59860571.10684,438030361.39597,-38455171.29699,  -0.00161,   0.00295,  -0.00061,478472972.78226,   0.00080,275511339.16203,  -0.00049,   0.00084,  -0.00011,   0.00000,   2.00000
-60303530.98349,437653632.47790,-38964287.92934,  -0.00162,   0.00296,  -0.00062,478493007.41444,   0.00081,275524893.62584,  -0.00050,   0.00086,  -0.00011,   0.00000,   2.00000
-60733160.09549,437284059.14509,-39468869.72082,  -0.00163,   0.00298,  -0.00063,478522313.04513,   0.00082,275538518.86044,  -0.00050,   0.00087,  -0.00011,   0.00000,   2.00000
-61177725.54395,436903210.45537,-39974972.28450,  -0.00164,   0.00299,  -0.00064,478542492.45390,   0.00084,275552173.09449,  -0.00051,   0.00088,  -0.00012,   0.00000,   2.00000
-61626773.57971,436519005.22129,-40476238.87876,  -0.00165,   0.00300,  -0.00065,478574978.04119,   0.00085,275565912.13054,  -0.00052,   0.00089,  -0.00012,   0.00000,   2.00000
-62090609.85477,436123576.30169,-40979003.09320,  -0.00166,   0.00301,  -0.00066,478595347.30491,   0.00086,275579680.54414,  -0.00053,   0.00091,  -0.00012,   0.00000,   2.00000
-62540930.14992,435735535.24095,-41477164.56034,  -0.00167,   0.00303,  -0.00067,478624826.87545,   0.00087,275593519.54056,  -0.00054,   0.00092,  -0.00013,   0.00000,   2.00000
-62988160.68659,435346915.55817,-41977085.68002,  -0.00168,   0.00304,  -0.00068,478642187.23336,   0.00089,275607373.69268,  -0.00054,   0.00093,  -0.00013,   0.00000,   2.00000
-63468260.03399,434937647.76101,-42473030.77788,  -0.00169,   0.00305,  -0.00069,478664497.62955,   0.00090,275621265.53453,  -0.00055,   0.00095,  -0.00013,  -0.00000,   2.00000
-63934706.96919,434535947.10956,-42964347.10089,  -0.00170,   0.00306,  -0.00070,478694058.28419,   0.00091,275635227.77133,  -0.00056,   0.00096,  -0.00014,   0.00000,   2.00000
-64386974.58639,434139346.64486,-43461313.32210,  -0.00171,   0.00308,  -0.00071,478726534.04495,   0.00093,275649273.25502,  -0.00057,   0.00097,  -0.00014,   0.00000,   2.00000
-64882996.28159,433716527.03087,-43950379.16465,  -0.00172,   0.00309,  -0.00072,478734154.41345,   0.00094,275663288.81148,  -0.00058,   0.00099,  -0.00015,   0.00000,   2.00000
-65336427.81969,433317749.34805,-44438949.76996,  -0.00173,   0.00310,  -0.00073,478775536.87176,   0.00095,275677427.80537,  -0.00058,   0.00100,  -0.00015,   0.00000,   2.00000
-65832983.34969,432890196.06428,-44929925.42833,  -0.00174,   0.00311,  -0.00074,478786254.56532,   0.00096,275691550.49467,  -0.00059,   0.00101,  -0.00015,   0.00000,   2.00000
-66315706.47345,432470470.44896,-45416181.82381,  -0.00174,   0.00313,  -0.00075,478815996.85029,   0.00098,275705743.31882,  -0.00060,   0.00103,  -0.00016,   0.00000,   2.00000
-66784664.17268,432058607.26756,-45897725.20386,  -0.00175,   0.00314,  -0.00076,478845742.29248,   0.00099,275720005.89484,  -0.00061,   0.00104,  -0.00016,   0.00000,   2.00000
-67285892.47528,431624911.59963,-46380363.37346,  -0.00176,   0.00315,  -0.00077,478870165.29192,   0.00100,275734313.82557,  -0.00062,   0.00106,  -0.00017,   0.00000,   2.00000
-67765830.90499,431201592.89683,-46865041.21079,  -0.00177,   0.00316,  -0.00078,478884886.42593,   0.00102,275748622.74975,  -0.00062,   0.00107,  -0.00017,  -0.00000,   2.00000
-68267854.01240,430766156.35472,-47339175.60631,  -0.00178,   0.00318,  -0.00079,478919719.50502,   0.00103,275763024.06643,  -0.00063,   0.00108,  -0.00017,   0.00000,   2.00000
-68766005.80216,430329062.59170,-47820163.29066,  -0.00179,   0.00319,  -0.00080,478939405.77930,   0.00104,275777448.53186,  -0.00064,   0.00110,  -0.00018,   0.00000,   2.00000
-69250558.07520,429901470.74321,-48291249.76139,  -0.00180,   0.00320,  -0.00081,478967711.54994,   0.00106,275791935.11216,  -0.00065,   0.00111,  -0.00018,   0.00000,   2.00000
-69749069.29659,429461432.55183,-48768833.92020,  -0.00181,   0.00321,  -0.00082,478990839.35812,   0.00107,275806460.04682,  -0.00066,   0.00112,  -0.00019,   0.00000,   2.00000
-70262478.13119,429013140.05940,-49237549.60732,  -0.00182,   0.00323,  -0.00083,479009178.28080,   0.00108,275821001.45136,  -0.00067,   0.00114,  -0.00019,   0.00000,   2.00000
-70761458.46331,428571762.07288,-49706587.74546,  -0.00183,   0.00324,  -0.00084,479040802.16491,   0.00110,275835619.50159,  -0.00068,   0.00115,  -0.00020,   0.00000,   2.00000
-71274960.36166,428120782.86782,-50171886.95465,  -0.00184,   0.00325,  -0.00085,479060861.62631,   0.00111,275850261.37282,  -0.00068,   0.00117,  -0.00020,   0.00000,   2.00000
-71784790.27338,427669607.49380,-50638915.03163,  -0.00185,   0.00327,  -0.00086,479079261.55228,   0.00112,275864919.39990,  -0.00069,   0.00118,  -0.00020,  -0.00000,   2.00000
-72298245.75893,427216084.31836,-51100750.15868,  -0.00186,   0.00328,  -0.00087,479112702.42656,   0.00114,275879661.78088,  -0.00070,   0.00119,  -0.00021,   0.00000,   2.00000
-72808003.39791,426762395.29041,-51564309.32854,  -0.00187,   0.00329,  -0.00088,479131216.18935,   0.00115,275894420.33794,  -0.00071,   0.00121,  -0.00021,  -0.00000,   2.00000
-73314456.89487,426309998.65460,-52024494.02068,  -0.00188,   0.00330,  -0.00089,479148025.39039,   0.00117,275909187.23766,  -0.00072,   0.00122,  -0.00022,   0.00000,   2.00000
-73842201.52234,425844543.21323,-52479077.98624,  -0.00189,   0.00332,  -0.00091,479184992.88602,   0.00118,275924053.98987,  -0.00073,   0.00124,  -0.00022,   0.00000,   2.00000
-74348428.46504,425389832.44667,-52935787.76463,  -0.00190,   0.00333,  -0.00092,479200195.49639,   0.00119,275938921.26031,  -0.00074,   0.00125,  -0.00023,  -0.00000,   2.00000
-74858197.29088,424932967.71221,-53387252.13816,  -0.00191,   0.00334,  -0.00093,479233790.60267,   0.00121,275953872.50798,  -0.00074,   0.00126,  -0.00023,   0.00000,   2.00000
-75392782.91350,424457801.25282,-53841567.07216,  -0.00192,   0.00336,  -0.00094,479242806.52412,   0.00122,275968795.88895,  -0.00075,   0.00128,  -0.00024,  -0.00000,   2.00000
-75902141.49900,423998847.97956,-54289484.15617,  -0.00193,   0.00337,  -0.00095,479286200.92890,   0.00124,275983847.41156,  -0.00076,   0.00129,  -0.00024,   0.00000,   2.00000
-76436707.69007,423523091.43703,-54735203.77998,  -0.00194,   0.00338,  -0.00096,479293553.36500,   0.00125,275998863.02548,  -0.00077,   0.00131,  -0.00025,   0.00000,   2.00000
-76956475.10299,423054741.48561,-55181126.62950,  -0.00195,   0.00340,  -0.00097,479325602.84105,   0.00126,276013954.88197,  -0.00078,   0.00132,  -0.00025,   0.00000,   2.00000
-77472826.58906,422587913.00454,-55623729.00523,  -0.00197,   0.00341,  -0.00098,479342673.44936,   0.00128,276029054.64416,  -0.00079,   0.00133,  -0.00026,  -0.00000,   2.00000
-78003437.00463,422111726.11587,-56062610.49698,  -0.00198,   0.00342,  -0.00099,479363300.22510,   0.00129,276044178.44698,  -0.00080,   0.00135,  -0.00026,  -0.00000,   2.00000
-78519217.94927,421643049.87865,-56501681.30776,  -0.00199,   0.00343,  -0.00100,479395417.80974,   0.00131,276059378.22961,  -0.00081,   0.00136,  -0.00027,   0.00000,   2.00000
-79049231.40515,421165047.84201,-56937026.28260,  -0.00200,   0.00345,  -0.00101,479416155.43557,   0.00132,276074602.05502,  -0.00082,   0.00138,  -0.00027,   0.00000,   2.00000
-79575746.82960,420688688.57531,-57369099.99078,  -0.00201,   0.00346,  -0.00102,479433323.60351,   0.00133,276089833.59877,  -0.00082,   0.00139,  -0.00028,  -0.00000,   2.00000
-80115966.94143,420201450.23163,-57802514.17917,  -0.00202,   0.00347,  -0.00104,479456040.20599,   0.00135,276105098.02723,  -0.00083,   0.00141,  -0.00028,   0.00000,   2.00000
-80624500.79643,419736055.36305,-58226462.99454,  -0.00203,   0.00349,  -0.00105,479480754.26171,   0.00136,276120404.10896,  -0.00084,   0.00142,  -0.00029,   0.00000,   2.00000
-81163980.45432,419247186.52206,-58656356.25021,  -0.00204,   0.00350,  -0.00106,479509144.79585,   0.00138,276135768.41896,  -0.00085,   0.00143,  -0.00030,  -0.00000,   2.00000
-81682734.16290,418772657.41166,-59078424.49818,  -0.00205,   0.00351,  -0.00107,479520795.86437,   0.00139,276151114.69948,  -0.00086,   0.00145,  -0.00030,   0.00000,   2.00000
-82204208.32110,418294907.23628,-59500205.28618,  -0.00206,   0.00353,  -0.00108,479556720.25316,   0.00141,276166553.07456,  -0.00087,   0.00146,  -0.00031,   0.00000,   2.00000
-82739799.07859,417807948.61566,-59918305.16568,  -0.00207,   0.00354,  -0.00109,479577722.14164,   0.00142,276182015.49583,  -0.00088,   0.00148,  -0.00031,   0.00000,   2.00000
-83253765.99137,417332123.34197,-60338699.09418,  -0.00208,   0.00355,  -0.00110,479593349.47147,   0.00143,276197477.40553,  -0.00089,   0.00149,  -0.00032,   0.00000,   2.00000
-83781881.49611,416847083.68630,-60755407.57494,  -0.00209,   0.00357,  -0.00111,479614382.87159,   0.00145,276212963.34833,  -0.00090,   0.00151,  -0.00032,  -0.00000,   2.00000
-84324044.13934,416352878.54034,-61168446.51915,  -0.00210,   0.00358,  -0.00112,479635465.70482,   0.00146,276228473.47162,  -0.00091,   0.00152,  -0.00033,   0.00000,   2.00000
-84851575.86858,415868341.52379,-61576627.60654,  -0.00211,   0.00359,  -0.00114,479665810.39872,   0.00148,276244049.56226,  -0.00092,   0.00154,  -0.00034,  -0.00000,   2.00000
-85375084.98516,415383987.14656,-61986668.99008,  -0.00212,   0.00361,  -0.00115,479685259.91543,   0.00149,276259641.91349,  -0.00093,   0.00155,  -0.00034,   0.00000,   2.00000
-85895088.67466,414901517.16356,-62393556.01527,  -0.00214,   0.00362,  -0.00116,479702656.48691,   0.00151,276275241.12404,  -0.00094,   0.00157,  -0.00035,   0.00000,   2.00000
-86429151.58488,414409911.84984,-62796807.55444,  -0.00215,   0.00363,  -0.00117,479723844.71448,   0.00152,276290864.37776,  -0.00094,   0.00158,  -0.00035,   0.00000,   2.00000
-86931058.41652,413939169.53344,-63195729.52958,  -0.00216,   0.00365,  -0.00118,479750357.93805,   0.00154,276306535.55392,  -0.00095,   0.00159,  -0.00036,   0.00000,   2.00000
-87464133.69882,413446497.24686,-63595525.31077,  -0.00217,   0.00366,  -0.00119,479777531.17563,   0.00155,276322257.51118,  -0.00096,   0.00161,  -0.00037,   0.00000,   2.00000
-87976105.22570,412966870.84762,-63992739.11577,  -0.00218,   0.00367,  -0.00120,479791174.88718,   0.00156,276337968.64348,  -0.00097,   0.00162,  -0.00037,   0.00000,   2.00000
-88502148.33372,412478135.98573,-64386351.85081,  -0.00219,   0.00369,  -0.00121,479812468.17234,   0.00158,276353703.68597,  -0.00098,   0.00164,  -0.00038,   0.00000,   2.00000
-89024656.22616,411991409.20472,-64776909.53995,  -0.00220,   0.00370,  -0.00123,479829930.57967,   0.00159,276369445.15355,  -0.00099,   0.00165,  -0.00038,   0.00000,   2.00000
-89543117.41236,411504926.17504,-65169403.27434,  -0.00221,   0.00371,  -0.00124,479849554.74950,   0.00161,276385202.78437,  -0.00100,   0.00167,  -0.00039,  -0.00000,   2.00000
-90046994.75260,411028477.65020,-65557065.58746,  -0.00222,   0.00373,  -0.00125,479879858.68700,   0.00162,276401024.78780,  -0.00101,   0.00168,  -0.00040,  -0.00000,   2.00000
-90564956.90716,410542943.82906,-65941161.65849,  -0.00223,   0.00374,  -0.00126,479901257.14962,   0.00164,276416870.57288,  -0.00102,   0.00170,  -0.00040,   0.00000,   2.00000
-91079424.93691,410059472.20454,-66322257.86869,  -0.00224,   0.00376,  -0.00127,479918767.56599,   0.00165,276432722.40289,  -0.00103,   0.00171,  -0.00041,  -0.00000,   2.00000
-91590423.95390,409578068.11775,-66700377.27834,  -0.00225,   0.00377,  -0.00128,479936261.85738,   0.00167,276448580.15473,  -0.00104,   0.00173,  -0.00042,  -0.00000,   2.00000
-92097416.83346,409096924.95997,-67080492.85368,  -0.00227,   0.00378,  -0.00129,479955981.93333,   0.00168,276464453.85454,  -0.00105,   0.00174,  -0.00042,  -0.00000,   2.00000
-92618441.96483,408606732.39195,-67457069.82708,  -0.00228,   0.00380,  -0.00131,479977459.97588,   0.00170,276480351.41805,  -0.00106,   0.00176,  -0.00043,   0.00000,   2.00000
-93124807.52030,408126829.00284,-67828865.87323,  -0.00229,   0.00381,  -0.00132,480007749.38114,   0.00171,276496312.53485,  -0.00107,   0.00177,  -0.00044,   0.00000,   2.00000
-93621453.95879,407651994.37298,-68200152.51797,  -0.00230,   0.00382,  -0.00133,480008541.79721,   0.00173,276512203.40139,  -0.00108,   0.00179,  -0.00044,  -0.00000,   2.00000
-94121030.62726,407176308.00697,-68566109.40923,  -0.00231,   0.00384,  -0.00134,480042743.19247,   0.00174,276528175.49826,  -0.00109,   0.00180,  -0.00045,   0.00000,   2.00000
-94634068.26384,406689743.90204,-68933536.60599,  -0.00232,   0.00385,  -0.00135,480066594.85413,   0.00176,276544181.65049,  -0.00110,   0.00182,  -0.00046,   0.00000,   2.00000
-95126801.82753,406218371.20557,-69293728.25792,  -0.00233,   0.00386,  -0.00136,480077812.13124,   0.00177,276560164.46495,  -0.00111,   0.00183,  -0.00046,   0.00000,   2.00000
-95615609.67729,405747263.00418,-69656014.00901,  -0.00234,   0.00388,  -0.00137,480097620.94809,   0.00179,276576162.89451,  -0.00112,   0.00184,  -0.00047,   0.00000,   2.00000
-96118515.94763,405267111.27281,-70014848.00629,  -0.00235,   0.00389,  -0.00139,480119199.10047,   0.00180,276592184.90166,  -0.00113,   0.00186,  -0.00048,   0.00000,   2.00000
-96618018.23990,404789144.05606,-70370851.73656,  -0.00237,   0.00390,  -0.00140,480136736.07393,   0.00182,276608212.07818,  -0.00114,   0.00187,  -0.00048,   0.00000,   2.00000
-97085552.06039,404332894.72495,-70722769.81096,  -0.00238,   0.00392,  -0.00141,480162800.38577,   0.00183,276624282.83217,  -0.00115,   0.00189,  -0.00049,  -0.00000,   2.00000
-97577891.45109,403857307.66990,-71078103.15303,  -0.00239,   0.00393,  -0.00142,480174140.63887,   0.00185,276640330.47095,  -0.00116,   0.00190,  -0.00050,   0.00000,   2.00000
-98067518.86725,403385810.22685,-71425722.52439,  -0.00240,   0.00395,  -0.00143,480189280.82118,   0.00186,276656372.26282,  -0.00117,   0.00192,  -0.00050,   0.00000,   2.00000
-98541993.25446,402923009.70557,-71773594.84123,  -0.00241,   0.00396,  -0.00144,480221762.79764,   0.00188,276672486.55500,  -0.00118,   0.00193,  -0.00051,   0.00000,   2.00000
-99024474.32880,402453946.84196,-72120630.19371,  -0.00242,   0.00397,  -0.00146,480226691.77423,   0.00189,276688548.49992,  -0.00119,   0.00195,  -0.00052,   0.00000,   2.00000
-99509818.11221,401984314.01321,-72462366.35364,  -0.00243,   0.00399,  -0.00147,480260925.28205,   0.00191,276704690.76517,  -0.00120,   0.00196,  -0.00053,  -0.00000,   2.00000
-99974520.26150,401528135.78013,-72802031.99982,  -0.00244,   0.00400,  -0.00148,480274285.35236,   0.00192,276720818.57268,  -0.00121,   0.00198,  -0.00053,   0.00000,   2.00000
